LAMMPS data file via write_data, version 11 Feb 2026, timestep = 144, units = metal

362 atoms
8 atom types

0 12.447907776 xlo xhi
0 12.9362452296 ylo yhi
0 52.3600831054 zlo zhi

Masses

1 26.9815
2 10.811
3 12.011
4 51.9961
5 55.845
6 95.95999999999999
7 58.6934
8 1.008

Atoms # atomic/kk

1 7 1.1155432032 0.8154810691 14.6426922395 0 0 0
2 7 3.5540379235 0.7311193291 14.871234382 0 0 0
3 5 6.0147712069 0.8602266521 14.9379629301 0 0 0
9 7 7.2857571206 3.0556078576 14.8933255174 0 0 0
4 6 8.6357342334 0.9642635945 14.946529222 0 0 0
5 7 11.0235693741 1.246171845 14.4621858766 0 0 0
6 7 12.265830490799999 3.4712556766 14.6436173642 -1 0 0
10 7 9.8079526779 3.3727611183 14.723241807 0 0 0
16 4 0.2157245901 7.6670868716 14.6124933045 0 0 0
14 7 8.5743525544 5.6323755413 14.8940843716 0 0 0
20 7 10.2280081001 7.651188606 13.9898991177 0 0 0
22 7 3.6172766651 9.5060694916 14.9195551521 0 0 0
23 7 6.5850008354 9.0803043567 14.851931567 0 0 0
28 7 4.8177845477 11.6037374867 14.8195270069 0 0 0
29 6 7.374134827 11.4924346524 14.9178203839 0 0 0
24 7 9.0522037302 9.6613734718 14.6565743213 0 0 0
25 7 11.9452520245 9.8726549503 14.7117678659 0 0 0
30 7 9.9237909778 11.8506455634 14.5793216036 0 0 0
7 7 2.2262989738 2.9644358532 15.1075254028 0 0 0
32 7 2.3076382916 1.2474950013 16.93141614 0 0 0
36 7 1.1371212204 3.9624018566 17.0633809059 0 0 0
37 7 3.5701342229 3.6398251728 17.0938709997 0 0 0
8 7 4.7798804583 2.9786478866 15.021245032 0 0 0
33 7 4.8292084794 1.5292267501 16.9833232336 0 0 0
34 7 7.3569814563 1.7049736184 16.9470405118 0 0 0
38 5 6.0760208742 3.7355301865 16.9708735798 0 0 0
31 6 12.393122693999999 1.8825256553 16.4863359413 -1 0 0
35 7 9.9209334399 1.7070647117 16.9052297916 0 0 0
39 7 8.6353020296 3.8577967138 16.8148783227 0 0 0
40 7 11.0716253798 3.946589019 16.9654790206 0 0 0
11 7 1.1343465484 5.4264107168 15.0265725761 0 0 0
12 7 3.5523929388 5.1400159682 15.1223888363 0 0 0
17 7 2.42829739 7.4989893874 15.0919313308 0 0 0
42 7 2.3727215233 6.0692094397 17.112627951 0 0 0
46 7 0.8184091702 8.4074161916 16.8607807144 0 0 0
47 7 3.8159239428 8.0033984308 17.0275882134 0 0 0
13 7 6.0462513278 5.1796240804 15.0089948601 0 0 0
18 7 4.8954983617 7.2958254685 14.9775518616 0 0 0
19 2 6.8433167218 6.9688561572 15.3169162346 0 0 0
43 7 4.8545509904 5.804730799 17.0777174374 0 0 0
44 7 7.3427738295 5.8741463465 17.0239797027 0 0 0
48 7 6.2257021983 7.9865151379 17.0187296922 0 0 0
15 6 11.0475885949 5.6325360413 15.0861198838 0 0 0
41 7 12.316366892 6.1036997357 17.1287305994 -1 0 0
45 7 9.8077748534 6.1046562067 17.1803358623 0 0 0
49 7 8.4702872923 7.8519188923 16.022825097 0 0 0
50 7 10.9061958948 8.110556042 16.2152009271 0 0 0
85 6 9.8309812887 8.511545754 18.4504338843 0 0 0
21 2 1.5487619035 9.4669486705 15.2110238368 0 0 0
26 7 0.3147867127 10.796353666 16.8299290672 0 0 0
27 7 2.0325210742 11.4708881706 15.1517201938 0 0 0
52 7 2.6143532835 10.0749575125 17.0438096454 0 0 0
56 2 0.9273900242 12.698936143 16.3551042675 0 0 0
57 7 3.7039874388 12.2198301141 16.9302342929 0 0 0
61 6 0.1055180376 12.9082680047 18.5768523425 0 -1 0
53 7 5.1286010465 10.1046126207 16.7799750369 0 0 0
54 7 7.6944024083 10.0379264527 16.9223731648 0 0 0
58 6 6.2949302164 12.3327351373 17.0129749418 0 0 0
51 3 11.6210201236 9.3645583868 17.4998846247 -1 0 0
55 7 10.2439766594 10.4024310478 16.6467540456 0 0 0
59 7 8.8432493134 12.3650840636 16.8913129946 0 0 0
60 7 11.2991210295 12.6168397636 16.3512542109 0 0 0
62 7 2.563344739 0.0304124157 19.1443975825 0 0 0
66 6 1.3539100302 2.2260488983 19.0674232409 0 0 0
67 5 3.798347613 2.1787003209 19.1055969722 0 0 0
91 4 1.3652020138 0.7815652691 21.2538020118 0 0 0
92 7 3.7960824235 0.7373777849 21.1341905498 0 0 0
96 7 0.0836221333 2.8606820935 21.178103083 0 0 0
97 7 2.6055283019 2.8586324953 21.2105118083 0 0 0
63 5 5.0148889324 0.1143327321 19.065028131 0 0 0
64 7 7.4974509199 0.1044329834 19.0941906623 0 0 0
68 7 6.1930272817 2.1716979525 19.0509951455 0 0 0
73 7 4.9418445794 4.3057308549 19.0775230961 0 0 0
93 7 6.3234384559 0.7363636064 21.2084219761 0 0 0
98 7 5.0483110521 2.8729877826 21.1533943178 0 0 0
99 5 7.5030663839 2.8397917542 21.1435811528 0 0 0
65 7 10.0819232008 0.1006477908 18.9656760117 0 0 0
69 7 8.7329127767 2.183059518 18.9640587561 0 0 0
70 7 11.2921591391 2.2868712471 18.9089505828 0 0 0
94 7 8.7791735748 0.7495036246 21.1793518496 0 0 0
95 7 11.3646428242 0.7204580835 21.0321203917 0 0 0
100 6 10.0465016089 2.8373163211 21.0206976261 0 0 0
72 7 2.4502199665 4.4173571714 19.1175347387 0 0 0
76 7 1.1677035709 6.4936735739 19.1912198009 0 0 0
77 7 3.7607196119 6.494753163 19.1453647298 0 0 0
82 6 2.4350155748 8.5331923133 19.025029867 0 0 0
101 7 1.2104302855 5.0269504969 21.2333873965 0 0 0
102 6 3.7399497117 5.0429124748 21.227495169 0 0 0
107 7 2.4743549825 7.1675976472 21.2386063586 0 0 0
74 6 7.4708797855 4.3122205742 19.0273071436 0 0 0
78 7 6.172123303 6.5201655162 19.1061751373 0 0 0
103 7 6.2803052555 5.0535136869 21.1575206797 0 0 0
108 7 5.0211767767 7.2176772972 21.2083684102 0 0 0
109 7 7.428426365 7.2619817823 21.2407219341 0 0 0
71 1 12.3298098243 4.4510295745 19.1966835837 -1 0 0
75 5 9.8629992294 4.3610722657 19.0114883827 0 0 0
79 7 8.6152247737 6.513620131 19.2866528652 0 0 0
80 7 11.094387497 6.5064866402 19.2843590438 0 0 0
81 4 12.371908636299999 8.579532645 19.1889253307 -1 0 0
104 7 8.7407299033 5.0578557196 21.2169403696 0 0 0
105 3 10.090685536147893 4.419500810328165 22.26381411941734 0 0 0
106 7 12.443804479999999 7.1335902937 21.2746849189 -1 0 0
110 7 9.9035665651 7.1902180984 21.2726862615 0 0 0
86 7 1.3058820732 10.7537218543 19.1712644327 0 0 0
87 1 3.8478396392 10.8767745204 19.0103401049 0 0 0
111 7 1.2031712017 9.3306286581 21.2173288319 0 0 0
112 6 3.749774388 9.3356394877 21.2395239871 0 0 0
116 1 0.0605053148 11.5450042448 21.1772597837 0 0 0
117 7 2.5238974465 11.5362624979 21.1758431006 0 0 0
83 7 4.9705237277 8.7248099379 19.033983048 0 0 0
84 7 7.4245302442 8.6350999982 19.0121662328 0 0 0
88 7 6.2770041864 10.818450246 19.0226042006 0 0 0
113 7 6.2426606616 9.3934616382 21.035028777 0 0 0
118 7 5.0434305042 11.5560531098 21.144085558 0 0 0
119 4 7.4741365947 11.5721594064 21.0779288147 0 0 0
89 6 8.7847731589 10.8669311448 18.9806593201 0 0 0
90 4 11.2870456077 10.8051113805 18.892261561 0 0 0
114 7 8.709045166 9.3399792152 20.9351444591 0 0 0
115 6 11.1221209904 9.2871760168 21.1685965797 0 0 0
120 7 10.0209395468 11.5544516087 21.1235962433 0 0 0
121 7 0.08535969847538302 1.4050964101814665 23.25776798807628 0 0 0
122 7 2.5737873515634733 1.401813246974475 23.318046905132068 0 0 0
126 6 1.356854379646761 3.6014994320201525 23.261613941534705 0 0 0
127 7 3.8580073917895885 3.5860915288646193 23.366871103634395 0 0 0
152 7 2.6584986686297243 0.007694004506510512 25.37570888622532 0 0 0
156 1 1.4908346852007148 2.137335320988185 25.502466967733472 0 0 0
157 7 3.9793888901460277 2.1348266116310497 25.444824884340072 0 0 0
162 7 2.6083418274983305 4.264930505664475 25.42943056373115 0 0 0
123 7 5.014730244412647 1.4275861154839604 23.201139324423327 0 0 0
124 7 7.420095924730156 1.5188524681947155 23.47962529886311 0 0 0
128 7 6.3125907116737014 3.6645533991813175 23.171869522644414 0 0 0
153 7 5.204031284162329 0.0611767388957643 25.331474434859263 0 0 0
154 7 7.615584530780402 0.008273606195236212 25.45823299430796 0 0 0
158 2 5.804414393155208 2.48034201969899 24.644221815764023 0 0 0
163 7 5.124604228564058 4.2481291367258525 25.424253148253232 0 0 0
164 5 7.484205897112929 4.061364093404473 25.345369659209393 0 0 0
125 7 10.068889394414004 1.4435918990227024 23.30194720593876 0 0 0
129 7 8.764243359519265 3.5611142409294634 23.330271440653124 0 0 0
130 4 11.367213123839445 3.6403474377164495 23.383884520405854 0 0 0
155 4 10.139839303410172 0.07127170262025592 25.51858042015398 0 0 0
159 7 8.893452331821207 2.104728821146942 25.423786000546325 0 0 0
160 7 11.417304625518087 2.166576563505994 25.392567416402198 0 0 0
165 7 10.074366915896265 4.229037980237944 25.398859069950348 0 0 0
131 7 0.0805882849146287 5.791347371915387 23.386486516418 0 0 0
132 7 2.553734825733112 5.793517615651519 23.365982083517064 0 0 0
136 7 1.318022905178426 7.91925310807586 23.29650069230368 0 0 0
137 7 3.7938279216258395 7.960877232598698 23.322520060216352 0 0 0
161 4 0.11992970992435183 4.3501731615264845 25.455024399432126 0 0 0
166 7 1.3479991020321316 6.420717071429089 25.425232245339515 0 0 0
167 7 3.8195086366053843 6.432692019823821 25.450373390783046 0 0 0
172 7 2.6329869207260175 8.60679581999765 25.396572086026424 0 0 0
133 6 5.0778935148463 5.847397923856577 23.38583727758604 0 0 0
134 7 7.567747961795821 5.78365035698483 23.302601160545457 0 0 0
138 7 6.321578143629432 7.992498103874443 23.340562729058455 0 0 0
168 7 6.374611907445121 6.3905812740061405 25.43186115763322 0 0 0
173 7 5.122471279336191 8.548132542323312 25.35506462444644 0 0 0
135 7 10.07262961730232 5.844271293324774 23.37422145133368 0 0 0
139 4 8.708157557092573 7.952290942216748 23.212009955109888 0 0 0
140 4 11.297194382487204 7.905300435512005 23.294886727219236 0 0 0
169 7 8.78321995709186 6.339955366673249 25.372159594692366 0 0 0
170 7 11.300683267397543 6.416442992953022 25.435097776914635 0 0 0
175 6 9.903693220372832 8.572693244335875 25.500228095348394 0 0 0
141 7 0.030373873637781098 10.089827287755128 23.328398593277843 0 0 0
142 7 2.5121658126525346 10.104058925726804 23.299544756853326 0 0 0
146 7 1.3098398614166091 12.238470168270787 23.314472636171004 0 0 0
147 7 3.8240360472573487 12.237792116030098 23.23118898374776 0 0 0
151 4 0.10355765411231867 12.882934424847484 25.371247677371734 0 -1 0
171 6 0.12289327327347495 8.625575215461337 25.410606326933653 0 0 0
176 7 1.3536316028730289 10.808857350802995 25.432030882988826 0 0 0
177 6 3.8951334655158303 10.811110261032598 25.316132084434063 0 0 0
143 7 5.08353029155888 10.106523807182693 23.235352560990716 0 0 0
144 7 7.518845961256349 10.093800463565938 22.904738572669817 0 0 0
148 4 6.239293768117971 12.277729079737574 23.26221874499086 0 0 0
178 6 6.653479146806637 10.52003303376244 25.239279290239182 0 0 0
145 7 10.005689900121258 10.09414193376226 23.29943754933642 0 0 0
149 6 8.730685131089839 12.29452690580077 23.290662768281365 0 0 0
150 7 11.267794909619042 12.233113145386929 23.33326848094731 0 0 0
174 3 8.42799285312612 9.508410458810605 24.405821643651915 0 0 0
179 5 9.021384664714947 10.93417441111274 25.55707658815176 0 0 0
180 5 11.3534297122637 10.882025589330244 25.480428218180474 0 0 0
181 7 1.3957326717565053 0.6664368345958093 27.48507494108732 0 0 0
182 7 3.884694883465138 0.7004312653751681 27.44503589777405 0 0 0
186 7 0.18106920996323678 2.863941608680357 27.479663363372755 0 0 0
187 7 2.668970883143519 2.8505692347060423 27.564277862234192 0 0 0
211 7 0.21663590120230042 1.4492331333078132 29.57765519205277 0 0 0
212 7 2.716753710241395 1.3606665272390837 29.579591873055424 0 0 0
216 7 1.4197430362205186 3.5562908657475747 29.58471931424493 0 0 0
217 4 3.833590290077109 3.5693034845430214 29.599500378727463 0 0 0
183 7 6.323899102741454 0.7156738223034215 27.568602875047404 0 0 0
188 7 5.093888563185919 2.8703319653319257 27.575583206501072 0 0 0
189 7 7.609680491061438 2.7940869277015623 27.449443870688693 0 0 0
213 5 5.14588897621476 1.4210617927721736 29.599366944352766 0 0 0
214 7 7.627893404174104 1.3566729195276526 29.583042557618068 0 0 0
218 7 6.37474347276289 3.5330265796187255 29.540975700360704 0 0 0
184 7 8.903960553655898 0.7242303806727091 27.54956540471893 0 0 0
185 4 11.39626381542021 0.7279736414578486 27.517269576636977 0 0 0
190 7 10.158765369140662 2.8391151664316387 27.47576068635465 0 0 0
215 7 10.136197352605132 1.4096128546239985 29.618423656027133 0 0 0
219 7 8.850143849795817 3.5165797207176013 29.52014093863841 0 0 0
220 7 11.379304734801789 3.5657575213417285 29.51202942577159 0 0 0
191 7 1.400661015454794 5.010044067867505 27.47123875578218 0 0 0
192 7 3.843081240462052 4.985933481591948 27.489608005104007 0 0 0
196 7 0.1462914365146536 7.165573691196838 27.48839890778024 0 0 0
197 7 2.5898645414000234 7.189435621648167 27.48380919070659 0 0 0
221 7 0.1301521621495948 5.731137112953507 29.566223775228146 0 0 0
222 7 2.60149144919364 5.726534238406219 29.557184971273646 0 0 0
226 7 1.3721725402634057 7.903481752824494 29.55202324682944 0 0 0
227 7 3.870286133330126 7.907302791584347 29.481694706417922 0 0 0
193 7 6.380793463819619 4.972061595100425 27.415945441406752 0 0 0
198 7 5.113149420660797 7.166828887510476 27.421852297820454 0 0 0
199 7 7.625776948136382 7.188810165796171 27.446729026086423 0 0 0
223 6 5.1633585455741375 5.715261553730787 29.497373138748237 0 0 0
224 7 7.65466499104643 5.739115084001868 29.578775385090097 0 0 0
228 7 6.40190951851868 7.908619725606303 29.500635442626493 0 0 0
194 6 8.857611285807259 5.003118597345853 27.483825920349727 0 0 0
195 7 11.371198449578946 5.002647844614485 27.499091707565487 0 0 0
200 7 10.131597720933579 7.1648695187348475 27.52707167112936 0 0 0
225 7 10.111491015497823 5.748148108158861 29.59732611734699 0 0 0
229 7 8.85435812344764 7.888241320494872 29.51382645265609 0 0 0
230 7 11.377676754447451 7.934939865884483 29.513957719463086 0 0 0
201 5 1.3871877226499059 9.329282614605274 27.51451379447742 0 0 0
202 7 3.8824138991001167 9.314205591398276 27.397771199865407 0 0 0
206 4 0.19650822266889206 11.48431457138273 27.51681435395865 0 0 0
207 7 2.6199877081771255 11.459457137317825 27.452357845317167 0 0 0
231 7 0.17178930371353904 10.081809980232975 29.560197149569877 0 0 0
232 7 2.6398665111535204 10.023014121234214 29.43452190266705 0 0 0
236 7 1.4784171009937623 12.185783602239727 29.553985365077317 0 0 0
203 7 6.38163032053569 9.286416318817345 27.408853151247577 0 0 0
208 7 5.151483239079371 11.494994127625393 27.353961669861256 0 0 0
209 6 7.601141995609328 11.531603385572156 27.629222088617823 0 0 0
233 7 5.155985845347338 10.048376230609188 29.343083967800858 0 0 0
234 7 7.61208547986903 10.088301841305375 29.654361285663754 0 0 0
238 7 6.23259060339866 12.234813551513255 29.678138316848333 0 0 0
204 7 8.846652317495543 9.37237850176885 27.601948641396113 0 0 0
205 7 11.355713745359155 9.423201796094915 27.5299198658482 0 0 0
210 7 10.165675416265588 11.5612562117023 27.5640261507753 0 0 0
235 7 10.094133318421525 10.182113846915072 29.583634094383633 0 0 0
239 4 8.893148029999372 12.257874056926369 29.719642294458563 0 0 0
240 7 11.403298825266072 12.27244497619124 29.54875732230955 0 0 0
237 3 4.038751279669627 0.303132967336317 30.557507300109023 0 1 0
241 7 0.20821979294367884 0.10683639885811311 31.623927458640402 0 0 0
242 7 2.5756599425716837 0.1433821629973554 31.741629851509963 0 0 0
246 4 1.3521150067322014 2.2484087576178897 31.658821821796636 0 0 0
247 7 3.8908462431914805 2.153271603492141 31.638969224134865 0 0 0
244 7 7.639629279602389 0.010602147079726084 31.703281194766763 0 0 0
248 7 6.418498647444326 2.155084005295145 31.643540020265057 0 0 0
249 7 8.8625280533496 2.1142325349078557 31.674418468899532 0 0 0
250 7 11.392358248491103 2.1501174756214843 31.649350972776478 0 0 0
255 1 10.117367381393045 4.233122481746838 31.495838484708848 0 0 0
251 7 0.15774674739432362 4.335238557264609 31.645765656419243 0 0 0
252 7 2.643860272684419 4.324047990688044 31.666618908474074 0 0 0
256 7 1.3399163174426392 6.510972818526585 31.63338580192445 0 0 0
257 6 3.8018436074487547 6.506025117147129 31.673332711630177 0 0 0
286 7 0.11233282977217598 7.287304459911504 33.62551623521813 0 0 0
253 7 5.1210067621482125 4.313358479549241 31.624874169187148 0 0 0
254 7 7.630352309366206 4.318956720536283 31.5868894077513 0 0 0
258 7 6.360263226206121 6.501838013552702 31.626366460661988 0 0 0
264 7 7.598635486044886 8.587801090534589 31.617342179371477 0 0 0
259 4 8.829105338217252 6.47309874523513 31.622227708120437 0 0 0
260 7 11.326146213884511 6.500884882819209 31.59014186717599 0 0 0
284 5 8.894880884096798 5.129154529245702 33.5657439437342 0 0 0
285 4 11.36446021723666 5.16558788205284 33.636982001382506 0 0 0
290 7 10.095077236046219 7.269465914761095 33.58757367047014 0 0 0
261 7 0.1844710572686557 8.717214961619916 31.648831312371772 0 0 0
262 7 2.672846360425831 8.725519191818986 31.537389344360633 0 0 0
266 7 1.5705197462812115 10.838747120662317 31.565417016132628 0 0 0
267 4 3.9250609983059346 11.287094041620575 30.85083292789478 0 0 0
292 7 3.9682766752091645 9.37500986623135 33.51485432671993 0 0 0
243 7 5.183432463917577 12.908881729451652 32.090724460865076 0 -1 0
263 1 5.10199676991661 8.766553783997407 31.433082049471558 0 0 0
268 7 6.271668482191464 10.7679602370713 31.576890685058157 0 0 0
293 4 6.465510665248296 9.330854230477007 33.64979885244462 0 0 0
245 7 10.119942048014494 12.896475420604919 31.857916436148376 0 -1 0
265 6 10.109972459948638 8.692076184917651 31.530596150036423 0 0 0
269 7 8.785066108081917 10.810569531154691 31.738319809064343 0 0 0
270 7 11.434553545417154 10.915016868827584 31.60165050402492 0 0 0
296 3 11.081999313298223 11.845096523377531 33.316229113695975 -1 0 0
271 7 1.4868453856855535 0.9106791565981368 33.76969453626548 0 0 0
272 7 3.9339851999013296 0.9626195556588266 33.90977920518214 0 0 0
276 7 0.18946878925901964 3.003075511331517 33.725771596715525 0 0 0
277 7 2.655232288090549 3.086169764051491 33.79167499202315 0 0 0
301 7 0.2026295511283332 1.5575986769768002 35.74496249650135 0 0 0
302 7 2.627828435458113 1.6783118987110228 35.84984405440661 0 0 0
306 4 1.4103722563775483 3.8425823646453856 35.938504989728756 0 0 0
307 7 4.001517296105149 3.7375994792383356 35.829166421022755 0 0 0
273 7 6.472467801022891 0.9795147376652459 33.899571185538115 0 0 0
278 1 5.227972688784539 3.0041835083436244 33.72324455311081 0 0 0
279 7 7.735961721223218 3.0505598306806054 33.72682490487245 0 0 0
303 7 5.255402401544271 1.6725303890302998 35.936173769342275 0 0 0
304 4 7.772247860807916 1.6380009298338305 35.919163345432224 0 0 0
308 7 6.5328224958599606 3.718194894866924 35.802850596861774 0 0 0
274 7 8.849298059753085 0.9094301065211217 33.83200978989513 0 0 0
275 4 11.450801837366832 0.8109364457881686 33.700698482512465 0 0 0
280 7 10.214951694524078 3.0142509805447912 33.70251197745568 0 0 0
305 7 10.238592551130147 1.5851339754449851 35.709327621296524 0 0 0
309 7 9.019550548630939 3.681326233338698 35.77933962309605 0 0 0
310 4 11.578659794917643 3.9400650207170367 35.86537678828059 0 0 0
281 7 1.3405057535211364 5.190287952253068 33.85282904543284 0 0 0
282 4 3.858702762084136 5.144310658814906 33.7784376705511 0 0 0
287 7 2.647679153518248 7.296539266557577 33.756888069779976 0 0 0
312 7 2.734802779107042 5.796976901350339 35.798591045737595 0 0 0
316 7 1.242736801665153 7.628545535995015 35.80161174402847 0 0 0
317 7 3.9386089246358083 8.05008514765398 35.74797736465297 0 0 0
283 7 6.384425840704096 5.107695416453408 33.666847629362586 0 0 0
288 7 5.198662682699177 7.27815226188627 33.68012814132747 0 0 0
289 7 7.64238100009758 7.200363685208983 33.71130424475638 0 0 0
313 7 5.2569130350964555 5.919058941254745 35.73411622570191 0 0 0
314 7 7.713829173790486 5.824975283221429 35.728361711299186 0 0 0
318 4 6.55389842452362 8.126276174484737 35.82767992647715 0 0 0
311 2 12.40714500573031 6.0046699684321 35.32183229314477 -1 0 0
315 7 10.137404672739788 5.813169408782167 35.56776740888009 0 0 0
319 7 8.963861619205984 7.964424068652193 35.831315257411795 0 0 0
320 7 11.366451968337664 7.937571542068082 35.582435334761584 0 0 0
350 7 11.685035811449405 6.275541052338373 37.27960643430949 0 0 0
355 3 10.447058908986035 7.913432172656349 37.258046955457424 0 0 0
291 7 1.477732274187223 9.433693802823733 33.72606157803563 0 0 0
297 6 3.027194865600696 11.575457888151032 33.67721261949818 0 0 0
321 6 0.21642325430203518 10.077062376665323 35.89343053653756 0 0 0
322 7 2.70221298897534 10.170980338685442 35.76004382903674 0 0 0
326 7 0.5135085305771512 11.662546201512878 33.6639754403389 0 0 0
327 6 3.9229420260530756 12.512571990472107 36.07705832169583 0 0 0
356 4 1.40736236421067 12.35991009934048 35.83191760377657 0 0 0
298 2 5.215366112863407 12.287519564153559 34.18969082942466 0 0 0
299 7 7.010371318172652 11.588514042679893 33.67151083489107 0 0 0
323 6 5.242873510641332 10.249005197660903 35.56484306278396 0 0 0
324 7 7.925814408121155 10.359551961521268 35.700955784407434 0 0 0
328 7 6.476579175094716 12.520066726660449 35.91109267042638 0 0 0
294 7 8.782482389177686 9.295493679244405 33.68587742680388 0 0 0
295 6 11.278397256361101 9.709505964580954 33.750864895854576 0 0 0
300 7 9.392010894380563 11.553016171572159 34.15226662958435 0 0 0
325 7 10.265572783192933 9.85198808349639 37.0023932424963 0 0 0
329 3 9.54251624194977 11.417057823920192 36.17961568707596 0 0 0
330 4 11.270381667252837 12.094047322231058 35.555309866859076 0 0 0
335 5 9.91942005041949 12.931395875780991 37.36721564068006 0 -1 0
332 7 2.4919970431390293 0.09910756609133628 38.01717223476128 0 0 0
336 7 1.344241415765633 2.186324948113015 37.82120804636572 0 0 0
337 7 3.880628217804309 2.1961942272582755 37.85851406699224 0 0 0
341 7 0.2213682493581784 4.248748112767378 38.06129643180783 0 0 0
342 7 2.721586489708113 4.2938119008621225 37.90086666415653 0 0 0
333 7 5.218480446371811 0.162658773193744 38.0999075399553 0 0 0
334 7 7.66197334965649 0.08255375466685749 38.00062634457301 0 0 0
338 7 6.541486169812501 2.2714601153855094 37.89562575259197 0 0 0
339 7 9.002648092273004 2.20001037652482 37.8546007153016 0 0 0
340 7 11.375216315297449 2.1982054000069424 37.70986841780293 0 0 0
346 7 1.5007585942816948 6.404500086409605 37.98882717768468 0 0 0
347 6 3.962372851601536 6.474839676884896 37.82499329597721 0 0 0
361 8 3.964399222788812 8.003989569533474 38.956620389001635 0 0 0
343 7 5.3134243837253035 4.421016781888137 37.817447206587154 0 0 0
344 7 7.836436536469066 4.433728337445625 37.873954924784776 0 0 0
348 6 6.657937944941622 6.676867966567678 37.799532960721635 0 0 0
345 4 10.230727674655581 4.3473489818739175 37.82088040292876 0 0 0
349 7 9.27066099691645 6.656470462700947 37.91704148696542 0 0 0
351 7 12.267258450690928 8.580055965203634 37.82176430815269 -1 0 0
362 8 8.962589149790068 5.302847105636037 38.84309668206733 0 0 0
352 6 2.5193697616243194 8.656885652990498 37.744920359178 0 0 0
357 7 3.8491356622166015 10.831042511373322 37.918419079546005 0 0 0
360 7 1.3959352508513565 10.897102291803547 37.87044314052045 1 0 0
353 7 5.152933301267848 8.734589520726123 37.86890514013165 0 0 0
354 7 7.966611954519823 8.955450013691017 37.81247392505679 0 0 0
358 6 6.438871321963491 10.865685997796332 37.7848197177137 0 0 0
331 7 12.40254383014853 12.894613279789054 37.6126875229389 -1 -1 0
359 2 8.612644010229822 11.19999836166361 37.40070902376561 0 0 0

Velocities

1 0 0 0
2 0 0 0
3 0 0 0
9 0 0 0
4 0 0 0
5 0 0 0
6 0 0 0
10 0 0 0
16 0 0 0
14 0 0 0
20 0 0 0
22 0 0 0
23 0 0 0
28 0 0 0
29 0 0 0
24 0 0 0
25 0 0 0
30 0 0 0
7 0 0 0
32 0 0 0
36 0 0 0
37 0 0 0
8 0 0 0
33 0 0 0
34 0 0 0
38 0 0 0
31 0 0 0
35 0 0 0
39 0 0 0
40 0 0 0
11 0 0 0
12 0 0 0
17 0 0 0
42 0 0 0
46 0 0 0
47 0 0 0
13 0 0 0
18 0 0 0
19 0 0 0
43 0 0 0
44 0 0 0
48 0 0 0
15 0 0 0
41 0 0 0
45 0 0 0
49 0 0 0
50 0 0 0
85 0 0 0
21 0 0 0
26 0 0 0
27 0 0 0
52 0 0 0
56 0 0 0
57 0 0 0
61 0 0 0
53 0 0 0
54 0 0 0
58 0 0 0
51 0 0 0
55 0 0 0
59 0 0 0
60 0 0 0
62 0 0 0
66 0 0 0
67 0 0 0
91 0 0 0
92 0 0 0
96 0 0 0
97 0 0 0
63 0 0 0
64 0 0 0
68 0 0 0
73 0 0 0
93 0 0 0
98 0 0 0
99 0 0 0
65 0 0 0
69 0 0 0
70 0 0 0
94 0 0 0
95 0 0 0
100 0 0 0
72 0 0 0
76 0 0 0
77 0 0 0
82 0 0 0
101 0 0 0
102 0 0 0
107 0 0 0
74 0 0 0
78 0 0 0
103 0 0 0
108 0 0 0
109 0 0 0
71 0 0 0
75 0 0 0
79 0 0 0
80 0 0 0
81 0 0 0
104 0 0 0
105 0 0 0
106 0 0 0
110 0 0 0
86 0 0 0
87 0 0 0
111 0 0 0
112 0 0 0
116 0 0 0
117 0 0 0
83 0 0 0
84 0 0 0
88 0 0 0
113 0 0 0
118 0 0 0
119 0 0 0
89 0 0 0
90 0 0 0
114 0 0 0
115 0 0 0
120 0 0 0
121 0 0 0
122 0 0 0
126 0 0 0
127 0 0 0
152 0 0 0
156 0 0 0
157 0 0 0
162 0 0 0
123 0 0 0
124 0 0 0
128 0 0 0
153 0 0 0
154 0 0 0
158 0 0 0
163 0 0 0
164 0 0 0
125 0 0 0
129 0 0 0
130 0 0 0
155 0 0 0
159 0 0 0
160 0 0 0
165 0 0 0
131 0 0 0
132 0 0 0
136 0 0 0
137 0 0 0
161 0 0 0
166 0 0 0
167 0 0 0
172 0 0 0
133 0 0 0
134 0 0 0
138 0 0 0
168 0 0 0
173 0 0 0
135 0 0 0
139 0 0 0
140 0 0 0
169 0 0 0
170 0 0 0
175 0 0 0
141 0 0 0
142 0 0 0
146 0 0 0
147 0 0 0
151 0 0 0
171 0 0 0
176 0 0 0
177 0 0 0
143 0 0 0
144 0 0 0
148 0 0 0
178 0 0 0
145 0 0 0
149 0 0 0
150 0 0 0
174 0 0 0
179 0 0 0
180 0 0 0
181 0 0 0
182 0 0 0
186 0 0 0
187 0 0 0
211 0 0 0
212 0 0 0
216 0 0 0
217 0 0 0
183 0 0 0
188 0 0 0
189 0 0 0
213 0 0 0
214 0 0 0
218 0 0 0
184 0 0 0
185 0 0 0
190 0 0 0
215 0 0 0
219 0 0 0
220 0 0 0
191 0 0 0
192 0 0 0
196 0 0 0
197 0 0 0
221 0 0 0
222 0 0 0
226 0 0 0
227 0 0 0
193 0 0 0
198 0 0 0
199 0 0 0
223 0 0 0
224 0 0 0
228 0 0 0
194 0 0 0
195 0 0 0
200 0 0 0
225 0 0 0
229 0 0 0
230 0 0 0
201 0 0 0
202 0 0 0
206 0 0 0
207 0 0 0
231 0 0 0
232 0 0 0
236 0 0 0
203 0 0 0
208 0 0 0
209 0 0 0
233 0 0 0
234 0 0 0
238 0 0 0
204 0 0 0
205 0 0 0
210 0 0 0
235 0 0 0
239 0 0 0
240 0 0 0
237 0 0 0
241 0 0 0
242 0 0 0
246 0 0 0
247 0 0 0
244 0 0 0
248 0 0 0
249 0 0 0
250 0 0 0
255 0 0 0
251 0 0 0
252 0 0 0
256 0 0 0
257 0 0 0
286 0 0 0
253 0 0 0
254 0 0 0
258 0 0 0
264 0 0 0
259 0 0 0
260 0 0 0
284 0 0 0
285 0 0 0
290 0 0 0
261 0 0 0
262 0 0 0
266 0 0 0
267 0 0 0
292 0 0 0
243 0 0 0
263 0 0 0
268 0 0 0
293 0 0 0
245 0 0 0
265 0 0 0
269 0 0 0
270 0 0 0
296 0 0 0
271 0 0 0
272 0 0 0
276 0 0 0
277 0 0 0
301 0 0 0
302 0 0 0
306 0 0 0
307 0 0 0
273 0 0 0
278 0 0 0
279 0 0 0
303 0 0 0
304 0 0 0
308 0 0 0
274 0 0 0
275 0 0 0
280 0 0 0
305 0 0 0
309 0 0 0
310 0 0 0
281 0 0 0
282 0 0 0
287 0 0 0
312 0 0 0
316 0 0 0
317 0 0 0
283 0 0 0
288 0 0 0
289 0 0 0
313 0 0 0
314 0 0 0
318 0 0 0
311 0 0 0
315 0 0 0
319 0 0 0
320 0 0 0
350 0 0 0
355 0 0 0
291 0 0 0
297 0 0 0
321 0 0 0
322 0 0 0
326 0 0 0
327 0 0 0
356 0 0 0
298 0 0 0
299 0 0 0
323 0 0 0
324 0 0 0
328 0 0 0
294 0 0 0
295 0 0 0
300 0 0 0
325 0 0 0
329 0 0 0
330 0 0 0
335 0 0 0
332 0 0 0
336 0 0 0
337 0 0 0
341 0 0 0
342 0 0 0
333 0 0 0
334 0 0 0
338 0 0 0
339 0 0 0
340 0 0 0
346 0 0 0
347 0 0 0
361 0 0 0
343 0 0 0
344 0 0 0
348 0 0 0
345 0 0 0
349 0 0 0
351 0 0 0
362 0 0 0
352 0 0 0
357 0 0 0
360 0 0 0
353 0 0 0
354 0 0 0
358 0 0 0
331 0 0 0
359 0 0 0
