LAMMPS data file via write_data, version 11 Feb 2026, timestep = 658, units = metal

362 atoms
8 atom types

0 12.447907776 xlo xhi
0 12.9362452296 ylo yhi
0 52.3600831054 zlo zhi

Masses

1 26.9815
2 10.811
3 12.011
4 51.9961
5 55.845
6 95.95999999999999
7 58.6934
8 1.008

Atoms # atomic/kk

1 7 1.1258466585156306 0.8238897812446351 14.64229382762836 0 0 0
2 7 3.5643659884325656 0.739532257909822 14.870734408086935 0 0 0
6 7 12.276140525689978 3.479705422951305 14.643206661133302 -1 0 0
7 7 2.2366275411551264 2.9728554831942096 15.107019973989674 0 0 0
31 6 12.403443008402876 1.8909701279007607 16.485923841859428 -1 0 0
32 7 2.317973688085083 1.2559057991861173 16.930916794918005 0 0 0
36 7 1.1474574169464116 3.9708655555976353 17.062837047838528 0 0 0
37 7 3.580460159753111 3.6482723082968747 17.093366621949347 0 0 0
3 5 6.025108482036925 0.8686747380184114 14.937499501180449 0 0 0
8 7 4.79020885819164 2.987106026764076 15.020745722469325 0 0 0
9 7 7.296084127369563 3.0640627172365744 14.892884001382773 0 0 0
33 7 4.839537248051175 1.5376847564328475 16.982811862177606 0 0 0
34 7 7.367311346890083 1.7134447529271977 16.946609592296646 0 0 0
38 5 6.08633288107756 3.7439962658822385 16.970404553738643 0 0 0
4 6 8.646064733397292 0.9727011669274028 14.946135980271508 0 0 0
5 7 11.033896583631355 1.2546061386869818 14.461785277085545 0 0 0
10 7 9.818265832643325 3.3811991560990853 14.722807838576975 0 0 0
35 7 9.931245413470638 1.7155270943295913 16.90484127114779 0 0 0
39 7 8.645622987180055 3.8662562755694028 16.81444563761435 0 0 0
40 7 11.081941042379986 3.955030526889333 16.96505630500897 0 0 0
11 7 1.144646932399465 5.434881837610001 15.026069471340978 0 0 0
12 7 3.5626900948527096 5.148480557714016 15.121920634305472 0 0 0
16 4 0.22598145187083157 7.675548225837676 14.612202855178744 0 0 0
17 7 2.4385770545583707 7.507478630240992 15.091546682800706 0 0 0
41 7 12.326697432003346 6.112152747933564 17.128259144175495 -1 0 0
42 7 2.383026307000857 6.077657629158954 17.112169354568085 0 0 0
46 7 0.8286859940579734 8.415898961894158 16.86048081142492 0 0 0
47 7 3.8261955570913813 8.011878157712976 17.027199609523677 0 0 0
13 7 6.056551610000389 5.188097073734001 15.008544160351574 0 0 0
18 7 4.905792500250039 7.3043180487350385 14.977148854294862 0 0 0
19 2 6.853618649486729 6.977322443975497 15.316506137656587 0 0 0
43 7 4.864842064390134 5.813203138000117 17.077263293674534 0 0 0
44 7 7.353065048607408 5.882587745335706 17.023561553837133 0 0 0
48 7 6.235986030413402 7.9949701300612315 17.018317943719737 0 0 0
14 7 8.584640382070324 5.640833933232069 14.893675037630608 0 0 0
15 6 11.057865005743114 5.640977567040556 15.085709972595033 0 0 0
20 7 10.238288585502353 7.659659082620242 13.989578627638744 0 0 0
45 7 9.818096271283052 6.1130978810046654 17.179947003506477 0 0 0
49 7 8.480582359856955 7.860356862306803 16.022504976768207 0 0 0
50 7 10.916480203800138 8.11904853032844 16.21491662150788 0 0 0
21 2 1.5590526245985423 9.475394637294055 15.21067056316728 0 0 0
22 7 3.6275672668518317 9.514549097437829 14.919197673748766 0 0 0
26 7 0.3250709551291528 10.804835736120467 16.829685923007148 0 0 0
27 7 2.042778598352536 11.479324354271524 15.151363893714265 0 0 0
51 3 11.631332556488296 9.373027431858862 17.499651718462907 -1 0 0
52 7 2.6246336227218934 10.083438614799046 17.043461215303253 0 0 0
56 2 0.9376495606321426 12.707376965262775 16.354744649145186 0 0 0
57 7 3.7143440256396274 12.2282740215103 16.92976742435977 0 0 0
23 7 6.59535473989882 9.088766363601533 14.851542927836835 0 0 0
28 7 4.828152509465723 11.61216795865314 14.819086151329785 0 0 0
29 6 7.384496568878109 11.500886109594875 14.917413427148583 0 0 0
53 7 5.138918295360826 10.113077084498975 16.779578527312452 0 0 0
54 7 7.704722642086458 10.046412777029552 16.921998007290558 0 0 0
58 6 6.305279418961132 12.341207995066751 17.012546470406107 0 0 0
24 7 9.062584085413855 9.669823841144229 14.65633108319854 0 0 0
25 7 11.955569226979675 9.881133305065722 14.711502925007267 0 0 0
30 7 9.934153503482344 11.859081682515757 14.57899210208025 0 0 0
55 7 10.254306848667488 10.410915143804605 16.646532271643004 0 0 0
59 7 8.853571787220005 12.373568992021935 16.890968390779616 0 0 0
60 7 11.309424462288524 12.62531036912274 16.350913915653816 0 0 0
61 6 0.11578972039268294 12.916692506511511 18.57655110577265 0 -1 0
62 7 2.573664625931228 0.038854307544573786 19.143918118546374 0 0 0
66 6 1.3642494207063516 2.2344944668446662 19.06687125246335 0 0 0
67 5 3.8086827998837403 2.1871528118442543 19.105059664031685 0 0 0
91 4 1.375543932874433 0.7900242940322829 21.25330630295784 0 0 0
92 7 3.8064369688984603 0.7458579049844155 21.13366651294494 0 0 0
96 7 0.09394592624923703 2.869090848292535 21.177574248931723 0 0 0
97 7 2.615886485173887 2.867094994805004 21.209899549166618 0 0 0
63 5 5.025202826068238 0.12279417090524995 19.064502298080374 0 0 0
64 7 7.5077679081248565 0.11287859706597754 19.093836809455713 0 0 0
68 7 6.203338410588699 2.180162839358666 19.05050784714787 0 0 0
93 7 6.333708869258581 0.7448682495290204 21.20788245261833 0 0 0
98 7 5.058646671794058 2.881502942261938 21.152890665653814 0 0 0
99 5 7.513385675384892 2.848218776787404 21.143181111704465 0 0 0
65 7 10.092209277583809 0.10908641130457648 18.96541873216261 0 0 0
69 7 8.743213609800442 2.1914622412982805 18.963677783714203 0 0 0
70 7 11.302468154909402 2.2952835260457634 18.908548418387763 0 0 0
94 7 8.789409466945736 0.7578687307997518 21.179224910194502 0 0 0
95 7 11.374940702816165 0.7288366802516791 21.03183158235823 0 0 0
100 6 10.056789601872573 2.84559602617898 21.020292966903103 0 0 0
71 1 12.34017251310793 4.459446799032291 19.196146808326098 -1 0 0
72 7 2.4605423122313113 4.425825973155019 19.11700560274874 0 0 0
76 7 1.1780168301263196 6.502161552118851 19.190784051431333 0 0 0
77 7 3.7710111135240028 6.503244873993346 19.144901050569235 0 0 0
101 7 1.2207539353009318 5.035404138855432 21.232831133793436 0 0 0
102 6 3.750262414568052 5.0514131418739225 21.22698061988522 0 0 0
106 7 0.006208860387070707 7.142059146106564 21.27431479160785 0 0 0
107 7 2.484636516630638 7.176099809909948 21.238221024165878 0 0 0
73 7 4.9521603915707635 4.314207108098073 19.077036833826217 0 0 0
74 6 7.481201083998236 4.320640896302625 19.02686844313352 0 0 0
78 7 6.1824319862672805 6.5286180771556435 19.10574080005548 0 0 0
103 7 6.290654894257748 5.061973473526265 21.157066921258544 0 0 0
108 7 5.03149091735244 7.2261626128843615 21.207882884381412 0 0 0
109 7 7.438794897815854 7.270421026928476 21.24030103461884 0 0 0
75 5 9.873323621998397 4.369456469824812 19.011081480728603 0 0 0
79 7 8.625540016478157 6.522027324863006 19.28623139984589 0 0 0
80 7 11.104744738905488 6.51485751183035 19.28393436657654 0 0 0
104 7 8.751111801958483 5.066250600733881 21.216481389553863 0 0 0
105 3 10.101170561573959 4.427831943768245 22.263175068982935 0 0 0
110 7 9.913901777840916 7.198695076998212 21.272195959678633 0 0 0
81 4 12.382215226870729 8.588018115569023 19.188710650966758 -1 0 0
82 6 2.445313335059785 8.541700827775529 19.024693151113425 0 0 0
86 7 1.3161877581120627 10.762206430271718 19.171019447988414 0 0 0
87 1 3.858163242688093 10.885245802645722 19.00990923252184 0 0 0
111 7 1.213475287555826 9.339129141572913 21.217110429925537 0 0 0
112 6 3.760085413502645 9.344143103214279 21.23909593217744 0 0 0
116 1 0.0708371450701991 11.55346544305829 21.177119225825273 0 0 0
117 7 2.534240480087573 11.544775117258967 21.1754992157292 0 0 0
83 7 4.980837786849552 8.733285814375924 19.033557084320385 0 0 0
84 7 7.434860346287847 8.643529658993105 19.011710441553188 0 0 0
88 7 6.287340327176347 10.82691948833697 19.02218703419098 0 0 0
113 7 6.253013781816854 9.401910075895966 21.03456622469539 0 0 0
118 7 5.0537678294194786 11.564520276858197 21.143568094260562 0 0 0
119 4 7.484461593088642 11.580616948016429 21.077611458281588 0 0 0
85 6 9.841372094840894 8.51998560990541 18.450240015585134 0 0 0
89 6 8.795086613844758 10.875401144698063 18.980322500351555 0 0 0
90 4 11.29735589353323 10.813552143156 18.892094034226375 0 0 0
114 7 8.719398960228249 9.348398697787792 20.934685469870793 0 0 0
115 6 11.13245486646109 9.295662062440956 21.168468092241795 0 0 0
120 7 10.031238557638275 11.56287816248719 21.12342534408547 0 0 0
121 7 0.0958204534884578 1.4134794471625856 23.25732918438297 0 0 0
122 7 2.584249641882082 1.410422633461924 23.31764553335772 0 0 0
126 6 1.367221877899286 3.6098729243234358 23.26089390606995 0 0 0
127 7 3.8683715564164345 3.594629371687676 23.365913587468583 0 0 0
152 7 2.6693013472060634 0.016865732133394408 25.375655133039928 0 0 0
156 1 1.5016086707563558 2.1461709817900383 25.50233513274027 0 0 0
157 7 3.9899994132999477 2.1440685437534728 25.44443568889619 0 0 0
162 7 2.618900134915576 4.273734925469931 25.427912307286043 0 0 0
123 7 5.025175111948313 1.4363573191155747 23.20047457334574 0 0 0
124 7 7.430539946626729 1.5271414931377605 23.48004699284812 0 0 0
128 7 6.323030897421405 3.672800567118264 23.17128699555513 0 0 0
153 7 5.215067066086622 0.07116161482648184 25.33109330652621 0 0 0
154 7 7.626423791347571 0.01706659735955216 25.459446280836584 0 0 0
158 2 5.8155379922554005 2.4881393648194186 24.6440300961378 0 0 0
163 7 5.135502998684361 4.256855378597675 25.422774564139228 0 0 0
164 5 7.4950475675598724 4.069220903720991 25.344233277075556 0 0 0
125 7 10.079308949755363 1.4517421367730652 23.301744285763917 0 0 0
129 7 8.774719827937862 3.569227674352965 23.329510490516636 0 0 0
130 4 11.377641114886138 3.6484349723560072 23.383161745042507 0 0 0
155 4 10.150563822740008 0.07951769899821519 25.519595546892994 0 0 0
159 7 8.904536678087952 2.112944497195599 25.423601554504444 0 0 0
160 7 11.42810749332051 2.17468398808167 25.39238204129664 0 0 0
165 7 10.085180096303848 4.237256882843678 25.397682746862444 0 0 0
131 7 0.0907731950573921 5.799670352225039 23.38565060345423 0 0 0
132 7 2.5639599231844508 5.802092262814356 23.365008363596868 0 0 0
136 7 1.328100373747131 7.927910907352322 23.296205601433876 0 0 0
137 7 3.8040745744691735 7.96949418307134 23.321807261370587 0 0 0
161 4 0.13031550489404195 4.3585140593555725 25.45387872788211 0 0 0
166 7 1.3581497072323858 6.429594503743658 25.423826413528413 0 0 0
167 7 3.8299986142847793 6.4417467900804715 25.448639225531746 0 0 0
133 6 5.088341519130024 5.855827191554794 23.3847312229127 0 0 0
134 7 7.578406283527811 5.792102581956454 23.301694056491343 0 0 0
138 7 6.3318542469051176 8.000924998621937 23.339251230694884 0 0 0
168 7 6.38560259804344 6.399843401820582 25.429921886439548 0 0 0
173 7 5.133203608953212 8.557769074214741 25.353559440974188 0 0 0
135 7 10.083141937800967 5.852630162560891 23.373358839815534 0 0 0
139 4 8.718765236268078 7.961366792427034 23.21219745628633 0 0 0
140 4 11.307361623381444 7.913898351554268 23.29503895887843 0 0 0
169 7 8.794116708154187 6.348452653177236 25.371080869175177 0 0 0
170 7 11.311085642925667 6.425159710929661 25.434396496651814 0 0 0
175 6 9.913535267222205 8.581667851661873 25.5012106081182 0 0 0
141 7 0.04084501750961918 10.098533361812569 23.328618805897804 0 0 0
142 7 2.5225780554403334 10.112805221632318 23.299275902832505 0 0 0
146 7 1.3204220259901822 12.247115577002873 23.314416602215992 0 0 0
147 7 3.834590763532645 12.246687120713663 23.230615346013952 0 0 0
151 4 0.114355965922451 12.891726052204843 25.371438645717824 0 -1 0
171 6 0.13311748087695782 8.634627549975018 25.410900176700874 0 0 0
172 7 2.6433493306520277 8.616104916452938 25.39567918278893 0 0 0
176 7 1.364159636203179 10.817887870640737 25.432461223878498 0 0 0
177 6 3.9058200215144376 10.820696688045002 25.31541467031606 0 0 0
143 7 5.09399704469757 10.115219944822599 23.23474408852255 0 0 0
144 7 7.529322727013476 10.102050399647561 22.904403636703936 0 0 0
148 4 6.249872500003713 12.286432799025384 23.26165961050198 0 0 0
178 6 6.664047473208546 10.530426233107251 25.238628351283346 0 0 0
145 7 10.016483581255697 10.102984418374854 23.300009030010198 0 0 0
149 6 8.741153929024707 12.302663744777567 23.29144259802174 0 0 0
150 7 11.278404059178254 12.24165307179696 23.33372653895497 0 0 0
174 3 8.438981887802868 9.518642107315129 24.40596922180863 0 0 0
179 5 9.031800446394788 10.94262162638096 25.5597975063564 0 0 0
180 5 11.363856152081771 10.89098238831002 25.48179750777655 0 0 0
181 7 1.4067876886595134 0.6753697467247478 27.4858175970115 0 0 0
182 7 3.8957074994317518 0.7098422071345527 27.444985174016168 0 0 0
186 7 0.19184156438134817 2.871818563676682 27.479550295796805 0 0 0
187 7 2.6798758333678867 2.8594917784786107 27.56380445138453 0 0 0
211 7 0.22820240038121548 1.456763761361764 29.579868800068574 0 0 0
212 7 2.7292275258647667 1.369725167278708 29.579789791042025 0 0 0
216 7 1.4302157885232354 3.5643758104876846 29.58382093802821 0 0 0
217 4 3.844379746551997 3.5783316137102803 29.599540095794474 0 0 0
183 7 6.334560517510275 0.7247440269677211 27.56998392504513 0 0 0
188 7 5.104814598936629 2.8796610039238457 27.575449339499492 0 0 0
189 7 7.620467314008789 2.802236033464635 27.448545303246217 0 0 0
213 5 5.156450987281812 1.4309332372625225 29.600693904234635 0 0 0
214 7 7.638748626772924 1.3642304011071513 29.584359602426435 0 0 0
218 7 6.386774888564797 3.541775216514369 29.54009276815223 0 0 0
184 7 8.914850987713105 0.7327883997051604 27.550780984415482 0 0 0
185 4 11.407367448141516 0.7362424022166113 27.518609059874674 0 0 0
190 7 10.169666573542749 2.847180538457507 27.475101152003422 0 0 0
215 7 10.147844368671993 1.4177731022865767 29.61961470141702 0 0 0
219 7 8.860933442097885 3.5235842840634994 29.51870761348282 0 0 0
220 7 11.390332930138202 3.5728978241027343 29.511730421950144 0 0 0
191 7 1.4109375564547932 5.018255996870238 27.4689492236779 0 0 0
192 7 3.8537613782372073 4.994594228913319 27.48707748988412 0 0 0
197 7 2.6000778961919107 7.198399566003894 27.48097895732138 0 0 0
221 7 0.14089245273367348 5.739178853213117 29.564690115350313 0 0 0
222 7 2.6112503844627417 5.734425568619471 29.552664897135685 0 0 0
226 7 1.3828692712858384 7.91214956607063 29.55028312598939 0 0 0
227 7 3.881272114323235 7.91682312912058 29.47626044295424 0 0 0
193 7 6.392390965777321 4.980901801259502 27.413293457775403 0 0 0
198 7 5.124340325907972 7.176106264610176 27.418657422665913 0 0 0
199 7 7.63780244401082 7.197984752333635 27.44491263447359 0 0 0
223 6 5.175138077045672 5.723866375986996 29.492779099314763 0 0 0
224 7 7.666934057551814 5.747091960229491 29.57687176305425 0 0 0
228 7 6.414104188402974 7.917636756281159 29.49654514966728 0 0 0
194 6 8.868824233230658 5.011120669199779 27.482201088826507 0 0 0
195 7 11.382107613371545 5.01043496089848 27.497959784133364 0 0 0
196 7 0.15673734045862153 7.174074659781368 27.487736641919653 0 0 0
200 7 10.142810838884952 7.173251609041967 27.52700880424933 0 0 0
225 7 10.122995475816294 5.754349466961068 29.595513787766805 0 0 0
229 7 8.86710852853072 7.896030313304222 29.514574986442643 0 0 0
230 7 11.388611575522992 7.944388667138457 29.514070462996138 0 0 0
201 5 1.3978713151843987 9.338529057123232 27.515029807643348 0 0 0
202 7 3.893048355406551 9.324171879453104 27.396196078753185 0 0 0
206 4 0.20723212820745296 11.493563024477774 27.518064524866222 0 0 0
207 7 2.630706471904287 11.469161979475539 27.452497371139593 0 0 0
231 7 0.1827229502730051 10.091620077451584 29.562060300992727 0 0 0
232 7 2.6508955247488544 10.03374306984652 29.434638134858766 0 0 0
236 7 1.4886599429598497 12.194945546698014 29.5560119498867 0 0 0
203 7 6.392593692961495 9.296062841991175 27.40731649125425 0 0 0
208 7 5.1623187969736195 11.504892613741115 27.353153624923944 0 0 0
209 6 7.611555233770959 11.540794732673353 27.631667232614227 0 0 0
233 7 5.167029916918555 10.0588965721396 29.34190144043156 0 0 0
234 7 7.622753969195903 10.097735324154586 29.655998519636537 0 0 0
238 7 6.24171044659891 12.244824691951807 29.6806893401012 0 0 0
204 7 8.85784193213875 9.381543771715355 27.604072358307306 0 0 0
205 7 11.366459191186497 9.43244743093918 27.530964466878086 0 0 0
210 7 10.176272233031316 11.57021983771832 27.56668560547872 0 0 0
235 7 10.105403072631516 10.19124646716459 29.586408025603056 0 0 0
239 4 8.903868931464393 12.267508181338536 29.72377337624296 0 0 0
240 7 11.41405211050014 12.280983859166366 29.55207795760231 0 0 0
237 3 4.051976985984592 0.31107463163566595 30.559962013110827 0 1 0
241 7 0.21836550343073266 0.1154452256911656 31.62897562425069 0 0 0
242 7 2.5844973298356346 0.1567925606062558 31.740038726755675 0 0 0
246 4 1.3616895950956514 2.258138629393501 31.659501940785656 0 0 0
247 7 3.9012307495066816 2.163545711159749 31.641994294092818 0 0 0
276 7 0.19758356705348146 3.0147716783712166 33.73222733872566 0 0 0
243 7 5.188845297362703 12.918052516085817 32.100643657645044 0 -1 0
244 7 7.647826957183973 0.017236094180057816 31.710034641802984 0 0 0
248 7 6.429220157174696 2.1631003826341897 31.642575058197163 0 0 0
279 7 7.750509597854641 3.06102664477779 33.72603022792119 0 0 0
249 7 8.872520698880153 2.119240482097521 31.673993000211876 0 0 0
250 7 11.403561699583523 2.1568483928021798 31.651876465719784 0 0 0
255 1 10.12529454168384 4.2376968351874025 31.494969241061387 0 0 0
275 4 11.463727978258042 0.819092019842934 33.7093080873086 0 0 0
251 7 0.16664671222982955 4.342376167424217 31.64396992066842 0 0 0
252 7 2.6523559877723693 4.332597102854145 31.665997755527787 0 0 0
256 7 1.3494074029572631 6.518084176910457 31.632599728586428 0 0 0
257 6 3.8117005244435234 6.514159705725461 31.663660752468157 0 0 0
253 7 5.133275985336102 4.322684684811163 31.622454267902445 0 0 0
254 7 7.642976447560783 4.327195925809363 31.586828424857007 0 0 0
258 7 6.373582857332021 6.508138173582807 31.620846186117507 0 0 0
264 7 7.61159603340654 8.594188124443253 31.61491200286026 0 0 0
283 7 6.4011397827849335 5.117458240646601 33.666322876511494 0 0 0
289 7 7.655819015191991 7.202622500428909 33.70933498488529 0 0 0
259 4 8.843646762111245 6.479464615014508 31.621337169573057 0 0 0
260 7 11.335878917942193 6.509658245164791 31.585965812981456 0 0 0
284 5 8.908873654117718 5.135922815336997 33.576557798105554 0 0 0
290 7 10.105755628538777 7.279804331978496 33.589443529642175 0 0 0
261 7 0.19691135388382172 8.72822173965628 31.64792527872438 0 0 0
262 7 2.6826904850554807 8.73377261478149 31.533089497464363 0 0 0
266 7 1.5824873892278442 10.848990761108452 31.570898466445787 0 0 0
267 4 3.936530884458715 11.295771552127345 30.85455137846109 0 0 0
292 7 3.9783468379234663 9.390202366957327 33.502413289268205 0 0 0
326 7 0.5274871972025521 11.674429291605021 33.672969206417925 0 0 0
263 1 5.113809271632818 8.773686280885624 31.427312763947807 0 0 0
268 7 6.28171047108176 10.776991486055593 31.578432775472688 0 0 0
245 7 10.130469046881414 12.904364862266283 31.86560609477394 0 -1 0
265 6 10.122856819669055 8.702065058148069 31.533308639545186 0 0 0
269 7 8.79524246475726 10.819013256383911 31.740169437027152 0 0 0
270 7 11.44622313155735 10.925240786857154 31.607075383321956 0 0 0
294 7 8.79120543748462 9.306525793734858 33.68646499130978 0 0 0
296 3 11.094065494539013 11.85247657764456 33.32606575343546 -1 0 0
271 7 1.4967342000884685 0.924112652459614 33.773767055514895 0 0 0
272 7 3.941808903799611 0.9760743101827611 33.92396525602653 0 0 0
277 7 2.6638995440107673 3.0984205401064964 33.795238242686075 0 0 0
301 7 0.2142534261179372 1.573308341744556 35.755122984214196 0 0 0
302 7 2.6402398907675044 1.6891614083049407 35.85790960205358 0 0 0
306 4 1.4402668225532187 3.854462619764904 35.954663247984975 0 0 0
307 7 4.019555886346245 3.7512111417828327 35.83144155408504 0 0 0
273 7 6.485110036597553 0.9936619092119512 33.899261168376384 0 0 0
278 1 5.239117157129349 3.0146236667641824 33.71882918662242 0 0 0
303 7 5.268892911821518 1.6860576547921 35.9386437850227 0 0 0
304 4 7.78629711878568 1.654144112078676 35.92240983994281 0 0 0
308 7 6.552370553114051 3.724365047869514 35.79621955706739 0 0 0
274 7 8.859730380485912 0.9195541285788194 33.83672580469431 0 0 0
280 7 10.224859141513551 3.0144189508165575 33.702542961314286 0 0 0
305 7 10.249025959306076 1.582873005215353 35.72274452819552 0 0 0
309 7 9.04384762364689 3.6927438236753973 35.77490879003145 0 0 0
310 4 11.612442363811411 3.9651375622041742 35.85717340247323 0 0 0
335 5 9.923057572473605 12.927687652838015 37.38575178720625 0 -1 0
281 7 1.3442050043762153 5.202012714482658 33.85647438148515 0 0 0
282 4 3.8678489891522747 5.151543852697863 33.76671565673742 0 0 0
286 7 0.1144277730276284 7.3007207541451855 33.6191174907788 0 0 0
287 7 2.6525405202976704 7.305625822510186 33.74318339109122 0 0 0
312 7 2.750953432809138 5.811365547048138 35.78124868485409 0 0 0
316 7 1.2337513636278425 7.6260927437485915 35.78492772918024 0 0 0
317 7 3.9555730328964396 8.082519303795786 35.727612627799054 0 0 0
288 7 5.204476492960468 7.2861456776129 33.66326784724743 0 0 0
313 7 5.287158172150674 5.933208874970989 35.711073168735155 0 0 0
314 7 7.744295731409855 5.838547940944692 35.73909163434544 0 0 0
318 4 6.573800101123701 8.136061925149711 35.79603827955557 0 0 0
285 4 11.366821197800915 5.175157808954079 33.62752348421606 0 0 0
311 2 12.393290275681917 6.021992089871529 35.31672144004362 -1 0 0
315 7 10.156005466655024 5.831094288867993 35.574711786311845 0 0 0
319 7 8.973356847548404 7.996654361203798 35.81971277665618 0 0 0
320 7 11.368418094166374 7.955600617500285 35.587148960601034 0 0 0
355 3 10.461859035730432 7.923365388391499 37.27211665842378 0 0 0
291 7 1.4872791289318192 9.444941660956204 33.7295031809208 0 0 0
297 6 3.0450231229598645 11.593827210123754 33.66839389015398 0 0 0
321 6 0.22872175389645724 10.090046051992184 35.90653310302471 0 0 0
322 7 2.723458384479502 10.219164691185547 35.75773333036882 0 0 0
327 6 3.9409480680183036 12.526226841372381 36.10845429525565 0 0 0
356 4 1.4227015531535097 12.380524472151869 35.84074307229814 0 0 0
293 4 6.475631229701635 9.332361325352458 33.64416038021561 0 0 0
298 2 5.2201260845733515 12.311766899508575 34.207144600625455 0 0 0
299 7 7.00668837902171 11.595064056810985 33.67896881157902 0 0 0
323 6 5.255119779394991 10.26035462589149 35.55947653118188 0 0 0
324 7 7.930936217476945 10.373774645647547 35.703699945307264 0 0 0
328 7 6.493426682421769 12.541248125878724 35.91250197095632 0 0 0
295 6 11.291056250788003 9.719234165353813 33.75470353218453 0 0 0
300 7 9.396701644403025 11.565475416314488 34.15463360067362 0 0 0
325 7 10.270818975286074 9.866402613159071 37.023960507456344 0 0 0
329 3 9.548599432855346 11.42428919860674 36.19136366447278 0 0 0
330 4 11.275402305251973 12.09408398214562 35.56316146081823 0 0 0
332 7 2.5047537882993502 0.12715702045878197 38.03445300578456 0 0 0
336 7 1.3548768978477048 2.210340135038706 37.829779323949346 0 0 0
337 7 3.897654931909434 2.219475617679999 37.86156036216018 0 0 0
333 7 5.2382585067385525 0.18938207040631735 38.117384601918225 0 0 0
334 7 7.670170446425063 0.08964608398057224 38.01012056600744 0 0 0
338 7 6.553146932397688 2.284868965462089 37.90055999087319 0 0 0
339 7 9.014184482946243 2.2124961104750493 37.8535946189259 0 0 0
340 7 11.391274964926843 2.219978771720615 37.723171506873314 0 0 0
342 7 2.7360482407228623 4.317884880455166 37.92033591403919 0 0 0
346 7 1.5411669050175518 6.436317948186695 37.99606456206664 0 0 0
347 6 3.9893986479473 6.499432264656951 37.76041790621052 0 0 0
343 7 5.327148344891571 4.452294405394979 37.831944342976136 0 0 0
344 7 7.8568729749323225 4.462560266724059 37.8426792505345 0 0 0
348 6 6.683005975455244 6.686936992388332 37.81291806187442 0 0 0
341 7 0.2363794400201405 4.277555597577059 38.06608052550537 0 0 0
345 4 10.245180188578878 4.361164216542379 37.80518537258158 0 0 0
349 7 9.26215532293156 6.654113275309399 37.86207519611985 0 0 0
350 7 11.705046771545375 6.297850015590723 37.293944923133886 0 0 0
352 6 2.5208673983987273 8.687832707046828 37.683137014222105 0 0 0
357 7 3.880132876027999 10.835364319179856 37.96026139370519 0 0 0
360 7 1.4230671020611445 10.926641431709923 37.88343161031015 1 0 0
353 7 5.1594848275984 8.721568732436483 37.81985644613935 0 0 0
354 7 7.961371090997652 8.985821592579681 37.81275400758087 0 0 0
358 6 6.42833518313391 10.879846792545061 37.77423592830432 0 0 0
361 8 6.072190150052021 10.744127473402573 41.50797667085844 0 0 0
331 7 12.410943949666702 12.903487529381472 37.61525677255995 -1 -1 0
351 7 12.268446157024394 8.586779488480849 37.83532096912654 -1 0 0
359 2 8.621178041473039 11.185439415201735 37.41599387137906 0 0 0
362 8 6.823093912113556 10.81538404409837 41.41675754656854 0 0 0

Velocities

1 0 0 0
2 0 0 0
6 0 0 0
7 0 0 0
31 0 0 0
32 0 0 0
36 0 0 0
37 0 0 0
3 0 0 0
8 0 0 0
9 0 0 0
33 0 0 0
34 0 0 0
38 0 0 0
4 0 0 0
5 0 0 0
10 0 0 0
35 0 0 0
39 0 0 0
40 0 0 0
11 0 0 0
12 0 0 0
16 0 0 0
17 0 0 0
41 0 0 0
42 0 0 0
46 0 0 0
47 0 0 0
13 0 0 0
18 0 0 0
19 0 0 0
43 0 0 0
44 0 0 0
48 0 0 0
14 0 0 0
15 0 0 0
20 0 0 0
45 0 0 0
49 0 0 0
50 0 0 0
21 0 0 0
22 0 0 0
26 0 0 0
27 0 0 0
51 0 0 0
52 0 0 0
56 0 0 0
57 0 0 0
23 0 0 0
28 0 0 0
29 0 0 0
53 0 0 0
54 0 0 0
58 0 0 0
24 0 0 0
25 0 0 0
30 0 0 0
55 0 0 0
59 0 0 0
60 0 0 0
61 0 0 0
62 0 0 0
66 0 0 0
67 0 0 0
91 0 0 0
92 0 0 0
96 0 0 0
97 0 0 0
63 0 0 0
64 0 0 0
68 0 0 0
93 0 0 0
98 0 0 0
99 0 0 0
65 0 0 0
69 0 0 0
70 0 0 0
94 0 0 0
95 0 0 0
100 0 0 0
71 0 0 0
72 0 0 0
76 0 0 0
77 0 0 0
101 0 0 0
102 0 0 0
106 0 0 0
107 0 0 0
73 0 0 0
74 0 0 0
78 0 0 0
103 0 0 0
108 0 0 0
109 0 0 0
75 0 0 0
79 0 0 0
80 0 0 0
104 0 0 0
105 0 0 0
110 0 0 0
81 0 0 0
82 0 0 0
86 0 0 0
87 0 0 0
111 0 0 0
112 0 0 0
116 0 0 0
117 0 0 0
83 0 0 0
84 0 0 0
88 0 0 0
113 0 0 0
118 0 0 0
119 0 0 0
85 0 0 0
89 0 0 0
90 0 0 0
114 0 0 0
115 0 0 0
120 0 0 0
121 0 0 0
122 0 0 0
126 0 0 0
127 0 0 0
152 0 0 0
156 0 0 0
157 0 0 0
162 0 0 0
123 0 0 0
124 0 0 0
128 0 0 0
153 0 0 0
154 0 0 0
158 0 0 0
163 0 0 0
164 0 0 0
125 0 0 0
129 0 0 0
130 0 0 0
155 0 0 0
159 0 0 0
160 0 0 0
165 0 0 0
131 0 0 0
132 0 0 0
136 0 0 0
137 0 0 0
161 0 0 0
166 0 0 0
167 0 0 0
133 0 0 0
134 0 0 0
138 0 0 0
168 0 0 0
173 0 0 0
135 0 0 0
139 0 0 0
140 0 0 0
169 0 0 0
170 0 0 0
175 0 0 0
141 0 0 0
142 0 0 0
146 0 0 0
147 0 0 0
151 0 0 0
171 0 0 0
172 0 0 0
176 0 0 0
177 0 0 0
143 0 0 0
144 0 0 0
148 0 0 0
178 0 0 0
145 0 0 0
149 0 0 0
150 0 0 0
174 0 0 0
179 0 0 0
180 0 0 0
181 0 0 0
182 0 0 0
186 0 0 0
187 0 0 0
211 0 0 0
212 0 0 0
216 0 0 0
217 0 0 0
183 0 0 0
188 0 0 0
189 0 0 0
213 0 0 0
214 0 0 0
218 0 0 0
184 0 0 0
185 0 0 0
190 0 0 0
215 0 0 0
219 0 0 0
220 0 0 0
191 0 0 0
192 0 0 0
197 0 0 0
221 0 0 0
222 0 0 0
226 0 0 0
227 0 0 0
193 0 0 0
198 0 0 0
199 0 0 0
223 0 0 0
224 0 0 0
228 0 0 0
194 0 0 0
195 0 0 0
196 0 0 0
200 0 0 0
225 0 0 0
229 0 0 0
230 0 0 0
201 0 0 0
202 0 0 0
206 0 0 0
207 0 0 0
231 0 0 0
232 0 0 0
236 0 0 0
203 0 0 0
208 0 0 0
209 0 0 0
233 0 0 0
234 0 0 0
238 0 0 0
204 0 0 0
205 0 0 0
210 0 0 0
235 0 0 0
239 0 0 0
240 0 0 0
237 0 0 0
241 0 0 0
242 0 0 0
246 0 0 0
247 0 0 0
276 0 0 0
243 0 0 0
244 0 0 0
248 0 0 0
279 0 0 0
249 0 0 0
250 0 0 0
255 0 0 0
275 0 0 0
251 0 0 0
252 0 0 0
256 0 0 0
257 0 0 0
253 0 0 0
254 0 0 0
258 0 0 0
264 0 0 0
283 0 0 0
289 0 0 0
259 0 0 0
260 0 0 0
284 0 0 0
290 0 0 0
261 0 0 0
262 0 0 0
266 0 0 0
267 0 0 0
292 0 0 0
326 0 0 0
263 0 0 0
268 0 0 0
245 0 0 0
265 0 0 0
269 0 0 0
270 0 0 0
294 0 0 0
296 0 0 0
271 0 0 0
272 0 0 0
277 0 0 0
301 0 0 0
302 0 0 0
306 0 0 0
307 0 0 0
273 0 0 0
278 0 0 0
303 0 0 0
304 0 0 0
308 0 0 0
274 0 0 0
280 0 0 0
305 0 0 0
309 0 0 0
310 0 0 0
335 0 0 0
281 0 0 0
282 0 0 0
286 0 0 0
287 0 0 0
312 0 0 0
316 0 0 0
317 0 0 0
288 0 0 0
313 0 0 0
314 0 0 0
318 0 0 0
285 0 0 0
311 0 0 0
315 0 0 0
319 0 0 0
320 0 0 0
355 0 0 0
291 0 0 0
297 0 0 0
321 0 0 0
322 0 0 0
327 0 0 0
356 0 0 0
293 0 0 0
298 0 0 0
299 0 0 0
323 0 0 0
324 0 0 0
328 0 0 0
295 0 0 0
300 0 0 0
325 0 0 0
329 0 0 0
330 0 0 0
332 0 0 0
336 0 0 0
337 0 0 0
333 0 0 0
334 0 0 0
338 0 0 0
339 0 0 0
340 0 0 0
342 0 0 0
346 0 0 0
347 0 0 0
343 0 0 0
344 0 0 0
348 0 0 0
341 0 0 0
345 0 0 0
349 0 0 0
350 0 0 0
352 0 0 0
357 0 0 0
360 0 0 0
353 0 0 0
354 0 0 0
358 0 0 0
361 0 0 0
331 0 0 0
351 0 0 0
359 0 0 0
362 0 0 0
