LAMMPS data file via write_data, version 11 Feb 2026, timestep = 145, units = metal

362 atoms
8 atom types

0 12.447907776 xlo xhi
0 12.9362452296 ylo yhi
0 52.3600831054 zlo zhi

Masses

1 26.9815
2 10.811
3 12.011
4 51.9961
5 55.845
6 95.95999999999999
7 58.6934
8 1.008

Atoms # atomic/kk

1 7 1.1452375093 1.4081816753 14.1715776782 0 0 0
2 7 3.6089097657 1.073862554 14.6652943824 0 0 0
3 5 6.0769479465 0.9507443644 14.9077299879 0 0 0
9 7 7.3908140875 3.1592534805 14.9161871246 0 0 0
5 7 11.0501948888 1.2569423315 14.5972711515 0 0 0
6 7 12.372304413799998 3.459934108 14.8175807564 -1 0 0
10 7 9.9135025222 3.394383111 14.7760659883 0 0 0
16 4 0.4698534946 7.8164615842 14.7946335627 0 0 0
20 7 10.4458795465 7.6737377857 14.1797824813 0 0 0
26 7 0.1286170593 12.2084278019 14.9054832291 0 0 0
27 7 2.4828469888 11.8121990101 14.4589561174 0 0 0
23 7 6.9220445131 9.0095696103 14.7742898804 0 0 0
28 7 4.9601335305 11.7909383487 14.6023392105 0 0 0
29 6 7.487887891 11.4964938545 14.9163051734 0 0 0
24 7 9.2116966834 9.7423003437 14.5372715576 0 0 0
25 7 11.7633225316 9.8785141476 14.7859852738 0 0 0
30 7 10.0622011806 11.9491374349 14.7568174032 0 0 0
7 7 2.4280890684 3.2785091221 14.9871351501 0 0 0
31 6 0.1325491046 1.570695125 16.5404617164 0 0 0
32 7 2.6052564624 1.6890788438 16.9106052047 0 0 0
36 7 1.21999407 3.8600092313 17.02489575 0 0 0
37 7 3.7107836214 3.8411094703 17.0522747284 0 0 0
56 2 1.9144254162 0.32466715759999865 15.6043022962 0 1 0
8 7 4.9291306734 3.1310940181 15.005986706 0 0 0
33 7 4.985916084 1.6687916385 16.9502161687 0 0 0
34 7 7.410514285 1.7729985434 16.9750499128 0 0 0
38 5 6.179073683 3.8638848352 16.9842048048 0 0 0
4 6 8.6410130071 1.0006166771 14.9958720054 0 0 0
35 7 9.9859062871 1.6663784502 16.9388971287 0 0 0
39 7 8.7311129104 3.8667082354 16.8571756202 0 0 0
40 7 11.1910013477 3.8107948278 16.995449938 0 0 0
11 7 1.2353448193 5.4989273917 15.0756837965 0 0 0
12 7 3.7237717027 5.3201395941 15.0866077199 0 0 0
17 7 2.6532803164 7.4990359896 15.1489580276 0 0 0
42 7 2.4543060815 6.1314225979 17.136623832 0 0 0
47 7 3.8869723618 8.2018285121 17.0587106739 0 0 0
13 7 6.1791284758 5.3095038527 15.029482199 0 0 0
18 7 5.0801483875 7.482901801 15.0638998818 0 0 0
19 2 7.0601749036 7.022954324 15.3846762742 0 0 0
43 7 4.9530701425 5.9668463901 17.0899442249 0 0 0
44 7 7.4774504043 5.944479979 17.0830300733 0 0 0
48 7 6.3471713745 8.058965168 17.0448946349 0 0 0
14 7 8.704614859 5.6626390614 14.9606938541 0 0 0
15 6 11.1810722058 5.6084405068 15.1798058941 0 0 0
41 7 12.4426452722 6.0021932094 17.2216015828 -1 0 0
45 7 9.9238885249 6.0425526821 17.2479924157 0 0 0
49 7 8.7170243464 7.9259422846 16.06475499 0 0 0
50 7 11.1858946411 7.9949513975 16.4488247897 0 0 0
85 6 9.7880581286 8.4774207921 18.5358726152 0 0 0
21 2 1.1659369815 10.4822894765 15.2079366178 0 0 0
22 7 2.9704183181 9.8688386095 15.6399519778 0 0 0
46 7 0.7952459702 9.3711287804 16.8698937275 0 0 0
52 7 1.3509084922 11.8685204636 16.9840390666 0 0 0
57 7 3.7543714309 12.4407145198 16.6047432946 0 0 0
87 1 3.6654287714 10.7194436479 18.2604058042 0 0 0
53 7 5.3363614175 10.1259200336 16.3223055733 0 0 0
54 7 7.7340497918 10.0578054993 16.941879451 0 0 0
58 6 6.3199854909 12.3706584932 16.9499980705 0 0 0
51 3 11.5202415059 9.3742715867 17.6572668311 -1 0 0
55 7 10.1857379845 10.2799452375 16.6765887255 0 0 0
59 7 8.8371548363 12.3850420716 16.9570005231 0 0 0
60 7 11.2433550924 12.4710585971 16.877796329 0 0 0
61 6 0.0482973112 0.0027501334 18.9896734432 0 0 0
66 6 1.3935967846 2.1698300538 19.0484074406 0 0 0
67 5 3.8315856212 2.1735777347 19.0726074352 0 0 0
91 4 1.3616318555 0.7528925751 21.2949775445 0 0 0
92 7 3.7538310088 0.7281117184 21.0504989856 0 0 0
96 7 0.0827163361 2.8009774109 21.1822389507 0 0 0
97 7 2.5933167317 2.8536582139 21.194350001 0 0 0
63 5 4.9572612583 0.0568419493 18.9569252837 0 0 0
64 7 7.4421412182 0.0861635244 19.0962431577 0 0 0
68 7 6.1954044794 2.1627780189 19.0751443905 0 0 0
74 6 7.5022232938 4.2893403368 19.0495670978 0 0 0
93 7 6.2603937867 0.7233692064 21.1687453393 0 0 0
98 7 5.0262365115 2.8775675108 21.1487501455 0 0 0
99 5 7.4798071844 2.8191099682 21.164009826 0 0 0
65 7 10.0023243962 0.0842880376 19.0908297615 0 0 0
69 7 8.7390158279 2.157992283 18.9901217764 0 0 0
70 7 11.2876401397 2.2421944126 18.9488333934 0 0 0
75 5 9.9091926161 4.3094453373 19.0282227094 0 0 0
94 7 8.7145872236 0.7176297871 21.2307780456 0 0 0
95 7 11.3050942433 0.6745411183 21.1941420435 0 0 0
100 6 10.031480763 2.7886541921 21.0495492708 0 0 0
72 7 2.484360732 4.392863338 19.1021670632 0 0 0
76 7 1.2006426683 6.4386016406 19.2549809846 0 0 0
77 7 3.7844350118 6.5111968479 19.1603604235 0 0 0
82 6 2.3593854846 8.4929988543 18.9108099375 0 0 0
101 7 1.2049351736 4.9903075884 21.2544120022 0 0 0
102 6 3.7303490397 5.0463382659 21.2250209463 0 0 0
107 7 2.4690580776 7.1766713019 21.2278001133 0 0 0
73 7 4.9764262384 4.3203206392 19.0822680903 0 0 0
78 7 6.1969544005 6.5231180932 19.1349576464 0 0 0
103 7 6.2756351686 5.0511026941 21.1709997602 0 0 0
108 7 5.0121925303 7.2325149738 21.2221675289 0 0 0
109 7 7.4197899365 7.2526887586 21.2599218068 0 0 0
71 1 12.3841350154 4.3821219311 19.1811610153 -1 0 0
79 7 8.6259724191 6.4760760647 19.3178932256 0 0 0
80 7 11.1140979622 6.4244904326 19.3528194481 0 0 0
81 4 12.3432055863 8.4769215989 19.1955303243 -1 0 0
104 7 8.7412587571 5.0273264556 21.2383339032 0 0 0
105 3 10.08467629522483 4.375969043120383 22.283192842592793 0 0 0
106 7 12.4357580801 7.1008556461 21.3106524283 -1 0 0
110 7 9.8908171927 7.1703173104 21.296472763 0 0 0
62 7 2.588037161 12.8581215116 19.0333870515 0 -1 0
86 7 1.2821763811 10.6942611792 19.1564597909 0 0 0
111 7 1.1801629329 9.2935920609 21.1911113273 0 0 0
112 6 3.7021471728 9.3596146842 21.1386065793 0 0 0
116 1 0.0374937072 11.4907730202 21.2925744389 0 0 0
117 7 2.470962999 11.5322285104 21.1404056807 0 0 0
83 7 4.9466402569 8.7369774273 19.0786672968 0 0 0
84 7 7.3979366125 8.6438164702 19.080690776 0 0 0
88 7 6.1629219647 10.805267131 18.9250665518 0 0 0
113 7 6.214404089 9.4132042076 21.0303751018 0 0 0
118 7 4.9644999437 11.5446085264 21.037819712 0 0 0
119 4 7.4000293779 11.5402408879 21.0695873677 0 0 0
89 6 8.7318279094 10.8541397876 19.0332344379 0 0 0
90 4 11.2727407102 10.8250136581 18.9334376976 0 0 0
114 7 8.70012327 9.3202947109 20.9878232752 0 0 0
115 6 11.1095089146 9.2561616428 21.1703622598 0 0 0
120 7 9.9863421964 11.5206311862 21.1768822162 0 0 0
121 7 0.07795255799414938 1.377696356153404 23.308402090811196 0 0 0
122 7 2.569341948395159 1.3893328191060448 23.328545931416834 0 0 0
126 6 1.3490173755021846 3.572186501785649 23.264415485401457 0 0 0
127 7 3.8445082107220196 3.5756823473654227 23.36079217176017 0 0 0
156 1 1.4739303953519274 2.1161005268999853 25.514012202685397 0 0 0
157 7 3.9599874638042345 2.122279314372285 25.44388763506118 0 0 0
162 7 2.5926629965074603 4.248038602473554 25.427003495979985 0 0 0
123 7 4.986200288066115 1.4143934957124984 23.16137951175428 0 0 0
124 7 7.387640834500786 1.4857453490816173 23.485378303836484 0 0 0
128 7 6.297273180600594 3.649504573147715 23.182156768109444 0 0 0
153 7 5.190734746991568 0.0571762335204373 25.292729316541283 0 0 0
158 2 5.769189537788643 2.4429041504195474 24.627608231062638 0 0 0
163 7 5.111726269448011 4.228927349246271 25.420648053502852 0 0 0
164 5 7.470760843761061 4.046523604757731 25.358912494846255 0 0 0
125 7 10.036850684335384 1.4121668104809195 23.353430503418146 0 0 0
129 7 8.744924654216916 3.5306416867476926 23.3459828402836 0 0 0
130 4 11.360630523810125 3.600798948054992 23.400744907049084 0 0 0
155 4 10.11283449122384 0.0465466332186488 25.557562066642507 0 0 0
159 7 8.862844112507785 2.0830191427312355 25.446693681854534 0 0 0
160 7 11.394574829247084 2.1386138254768197 25.419654013607108 0 0 0
165 7 10.058977176703651 4.20092449987008 25.410399533184265 0 0 0
131 7 0.06423548063184335 5.754689820875755 23.40198355747345 0 0 0
132 7 2.5359590448660874 5.7826645520559525 23.359063228287244 0 0 0
136 7 1.2961229265701102 7.89626024325255 23.3031981270822 0 0 0
137 7 3.769832595174399 7.96376809527719 23.277021991468 0 0 0
161 4 0.10252964397517537 4.323505019993767 25.467268433774898 0 0 0
166 7 1.3307288297747204 6.397350302850499 25.428554160409202 0 0 0
167 7 3.8011171429759467 6.420878100897157 25.44185830948151 0 0 0
171 6 0.10219277014032559 8.596366038022005 25.428112484467853 0 0 0
172 7 2.615388834862566 8.591103547815322 25.37420381260112 0 0 0
133 6 5.058269801048354 5.841817924231202 23.38642299728723 0 0 0
134 7 7.552504536351496 5.761181261863203 23.313430948290595 0 0 0
138 7 6.303294689226457 7.979203491213629 23.339870610994936 0 0 0
168 7 6.358404309526962 6.377476384822499 25.432226910774325 0 0 0
173 7 5.097496199748379 8.536089041488076 25.3310538547232 0 0 0
135 7 10.057284382619782 5.807801705525097 23.38626040972925 0 0 0
139 4 8.686827534043147 7.924883582669715 23.242982127366997 0 0 0
140 4 11.27478420787606 7.872338152790306 23.316393796741334 0 0 0
169 7 8.768810984554657 6.313174588600306 25.382171516160405 0 0 0
170 7 11.282199564071954 6.390023992779448 25.44679308662983 0 0 0
175 6 9.87786384842407 8.549234234216073 25.52254549571642 0 0 0
141 7 0.012448274547192934 10.0498452457607 23.342474214644742 0 0 0
142 7 2.4885751218423855 10.088061090981718 23.253687067321607 0 0 0
146 7 1.2948353206607208 12.217219707845091 23.349546630747366 0 0 0
147 7 3.7989146415757906 12.226290209715062 23.17927621973877 0 0 0
151 4 0.08517547425358334 12.857229952841985 25.41446334518366 0 -1 0
152 7 2.6477422592308555 12.926407605239302 25.37312661831782 0 -1 0
176 7 1.3347242007008155 10.781235460879973 25.430370642849375 0 0 0
177 6 3.8722114660073523 10.798656198478422 25.272709553214256 0 0 0
143 7 5.0473285546151985 10.087205273273321 23.180421061528286 0 0 0
144 7 7.497461409316591 10.07159081815604 22.91897614489137 0 0 0
148 4 6.204794438432079 12.252660561555604 23.18511315033395 0 0 0
154 7 7.593282926045078 12.925070800496494 25.474958946275613 0 -1 0
178 6 6.609462947956698 10.525097928441603 25.219971116851763 0 0 0
145 7 9.98795743419275 10.056575307431837 23.314731437114613 0 0 0
149 6 8.700104388876898 12.254843043152025 23.329395538904656 0 0 0
150 7 11.239264828062764 12.200157384487161 23.404978562277147 0 0 0
174 3 8.40586808602461 9.49155603671978 24.422853876334152 0 0 0
179 5 8.990553860012087 10.904726096183818 25.58269769313347 0 0 0
180 5 11.32824228933865 10.849108864568883 25.505948945091014 0 0 0
181 7 1.384495754108577 0.6481638526403919 27.49643847824008 0 0 0
182 7 3.8708637090266107 0.6853118458126244 27.437931222589647 0 0 0
186 7 0.16586096910284873 2.8401178846172934 27.493978904217332 0 0 0
187 7 2.6546654880958185 2.8351873394470717 27.56876688459199 0 0 0
211 7 0.20499422103740197 1.4278377029366103 29.592133257747825 0 0 0
212 7 2.7072525585723826 1.344801507904966 29.58442260061595 0 0 0
216 7 1.4059101457053624 3.5368750938476485 29.59194943731939 0 0 0
217 4 3.819472085574709 3.5548542184121086 29.603957482850845 0 0 0
183 7 6.3037362281475575 0.6975693751679192 27.574689197589876 0 0 0
188 7 5.077181750422768 2.856134053926862 27.579793489501053 0 0 0
189 7 7.588901294921266 2.7751016303175775 27.46526323309067 0 0 0
213 5 5.1311970904184765 1.41124074304688 29.60673432100569 0 0 0
214 7 7.607702300322305 1.3373212081025465 29.59807480568967 0 0 0
218 7 6.358649076459197 3.5181668757613282 29.54878680122337 0 0 0
184 7 8.879725999382504 0.7013415528023772 27.570747611312328 0 0 0
185 4 11.37838590088917 0.7049297569621318 27.542558095088648 0 0 0
190 7 10.139314889767665 2.813669283382958 27.49219946519527 0 0 0
215 7 10.119073608798645 1.3858295949199009 29.63592225674322 0 0 0
219 7 8.83353866479535 3.493592499677541 29.53285478347841 0 0 0
220 7 11.364202384667934 3.5411525980452727 29.52387324136187 0 0 0
191 7 1.385560074680228 4.9885154438619175 27.47383798412103 0 0 0
192 7 3.8279881098958914 4.971966670126046 27.484630429471153 0 0 0
196 7 0.1305465753027217 7.139410699706803 27.49910387861462 0 0 0
197 7 2.5733268078172493 7.175026424870352 27.475458780588053 0 0 0
221 7 0.11474736963947638 5.708894982864638 29.57245039740256 0 0 0
222 7 2.585626650888042 5.709978536527621 29.55322722057649 0 0 0
226 7 1.3588159365858854 7.886254625699282 29.550833033908344 0 0 0
227 7 3.855845474293873 7.8951166651541165 29.467342897638275 0 0 0
193 7 6.363986380343064 4.957052079746092 27.415807822352413 0 0 0
198 7 5.097088126286011 7.154992553151005 27.412332958444114 0 0 0
199 7 7.615874691237709 7.17005303946244 27.44936533640264 0 0 0
223 6 5.147671184786843 5.701832585016487 29.492705248753534 0 0 0
224 7 7.638766720279268 5.719110719829421 29.583614660840993 0 0 0
228 7 6.389018724327968 7.893929470650864 29.492565520781906 0 0 0
194 6 8.842042832378047 4.978372804168615 27.49449914956366 0 0 0
195 7 11.355034814825615 4.975896967467279 27.509622051402324 0 0 0
200 7 10.118321659698415 7.139175357548217 27.541494958694894 0 0 0
225 7 10.096011753067431 5.722360887151728 29.607283233388845 0 0 0
229 7 8.841314465660862 7.864422575166131 29.526994426082634 0 0 0
230 7 11.363738347464407 7.912629187694413 29.526670339124173 0 0 0
201 5 1.3734394633001776 9.308301658939062 27.514436510732377 0 0 0
202 7 3.8669782462597335 9.303276505446101 27.374654073533904 0 0 0
206 4 0.181791551104564 11.460338663937947 27.52636705546284 0 0 0
207 7 2.60589023789926 11.440472783115483 27.43814679770583 0 0 0
231 7 0.16008480879255924 10.062173069747377 29.569977732003505 0 0 0
232 7 2.629482216228549 10.009773291002134 29.425513337054056 0 0 0
236 7 1.4684579787683976 12.167340506785226 29.55498514583068 0 0 0
203 7 6.369557890517228 9.267561888385659 27.38781649930903 0 0 0
208 7 5.132468426990766 11.483418175926039 27.320501847530245 0 0 0
209 6 7.576560484454819 11.507348171030966 27.64162475344913 0 0 0
233 7 5.144696951011842 10.037881163712685 29.322074957623407 0 0 0
234 7 7.595644727830853 10.070357061637113 29.66487208953585 0 0 0
238 7 6.206618133593464 12.220228365484497 29.682493576679448 0 0 0
204 7 8.83337217554462 9.350938012371891 27.62523237130655 0 0 0
205 7 11.339628156301488 9.398661118434278 27.548626869201115 0 0 0
210 7 10.145511063064049 11.536660026851722 27.587729780442533 0 0 0
235 7 10.080100132782134 10.162142791695395 29.604247081018844 0 0 0
239 4 8.873084378363815 12.237256207225451 29.736835731857976 0 0 0
240 7 11.391047305814626 12.250351118026565 29.565695034163912 0 0 0
237 3 4.030104782983767 0.284468979409483 30.56113169545759 0 1 0
241 7 0.19647516991481878 0.087323634828768 31.636632147900514 0 0 0
242 7 2.5627385301008574 0.13043003195139596 31.742878812875823 0 0 0
246 4 1.3378943768156573 2.230427895121855 31.670005997331984 0 0 0
247 7 3.8749503873256588 2.139850570313984 31.651591087376755 0 0 0
252 7 2.628396112066912 4.307886166166817 31.672933845861525 0 0 0
248 7 6.401183376603042 2.136450022366771 31.656807322004887 0 0 0
253 7 5.106649983847195 4.298251439124449 31.62795632915844 0 0 0
254 7 7.6144616891948 4.29836614760268 31.595358366941394 0 0 0
249 7 8.845386691843306 2.091245285550038 31.68833143925243 0 0 0
250 7 11.377057818086467 2.1269595297824906 31.662446588155206 0 0 0
255 1 10.100643064865078 4.207361424653119 31.505882428213518 0 0 0
251 7 0.14199494718724015 4.31407327734583 31.650804820485575 0 0 0
256 7 1.3241520659395933 6.493317395807006 31.63180792017801 0 0 0
257 6 3.7873172816477227 6.49245417699219 31.662181805210537 0 0 0
286 7 0.08677599964145724 7.267393050375817 33.621462938175654 0 0 0
258 7 6.346171478926409 6.482907311980568 31.624540899285893 0 0 0
264 7 7.584178777014697 8.566454375012064 31.621585674866974 0 0 0
259 4 8.814307776625386 6.449576006562154 31.62874200521024 0 0 0
260 7 11.308780015521366 6.477130048315291 31.595603275199544 0 0 0
284 5 8.87925963576006 5.104336199160662 33.57641225968049 0 0 0
285 4 11.346400314514621 5.140809696016482 33.64166630998451 0 0 0
290 7 10.077815872535936 7.244824084495794 33.59521863617643 0 0 0
261 7 0.17188790888040612 8.69810528862784 31.651541089995156 0 0 0
262 7 2.6598148978070055 8.710721256303302 31.527612999446998 0 0 0
266 7 1.559327032304399 10.82284066838237 31.567425560792373 0 0 0
267 4 3.9144770452258535 11.270494955779707 30.84686205876105 0 0 0
292 7 3.957156037290748 9.355049850254975 33.50124732247822 0 0 0
243 7 5.15989073880895 12.892298576930024 32.109176334946625 0 -1 0
244 7 7.620019175243976 12.926430065069527 31.717983164738687 0 -1 0
263 1 5.0886097844306235 8.75169480316636 31.4176311195623 0 0 0
268 7 6.252882928378243 10.752614067044956 31.580111184351157 0 0 0
293 4 6.447999630468762 9.303235338443196 33.645534472801536 0 0 0
245 7 10.105572445571081 12.873739944395005 31.8762394491104 0 -1 0
265 6 10.09730755960685 8.670339899931976 31.545331915038428 0 0 0
269 7 8.767593629261736 10.788924701251451 31.75162808897534 0 0 0
270 7 11.423625521248011 10.895042053130213 31.617766277778642 0 0 0
296 3 11.072874024871467 11.822151440699654 33.336299138085785 -1 0 0
271 7 1.4797968365873593 0.8918699550958927 33.78475494578468 0 0 0
272 7 3.9194391214306825 0.9487059600673644 33.94156113941359 0 0 0
276 7 0.17493497245603723 2.9829413560982254 33.73250395217555 0 0 0
277 7 2.6379374516706235 3.069278906881337 33.80869703875983 0 0 0
301 7 0.19402118137324362 1.548376862052608 35.75849128243363 0 0 0
302 7 2.62267662260936 1.667130002010326 35.886270761988875 0 0 0
306 4 1.375910883569026 3.8381948259632312 35.93749727910112 0 0 0
307 7 3.9974860125784644 3.7213914600999813 35.830661267834 0 0 0
273 7 6.459073546471167 0.9606141516270433 33.916837907526116 0 0 0
278 1 5.214160898679556 2.9857266957129123 33.728536279483414 0 0 0
279 7 7.721427704272651 3.0273878244356514 33.735708050561044 0 0 0
303 7 5.248792074513483 1.6477334367858265 35.96333638945122 0 0 0
304 4 7.7654877573470875 1.6111402612512091 35.94142133707557 0 0 0
308 7 6.525314142732056 3.695116620766729 35.80749346597395 0 0 0
274 7 8.837052435290955 0.8901418117894747 33.84499215210443 0 0 0
275 4 11.443519741323968 0.7886635226459202 33.71639942431141 0 0 0
280 7 10.200679616596704 2.989540763218734 33.715495415748315 0 0 0
305 7 10.231265310028673 1.562088333701947 35.723371445268526 0 0 0
309 7 9.00555320355281 3.6549312646815824 35.789411379826426 0 0 0
310 4 11.55626191228728 3.9149661261939688 35.87786819992968 0 0 0
281 7 1.3237150148056291 5.173932922963604 33.844612764729916 0 0 0
282 4 3.843788605629219 5.126613714695265 33.767193262682255 0 0 0
287 7 2.6274498739776035 7.277500478280165 33.7414111145535 0 0 0
312 7 2.7198691371588763 5.774810519443978 35.78273309653563 0 0 0
316 7 1.2087549522058534 7.591002721729732 35.78206421651506 0 0 0
317 7 3.9253078471628573 8.046010051998648 35.73021382752823 0 0 0
283 7 6.3707960395497345 5.087307087528525 33.673493850494154 0 0 0
288 7 5.180485709144614 7.255199485994311 33.67033602783866 0 0 0
289 7 7.627204365670243 7.1743029176467905 33.71627618499441 0 0 0
313 7 5.2569461835744375 5.901338971293938 35.730130345199036 0 0 0
314 7 7.703807062946125 5.808306137515289 35.749082709046625 0 0 0
318 4 6.5533087996748725 8.109017834314125 35.8132423644004 0 0 0
311 2 12.378654012186527 5.976244653034522 35.32185984506909 -1 0 0
315 7 10.124060739519548 5.790350095621745 35.57467758155734 0 0 0
319 7 8.95273360987288 7.947724411663634 35.83544893176175 0 0 0
320 7 11.343753010744656 7.917689404007539 35.590246257358174 0 0 0
350 7 11.672316494828998 6.251892917061891 37.2865190774515 0 0 0
355 3 10.43090526803205 7.901822248006643 37.27301327790334 0 0 0
291 7 1.4640346325535445 9.413879563874861 33.71932116997975 0 0 0
297 6 3.0255505716338646 11.559139837761323 33.66193905626988 0 0 0
321 6 0.21252689232076502 10.051193977610213 35.90224767883787 0 0 0
322 7 2.697346903026448 10.17948895459148 35.74878061654311 0 0 0
326 7 0.5072338346464986 11.641486724441211 33.67312881584722 0 0 0
327 6 3.9116598480382936 12.48459981007628 36.09844708014431 0 0 0
356 4 1.3966610156861134 12.34720869110957 35.841054193122204 0 0 0
298 2 5.19639993422471 12.268976778915942 34.20269919122908 0 0 0
299 7 6.988130067878023 11.562926215903753 33.67999484018647 0 0 0
323 6 5.231172833252454 10.221403893756566 35.57008866205373 0 0 0
324 7 7.910589833327029 10.335468705856382 35.70529401199569 0 0 0
328 7 6.461719477421161 12.496186478061674 35.91890604152913 0 0 0
294 7 8.766335415740107 9.271516274596806 33.69482771604904 0 0 0
295 6 11.26492296131152 9.685927673394048 33.76263164953352 0 0 0
300 7 9.37560992226674 11.533244645261101 34.15951607819845 0 0 0
325 7 10.257328482443446 9.842860301179389 37.013145202557055 0 0 0
329 3 9.526311912105225 11.397004731914546 36.18241460539341 0 0 0
330 4 11.262567829045667 12.063199285055543 35.56640164166739 0 0 0
335 5 9.916919935613755 12.901146788362885 37.372571463144524 0 -1 0
332 7 2.4858565239110337 0.10354460840972324 38.03111088600911 0 0 0
336 7 1.33244339004327 2.1822808050400235 37.83936692132663 0 0 0
337 7 3.884638684862287 2.193510263124162 37.93141873264892 0 0 0
341 7 0.2066136893770279 4.238258829158096 38.071731993384 0 0 0
342 7 2.6918037423500683 4.287519280065203 37.88970974264011 0 0 0
333 7 5.22400149293228 0.12466988787451659 38.112750583034035 0 0 0
334 7 7.655327497034321 0.051245303895549675 38.00491734524416 0 0 0
338 7 6.522382155108815 2.254645645737614 37.95077354443726 0 0 0
362 8 5.169679175044298 2.9515865829432433 38.750307793014294 0 0 0
339 7 8.98867238658209 2.178517168614257 37.869622438539444 0 0 0
340 7 11.361682847376803 2.1845343555632533 37.72604806428656 0 0 0
346 7 1.504071145453393 6.40330148830854 37.99047773799449 0 0 0
347 6 3.953556702503864 6.465125663012513 37.77231356522308 0 0 0
343 7 5.320132018649065 4.419911178721191 37.8601877509866 0 0 0
344 7 7.841116422132834 4.42429485177856 37.879495232882306 0 0 0
348 6 6.642648204446562 6.678172290169361 37.82728101837789 0 0 0
345 4 10.218165405068909 4.330307013638206 37.83146207733757 0 0 0
349 7 9.25507945212867 6.643449656773728 37.92531832256771 0 0 0
351 7 12.239443274368993 8.551581178645707 37.8351776230387 -1 0 0
361 8 8.92208870121791 5.3060121655610635 38.85878831902212 0 0 0
352 6 2.4801923369271726 8.653135791817054 37.67920236186405 0 0 0
357 7 3.8393897944567748 10.795992083301941 37.94490897521007 0 0 0
360 7 1.3919188605099622 10.90231982697448 37.88098210003613 1 0 0
353 7 5.113720860546578 8.689694752841483 37.823052706184235 0 0 0
354 7 7.973193679763104 8.941969409663713 37.81815875713388 0 0 0
358 6 6.423374181718018 10.829881693466456 37.78333676478502 0 0 0
331 7 12.393369073352432 12.883665581543756 37.6231133457846 -1 -1 0
359 2 8.595074600292657 11.172139180614385 37.4036986162565 0 0 0

Velocities

1 0 0 0
2 0 0 0
3 0 0 0
9 0 0 0
5 0 0 0
6 0 0 0
10 0 0 0
16 0 0 0
20 0 0 0
26 0 0 0
27 0 0 0
23 0 0 0
28 0 0 0
29 0 0 0
24 0 0 0
25 0 0 0
30 0 0 0
7 0 0 0
31 0 0 0
32 0 0 0
36 0 0 0
37 0 0 0
56 0 0 0
8 0 0 0
33 0 0 0
34 0 0 0
38 0 0 0
4 0 0 0
35 0 0 0
39 0 0 0
40 0 0 0
11 0 0 0
12 0 0 0
17 0 0 0
42 0 0 0
47 0 0 0
13 0 0 0
18 0 0 0
19 0 0 0
43 0 0 0
44 0 0 0
48 0 0 0
14 0 0 0
15 0 0 0
41 0 0 0
45 0 0 0
49 0 0 0
50 0 0 0
85 0 0 0
21 0 0 0
22 0 0 0
46 0 0 0
52 0 0 0
57 0 0 0
87 0 0 0
53 0 0 0
54 0 0 0
58 0 0 0
51 0 0 0
55 0 0 0
59 0 0 0
60 0 0 0
61 0 0 0
66 0 0 0
67 0 0 0
91 0 0 0
92 0 0 0
96 0 0 0
97 0 0 0
63 0 0 0
64 0 0 0
68 0 0 0
74 0 0 0
93 0 0 0
98 0 0 0
99 0 0 0
65 0 0 0
69 0 0 0
70 0 0 0
75 0 0 0
94 0 0 0
95 0 0 0
100 0 0 0
72 0 0 0
76 0 0 0
77 0 0 0
82 0 0 0
101 0 0 0
102 0 0 0
107 0 0 0
73 0 0 0
78 0 0 0
103 0 0 0
108 0 0 0
109 0 0 0
71 0 0 0
79 0 0 0
80 0 0 0
81 0 0 0
104 0 0 0
105 0 0 0
106 0 0 0
110 0 0 0
62 0 0 0
86 0 0 0
111 0 0 0
112 0 0 0
116 0 0 0
117 0 0 0
83 0 0 0
84 0 0 0
88 0 0 0
113 0 0 0
118 0 0 0
119 0 0 0
89 0 0 0
90 0 0 0
114 0 0 0
115 0 0 0
120 0 0 0
121 0 0 0
122 0 0 0
126 0 0 0
127 0 0 0
156 0 0 0
157 0 0 0
162 0 0 0
123 0 0 0
124 0 0 0
128 0 0 0
153 0 0 0
158 0 0 0
163 0 0 0
164 0 0 0
125 0 0 0
129 0 0 0
130 0 0 0
155 0 0 0
159 0 0 0
160 0 0 0
165 0 0 0
131 0 0 0
132 0 0 0
136 0 0 0
137 0 0 0
161 0 0 0
166 0 0 0
167 0 0 0
171 0 0 0
172 0 0 0
133 0 0 0
134 0 0 0
138 0 0 0
168 0 0 0
173 0 0 0
135 0 0 0
139 0 0 0
140 0 0 0
169 0 0 0
170 0 0 0
175 0 0 0
141 0 0 0
142 0 0 0
146 0 0 0
147 0 0 0
151 0 0 0
152 0 0 0
176 0 0 0
177 0 0 0
143 0 0 0
144 0 0 0
148 0 0 0
154 0 0 0
178 0 0 0
145 0 0 0
149 0 0 0
150 0 0 0
174 0 0 0
179 0 0 0
180 0 0 0
181 0 0 0
182 0 0 0
186 0 0 0
187 0 0 0
211 0 0 0
212 0 0 0
216 0 0 0
217 0 0 0
183 0 0 0
188 0 0 0
189 0 0 0
213 0 0 0
214 0 0 0
218 0 0 0
184 0 0 0
185 0 0 0
190 0 0 0
215 0 0 0
219 0 0 0
220 0 0 0
191 0 0 0
192 0 0 0
196 0 0 0
197 0 0 0
221 0 0 0
222 0 0 0
226 0 0 0
227 0 0 0
193 0 0 0
198 0 0 0
199 0 0 0
223 0 0 0
224 0 0 0
228 0 0 0
194 0 0 0
195 0 0 0
200 0 0 0
225 0 0 0
229 0 0 0
230 0 0 0
201 0 0 0
202 0 0 0
206 0 0 0
207 0 0 0
231 0 0 0
232 0 0 0
236 0 0 0
203 0 0 0
208 0 0 0
209 0 0 0
233 0 0 0
234 0 0 0
238 0 0 0
204 0 0 0
205 0 0 0
210 0 0 0
235 0 0 0
239 0 0 0
240 0 0 0
237 0 0 0
241 0 0 0
242 0 0 0
246 0 0 0
247 0 0 0
252 0 0 0
248 0 0 0
253 0 0 0
254 0 0 0
249 0 0 0
250 0 0 0
255 0 0 0
251 0 0 0
256 0 0 0
257 0 0 0
286 0 0 0
258 0 0 0
264 0 0 0
259 0 0 0
260 0 0 0
284 0 0 0
285 0 0 0
290 0 0 0
261 0 0 0
262 0 0 0
266 0 0 0
267 0 0 0
292 0 0 0
243 0 0 0
244 0 0 0
263 0 0 0
268 0 0 0
293 0 0 0
245 0 0 0
265 0 0 0
269 0 0 0
270 0 0 0
296 0 0 0
271 0 0 0
272 0 0 0
276 0 0 0
277 0 0 0
301 0 0 0
302 0 0 0
306 0 0 0
307 0 0 0
273 0 0 0
278 0 0 0
279 0 0 0
303 0 0 0
304 0 0 0
308 0 0 0
274 0 0 0
275 0 0 0
280 0 0 0
305 0 0 0
309 0 0 0
310 0 0 0
281 0 0 0
282 0 0 0
287 0 0 0
312 0 0 0
316 0 0 0
317 0 0 0
283 0 0 0
288 0 0 0
289 0 0 0
313 0 0 0
314 0 0 0
318 0 0 0
311 0 0 0
315 0 0 0
319 0 0 0
320 0 0 0
350 0 0 0
355 0 0 0
291 0 0 0
297 0 0 0
321 0 0 0
322 0 0 0
326 0 0 0
327 0 0 0
356 0 0 0
298 0 0 0
299 0 0 0
323 0 0 0
324 0 0 0
328 0 0 0
294 0 0 0
295 0 0 0
300 0 0 0
325 0 0 0
329 0 0 0
330 0 0 0
335 0 0 0
332 0 0 0
336 0 0 0
337 0 0 0
341 0 0 0
342 0 0 0
333 0 0 0
334 0 0 0
338 0 0 0
362 0 0 0
339 0 0 0
340 0 0 0
346 0 0 0
347 0 0 0
343 0 0 0
344 0 0 0
348 0 0 0
345 0 0 0
349 0 0 0
351 0 0 0
361 0 0 0
352 0 0 0
357 0 0 0
360 0 0 0
353 0 0 0
354 0 0 0
358 0 0 0
331 0 0 0
359 0 0 0
