(written by ASE)

362 atoms
8 atom types

0.0      12.447907775999999  xlo xhi
0.0      12.936245229600001  ylo yhi
0.0      52.360083105400001  zlo zhi

Atoms # atomic

     1   7       1.125846187515851     0.82388903068311059      14.642291686832477
     2   7      3.5643656960119339      0.7395313888604238      14.870731930525212
     3   5      6.0251084449528554     0.86867381100830288      14.937496787801924
     4   6      8.6460650048030665     0.97270024575715275      14.946133221624951
     5   7      11.033897085590629      1.2546053668308694      14.461782847424281
     6   7    -0.17176792452173215      3.4797048346355237      14.643204205022101
     7   7      2.2366270319885904      2.9728547119380782      15.107016998500034
     8   7      4.7902086471944436      2.9871052061732382      15.020742476288001
     9   7       7.296084258639838      3.0640619040246562      14.892880699252029
    10   7      9.8182663003853357      3.3811984334208476      14.722804675062257
    11   7      1.1446462447456422      5.4348813325858574      15.026066184427698
    12   7      3.5626896764354585      5.1484799414324716      15.121916935636627
    13   7      6.0565515695829815      5.1880964586613931      15.008540300193848
    14   7       8.584640755667456      5.6408333952596497       14.89367119624383
    15   6      11.057865772239637      5.6409770668188184      15.085706313592899
    16   4     0.22598067628328627      7.6755480144888359      14.612199674627266
    17   7      2.4385764434550055      7.5074783802747271      15.091542772894242
    18   7      4.9057922860912822       7.304317732002108       14.97714470774655
    19   2      6.8536187620468905      6.9773220517317327      15.316501617646834
    20   7      10.238289138989598      7.6596589090069767      13.989575309173086
    21   2      1.5590518883003059      9.4753947098645739      15.210666538265981
    22   7      3.6275668188746559      9.5145491733235001      14.919193534549642
    23   7      6.5953548145727128      9.0887663693685177      14.851538641819738
    24   7      9.0625845616271032        9.66982397566583       14.65632708884532
    25   7      11.955570113629211      9.8811334654806799      14.711499410450561
    26   7     0.32506964243902253      10.804836128027453      16.829680903065427
    27   7      2.0427779209514383      11.479324774113072      15.151359922563429
    28   7      4.8281522949996081      11.612168412628433      14.819082059719971
    29   6      7.3844967905551782      11.500886565347114      14.917409187152522
    30   7      9.9341540883564985      11.859082145157897      14.578988400741034
    31   6   -0.044465613855750506      1.8909691841775613      16.485920963642666
    32   7      2.3179730567104535       1.255904589326057      16.930913395262358
    33   7      4.8395369615543045      1.5376834306594656      16.982807911725391
    34   7      7.3673115245595522      1.7134434105940706      16.946605419179061
    35   7      9.9312460808125174      1.7155258163020926      16.904837271668903
    36   7      1.1474564454806357      3.9708645828361937      17.062832873530468
    37   7      3.5804595796322021      3.6482711577730966      17.093361959070933
    38   5      6.0863328094454161      3.7439950997139126      16.970399601070412
    39   7       8.645623484247027      3.8662551765122277      16.814440768485241
    40   7      11.081942111979942      3.9550294789993448      16.965051638975893
    41   7    -0.12121166565328005      6.1121521098153266      17.128254632183129
    42   7      2.3830254040181984      6.0776568765347134      17.112164086739977
    43   7      4.8648416904222263      5.8132022792883697      17.077257595281633
    44   7      7.3530653110005062      5.8825868849898644      17.023555708882945
    45   7      9.8180971985605456      6.1130971008128832      17.179941105448879
    46   7      0.8286847640470244      8.4158988108727879      16.860475763775476
    47   7      3.8261949255141392      8.0118778317720185      17.027193567146782
    48   7      6.2359859640609141      7.9949698281535913      17.018311584859234
    49   7      8.4805828290366776      7.8603565923686647       16.02249983900775
    50   7      10.916481256750677      8.1190483565173324      16.214911702053076
    51   3    -0.81657689022010826       9.373027549360696       17.49964645352199
    52   7      2.6246327266015155      10.083438882637241      17.043455287628543
    53   7      5.1389180131826828      10.113077370767181      16.779572359483755
    54   7      7.7047230381963381      10.046413092036973      16.921991561079995
    55   7      10.254307861553094      10.410915542093923      16.646526658111963
    56   2     0.93764856456387524      12.707377714196808      16.354740180618478
    57   7      3.7143434237447615      12.228274951433727      16.929761585116719
    58   6      6.3052794515017743      12.341209044070967      17.012540264498039
    59   7      8.8535724757143033      12.373570003594898      16.890962539596824
    60   7      11.309425550475707      12.625311202085419      16.350909289176634
    61   6     0.11578868711172091   -0.019554199229379055      18.576547842054548
    62   7       2.573663778120924     0.03885233866615307      19.143913753399293
    63   5      5.0252024392062875     0.12279202193651713      19.064497377036123
    64   7      7.5077681591558658     0.11287635026869611      19.093831565392367
    65   7       10.09221018288344     0.10908433796446472      18.965413864781208
    66   6      1.3642481693624011      2.2344927482511538      19.066866184758823
    67   5      3.8086819975938422      2.1871508127939348      19.105053796980972
    68   7      6.2033382549709772       2.180160735035547       19.05050146282532
    69   7      8.7432143127624737      2.1914601947661341      18.963671429571988
    70   7      11.302469659244785      2.2952816878840467      18.908542637132328
    71   1    -0.10773712863128067      4.4594453843136774      19.196141051818753
    72   7      2.4605410212455157      4.4258243232125389      19.116998853743297
    73   7      4.9521597889059192      4.3142053051327389      19.077029354513144
    74   6      7.4812014314267943       4.320639089094235      19.026860571536783
    75   5      9.8733249356225627      4.3694547839285134       19.01107391649348
    76   7      1.1780149974430607      6.5021604334397676        19.1907765428796
    77   7      3.7710100483344209      6.5032436207047244      19.144892473123328
    78   7      6.1824318130960485      6.5286168292548883      19.105731576347026
    79   7      8.6255409949657018      6.5220260346991648      19.286221602047288
    80   7       11.10474699731148      6.5148563394739529      19.283925484939676
    81   4   -0.065694866334655613      8.5880177319101012      19.188703128702993
    82   6      2.4453117836476852      8.5417004203344504      19.024684412106406
    83   7      4.9808371503111024      8.7332855269283005      19.033547336093825
    84   7      7.4348607933773305      8.6435293348737012      19.011700299743698
    85   6      9.8413735150838768      8.5199853755535084       18.45023164919564
    86   7      1.3161857781994628      10.762207096181024      19.171010724334121
    87   1      3.8581622141048548      10.885246572194788      19.009899733925053
    88   7      6.2873402611210372      10.826920305104254      19.022176836164888
    89   6      8.7950877787603492      10.875402045686227      18.980312543059252
    90   4      11.297358170546447      10.813552954631257      18.892085446432805
    91   4      1.3755421458397674      0.7900214851382128      21.253299912971944
    92   7      3.8064357745178694     0.74585469368361812      21.133659261317877
    93   7      6.3337083153795666     0.74486458187090154      21.207873742060396
    94   7      8.7894105810196219     0.75786520675937563      21.179216153847985
    95   7      11.374942807008241     0.72883365379930221      21.031824327940651
    96   7    0.093943576096942302      2.8690885205793482       21.17756722272895
    97   7      2.6158847606932638      2.8670920442314167       21.20989132931852
    98   7      5.0586454744924927      2.8814996091204734      21.152881173230988
    99   5      7.5133860136468096      2.8482158282443026      21.143170112511889
   100   6      10.056791475748053      2.8455931220643498      21.020282958931407
   101   7      1.2207513821105573      5.0354015798685321      21.232821602207178
   102   6      3.7502607161193775      5.0514100975413543      21.226969550577468
   103   7      6.2906543072983618      5.0619707579534534      21.157054202812922
   104   7      8.7511130913155135       5.066247817018299      21.216468132450899
   105   3      10.101418142735325      4.4279768685848717      22.262852055795673
   106   7    0.006205158309742595      7.1420573450771689      21.274303837175747
   107   7      2.4846341390061162      7.1760975362408477      21.238207891731467
   108   7       5.031489885999922      7.2261605183421525      21.207868573701052
   109   7      7.4387947825175909      7.2704189328764217      21.240284811113725
   110   7      9.9139048486881531      7.1986930011305983      21.272179698676123
   111   7      1.2134719113592571      9.3391287422668743      21.217096418610772
   112   6      3.7600834479029377      9.3441426340062552      21.239080005175673
   113   7      6.2530132605715503      9.4019097726637977      21.034549963984475
   114   7      8.7194006351888813       9.348398642066714      20.934668645379745
   115   6      11.132459199171445      9.2956621123176664      21.168452249161959
   116   1    0.070833052378501543      11.553467162232609      21.177106557106342
   117   7      2.5342378262137286      11.544776945307508      21.175484320415851
   118   7      5.0537666120445612      11.564522305455512      21.143551988198425
   119   4      7.4844620073202464      11.580619401518144      21.077594333083486
   120   7      10.031241585320183       11.56288039263837      21.123408627932136
   121   7    0.096068700596363119      1.4134665327357807      23.257178798853456
   122   7      2.5844538176872809      1.4104114537049999      23.317574581770629
   123   7      5.0253305980924052      1.4364009903782087      23.200325132270514
   124   7      7.4307517051636811      1.5271455950080386      23.479529354731746
   125   7      10.079618169594339       1.451771964179021      23.301375290539287
   126   6      1.3674349432163617      3.6098420593272325       23.26077786504311
   127   7      3.8685448015772557      3.5946047162478503      23.365646841633719
   128   7      6.3231830150287252       3.672747313615123      23.171106797279545
   129   7      8.7749198814121865      3.5692189180123735      23.329031533198687
   130   4      11.377920115066397      3.6484794432223464      23.382662225685621
   131   7    0.090998414094865782      5.7996939980755107      23.385362753727502
   132   7      2.5641213937317153       5.802106323156627      23.364811544188385
   133   6      5.0885125152958652       5.855802543682918      23.384404369130557
   134   7      7.5786179689738056      5.7921344745164536      23.301287237732026
   135   7      10.083463912050314      5.8527496313771348      23.372898072021083
   136   7      1.3282599257238925       7.927951242808148      23.296075954933347
   137   7      3.8042316605949966      7.9695093310885641      23.321633299595604
   138   7      6.3319929879822334      8.0009700035025375      23.338929615484325
   139   4      8.7189335743795056      7.9615348882561827      23.212050071617444
   140   4      11.307610190143849      7.9140092006319467       23.29493166092491
   141   7    0.041043358615810634      10.098614584936213       23.32855913768902
   142   7      2.5227093641106659      10.112828829300435      23.299150954789489
   143   7      5.0941538801039892      10.115271622820035      23.234556993391415
   144   7      7.5294705597885425      10.102074830173818      22.904224358596846
   145   7      10.016731903844619      10.103137015172376      23.299832591955902
   146   7      1.3206290747246696      12.247138558916538      23.314336546243567
   147   7      3.8347421482943216       12.24673789287262      23.230461215798837
   148   4      6.2500210545480988      12.286468482976705      23.261365552182454
   149   6      8.7413642810397842      12.302695099230981       23.29125210537703
   150   7      11.278647312254444       12.24172149497454      23.333569682974051
   151   4       0.114725304954949   -0.044451731953642055      25.371316882105919
   152   7      2.6696211125545211    0.016926751867023318       25.37556926419591
   153   7      5.2153042702965937    0.071293610439986554      25.330748962746465
   154   7      7.6266001516271711    0.017372348193455109      25.458956488618803
   155   4      10.150917624823604    0.079710641901540077      25.519092304925628
   156   1      1.5020090894439027      2.1461496624816996      25.502199624610903
   157   7      3.9903427857442266       2.144124363307303       25.44422568003532
   158   2      5.8160926510213109      2.4878512131312087      24.643899402649609
   159   7       8.904908735652123      2.1130814998048102      25.422808035572352
   160   7      11.428533890070781      2.1747516507761526      25.391864608494373
   161   4     0.13068440226109418      4.3584958467981592      25.453368671839293
   162   7      2.6192403702586393      4.2736776199483897      25.427503211268597
   163   7      5.1359197079479788      4.2567897652823206       25.42218751350709
   164   5      7.4955488378412314      4.0695505736433191      25.343501771758913
   165   7      10.085610957080068      4.2373784756854231      25.396741482055713
   166   7      1.3584091595363297       6.429607604799795      25.423420800671927
   167   7      3.8302955068713014      6.4417747589927945      25.448171499711652
   168   7      6.3859671332258667      6.4000392557476022      25.429166607582921
   169   7      8.7945293074011701      6.3488123707949287      25.370211116139767
   170   7      11.311395772094366      6.4252825519683592      25.433901486875424
   171   6      0.1334521691630032      8.6347380221652834      25.410752616158447
   172   7      2.6436302969526837      8.6161541030700501      25.395370042689226
   173   7      5.1334970706699377      8.5579672142059842      25.353122921909311
   174   3      8.4393136895735203      9.5189479932492933      24.405748662794508
   175   6      9.9139232593936111      8.5819787724996281      25.500871780056848
   176   7       1.364500798256113       10.81797654088906      25.432350595279001
   177   6      3.9060353372060668      10.820771789553355      25.315121149810857
   178   6      6.6643643758324691      10.530696813987117      25.238260531846493
   179   5      9.0321365869008226      10.942968598740077      25.559472742292122
   180   5      11.364253184682159      10.891142937850249       25.48167408377142
   181   7      1.4072308410906804     0.67525596301546442      27.485885728716909
   182   7      3.8960233771045116     0.70988736976187028      27.444855682835879
   183   7      6.3347187251213857     0.72495682807819595      27.569313540773624
   184   7       8.915235305211846     0.73290684039503096      27.549812543180188
   185   4      11.407854642361588     0.73623158144923539      27.518030758374646
   186   7     0.19227077112068014      2.8716432890616472      27.479090552897418
   187   7      2.6802501731226251      2.8592200278096827       27.56368401718527
   188   7      5.1051871819322807      2.8796719648328803      27.574936297412325
   189   7      7.6207772392826092      2.8022951191156888      27.447354409578331
   190   7      10.170085018597145      2.8471886131321411      27.474085464603533
   191   7      1.4112018733291976      5.0180437115231218      27.468264048931857
   192   7      3.8540429171571313      4.9943107945064522      27.486201856614596
   193   7      6.3928554092756462      4.9809588835994063      27.412195927163186
   194   6      8.8692726182448851      5.0111837342764884      27.480797718845249
   195   7      11.382485340208166      5.0102762469711015       27.49711697164598
   196   7     0.15699669370305791      7.1740021492272152      27.487259983514253
   197   7      2.6003637135253337       7.198232421843934      27.480190329802806
   198   7      5.1247770683942342      7.1761595158152378        27.4177169168583
   199   7      7.6383832844542612      7.1983571119945235      27.443665799397614
   200   7       10.14325213463411      7.1733917064867763       27.52635230653922
   201   5      1.3984375844556052      9.3385557494634615      27.514745508613171
   202   7      3.8933978881635642      9.3242656423201957      27.395708714686108
   203   7      6.3930282469702142      9.2963035876833811      27.406681868201652
   204   7       8.858338092436993      9.3819705622304301        27.6035355043376
   205   7      11.366986203613378      9.4325847872704127      27.530791602737665
   206   4     0.20776537353687438      11.493551608830591      27.518048620436666
   207   7      2.6310981036952028      11.469236449190504       27.45237439551185
   208   7       5.162637220601443      11.505048996805499      27.352597259549352
   209   6      7.6118307853745044      11.541107824331206      27.631151499787396
   210   7      10.176782827295115      11.570408110514464      27.566314559181638
   211   7     0.22869404602052171      1.4563334461015742      29.579572806662256
   212   7      2.7297887824283666      1.3687913162280285      29.580221543844186
   213   5       5.156491542925302      1.4305893764146203      29.600691766714469
   214   7      7.6390122941291239      1.3643085643081048        29.5828912887205
   215   7       10.14832542096886      1.4176198115247785      29.618358844209375
   216   7      1.4306024650010587      3.5638537533829244      29.583343225735426
   217   4      3.8447615406308486      3.5776224366695435       29.59914485521422
   218   7      6.3872642509853961      3.5415775893330759      29.539071331914887
   219   7      8.8614185700379746      3.5235905529017622      29.517206852392892
   220   7      11.390739157781498      3.5724875753570022      29.510880061903997
   221   7     0.14109780295398086      5.7387298702099727      29.563718477361814
   222   7      2.6114775286198113      5.7337672357336222      29.551505769506832
   223   6      5.1754963128990381      5.7234468111552586      29.491256628056686
   224   7      7.6673585132399449      5.7471371976246415       29.57492597200369
   225   7      10.123432535173466      5.7541418627673631      29.594132971542688
   226   7      1.3830678459895389      7.9118597446545724      29.549235114012223
   227   7      3.8815811965971849      7.9165037069621143      29.474985975663841
   228   7       6.414549939495144      7.9176675468660962      29.495065463350151
   229   7      8.8674863995928028      7.8962479791514468      29.513640917712642
   230   7      11.388781586999775       7.944415984774273      29.513733635903566
   231   7     0.18344599098282455      10.091475848021213      29.561943038665483
   232   7      2.6514952167728656      10.033810588699314      29.434563829055978
   233   7      5.1673405508661956      10.059068158830387      29.341228310727534
   234   7      7.6234755165196022      10.097919776676466      29.655317939015752
   235   7      10.105990244175569      10.191521401887416      29.586012981935571
   236   7      1.4891193916664067       12.19452735042435      29.556400604908998
   237   3      4.0527836732530353      13.245743992184959      30.559965320190944
   238   7      6.2416611809575757       12.24492401064467      29.679934891568223
   239   4      8.9041710447809503      12.267481918579788      29.722898448769307
   240   7      11.414704307997456      12.280937456548948      29.551905687581041
   241   7      0.2194357317008136     0.11507616667187724      31.629357902101187
   242   7      2.5859459878234481      0.1557976843130201      31.740883107699883
   243   7      5.1898821497144052   -0.018381790897162686      32.100445689117223
   244   7      7.6484190359192326    0.017645714773546112      31.707654820969701
   245   7       10.13142941272902   -0.032172239204651926       31.86403305899114
   246   4      1.3622776833000361      2.2572275833358511       31.65857243052405
   247   7      3.9017297985177595      2.1628686428463384      31.642214718510832
   248   7      6.4298146914497636      2.1628062277367808      31.641617516593829
   249   7      8.8730664818417111      2.1192413987172389      31.671860434663394
   250   7       11.40389041025489      2.1560101664960429      31.651243622506691
   251   7     0.16672048635092795       4.341385493512762      31.643014931069224
   252   7      2.6528195941344759      4.3316446446842809      31.665592666449129
   253   7      5.1337828293748444      4.3220949935735691      31.621161209372982
   254   7      7.6434776730632823      4.3272317753066192      31.584962717857305
   255   1      10.125645848155763       4.237588422669857      31.493754557680134
   256   7       1.349373287556509      6.5171919214098502      31.630662674102233
   257   6      3.8120299757085157      6.5130908652848376      31.661560213678538
   258   7      6.3741409837291352      6.5077990945340796      31.618335038687004
   259   4      8.8441060874904771      6.4795799237092035      31.618740469130515
   260   7      11.335923576034341      6.5093318518121528      31.584822620059541
   261   7     0.19687022873304827      8.7279249613438079      31.647380614957509
   262   7       2.682303583488765      8.7325616906512291      31.531454229963629
   263   1      5.1140807938217039      8.7730033864913448      31.425608183351727
   264   7      7.6115352162519185      8.5947082935821495       31.61390832789758
   265   6      10.122648873259696      8.7025043323480489      31.532882540776875
   266   7      1.5830569434888675      10.848494399338584      31.571992989331786
   267   4      3.9372692651752552      11.294138281526978      30.856349637117724
   268   7      6.2826887981013169      10.776764581792222      31.577315806762805
   269   7      8.7960788544940041      10.819591817887217      31.740588609747473
   270   7      11.447019023372837      10.925071472220854      31.606867113866681
   271   7       1.496663120891077     0.92297114440757122      33.773718651236415
   272   7      3.9428313549318399     0.97332143725182307      33.925548174629206
   273   7      6.4848906450152022     0.99209658614145368      33.900790991163348
   274   7      8.8597107576279104     0.91812658166784189      33.833277026930368
   275   4      11.462772929706423     0.81721854717550124        33.7095951100641
   276   7     0.19720604939162123      3.0129214875321551      33.731343595058505
   277   7      2.6644680349814975      3.0965412958528318      33.795142109424027
   278   1      5.2392187465238296      3.0133535637236246      33.717163969903005
   279   7      7.7506175321359487      3.0600077773129741       33.72368222387172
   280   7      10.224526282933356       3.014142509145219      33.700638645358751
   281   7      1.3433890206602832      5.1995894516888574      33.852383750084741
   282   4      3.8688052084642042      5.1508137043051425      33.766176154493508
   283   7      6.4015081434022969      5.1171209980909662      33.664297447085843
   284   5      8.9083336821366164       5.135639062803051      33.575097039512194
   285   4      11.366771896556317      5.1746370410687632      33.626598198050047
   286   7     0.11484689258247627      7.2996350446779203      33.617405247063928
   287   7      2.6518993487812401      7.3042141285249214      33.739767861700955
   288   7       5.204723350780287      7.2866284089007234      33.659663750047159
   289   7      7.6560608415829039      7.2023575549747667      33.705358664022036
   290   7      10.105529889204497      7.2798898974765818      33.587593391497556
   291   7       1.487216266310357      9.4441679681561244      33.729683655376242
   292   7      3.9770676150515838      9.3913312026462847      33.498549668215588
   293   4      6.4731714736850154      9.3361646521548707      33.642826035114368
   294   7      8.7892116000676008      9.3074331196761904      33.686545807517703
   295   6      11.289710340335104      9.7187112652795538      33.754050855245694
   296   3     -1.3553191585942201      11.851303236725549      33.326279205922582
   297   6       3.043187400103565      11.593935428127192      33.671558040098688
   298   2      5.2220777840568315      12.308490804905766      34.206782322253098
   299   7      7.0112185173296835      11.597115993492181      33.676730039244411
   300   7      9.3980035230291019       11.56453236589198      34.159144969647151
   301   7     0.21391677805061235      1.5716002138871874        35.7547476207396
   302   7      2.6415978928095565      1.6852547113575365      35.859123784947634
   303   7      5.2699643995946959       1.684796290108896      35.939555837309221
   304   4      7.7855003518662347      1.6557609728412876      35.917690101992164
   305   7      10.247553744675017      1.5842505141727667      35.720505947992621
   306   4      1.4396649372033226      3.8494916823381229      35.952168740284947
   307   7      4.0197752292224331      3.7510213962925367      35.830592891815748
   308   7      6.5518168626047277      3.7259589788641447      35.793276532886026
   309   7      9.0425673143807206      3.6947405108167759      35.772681607310155
   310   4      11.612084086723495      3.9657297385412118      35.855102379090582
   311   2   -0.052819138714412052      6.0213253893054954      35.314905901149913
   312   7      2.7458959870038715      5.8078915168721839      35.776713611945908
   313   7      5.2860812365398875      5.9351428569756708      35.708425371456684
   314   7      7.7421499783971264      5.8422123201490281      35.738065747623651
   315   7      10.154461446227943      5.8314445778301769      35.572407341382316
   316   7      1.2351604501233868      7.6264369624902866      35.781851434750052
   317   7      3.9517564798609897      8.0807128874978975      35.719741629798129
   318   4      6.5780156168944419      8.1356444126347682      35.786337814474841
   319   7      8.9771466239325584      7.9986383039003357      35.815258110320045
   320   7      11.370097986751924      7.9545184792556771      35.585277556950651
   321   6     0.22937011986505079      10.088369638934642      35.905970296847585
   322   7      2.7232219649147966      10.217227563563242      35.760645206842398
   323   6      5.2547936782447433      10.259010235316239      35.559942777179224
   324   7      7.9299964540068846      10.373939581685056      35.707212708774264
   325   7      10.271294390373642      9.8655400134383324       37.02503380576956
   326   7     0.52569614221138705      11.673607857541597      33.674050282840369
   327   6      3.9452671240750159      12.521980744848205      36.111111045046414
   328   7      6.4919130217650158      12.537447660636133      35.915160043961841
   329   3      9.5458692691104883      11.423426814434272      36.196011325153847
   330   4      11.275544426824819      12.093623511379969      35.567160589416616
   331   7   -0.036778452337537917   -0.030348452567869208      37.617679176862353
   332   7      2.5044611420066416     0.12640922455032053      38.031615793938464
   333   7      5.2386450718143731     0.19046272187772337      38.121690644925607
   334   7      7.6717094580442344    0.094489721232560844      38.004328869085761
   335   5      9.9242191170417779  -0.0042701585376684814      37.383549596032267
   336   7       1.354094656868378      2.2092584369634385      37.829673058219761
   337   7      3.8975643439321352      2.2202456270553919      37.862556513070075
   338   7      6.5526107150701511      2.2887827293357033      37.897414692343723
   339   7      9.0121422990709679      2.2167008670361175      37.850544961205756
   340   7       11.38930172742802      2.2207771945850361      37.721250856406989
   341   7     0.23476244766089832      4.2761175838424057      38.063729046261955
   342   7      2.7342226412080564      4.3157867911133367      37.917267081169477
   343   7      5.3277585250832438      4.4542982112803582      37.828057278780463
   344   7      7.8549919732360509        4.46783795226027      37.840220274521009
   345   4      10.243406942070415      4.3630015295040803      37.803533328084249
   346   7      1.5374348132990088      6.4324543120974171      37.994652604403548
   347   6      3.9855860418956706      6.4989073625126021      37.754230459753813
   348   6      6.6784876009182739      6.6967884156127626        37.8132592935738
   349   7      9.2591484897532084      6.6549120786106517      37.857376356671288
   350   7       11.70334755636236      6.2968707957717873       37.29174514681025
   351   7    -0.18108934688125386      8.5853331007357152      37.834433095903968
   352   6      2.5188026054447272      8.6833874086652099      37.682841061096887
   353   7      5.1531479192520706      8.7226206761910454      37.788167824310527
   354   7      7.9660220384864928      8.9780035232925446      37.812285863013031
   355   3      10.461041678549423      7.9233350958740667      37.269805952737052
   356   4      1.4224934664952595      12.379741111628382      35.841755009120462
   357   7       3.870618034670235      10.829941313735926      37.965102485640884
   358   6       6.432679006865869      10.878555771969758      37.789066350087118
   359   2      8.6150548329858285      11.190909726766613      37.419278380094461
   360   7      13.864171209908417        10.9261748152952      37.884956603767385
   361   8      4.9989897629867208      8.3115725736657389       41.60488044499693
   362   8      5.6763334764157571      8.5778317312309902      41.790773231729439
