(written by ASE)

362 atoms
8 atom types

0.0      12.447907775999999  xlo xhi
0.0      12.936245229600001  ylo yhi
0.0      52.360083105400001  zlo zhi

Atoms # atomic

     1   7      1.1258461489928908      0.8238889717436213      14.642291495085995
     2   7      3.5643656750307278     0.73953132212375161      14.870731712253134
     3   5       6.025108447551994     0.86867374251361795      14.937496555585264
     4   6      8.6460650338045326     0.97270018076658116      14.946132994429542
     5   7      11.033897131760554      1.2546053154198362      14.461782656253341
     6   7     -0.1717679788363512      3.4797047936232612      14.643203993420608
     7   7      2.2366269934034353        2.97285465746124      15.107016743056263
     8   7      4.7902086358691278      2.9871051505641026      15.020742204545304
     9   7      7.2960842765832306       3.064061851550997      14.892880431776922
    10   7      9.8182663449136029      3.3811983900910465      14.722804429897858
    11   7      1.1446461931700824      5.4348813035574599      15.026065913192193
    12   7      3.5626896491383682        5.14847990598326      15.121916634900181
    13   7      6.0565515745487675      5.1880964260600217      15.008539995182097
    14   7      8.5846407930623077      5.6408333703465576      14.893670905555012
    15   6       11.05786583847631      5.6409770456573218      15.085706047034726
    16   4     0.22598061959898186      7.6755480106128964      14.612199423040874
    17   7      2.4385764021530592      7.5074783763312469       15.09154246650203
    18   7      4.9057922778304466       7.304317724444541      14.977144389760612
    19   2      6.8536187800449353      6.9773220405214911      15.316501276139816
    20   7      10.238289187246023      7.6596589107682869       13.98957507490465
    21   2      1.5590518390212662      9.4753947320320169      15.210666233130455
    22   7      3.6275667932467837      9.5145491962295754      14.919193227462003
    23   7      6.5953548292356432      9.0887663881816252      14.851538331531321
    24   7      9.0625846052320771      9.6698240026946376      14.656326813176783
    25   7      11.955570183290176       9.881133492330795      14.711499180830209
    26   7     0.32506955160793444      10.804836179498626      16.829680527451437
    27   7      2.0427778786901598      11.479324822631851       15.15135963581808
    28   7      4.8281522882187788      11.612168462988061      14.819081773732684
    29   6      7.3844968156475419        11.5008866160374      14.917408899585133
    30   7      9.9341541372659528      11.859082193031005      14.578988161671612
    31   6   -0.044465685566714923      1.8909691112518681      16.485920704098511
    32   7      2.3179730059130312      1.2559044952490701      16.930913088337277
    33   7      4.8395369441616527      1.5376833324961283      16.982807565505915
    34   7      7.3673115490799486      1.7134433163922929      16.946605066369383
    35   7      9.9312461460447281      1.7155257312543462      16.904836947545895
    36   7      1.1474563686182926      3.9708645162599212      17.062832513323002
    37   7      3.5804595388026126      3.6482710800739437      17.093361562509308
    38   5      6.0863328135035042      3.7439950253479233      16.970399192547134
    39   7      8.6456235354145736      3.8662551111022978      16.814440382415526
    40   7      11.081942206753707      3.9550294205046987      16.965051284466735
    41   7    -0.12121176889443262      6.1121520752181686      17.128254256471539
    42   7      2.3830253396644778      6.0776568364203349      17.112163656234284
    43   7      4.8648416713132629      5.8132022345415812       17.07725713921409
    44   7      7.3530653438359881      5.8825868433579673      17.023555256108459
    45   7      9.8180972832087061      6.1130970688675443       17.17994066693586
    46   7     0.82868467523890343      8.4158988196961193      16.860475366508471
    47   7      3.8261948885238022      8.0118778318806978      17.027193100656262
    48   7      6.2359859723023883        7.99496983272316       17.01831110732202
    49   7      8.4805828750653447      7.8603565945080724      16.022499465191771
    50   7      10.916481344554803      8.1190483664883661      16.214911359789578
    51   3    -0.81657701461992327      9.3730275809552168      17.499646041355877
    52   7      2.6246326707216876      10.083438928801588      17.043454844608441
    53   7        5.13891800521868      10.113077419007357      16.779571912900238
    54   7      7.7047230807506706      10.046413143431883      16.921991108224958
    55   7      10.254307945845662      10.410915595307122      16.646526283410093
    56   2      0.9376485010729777      12.707377789785967      16.354739863512183
    57   7      3.7143433928724141      12.228275045273213      16.929761175892878
    58   6      6.3052794673898251      12.341209146665323      17.012539844781415
    59   7      8.8535725362259381         12.373570100354      16.890962158508206
    60   7      11.309425633723704      12.625311278801476      16.350909004574074
    61   6     0.11578859355121764   -0.019554325734873937      18.576547528333784
    62   7      2.5736637059287202    0.038852172809279203       19.14391333784214
    63   5      5.0252024130076736     0.12279184781447706      19.064496921224318
    64   7      7.5077681939755614     0.11287617600342136      19.093831094964276
    65   7      10.092210274923891     0.10908418700959578      18.965413450901906
    66   6      1.3642480645215094      2.2344926163334637      19.066865721598777
    67   5      3.8086819365048812      2.1871506638271736      19.105053272767694
    68   7      6.2033382528719656      2.1801605856685775      19.050500906148859
    69   7      8.7432143878528006      2.1914600585490462      18.963670896901217
    70   7      11.302469796416531      2.2952815729961098      18.908542178751429
    71   1      -0.107737282029416       4.459445287154316      19.196140547433412
    72   7      2.4605409234127129      4.4258242123307276      19.116998275695472
    73   7      4.9521597516131592      4.3142051900788276      19.077028728785844
    74   6      7.4812014758314334      4.3206389831103875      19.026859931637834
    75   5      9.8733250582552987      4.3694546917419217      19.011073326378369
    76   7      1.1780148596174773      6.5021603713345622         19.190775919257
    77   7      3.7710099801981629      6.5032435562363409       19.14489178245995
    78   7      6.1824318162148737       6.528616774140616      19.105730854138788
    79   7       8.625541089840139      6.5220259822842008      19.286220855107846
    80   7      11.104747190167366      6.5148562962382481      19.283924836833918
    81   4   -0.065695039460011942      8.5880177339197523      19.188702524053578
    82   6      2.4453116806165349      8.5417004253916584      19.024683726669203
    83   7      4.9808371223833596      8.7332855486006906      19.033546601185183
    84   7      7.4348608446662539      8.6435293576720102      19.011699553825306
    85   6      9.8413736386295785      8.5199853986976013      18.450231054223597
    86   7       1.316185646736864      10.762207188801408      19.171010065697448
    87   1      3.8581621601429643      10.885246674559047      19.009899045309549
    88   7      6.2873402756804575      10.826920413204206      19.022176118277496
    89   6      8.7950878805092945      10.875402158204546      18.980311860277915
    90   4      11.297358348795095      10.813553053331896        18.8920848861911
    91   4       1.375541982613633     0.79002124616972769      21.253299282103484
    92   7      3.8064356726947848     0.74585442818635239      21.133658565474548
    93   7       6.333708269611277     0.74486428938233373       21.20787291649086
    94   7      8.7894107053026502     0.75786494778294922      21.179215356630401
    95   7       11.37494300881993     0.72883344900726077      21.031823717603391
    96   7    0.093943373788359708       2.869088348827546      21.177566567702769
    97   7      2.6158846226066621      2.8670918238122742      21.209890589724445
    98   7      5.0586453769297082      2.8814993692408444      21.152880341107224
    99   5      7.5133860609846197      2.8482156572582604      21.143169148796012
   100   6      10.056791658104567       2.845592971136226      21.020282141093407
   101   7      1.2207511842164234      5.0354014014588726      21.232820782700635
   102   6      3.7502605965097633       5.051409891742054      21.226968635400553
   103   7      6.2906542715185712      5.0619706141187226      21.157053163980624
   104   7      8.7511132138514807      5.0662476800563612       21.21646708256835
   105   3      10.101880795940463      4.4284378766196024      22.262283604625988
   106   7   0.0062048693717156895      7.1420572331203367      21.274302915075047
   107   7      2.4846339846278966       7.176097391218601      21.238206820067159
   108   7      5.0314898392083167      7.2261604148528784      21.207867472304013
   109   7      7.4387947723824253      7.2704188435325126      21.240283563495041
   110   7      9.9139051253597117      7.1986929114480223       21.27217846077658
   111   7      1.2134716795111795      9.3391287606583102       21.21709528698841
   112   6      3.7600833409440262      9.3441426575784003      21.239078792379193
   113   7      6.2530132431629157      9.4019098173329372      21.034548778412095
   114   7      8.7194007737551544      9.3483987140167493       20.93466740981259
   115   6      11.132459557547373      9.2956621939151045       21.16845113215609
   116   1    0.070832761342526446      11.553467362851991      21.177105582008913
   117   7      2.5342376719860442      11.544777151971969      21.175483226332851
   118   7       5.053766553595489      11.564522528026448      21.143550873166106
   119   4      7.4844620432528215      11.580619663782018      21.077593140165156
   120   7      10.031241823052442       11.56288062643959      21.123407467730516
   121   7     0.09640565248147169      1.4145473851452794      23.256904615408949
   122   7      2.5847176682919453      1.4112933325971515      23.317221955572304
   123   7      5.0255429125439175      1.4372379706599232      23.199969016151037
   124   7      7.4311637494044964      1.5280111178382267      23.477840185217975
   125   7      10.079864066532469      1.4529404715340841      23.301144963535418
   126   6      1.3680707690250351       3.610790639718608      23.260736328657995
   127   7      3.8690919241387443      3.5953826591912876      23.365963181359302
   128   7      6.3236782288651723      3.6736994576719302      23.171069950338744
   129   7      8.7752842881677999      3.5703137395964846      23.328795854258484
   130   4      11.378627386180089      3.6496328024894638      23.381968195555139
   131   7    0.091763025269380696      5.8006281357010678      23.385107270578587
   132   7      2.5647559342927821      5.8028781317821876      23.364958122842765
   133   6      5.0888797219649557      5.8564303581382369      23.384542175706489
   134   7       7.578935152398695      5.7930804738739177      23.300909237768852
   135   7      10.084070482244149      5.8535311603822215      23.372015903335264
   136   7      1.3288062242436967      7.9286284266398095      23.295622339102092
   137   7      3.8046234420483103       7.970105565275488       23.32152461652219
   138   7      6.3322411508040473      8.0015944370390155      23.338481521404614
   139   4      8.7191844563970307      7.9624547950246978      23.211343579693025
   140   4      11.308221596310274      7.9147643080264363      23.294294179086041
   141   7    0.041342203017888032      10.099599430110269      23.327695231571369
   142   7      2.5229201902014027      10.113473901750496      23.298672204860445
   143   7       5.094363405452242      10.115871395573514      23.234012729831335
   144   7      7.5295004189813994      10.102639014236653      22.903502243158307
   145   7      10.017134954421987      10.104116466399249      23.298646868158848
   146   7      1.3208408551003872      12.248010068334169      23.313832668597289
   147   7      3.8348855488145226      12.247546801799697      23.229824767486097
   148   4      6.2500880866522204      12.287226997775711      23.260663244598422
   149   6      8.7416871548897976      12.303465484966164      23.290403297501967
   150   7      11.278867464463289      12.242978462833817      23.332662604845343
   151   4     0.11531610060564622    -0.04247425743953389      25.370215452001482
   152   7       2.670249792114828    0.018353728567721189      25.374725208520573
   153   7      5.2157263410947481    0.072727990008509505      25.329529869075756
   154   7      7.6271784543373338    0.019647590873961167      25.457023557119829
   155   4      10.151523328909805    0.082341258944922738      25.517821902428903
   156   1       1.502952075017812      2.1479843416624864      25.501748521417685
   157   7      3.9910001862159068      2.1456401149364135      25.444196364305693
   158   2      5.8158367479041013      2.4893137270661332      24.643181564371975
   159   7      8.9049427944242527      2.1156940584438835      25.421915389033909
   160   7      11.429237671685179      2.1770813257696382      25.391040286087563
   161   4     0.13191355492542084      4.3605964422975765      25.453077046070447
   162   7      2.6201163055484118      4.2756100063936398      25.427965421574378
   163   7      5.1365072088624633       4.258209367987809      25.422831742925968
   164   5      7.4961723293561313      4.0728247937819013      25.343168912400284
   165   7      10.086476358040946      4.2396369129759108        25.3955942041861
   166   7      1.3592720252789734      6.4312617305769368      25.423223375713704
   167   7      3.8310394650372515      6.4432533389906022      25.448457380060738
   168   7      6.3864558131706053       6.401502163016012      25.429007533660489
   169   7      8.7952097129757334      6.3512023272445379      25.368625155902219
   170   7      11.312177761283271      6.4271173084814812      25.432559664129538
   171   6     0.13425563140170677      8.6364671869474616       25.40943287381323
   172   7      2.6442411156048777      8.6173908646420792      25.394788330563486
   173   7      5.1341268731870402      8.5592266225557054      25.352386737011784
   174   3      8.4398435774775002      9.5202700011021459      24.404680490933931
   175   6      9.9150369880866105      8.5839668811639509      25.498971607059342
   176   7      1.3651246575937535      10.819583531054597       25.43117689391558
   177   6      3.9065652168430982      10.821953878812867      25.314073726535149
   178   6      6.6650991773243238      10.532299180977704       25.23689443974423
   179   5      9.0331021670633813      10.945172892420407      25.557069285588177
   180   5      11.364936207056472      10.893277309383921      25.479662881499031
   181   7      1.4080757432101449     0.67757677605245092      27.483794578206059
   182   7      3.8966909674155854     0.71165266899409518      27.443737163610333
   183   7      6.3353330826417906     0.72807118011154304      27.566206943353063
   184   7      8.9158274375384661     0.73606982729695836      27.547977030600737
   185   4      11.408565368928897     0.73921858384754735      27.516494029874746
   186   7     0.19360385607292324      2.8745374814527702      27.477939917346763
   187   7      2.6812324983943241      2.8623362946330064      27.563175207238288
   188   7        5.10518610335233      2.8827787310763875      27.575555154871115
   189   7       7.620751154410689      2.8054465617035698       27.44644172231887
   190   7      10.170914218478794      2.8500158053299383      27.472793209728195
   191   7      1.4124438626564462      5.0208849321820246      27.469080647263556
   192   7      3.8546765537392145      4.9974479559891822      27.487788600771538
   193   7      6.3929814576335646      4.9836860657045117       27.41297019243131
   194   6       8.869665193284062      5.0137736435360347      27.478853286920213
   195   7       11.38343330499103      5.0128677224731062      27.495607439617604
   196   7     0.15753791557434232      7.1762196316943596      27.485801497705427
   197   7      2.6009414689997516      7.2001950434483799      27.480514266443926
   198   7      5.1255944946544103      7.1781640678167173      27.417769957689725
   199   7      7.6392890599726355      7.2007836199123263      27.442040337585677
   200   7      10.143974493236421      7.1758415600988119       27.52399607672103
   201   5      1.3987842082463122      9.3402618161671782       27.51302593418583
   202   7      3.8943362448461452      9.3254343050635278      27.394378914981399
   203   7      6.3943613058059556      9.2981125829138307      27.404307887894969
   204   7        8.85932999577666      9.3847284189335092      27.600825959701666
   205   7      11.367502021350836      9.4352808052863786      27.528311157652034
   206   4     0.20850746279895477      11.496085164061281      27.515698148981844
   207   7      2.6321679358110881      11.470600953964455      27.450860465131626
   208   7      5.1635865687103211      11.507016092979327      27.350615420567291
   209   6      7.6129051633574258      11.544017139200321      27.627693893431601
   210   7      10.177707888171398      11.573306918646857      27.563828110287112
   211   7     0.23005431598553475      1.4597285391749806      29.576934737405502
   212   7      2.7300638869102269      1.3744416922210272      29.577006807166612
   213   5      5.1586640252460407      1.4358333503041474      29.598131079863624
   214   7      7.6397638447814167      1.3684059048167441      29.580480610796712
   215   7      10.149121918342392      1.4209674577965945      29.616644448797615
   216   7      1.4322956098324442      3.5678643194793138      29.583486324902108
   217   4        3.84558941974496      3.5824356531450139      29.601327904464455
   218   7      6.3878762752867564      3.5460701336485774      29.539566275756098
   219   7      8.8617932664732848      3.5268330845040716      29.515115843208495
   220   7       11.39239412134836      3.5754938300453181      29.508541764695124
   221   7      0.1424552658116271      5.7414032539773849      29.562463304327174
   222   7       2.612908654597605      5.7368540456671404      29.555097765506883
   223   6      5.1763778484391691      5.7269328152497616       29.49340378587295
   224   7       7.668588258885201      5.7505072553188441      29.573545642544836
   225   7      10.124655499773468      5.7570051306806782      29.590813203505604
   226   7       1.382916822183047      7.9133073962372178      29.548291500667673
   227   7      3.8819953108522327      7.9177016189624387      29.474667039278131
   228   7      6.4159314134798668       7.920179333474425      29.493010632435009
   229   7      8.8690935005752785      7.8994129989390425       29.51072736119076
   230   7      11.389416823211199      7.9476034295264748      29.510571309340129
   231   7     0.18416708132829368      10.094197059398528      29.558471239680173
   232   7      2.6521772151966272      10.033868513229052      29.431753533719867
   233   7      5.1689878034905599      10.060777097553119      29.337368343930333
   234   7      7.6247708435036863      10.101276364332394      29.651140780625628
   235   7      10.106990016427384      10.194820072347563      29.583242664935948
   236   7      1.4916429619243956       12.19752835006207      29.552542474685175
   237   3      4.0525303249145264      13.251110347788991      30.552493764362328
   238   7      6.2426444680467563       12.24853719181062      29.674924969155697
   239   4      8.9057233972408323      12.270911308678246        29.7195453373416
   240   7      11.416149150602608      12.284120237009647       29.54907850180323
   241   7     0.22167050481112938     0.11760319237233614       31.62507049574678
   242   7      2.5873226411070589     0.15900150648529732      31.735210695691851
   243   7      5.1925178608609848   -0.012900530973950414      32.090448804416688
   244   7       7.650848384298027    0.022099804387934349      31.701934781993121
   245   7      10.134052866688085   -0.028779261464079112      31.861239214460539
   246   4      1.3649380123874661      2.2603146260417764      31.655844019210498
   247   7      3.9024991580931556      2.1673666457812559      31.640962727975189
   248   7      6.4308298290246482       2.168358651536674      31.640313560477967
   249   7      8.8740595299790304      2.1230361404974545       31.67017198508648
   250   7      11.406327589446516       2.158907638927797      31.647841061286488
   251   7     0.16888277692370948      4.3443008336871944      31.641967121624042
   252   7      2.6537523267783056      4.3357950333495241      31.671544185577932
   253   7      5.1337331149316077      4.3268460099053572      31.624196238284966
   254   7      7.6444704237445613      4.3316510728996862      31.584107408037585
   255   1      10.126566849679925      4.2396233215602068      31.488686428742255
   256   7      1.3515831454741176      6.5173919408227494       31.63268214619178
   257   6       3.814849156346245      6.5165039334897008      31.666836898474219
   258   7      6.3765667807546604      6.5117652451667496      31.618169305180324
   259   4      8.8473780454830848      6.4826961927325266      31.615368710031724
   260   7      11.337881522359478      6.5123339936958331      31.579980353368345
   261   7      0.1975144906907183      8.7297459737256737      31.643713241241468
   262   7      2.6816576202507973      8.7319889051076238      31.529071536952873
   263   1      5.1136818696816704      8.7768927743960337      31.420611236982666
   264   7       7.613734054743885      8.5982459158884676       31.60834139821112
   265   6      10.124503432495798      8.7060097966116334      31.529894485421963
   266   7      1.5856594615037869      10.849885297534748      31.564239201110286
   267   4      3.9385746035000526      11.301194003665415      30.844360853659403
   268   7      6.2826404986681617        10.7809101911664      31.571200723507705
   269   7      8.7970048739075981      10.823231151818474      31.735789799502722
   270   7      11.449138323144206      10.927480405360924      31.603294221185006
   271   7      1.5026595266896865     0.92400584322155954      33.769544725106464
   272   7      3.9463858621528289     0.97310038020370904      33.918500223888586
   273   7      6.4869102225705948     0.99639560721522069      33.893552501946481
   274   7       8.862046808977281      0.9219217139690844      33.830687227333456
   275   4      11.468987263797537     0.81999099926080099      33.705535450805932
   276   7     0.20222921237034591      3.0133994659799344      33.727680683386666
   277   7      2.6682347635135488      3.0979329690200883      33.798162931019732
   278   1      5.2382485936759524      3.0179879042919939      33.719073039874445
   279   7      7.7519738067476238      3.0643099835529566      33.722893453179637
   280   7      10.228426439686023      3.0157409377068332       33.69554825592764
   281   7       1.342902513305176       5.200431108908286      33.871463554389436
   282   4      3.8646112087780229      5.1563121957733999      33.778286796101618
   283   7      6.4025628639463532      5.1189208577598304      33.664152760082793
   284   5      8.9141992551294802      5.1379001878440986      33.570237944671184
   285   4      11.368172517399797      5.1756299609479015      33.616732437445229
   286   7     0.11680543391003895      7.3008287300309753      33.613008400650905
   287   7      2.6521714538776089      7.3006947541516949      33.746530055700227
   288   7      5.2114030335179073      7.2845809875642722      33.660742339650902
   289   7      7.6614050527992692      7.2040733817500087      33.698612948436612
   290   7      10.109762892060692      7.2820109642323763      33.584077551450029
   291   7      1.4891750268671569      9.4439355068643369       33.72242899440802
   292   7      3.9776964064603915      9.3815296177506262      33.495444132124312
   293   4      6.4774335975758639      9.3398751737061101       33.62969942499047
   294   7       8.793830879448409      9.3096219897527916      33.681884061846397
   295   6      11.294852126441777      9.7219716995161303      33.751659442807984
   296   3     -1.3482424000125655      11.854220512095967      33.321675503581055
   297   6      3.0509938299390043      11.589915952955694      33.657504530012183
   298   2       5.228331046691153      12.311138180751591      34.194458575511938
   299   7      7.0192481603389822      11.600839018010504      33.669328657595194
   300   7      9.4044872908243988      11.568643260100226      34.152299086290732
   301   7     0.22408169862821931      1.5716169611382336       35.75171311882751
   302   7      2.6514542835152448       1.680030874803889      35.859638611030512
   303   7      5.2700671542781778      1.6844320851644328      35.936938168139633
   304   4      7.7883952524194546      1.6618488309454347      35.911077816779979
   305   7      10.256116335084053      1.5858633606717751       35.71592505090549
   306   4      1.4595466934117649       3.842832167327157       35.95973844129621
   307   7      4.0243472554975908      3.7507374556913473      35.838383077334186
   308   7      6.5525145940036564      3.7278904653748706      35.795112743891181
   309   7      9.0500219930193939      3.6963166575836466      35.766305993663494
   310   4      11.626172248273923      3.9653642574038588      35.847741412967181
   311   2   -0.060352846335411832        6.02455971942143      35.308545806113734
   312   7       2.752884002800859      5.8113124381768424      35.799377546900722
   313   7      5.2898634609879007      5.9385141192058475      35.716088882844765
   314   7      7.7515539794450916      5.8386127361570423      35.724039663478415
   315   7      10.164821175757474      5.8313916347622659      35.568102452369125
   316   7      1.2353012775865955       7.619326769633691      35.782164279692175
   317   7      3.9659129495981915       8.074538304947195      35.712915402371671
   318   4      6.5913106220414521      8.1360716221363738      35.781501521333411
   319   7      8.9855273113489087      7.9984029321530468      35.809837075859392
   320   7      11.375005849507307      7.9591961242406501       35.58085181950544
   321   6     0.23940158220834709      10.087091854998388       35.90417874057195
   322   7      2.7294707009343906      10.207172830314516       35.74530543984519
   323   6      5.2638387029927944      10.264181206803149      35.534749479477334
   324   7      7.9361932664408092      10.378818808250918      35.698241670613847
   325   7      10.280325643308895      9.8696587796611261      37.013438519565483
   326   7     0.53304768482351128      11.674096898544725      33.666508208394241
   327   6      3.9510091357728774      12.512707834903974      36.096962246512639
   328   7      6.4965850960323239      12.542306267921846      35.905396720156915
   329   3       9.554728542330734      11.427212025350059      36.184463046229773
   330   4      11.286262119363952      12.094376156512414      35.560475544763293
   331   7   -0.025760063493385197   -0.029384149285855324      37.609375042580126
   332   7       2.517257902250535     0.13448676492546627      38.017787999277445
   333   7      5.2377367498181284     0.19154838460812124      38.108748722614372
   334   7      7.6807572388338317     0.10262998575501296      37.995093352707471
   335   5      9.9348631736745627  -0.0039698620970426137      37.376970359351063
   336   7       1.365825494554787      2.2177848549231767      37.829699949422121
   337   7      3.9028620366892151      2.2343056251031226       37.86559915754551
   338   7      6.5559948346033146      2.2889052758941895      37.893146295170119
   339   7      9.0221161545741086      2.2192217499763709      37.841684675812324
   340   7      11.400838721639436      2.2246237426991655      37.716582254517412
   341   7     0.24620050635225973      4.2842116693986849      38.057304378391869
   342   7      2.7497611467673582      4.3427065723628422      37.935381708453136
   343   7      5.3329888652610737      4.4633576575843295       37.83658081651464
   344   7      7.8621148183318441      4.4653680252165131      37.832074916014662
   345   4      10.252999767548536      4.3640756605013422      37.792121770179584
   346   7      1.5407233787064121      6.4473007628086334      38.032442834425559
   347   6      3.9981373099311988      6.5274525927337335      37.774409852930425
   348   6       6.690254462754484      6.6976103560715687      37.795812995090763
   349   7      9.2677889969905785      6.6542355952446623      37.848173951231423
   350   7      11.714223122044155      6.3011032491041981      37.285443894822947
   351   7    -0.17742282151552743      8.5911594038081169      37.832968800099714
   352   6      2.5257278234226836      8.6811678574620235      37.663011281380747
   353   7      5.1820543053017314      8.7462918419650624      37.747596127337729
   354   7      7.9759514838425769      8.9847759396761422      37.797212328681084
   355   3      10.468081146620834      7.9262391503920995      37.265476920094372
   356   4      1.4319151519493754      12.377672084091911      35.830377247577417
   357   7      3.8806675800437418      10.818172983931275      37.947274570530496
   358   6      6.4486213443045681      10.895489088315017      37.782188856865709
   359   2      8.6286096847131919      11.191052292682098      37.410463574520044
   360   7      13.883467298773061      10.930396154897537      37.873158196219983
   361   8      5.0684764905679396      7.4644315384457096      40.248867618157448
   362   8      4.5476085686262264      7.2664509688284973      40.751909738389031
