(written by ASE)

362 atoms
8 atom types

0.0      12.447907775999999  xlo xhi
0.0      12.936245229600001  ylo yhi
0.0      52.360083105400001  zlo zhi

Atoms # atomic

     1   7      1.1258461489928877     0.82388897174361975      14.642291495085971
     2   7      3.5643656750307215     0.73953132212374872      14.870731712253109
     3   5      6.0251084475520313     0.86867374251361507      14.937496555585239
     4   6      8.6460650338045575     0.97270018076657927      14.946132994429517
     5   7      11.033897131760579      1.2546053154198331      14.461782656253316
     6   7    -0.17176797883635345       3.479704793623255      14.643203993420583
     7   7      2.2366269934034291      2.9728546574612338      15.107016743056239
     8   7      4.7902086358691154      2.9871051505640964      15.020742204545279
     9   7       7.296084276583243      3.0640618515509908      14.892880431776897
    10   7      9.8182663449136278      3.3811983900910403      14.722804429897833
    11   7      1.1446461931700793      5.4348813035574226      15.026065913192168
    12   7      3.5626896491383619      5.1484799059832227      15.121916634900156
    13   7      6.0565515745487799      5.1880964260599844      15.008539995182073
    14   7      8.5846407930623325      5.6408333703465203      14.893670905554988
    15   6      11.057865838476335      5.6409770456572845      15.085706047034702
    16   4     0.22598061959897958      7.6755480106128839      14.612199423040849
    17   7      2.4385764021530529      7.5074783763312345      15.091542466502005
    18   7      4.9057922778304341      7.3043177244445276      14.977144389760587
    19   2      6.8536187800449477      6.9773220405214538      15.316501276139791
    20   7      10.238289187246048      7.6596589107682993      13.989575074904625
    21   2      1.5590518390212631      9.4753947320320417       15.21066623313043
    22   7      3.6275667932467774      9.5145491962296003      14.919193227461978
    23   7      6.5953548292356556      9.0887663881816501      14.851538331531296
    24   7       9.062584605232102      9.6698240026946625      14.656326813176758
    25   7      11.955570183290201      9.8811334923308198      14.711499180830184
    26   7     0.32506955160793022       10.80483617949865      16.829680527451387
    27   7      2.0427778786901536      11.479324822631876      15.151359635818055
    28   7      4.8281522882187415      11.612168462988086      14.819081773732659
    29   6      7.3844968156475543      11.500886616037425      14.917408899585109
    30   7      9.9341541372659776       11.85908219303103      14.578988161671587
    31   6   -0.044465685566718149       1.890969111251865      16.485920704098461
    32   7       2.317973005913025       1.255904495249067      16.930913088337228
    33   7      4.8395369441616403      1.5376833324961252      16.982807565505865
    34   7       7.367311549079961      1.7134433163922898      16.946605066369333
    35   7       9.931246146044753       1.715525731254343      16.904836947545846
    36   7      1.1474563686182895       3.970864516259915      17.062832513322952
    37   7      3.5804595388026064      3.6482710800739375      17.093361562509259
    38   5      6.0863328135035166      3.7439950253479171      16.970399192547085
    39   7      8.6456235354145985      3.8662551111022916      16.814440382415476
    40   7      11.081942206753732      3.9550294205046801      16.965051284466686
    41   7    -0.12121176889443716      6.1121520752181313      17.128254256471489
    42   7      2.3830253396644716      6.0776568364202976      17.112163656234234
    43   7      4.8648416713132505      5.8132022345415439      17.077257139214041
    44   7      7.3530653438360005        5.88258684335793      17.023555256108409
    45   7       9.818097283208731       6.113097068867507       17.17994066693581
    46   7     0.82868467523889888      8.4158988196961442      16.860475366508421
    47   7       3.826194888523796      8.0118778318806783      17.027193100656213
    48   7      6.2359859723024007      7.9949698327231724      17.018311107321971
    49   7      8.4805828750653696       7.860356594508084      16.022499465191721
    50   7      10.916481344554828       8.119048366488391      16.214911359789529
    51   3    -0.81657701461992838      9.3730275809552417      17.499646041355827
    52   7      2.6246326707216814      10.083438928801613      17.043454844608391
    53   7      5.1389180052186925      10.113077419007382      16.779571912900188
    54   7       7.704723080750683      10.046413143431907      16.921991108224908
    55   7      10.254307945845687      10.410915595307147      16.646526283410044
    56   2     0.93764850107297615      12.707377789785992      16.354739863512133
    57   7      3.7143433928724079      12.228275045273238      16.929761175892828
    58   6      6.3052794673898376      12.341209146665348      17.012539844781365
    59   7       8.853572536225963      12.373570100354025      16.890962158508156
    60   7      11.309425633723729      12.625311278801501      16.350909004574024
    61   6      0.1157885935512134   -0.019554325734879637      18.576547528333734
    62   7       2.573663705928714    0.038852172809271786       19.14391333784209
    63   5      5.0252024130076611      0.1227918478144694      19.064496921224269
    64   7      7.5077681939755738     0.11287617600341383      19.093831094964226
    65   7      10.092210274923916     0.10908418700958951      18.965413450901856
    66   6      1.3642480645215063      2.2344926163334575      19.066865721598727
    67   5       3.808681936504875      2.1871506638271674      19.105053272767645
    68   7      6.2033382528720029      2.1801605856685713      19.050500906148809
    69   7      8.7432143878528255        2.19146005854904      18.963670896901167
    70   7      11.302469796416556      2.2952815729961036      18.908542178751379
    71   1    -0.10773728202942288      4.4594452871543035      19.196140547433362
    72   7      2.4605409234127067      4.4258242123307152      19.116998275695423
    73   7      4.9521597516131468      4.3142051900788152      19.077028728785795
    74   6      7.4812014758314458      4.3206389831103502      19.026859931637784
    75   5      9.8733250582553236      4.3694546917418844       19.01107332637832
    76   7      1.1780148596174715      6.5021603713345248       19.19077591925695
    77   7      3.7710099801981567      6.5032435562363036      19.144891782459901
    78   7      6.1824318162148861      6.5286167741405787      19.105730854138738
    79   7      8.6255410898401639      6.5220259822841635      19.286220855107796
    80   7      11.104747190167391      6.5148562962382108      19.283924836833869
    81   4    -0.06569503946001938      8.5880177339197346      19.188702524053529
    82   6      2.4453116806165287      8.5417004253916833      19.024683726669153
    83   7      4.9808371223833472      8.7332855486007155      19.033546601185133
    84   7      7.4348608446662663      8.6435293576720351      19.011699553825256
    85   6      9.8413736386296033      8.5199853986976262      18.450231054223547
    86   7      1.3161856467368602      10.762207188801433      19.171010065697399
    87   1      3.8581621601429581      10.885246674559072      19.009899045309499
    88   7      6.2873402756804699      10.826920413204231      19.022176118277446
    89   6      8.7950878805093193      10.875402158204571      18.980311860277865
    90   4       11.29735834879512      10.813553053331921       18.89208488619105
    91   4      1.3755419826136233     0.79002124616971614      21.253299282103434
    92   7      3.8064356726947786     0.74585442818634073      21.133658565474498
    93   7      6.3337082696112645     0.74486428938232141       21.20787291649081
    94   7      8.7894107053026751     0.75786494778293767      21.179215356630351
    95   7      11.374943008819955     0.72883344900725233      21.031823717603341
    96   7    0.093943373788350465      2.8690883488275398      21.177566567702719
    97   7      2.6158846226066559       2.867091823812268      21.209890589724395
    98   7      5.0586453769296957      2.8814993692408382      21.152880341107174
    99   5      7.5133860609846321      2.8482156572582542      21.143169148795963
   100   6      10.056791658104592      2.8455929711362198      21.020282141093357
   101   7      1.2207511842164132      5.0354014014588602      21.232820782700585
   102   6      3.7502605965097571      5.0514098917420416      21.226968635400503
   103   7      6.2906542715185587      5.0619706141186853      21.157053163980574
   104   7      8.7511132138515055      5.0662476800563239        21.2164670825683
   105   3      10.101666627235065      4.4283940157872417      22.262847229707614
   106   7   0.0062048693717028751      7.1420572331202994      21.274302915074998
   107   7      2.4846339846278904      7.1760973912185637      21.238206820067109
   108   7      5.0314898392083043      7.2261604148528411      21.207867472303963
   109   7      7.4387947723824626      7.2704188435324753      21.240283563494991
   110   7      9.9139051253597366       7.198692911447985       21.27217846077653
   111   7      1.2134716795111693      9.3391287606583351      21.217095286988361
   112   6        3.76008334094402      9.3441426575784252      21.239078792379143
   113   7      6.2530132431629282       9.401909817332962      21.034548778412045
   114   7      8.7194007737551793      9.3483987140167741       20.93466740981254
   115   6      11.132459557547397      9.2956621939151294       21.16845113215604
   116   1    0.070832761342514095      11.553467362852016      21.177105582008863
   117   7       2.534237671986038      11.544777151971994      21.175483226332801
   118   7      5.0537665535954766      11.564522528026473      21.143550873166056
   119   4      7.4844620432528339      11.580619663782043      21.077593140165106
   120   7      10.031241823052467      11.562880626439615      21.123407467730466
   121   7    0.096286906988298185      1.4148775581408775      23.257258915589514
   122   7       2.584613775603307       1.411421077175335      23.317567420946197
   123   7      5.0255281968019814      1.4371471265914024      23.200425755076765
   124   7      7.4311336581919401      1.5281663004860286      23.477971228170514
   125   7      10.079671863716852       1.453200246581003      23.301632436069056
   126   6      1.3680827111023774      3.6111593208723662      23.261352072414393
   127   7      3.8691867881985527      3.5956177874199917      23.366996579118418
   128   7       6.323803445994062      3.6741949350056515      23.171628055851237
   129   7      8.7752575288829444      3.5707856753077243      23.329887100340311
   130   4      11.378467997818019      3.6500980266572181      23.383040597765579
   131   7    0.091998014074712073      5.8009792198275463      23.386415244775563
   132   7      2.5650460003133095       5.803036955313349      23.366031797067691
   133   6      5.0889236143865428      5.8567234934914971      23.385964418317357
   134   7      7.5788158122728264      5.7934549947227234       23.30220060550846
   135   7      10.083865813698601       5.853524975776546      23.373209430871899
   136   7      1.3290643433313565      7.9286903906301722      23.296184693615476
   137   7      3.8047647320172047      7.9702354029892799      23.322433055923394
   138   7      6.3322592283001047      8.0016530127795402      23.339697580580228
   139   4       8.719305463053395       7.962321354150327      23.211695558172874
   140   4      11.308257899818402      7.9147346460044012      23.294560281504662
   141   7    0.041433959799690834      10.099524672710558      23.327976930819034
   142   7      2.5230654611991716       10.11344534140866      23.299278113897081
   143   7      5.0942932159222023      10.115785529488528      23.234724247981458
   144   7      7.5294757641556851      10.102672779829204      22.903913291694764
   145   7       10.01709630620587       10.10407563404776      23.298873755723676
   146   7      1.3207747208280463      12.248034932644529      23.314114842646372
   147   7      3.8348367656730735      12.247310279299324      23.230469283078108
   148   4      6.2500530332171351      12.287097338956388      23.261259571307278
   149   6      8.7416548943842116      12.303547757327539      23.290389569053414
   150   7       11.27884127633801       12.24307183800981      23.332790993456801
   151   4     0.11521757281407403   -0.042195499315099472       25.37047422884747
   152   7      2.6700708568119103    0.018169834730508191      25.375252680986037
   153   7      5.2154662109085903     0.07185152943197895      25.330334319096615
   154   7      7.6272196156191461    0.019356226779057892      25.456974786628386
   155   4      10.151459280950244    0.082617807671664101      25.518020982861632
   156   1      1.5028259431846038        2.14835447218702      25.502506268226952
   157   7      3.9909036862953369      2.1454473610437854         25.444871685789
   158   2      5.8147068526054309      2.4905490107583512      24.643214028594471
   159   7      8.9044769734359672      2.1162487852948422      25.422780045461504
   160   7      11.428985228580716      2.1777447968749555      25.392037610221301
   161   4     0.13198146152387993      4.3613040148225259      25.455095644844526
   162   7      2.6201944298398145      4.2760670130460428      25.430044958375859
   163   7       5.136222520704588      4.2586125696774388      25.425011306345844
   164   5      7.4958247038027581      4.0739169925283081      25.345042867147896
   165   7       10.08600915838559      4.2404489238003027      25.397925104592488
   166   7      1.3596481961307045      6.4315484191127279      25.425314292673569
   167   7      3.8311907601558874      6.4433165266352708      25.450973475638609
   168   7      6.3860396547813734      6.4014027354577561      25.432071346289778
   169   7      8.7947903310601045      6.3517745775386825      25.370903429567107
   170   7      11.312176434630969       6.427474177748465      25.434147218383295
   171   6     0.13443087670173973      8.6365123639718249       25.41002457510627
   172   7      2.6444337013539152      8.6171854737588518      25.396574663248646
   173   7      5.1341112732601832      8.5587131016575899      25.354539280151311
   174   3      8.4397605404506528      9.5197640717465006      24.405146305222484
   175   6      9.9154544981483124      8.5841743945142586      25.499641379929439
   176   7      1.3651552144421135      10.819571155859778      25.431916631794472
   177   6      3.9065927875585511      10.821461783421338      25.315492864329808
   178   6      6.6650828631910652      10.531292411161621      25.237967801480739
   179   5      9.0332513457926069      10.945145872102795      25.557107260982939
   180   5      11.365113250191868      10.893449263333958      25.479867074081902
   181   7       1.407926764408221     0.67787049089169216       27.48412556651353
   182   7      3.8964757390362617     0.71148170923568055      27.444377980005655
   183   7       6.335370002780218     0.72767086108872259      27.566066303016264
   184   7       8.915612261874216     0.73645477936991888       27.54801681181986
   185   4      11.408409053575948     0.73961338575897217      27.517004811380438
   186   7     0.19342709238866057      2.8757024431123921      27.479257114715271
   187   7      2.6812000388019519      2.8630358996556917      27.564203109568716
   188   7      5.1048717333180829      2.8827968435172235      27.576475237925965
   189   7      7.6203472394609868      2.8062243329990579      27.448107165776086
   190   7      10.170584142463175      2.8509730435231453      27.474407330473294
   191   7      1.4130971096944078      5.0220716418463409      27.472482262719009
   192   7      3.8550210792766206       4.998543110484257      27.492266893891525
   193   7      6.3918564533944107      4.9843224002295985       27.41744336093037
   194   6      8.8687310268009867      5.0150400891911175      27.482551092649175
   195   7      11.383076148591647      5.0143461576221293        27.4983083854409
   196   7     0.15791321396438845      7.1770942003379945      27.487760223669405
   197   7      2.6014259171859719      7.2006911150752702      27.485093153751492
   198   7      5.1249930688701335      7.1783042556229235      27.422708428934097
   199   7      7.6379427905677844      7.2005000939066566      27.446851887650748
   200   7      10.143380556667692      7.1765860476443954      27.525971404781103
   201   5      1.3984367208542543      9.3403345610286745      27.514415981746353
   202   7       3.894236407608306      9.3247448404524427      27.397381440273396
   203   7      6.3942242962706057      9.2975446740493037      27.407093468116159
   204   7      8.8592739487820875      9.3841189713845381        27.6019386780209
   205   7      11.367406552227724      9.4354164061255403      27.528888807776244
   206   4     0.20850732394139557       11.49631577425437      27.516314095266761
   207   7      2.6322457185808572       11.46999280790982      27.452296715802497
   208   7      5.1634557588728969      11.506137056020867      27.352540830353799
   209   6       7.613161399648205       11.54357620135457      27.627674089239054
   210   7      10.177785456818285      11.573469829940407      27.563943359169539
   211   7     0.22938657273823598      1.4610650031025167      29.577057580155977
   212   7      2.7284677679922615      1.3762908185232112      29.577476554059778
   213   5      5.1591709696995434      1.4365939335582643      29.596970688726763
   214   7      7.6394921413637196       1.369093564774037       29.58079147718005
   215   7      10.148750489513999      1.4218764439813851      29.616822782089418
   216   7      1.4325968704347987      3.5695410458551495      29.585328607355738
   217   4      3.8457753974228592      3.5837465074540384      29.602839047121183
   218   7      6.3867584191823363      3.5470183247336737      29.541612504026116
   219   7      8.8609245609490976      3.5282573824170935       29.51743403762768
   220   7      11.391792039940034      3.5774369229808318      29.510442674308145
   221   7     0.14274482947076184      5.7431760467002295      29.565687645627005
   222   7      2.6141388877830058      5.7391110666977569      29.562202654279865
   223   6      5.1755601153912894      5.7289711574095685      29.501259412081041
   224   7      7.6668316086337596      5.7519377355427395       29.58003972472417
   225   7      10.123046655996347      5.7592771238126028      29.594835864417195
   226   7      1.3830478751760211      7.9144853865221654       29.55292900802619
   227   7       3.881454642781478      7.9183515348806468      29.482804677888318
   228   7       6.414185744640025      7.9207582342757163      29.500642793101147
   229   7      8.8676170749147527      7.8998422106447146      29.513962609689059
   230   7      11.389396332291765       7.948118756783745      29.511895465705976
   231   7     0.18333463295033495      10.094592942502688      29.559330865669935
   232   7      2.6510707767790263      10.032518521879799      29.433814423366208
   233   7       5.168979479959714      10.059364665250012      29.340208653027332
   234   7      7.6246075838966147      10.100891336654179      29.652067324609746
   235   7      10.106825447676879      10.194965625473801      29.583823944179048
   236   7      1.4924302944618333      12.198082064957884      29.552558860758971
   237   3      4.0510813067827245      13.257268300664157      30.553985906122342
   238   7      6.2434490064540897         12.247941529336      29.675158128496424
   239   4       8.905813361366528      12.271501220019067      29.718465193476877
   240   7      11.415970905417565      12.284416262241372      29.549671676385859
   241   7     0.22123534675677525       0.118152051648303      31.624059440258961
   242   7       2.587250022207999     0.15809453699134662      31.737488295457233
   243   7      5.1930173865473499   -0.015122613314612452      32.089051290915116
   244   7      7.6504820914916767     0.02221415971644651       31.70139019378259
   245   7      10.133534392886265   -0.028805929459705847      31.859240828668778
   246   4      1.3650252977605009      2.2608637053392284       31.65658874244475
   247   7       3.902894565986442       2.166748920245078      31.640368871393996
   248   7      6.4298868718014557      2.1679866545755209       31.64139231762438
   249   7       8.873418019697743      2.1242108976074077      31.670252687488635
   250   7      11.405717124994599      2.1602896734797263      31.647697639017572
   251   7      0.1697740955633181      4.3460693584465666      31.643877994726498
   252   7      2.6549800457979913      4.3374193959247958      31.673850374117013
   253   7      5.1330000105067004      4.3276742692852768      31.628440010955391
   254   7      7.6418840693412156      4.3325850370786414      31.587712333069092
   255   1      10.125409488094945       4.241856543060214      31.491074397198489
   256   7      1.3531713347233765      6.5208162374705783      31.638120383181271
   257   6       3.815245601122204      6.5202026268941298      31.681798611160154
   258   7      6.3722712243847681      6.5158120822398482      31.631568546883852
   259   4      8.8428776770969701      6.4842429051657904      31.625016629078445
   260   7      11.337237575492177      6.5135436699806935      31.583306948979669
   261   7     0.19736469398929019      8.7301842970257049      31.646680359940898
   262   7      2.6833703712305748      8.7363875382451521      31.539102130410079
   263   1      5.1100467670809522      8.7811652521333432      31.430882832735872
   264   7      7.6119111008644031       8.598716470912656      31.613682706980182
   265   6      10.123765063313225      8.7055864414521746      31.530560685312189
   266   7      1.5844577215821347      10.851403902896926      31.562779401306734
   267   4      3.9371940571529636      11.306781189500585      30.836927425056707
   268   7      6.2829039170642842      10.780789428623109      31.572320433647388
   269   7      8.7964205757680727      10.823850857445596      31.734162063999332
   270   7      11.448093570069723      10.926549589349733      31.605077750945217
   271   7      1.5018120576162692     0.92158970889259451      33.768897314841894
   272   7      3.9449431002936626     0.97000776790396037      33.912950479027785
   273   7      6.4845905118805787     0.99366100514054767      33.893219883926506
   274   7      8.8597853063297443       0.921117554473602      33.827685820555352
   275   4      11.466966072138996     0.81920262042266501        33.7024226773839
   276   7      0.2023657960404445      3.0129169043720223      33.727454877388041
   277   7      2.6685093935905613      3.0971330807103943      33.797346677157556
   278   1      5.2368176670012714      3.0168141173665237      33.721432200216746
   279   7      7.7496301821905904      3.0632192468416424      33.724229995438165
   280   7      10.227640033258895      3.0159732704202011      33.696374386569552
   281   7      1.3460768098878613      5.2027928954999236      33.869777375149837
   282   4      3.8663551411751391      5.1575901839132952      33.785362489138841
   283   7      6.4009639876928732      5.1189263167663057       33.67075690649699
   284   5      8.9098172281885599      5.1395111281862427      33.572871491853569
   285   4       11.36970251599263      5.1755954777938591      33.619156262858482
   286   7     0.11637560596106447      7.3002531891474662      33.617022252553618
   287   7      2.6605649383575654      7.3047057682813232      33.768352806589277
   288   7      5.2122297367438799      7.2845394118435127      33.689360938760785
   289   7       7.656013636231596      7.2112040214390483      33.717894453176079
   290   7      10.107022054485318      7.2819509496163679      33.587496513230072
   291   7      1.4882282490729235      9.4422402764424209      33.723870520621048
   292   7      3.9792623846752462      9.3708453859850191      33.521543498397243
   293   4      6.4766458472660124      9.3394555909467361      33.636200412652499
   294   7      8.7945422175363763      9.3109364996509072      33.678719225786573
   295   6       11.29506174011439      9.7201498894311928      33.755392507484984
   296   3     -1.3493581037715103      11.852981216831591      33.321521810950621
   297   6      3.0500924514377421      11.581814408599069      33.658879431713096
   298   2       5.228030793635102      12.304025634455787      34.191910052321468
   299   7      7.0198194983134714      11.599023907837902       33.66881501540427
   300   7      9.4028426024504572      11.568351807889718      34.150686736689678
   301   7      0.2203512367811408      1.5626971642633491      35.747905810970501
   302   7      2.6481569336880542      1.6811905949682204       35.85567989118676
   303   7      5.2660113290171022      1.6799593080211883      35.933651589595229
   304   4      7.7861153028388701      1.6541087225723619      35.910530004809445
   305   7      10.252346014415393      1.5789183527465855      35.713422403899301
   306   4      1.4481644233137105      3.8415441128604346      35.948511063304274
   307   7      4.0229712037017107      3.7488362738440815      35.843227874079965
   308   7      6.5490206547953296      3.7215149340980442      35.799691498841781
   309   7       9.047014835886646      3.6890304900054458      35.767392557360402
   310   4      11.619791380508977      3.9567943311647453      35.846812136794014
   311   2   -0.057554955497627285      6.0201801582995662      35.313994902021378
   312   7      2.7530013303717538      5.8106665769744659      35.805889939969234
   313   7      5.2859226212438113      5.9288449420038161       35.73912637985346
   314   7      7.7506408187954197      5.8292592618954711      35.732653266729315
   315   7      10.164462767284016      5.8257935073432012      35.566297942567317
   316   7      1.2363864442814689      7.6160590364005794      35.789713947676006
   317   7      3.9938588000769766      8.0686821104008519       35.77871421165171
   318   4      6.5715708146921461      8.1349886790074546      35.840510732414657
   319   7      8.9806797639254636      7.9933066057368194       35.81160123385218
   320   7      11.373941296331408      7.9544097727102203      35.583962436270433
   321   6     0.24106570003563066      10.083803677559334      35.906972501191632
   322   7      2.7309558085977064      10.185952098036733      35.746738173241567
   323   6      5.2658296463981253      10.264328943822893      35.550021352394111
   324   7      7.9393458638347205      10.371837659508531      35.697683588742734
   325   7       10.28195183541448      9.8648928996454863      37.009003847651968
   326   7     0.53193464096280874      11.672795982727672       33.66455357059624
   327   6      3.9417770360295799      12.512098076034658      36.086848126505494
   328   7      6.4945190896166345       12.54006057162778      35.905222114689067
   329   3      9.5526123793144766      11.420025748033883      36.179958833533142
   330   4      11.285185829604579       12.09047839850564      35.557565009578241
   331   7   -0.026437815463226773   -0.040515349122938492      37.607056232411566
   332   7      2.5167216256104004     0.12239171409301923       38.01737202296556
   333   7      5.2330421591359624     0.17566349355202698      38.101634468159709
   334   7       7.681824064038711    0.082719855794311362      37.994569318726015
   335   5      9.9339422151813039   -0.014760667358522677      37.374048913272006
   336   7      1.3583484596521063      2.2024939649732551      37.824387576227323
   337   7      3.9003667197403606       2.220281725204214      37.863844585192076
   338   7      6.5546388279641832      2.2696757111837136      37.892379426513223
   339   7      9.0196058789587585      2.2051397588065744      37.841989867968493
   340   7      11.396071885924176       2.211449285774048      37.714068325191107
   341   7     0.23777270455119998      4.2716616974753707      38.053883254480276
   342   7      2.7330899531469162      4.3166772377259424      37.921517389455332
   343   7      5.3315816515321854      4.4451026702304262      37.846999288141937
   344   7       7.859528811095263      4.4478678005123928      37.833520309636846
   345   4      10.248976454534313      4.3524399226469201      37.792008208275774
   346   7      1.5236749313586595      6.4350527345816992      38.027991348488598
   347   6      3.9778374183732441      6.4863075259037544      37.789908886073292
   348   6      6.7001911796099813      6.6692883365112579      37.806752560087354
   349   7      9.2621947047863848      6.6438469995649516      37.846591246581227
   350   7      11.703018381243561      6.2944480954448396      37.288615200369826
   351   7    -0.18095011016306473      8.5854684113496589      37.834037109603159
   352   6      2.5138940423956391      8.6696392809642138      37.679256682212397
   353   7      5.1826350146376283      8.7126953264382578      37.886223024614118
   354   7      7.9834574187052505      8.9795715657512911      37.806485432438244
   355   3      10.458112572780664      7.9203146222151748      37.263571697101256
   356   4      1.4333355967986132      12.369084517146847       35.82859971272817
   357   7      3.8793167254363907      10.796531857543901      37.922832528278533
   358   6      6.4458141374931275      10.876716561866022      37.772636689821795
   359   2      8.6361697433024496      11.174594190895034       37.41554469415415
   360   7       13.88246820462173      10.919929278874225      37.878622036740261
   361   8      5.1032696619272562      7.8444041806423739      39.740122399257352
   362   8      4.7313612080336913      7.4379063870905053      40.286910141990994
