(written by ASE)

362 atoms
8 atom types

0.0      12.447907775999999  xlo xhi
0.0      12.936245229600001  ylo yhi
0.0      52.360083105400001  zlo zhi

Atoms # atomic

     1   7      1.3660674207656165     0.41064854207022811      14.774368161328621
     2   7       3.894821360416989      0.5763910071181384      14.826784015627311
     3   7      6.4426854762936383     0.54800296965093243      14.781534095925315
     4   4      8.9566057714642699     0.38002275639948557       15.00151672155233
     5   7      11.340921353681061     0.45533980075467395      14.853386552280918
     6   4     0.31311605412439886      2.6474367964403696      14.920676981896127
     7   7      2.6653557665454333      2.6933320773658966      14.797825886994486
     8   1        5.17538692348589      2.6826752511626504      14.672783129337006
     9   7      7.6843748272229933      2.7224500575597679      14.782377214839633
    10   6      10.119118329689215      2.7133653227582162      14.910503408007834
    11   7      1.4182009916377183      4.9571664380925906      15.031996542547068
    12   7      3.8488794479388484      4.7741941436304787      14.875576508797568
    13   7      6.4363348652422196      4.8119088392465823      14.784716849448296
    14   7      8.9280795244853017      4.9504665145163633      14.933166017475143
    15   7      11.438075640150984      4.9281870034261033      14.939953892682629
    16   6     0.21581560670993857       7.267437597189117      15.202403881779533
    17   5      2.8624538015219616      7.0093567002291657      15.279078275188645
    18   2      5.3374052198169686      7.5181591625146442      15.447595720358995
    19   7      7.3137840826630347      7.0655240978214744      14.991273218044174
    20   7      10.171654567010608      7.1744661222683179      15.069536964927959
    21   7      1.6312518446682305      9.1456424605814401       14.89412784657082
    22   7      4.0856020245278692      9.0545091161430165      14.968339692344761
    23   4      6.4657825967136384       9.302649486964679      15.156798264231456
    24   7      8.8591839913766393       9.105470330103925      15.056779951464993
    25   2      11.026684934825449      9.0633034581649223      15.456102238155452
    26   6     0.17724862600754049      11.145856246543953      14.901428901964458
    27   7      2.7144007208624816      11.294054061541557       14.82513612926709
    28   7      5.2196363072134471      11.288928100887752      14.831495348880614
    29   7      7.7574014094186294      11.284778974152999      14.866812805562205
    30   7      10.208235708357865       11.06889727339164      15.000874910318572
    31   4     0.13018295912717801      1.2402458696777328      16.819375806368711
    32   7      2.6002433367785138      1.2686269195249282      16.868474410365589
    33   7      5.1357821614477466      1.2876270555260392      16.860729068395109
    34   6       7.705205571931101       1.330325446738412      16.923586409282258
    35   7      10.178296976854167      1.2334707888832208       17.00382074287451
    36   7      1.4341449231809305      3.4387156748175456      17.003152829292329
    37   7      3.9077254360061495      3.3666973858178624       16.89228894604695
    38   7      6.3942357400654606      3.4359423682576633       16.84139425744215
    39   7      8.9094746297881446      3.5223275331630219      16.929999886622117
    40   6      11.421323474171556      3.4754857004211757      17.088653315225244
    41   7     0.23073512275651886      5.6267484835257138      17.082289542574735
    42   7      2.6999350922380314      5.5205010222605093       17.14613259879879
    43   6      5.1951480027807913      5.6387980518052201       16.73437925804734
    44   7      7.7113335901118205       5.633758740573362      17.000026168051363
    45   7      10.170154343935334      5.6584779528494309      17.037154879430354
    46   4      1.4267407322538062       7.670201616118562      17.360895626514736
    47   4      3.9120799858049251      7.6772189173465115      17.181979514973737
    48   7      6.4677850834721768      7.7806127537707841      17.147167617911588
    49   7      8.8829566893778633      7.7137061251720302      17.152044111670282
    50   7      11.315429304710994      7.7448326173561117      17.193366279876621
    51   7     0.12721188625742694      9.6838880906787566      16.840633979978083
    52   7      2.6745248479288999      9.7498347566001975      16.989516496734236
    53   7      5.1398453744345067      9.8430735359361829      17.035748801202065
    54   7      7.7211518437679505      9.8839262487204831      17.085852084450508
    55   7      10.119379687844416      9.8011670364032071      17.125000050426475
    56   4      1.3451353167502826      11.828798702430044      16.952986695501128
    57   6      3.8566414093969072      12.013598464175468      16.925886038692855
    58   6      6.4620852424662347      12.000993331411761       16.89538038487613
    59   7       8.953047185680985      11.977341105596448      17.051273412659775
    60   7      11.391292484058786        11.9993864147621      16.994705600777042
    61   3      1.3444184318571288     0.45005137464040701      18.069300268854057
    62   7      2.6182059707706142    -0.22472339826008145      19.194152898510854
    63   7      5.1608332872556097    -0.18110892752432931      19.028725088615971
    64   4       7.729785135937707    -0.18317159188378218      19.188434673201634
    65   7      10.121372286803078    -0.17390809553234651      19.104350577332767
    66   7      1.2608900486750361      1.9453217082154879      19.135044483872072
    67   1      3.8558507031804643      1.8880347355201714      18.997452080122223
    68   7      6.3391706960927054      1.9353844903001107      18.959484278761099
    69   7      8.8763119633360557      1.9813940141382194      19.064640857286506
    70   7       11.31043890469938      1.9720551540084263      19.135693300103064
    71   7      0.2101716590043845      4.2024037547084578      19.234574113527053
    72   7      2.6594716088250765      4.0221115222920991      19.086837447855306
    73   4      5.0747602078441005        4.20077541957414      18.920315609681104
    74   6      7.5488470113970925      4.1111531813055526      18.992130643527709
    75   7      10.103345140260537      4.2153684994468721      19.057388796166165
    76   5       1.531619332459935      6.2321994941047452      19.174204722141358
    77   4      3.9486756049431504      6.1868677536437522      19.345025666039412
    78   4      6.4915787789922517      6.3282603976150318      19.206896508996717
    79   4      9.0542038761198373      6.3982626516911845      19.173165533119846
    80   7      11.576808912320653      6.3472126535460811      19.059858149041617
    81   7     0.44866969562129666      8.3409029954483422      20.062719091994975
    82   7      2.7320580672542714      8.4516775278682221      19.211475827548988
    83   6      5.2525749301790547      8.4958553871606064      19.252732737648198
    84   7      7.7717057399198355        8.51376882538408      19.218594910205187
    85   4      10.328417413156936      8.3366231106601685      19.484797319004898
    86   7      1.4620811361508887      10.466604078408862      19.162755626088739
    87   7      3.9025236971444226      10.642009613167799      19.058662908264729
    88   7       6.465630179411936       10.68190541557259      19.110664365462618
    89   7      8.9822147104147163      10.582062437400984      19.186679796096335
    90   7      11.514252575258348      10.431039174063033      18.966701216151925
    91   4      1.2483869012966149     0.26405632131516227       21.51493235955547
    92   7      3.8202799460034491     0.52838203685420426      21.144707396238573
    93   7      6.3670852357607286     0.56860612255558751      21.076625608890605
    94   5      8.8606335441985404     0.67522514371898612      21.125635549435721
    95   4      11.331799414984884       0.755583976823343       21.20699022677525
    96   7     0.10223632258501088       2.843190273061202      21.205087742095607
    97   7      2.5197978802144463      2.5842045731602892      21.098195555431978
    98   7      5.0252650071502192      2.6828298220278608      21.031301293802805
    99   7      7.5038413430153748      2.7432118545068533       21.08392345092858
   100   7      10.058491674848014       2.860820120066919      21.103169621227494
   101   7      1.8868726766670663      4.8926285990755174      21.195300891479079
   102   2      3.8196712474044965      4.3173272938383223      20.762290353767504
   103   7      5.9242484759959213       4.929003755581717       21.12801793530085
   104   7      8.5564487080109881      4.9071328728063559      21.088830602585311
   105   7       11.06701778948849       5.253962551143708      21.066410945677152
   106   7     -1.1024431534422763      7.8241317440440525      21.948843242984481
   107   7      2.6186658063576895      7.1905124458731393      21.200389459204288
   108   7      5.1502401959471253      7.1855118201748311      21.303594648762513
   109   4       7.658884596304242      7.0670107640865512      21.289751215603211
   110   3      9.7703639149352064      6.9435259598973902      21.020628103969582
   111   2      1.9744196361404349      9.1380613020985031      21.134542661834356
   112   7      3.9509233952750793       9.286520329783313       21.25972505803097
   113   7      6.4947938340877496      9.3037377455148995      21.305468416660101
   114   6      9.0657499573981166      9.0461923576948191      21.511023966665228
   115   3      11.398599048106266      9.4246963214250048      20.710296421722123
   116   7    0.099880780966478067      12.638262502639064      19.327152054922713
   117   4      2.5482841401561038      11.309580019219315       21.16970592869626
   118   7        5.10941572176481      11.390820372645086      21.120622067708688
   119   7       7.780725138987556      11.365943694315211      21.181513295743525
   120   6      10.540894971729132      11.333013573760498         21.102308452654
   121   7      0.1591684901340534        1.54658279939176      23.310596235497201
   122   7      2.5708926686666258      1.3806781224168825      23.231428988829208
   123   7      5.0430211041839295      1.3497015987094683      23.244068943475678
   124   7      7.5740481117939726      1.3720924416945259      23.180780026158686
   125   6      10.184773635464847      1.5082500843128892      23.247280317146689
   126   7      1.2605633004357144      3.6621437246624939      23.203526483767469
   127   6      3.7198793129411794      3.6164134906433811      23.038045416802319
   128   7      6.2055347076810232      3.5525990662923954      23.134224886585468
   129   7      8.8277280256061204      3.6699320613212842      23.119234397427839
   130   7       11.25265274151641      3.8365712038853612      23.137954518381054
   131   7     0.11669851967264255      5.8731132520712421      22.978876265887884
   132   7      2.5907228326559708      5.8397306355117662      23.263265244862886
   133   1      5.0324636734871628      5.8771150409406596      23.355833762621003
   134   7       7.406781272094892      5.6849682078137809      23.239314897013362
   135   7      10.010713795910066      4.4715995168775589      25.169560126185285
   136   7      1.2931811326539711      7.9690716873796363      22.971873816148133
   137   7      3.8190465628279879      7.9214872728944492      23.322655958418842
   138   7      6.4102104578008934      7.9009541140590409      23.312002397813828
   139   7      7.4207053144746835      8.7217690774961554      25.380629602595146
   140   6      9.8500551530383138      6.0991577691835204      23.018294679929628
   141   6     0.24251517572193387      10.088694353871537      22.242685567211062
   142   7      2.5979569013224322      10.010274979411976      23.196883663938216
   143   7      5.1276231282395939      10.018001968314961      23.296065752364928
   144   7      7.6999552758732204       9.980381895293446      23.394116695067211
   145   7      10.444572027017417      9.9632212815007222      23.462188371959176
   146   2       1.634415225852391      11.918289753452736      23.179923320209678
   147   7      3.7497557902725709      12.143056185495146       23.20261908399036
   148   6       6.390412493860131      12.106877762515238      23.145545323503121
   149   6      9.1017967107045017      12.083592818386593      23.255144642814528
   150   7       11.83418413065977      12.209054941597845      23.256681626540715
   151   7    0.035343118074937716     0.16961290350480238      25.417698055968714
   152   7      2.4536978248706469    0.053106634500965089      25.198741740586176
   153   1       4.911904822634404    0.011580253285658714      25.343154807492869
   154   7      7.4759578973028455    0.047142957563692613      25.317837114523623
   155   7      10.058334159795752    0.067717779313512194      25.379693507527787
   156   7      1.3293638492449444      2.2829981092460465      25.342434248700325
   157   7      3.7729190836350877      2.2342009018343441      25.282630748941468
   158   4       6.219990671878616      2.2305861041883617      25.281164939157115
   159   3      7.5910056664142882        2.96430928924917      24.238236100960325
   160   7       11.31925635274073      2.3457490895777444      25.316134074287671
   161   7    0.078281016404464873      4.4771462778371731      25.178923557793262
   162   7      2.5457714419725117       4.403446788880367      25.244673049357335
   163   7      4.9845147356874238      4.3506859653938728      25.248883469248099
   164   7      7.5275316696662227      4.4182139474967892      25.400631773011856
   165   7      8.8334096267060467      2.1814053718349062      25.349008718959105
   166   7      1.2756206901820117      6.6093504176685087      25.112987308803877
   167   7      3.7331427019517949      6.5732717082020589      25.384637002554904
   168   7      6.2219839679561932      6.5431403710841698      25.408693462930572
   169   7      8.6892003499421584      6.5013423204536993      25.191070119397143
   170   7      11.264539998386809      6.6181013898311969      24.977657331675744
   171   7    0.012695541398265328      8.8579050893669642      24.763591746829359
   172   7      2.4337371158422121      8.7018385578853863       25.25373354687347
   173   7      4.9797428643315733      8.6887478178086255      25.359033065330113
   174   3      8.7781637770185323      7.9034288152663059      26.335992213571831
   175   7      10.189476379205553      8.7423857180990368      25.479769169222788
   176   7      1.1716074640673533      10.989151903007119      24.872218736495963
   177   7      3.7113972741590651      10.801255012091367      25.304300905899503
   178   7      6.2350556905023522      10.858044126666311      25.358170185542726
   179   7      8.8163848415684818       10.85239045823772      25.439243819086645
   180   7      11.283116328221057      10.899677561488046      25.539658017458784
   181   4      1.2994031033126812     0.90142670099145428      27.310095517633101
   182   7      3.7040258139704458     0.89517293377132268      27.401400694609542
   183   7      6.2020855261074841     0.86255098602034108      27.328853624941477
   184   7      8.7495517474046345      0.7585951585153039      27.367438379850508
   185   7      11.261891851199387     0.88898458624427823      27.381378125735527
   186   7    0.051788877579481626      3.0953697336575892      27.357427247108891
   187   7      2.5011941179871928       3.040568740829467      27.403798951568035
   188   7      4.9844985426899164       3.026777166268575      27.366861156773385
   189   7      7.4890832578308926      2.9242442071033685      27.348130244151893
   190   7      9.9895367507534836      2.9759925889682446      27.309403808408387
   191   7      1.2708622891186663      5.2335805696337365      27.259516868981443
   192   7       3.785191604742058       5.204939985901011      27.355717782205481
   193   1      6.2878286142118798      5.0729040983345657      27.349199973574649
   194   7      8.7836967111981341      4.9517875473004906      27.831274657803476
   195   5       11.26245855543627      5.1095027748369022      27.122275787502485
   196   7    0.039673822576210493      7.3686888214464696       27.01191168958751
   197   7      2.4809021796516646      7.3877566428560737      27.351547434602292
   198   5       5.001078279660609       7.371040239449024      27.412253200032481
   199   5      7.3934645389032427      7.2962470304349472        27.5192551717399
   200   5      10.094963075594334      6.9739890497243646       27.34776061512467
   201   7      1.2005414416087876       9.584189748427967      27.159562918090085
   202   7      3.6840465111809402       9.498275921080328      27.372536052062514
   203   7      6.1694815195790138      9.5140960848107774       27.47227860721334
   204   6      8.7409234520918844       9.480129717535414      27.609774140899116
   205   7      11.269671884192098       9.251795165801072      27.785363093668472
   206   7     0.03103461229839068      11.701857926435395      27.436941320496615
   207   7      2.4766133788965456      11.701633470116358      27.319347686325013
   208   7      4.9450821973190795      11.631907353188859      27.425419453310969
   209   7      7.4555222790064741      11.652338717840935       27.41374532210428
   210   4      10.031394848970846      11.636152859649279      27.488567547128817
   211   6   -0.020008408167429877      1.7684578006791798      29.457095862163172
   212   4      2.5287902594175211      1.7162013495627404       29.47920593958208
   213   7      4.9870311017755791      1.7131078173055507      29.425630498368633
   214   7      7.4720641639314715      1.5937602083165967       29.36675241649364
   215   7      9.9190378690113157      1.6222196405369094       29.36477813918907
   216   7      1.2107734924615094      3.9279209289971422       29.39321167800226
   217   7      3.7263853354530152      3.8611404639747873      29.456296143841534
   218   7      6.5109180311878729      3.8445174683952232      29.446528536446923
   219   2      8.7245207460112812      3.2612100798187962      28.996200580031246
   220   7      10.875922664437503      3.9339592606266316      29.360133193685847
   221   6    -0.24080524583750604      6.1108291656149776      29.187064143132073
   222   7      2.4183976038214832      6.0257673896390616       29.37842624587261
   223   6      5.0144450319580258      5.9978681177190065      29.489305343928432
   224   7      7.5612422497619258      6.0795422993697494      29.539661114060006
   225   6      8.7327373724798534       6.696889679191357      31.513328008865425
   226   7      1.0491918295535307      8.2302001656662345      29.307907189299808
   227   7      3.6468605885661298      8.1631169751858401      29.436277417090881
   228   7      6.1945726089295086      8.2010364834711069       29.48925116176591
   229   7      9.6726350314237166      7.8001015413293677       29.45312821814057
   230   2      11.420348657467356      8.6495767249023388      29.847338077704268
   231   7     0.02742551835856891      10.403260066918397        29.5177624246774
   232   5      2.4650874315515372      10.317100878236069      29.361246492864595
   233   4      4.8790772905710531      10.290089313425247      29.436647310590494
   234   7      7.4313416290349021      10.326676255715078      29.503161298577051
   235   7      10.013720509395199      10.294385367036819      29.603326221333468
   236   7      1.2780914886809016       12.52309952545269      29.431093966695219
   237   7      3.7231850530151278      12.458648649142036      29.428559656388618
   238   4      6.1705901925839628      12.455034027847999      29.408403366189066
   239   7      8.7035116470525278      12.377735109162774       29.44575694648174
   240   7      11.213635641734918      12.456699561463692      29.474746998881198
   241   7    0.017936499523958701     0.32155785549297861      31.523421443018197
   242   7       2.491666681888197     0.33209202322394366      31.481370431541329
   243   7      4.9257826819719712     0.32910150390887088      31.472033236035269
   244   7      7.4831794888702126     0.32686705369838615      31.459264967901671
   245   7      9.9435290826648099     0.33889495082179083       31.45593584656757
   246   7      1.2579943218490144      2.5219451676081883      31.496659427889956
   247   7      3.6829406911417117      2.4885962929058745      31.542323361415317
   248   7      6.1575448742941212      2.4785673194493727      31.487910960029879
   249   6       8.671098935674225      2.6093639565089739      31.337073264986675
   250   7      11.183386088867335      2.5096361187582952      31.492246774346327
   251   7   -0.046470261448237786      4.6957289232061123      31.366800198356241
   252   7      2.4478387334015572       4.627199908492079      31.495158628464097
   253   7       4.933188695223631      4.5995213506436494      31.556151350398459
   254   7      7.3920432365874138      4.6634367483559789      31.614014406325058
   255   7      9.9910014661989734       4.663406200255368      31.543955150163725
   256   7      1.2379543012767933      6.7944466211882757      31.415787951389653
   257   7      3.6625627246450927      6.7617389358048925      31.510877765555609
   258   7      6.1525472891821673      6.7877783708256407      31.557337375319221
   259   3      8.6895701496783886      8.3154410570738353      32.672030822331571
   260   7      11.219649706776552      6.8878930213713527      31.274279947311154
   261   7    0.061398000909665962      9.0225913424689548      31.496429709723238
   262   7      2.4563103567177236      8.9269531857260471      31.501024839663494
   263   7      4.9180175618662547      8.9237937853802638      31.502400590236025
   264   7       7.413146823014567      8.9178188577060062      31.476602153237444
   265   7      10.069189417627982      9.0200228336517423      31.629847189657422
   266   7      1.2614387341532549      11.120874851179753      31.521910520300789
   267   7       3.672346962490793      11.075917461302444      31.472580578467593
   268   6      6.2170647270980117      11.094154743962324      31.565547129774878
   269   7       8.739324292413011      11.117214741078977      31.580459977164402
   270   7      11.264524922702703      11.190227552213067      31.634954581909163
   271   7      1.2565576121669373      1.0675984970929164      33.518543746608316
   272   7       3.689752983135044      1.1152109011151461      33.649459755391973
   273   6      6.2483622621867934      1.0713643161515185       33.53058480722116
   274   7      8.7368675895834258      1.0826278776508766      33.532565275012736
   275   7      11.182542188914104      1.0857575177633174       33.50880693084514
   276   7   -0.046572237844064154      3.3027354443142563      33.539592297733527
   277   7      2.4331447906523143       3.236751597099039      33.658824653030322
   278   7      4.9546622960264743      3.2357278731891546      33.661873158074833
   279   7      7.4575947228641706      3.2290135503004245      33.602869261565289
   280   7      9.9038136934383125      3.2459441917109415      33.591381546559106
   281   7      1.2112081585264471      5.3840700745037466      33.562551703816119
   282   7      3.6616096448511972      5.3827604160140972      33.566667590369917
   283   7      6.2102096269185072      5.3587680814190657      33.657005638555503
   284   4      8.7063722635293086      5.3162608127055035      33.685365067472027
   285   4      11.131938607875506      5.3819536565961048      33.480847054231603
   286   6   -0.055621848251143136      7.5556265723563554       33.48671768185843
   287   4      2.4806250691238274      7.5112657445584849      33.585637280716419
   288   7      4.9130812211838757       7.497708911460693      33.582220358993276
   289   7      7.4167578622592174      7.4793314559296151        33.7534497193476
   290   5      9.9457399167489662      7.4582031677819307      33.771862751758682
   291   7      1.2424160109254974      9.7131861121862997      33.602146841228958
   292   7      3.6797462577923654      9.6298759667360638       33.56819964433587
   293   7      6.1683376522911777      9.6310540742034743      33.638221461801237
   294   7      8.6998420796398133        9.77465465033446      33.711777873800926
   295   7      11.265631887617056      9.7832678131305428      33.657430256400133
   296   3   -0.047644683457879353      13.138699015605562      34.509989348600982
   297   7      2.3892460821423631      11.856539613264147      33.591448389599954
   298   6      4.8473396489604399      11.807838590869101      33.657827509122974
   299   7      7.4916721163438886      11.835877576755864      33.657814934938706
   300   7      9.9835693407225481      11.915249860366185      33.621836736303798
   301   6    -0.02488892047249814      1.9599259292397171      35.677650437941864
   302   7      2.5060397288770435      1.8363356850769046      35.812947598985019
   303   6      5.0209104901750266      1.8381740113116165      35.810465841501738
   304   7      7.4680265158897452      1.8014469805491709      35.725517964891573
   305   7       9.900998826450996      1.8295352660039246      35.695059744338998
   306   4      1.2838077502147498      4.0616891084872586      35.676216872764826
   307   7      3.6991669688082629      3.9953937103147013      35.649600107617914
   308   7      6.2724239722887596      3.9816210034426831      35.709244919431853
   309   7      8.6642303692939926      3.9470119728855377      35.750989551451667
   310   7      11.112006556661779      4.0510119707724819      35.626275406527576
   311   7   -0.015936201416221919      6.0842062765819573      35.641295537535605
   312   7      2.4622604859704342       6.144112677648633      35.654487835258422
   313   7      4.9613155099632058      6.0893865688031665      35.656340402912583
   314   7      7.4883695639487415      6.1004354417953843      35.765096320445465
   315   1      9.9350528479899207       6.116055235612766      35.842695148269271
   316   7      1.1988962631321729      8.2390340114776617      35.623979829495752
   317   7      3.7149562941042049       8.212402286151919      35.652758291222057
   318   7      6.1930123158409005      8.2678140179363595      35.765540747633111
   319   5      8.6684605539770736      8.2278883860562271      35.830989588841973
   320   7      11.197124616271898      8.2012040715474832      35.727951413011105
   321   7    0.021848759407724655      10.356484773645368      35.798429775696199
   322   7      2.5158726028556431      10.322860576707349      35.644588434232915
   323   7      4.9384664819390771      10.376691009158201      35.769835038499174
   324   1      7.3607512249022591      10.414891225226187      35.761178109067238
   325   6      10.010970475643697      10.405851076732334      35.728392277705112
   326   6      1.2963707748702169      12.454909628032404       35.85370834938476
   327   7       3.763776729244976      12.592200462169918       35.76424937824752
   328   7      6.2276019314567908      12.565435537390178       35.71258451159828
   329   7      8.6880627355953504      12.580386663755331      35.700002694918489
   330   7       11.16719852910072      12.574432401399367       35.80495800198667
   331   7   -0.023632762688087523     0.42714431390857016      37.908230251202767
   332   7      2.4492409061722777     0.41537034555487834       37.90214227624751
   333   7       4.953010165161138     0.34886709455745013      37.888236953463704
   334   4      7.4422697593619453     0.35997218411758952      37.649901661637429
   335   5      9.8424644289696719     0.36491959724512057      37.717538670789935
   336   7      1.2858614653536231      2.6047685237571443      37.791289105353741
   337   5      3.7529363002139946      2.5798591607362851      37.868707836484134
   338   7      6.2059633871260216       2.572841536191032      37.912596623276116
   339   7      8.6112022129181511      2.4464211885981118      37.814794607950624
   340   6      11.109004473836556      2.5309063927803281      37.821604882437498
   341   7   -0.003435787228303819      4.6431959057508241      37.689279248382327
   342   7      2.5480659082338915      4.6672325708160001      37.705053752645959
   343   4      4.9890438035331739      4.5474447155601512      37.586048636292027
   344   7      7.4511439706544831      4.6388589790566579      38.297000362930923
   345   7      9.9051859010546845       4.701306547038075      37.837875240124326
   346   7      1.2530928533309589      6.8297806607161569      37.691962052323497
   347   7      3.7358137978307613      6.7599824131246091      37.775843763321269
   348   6      6.2261175148129428      6.8127994292567031      37.751218301405473
   349   7      8.6782814094566252      6.8335769809134579       37.89092989567196
   350   7      11.270804822473936      6.8168541123419493      37.791390966315703
   351   7    0.047771255460628902      8.9272724625328017      37.823761350718868
   352   4      2.4940729812809646      8.8690327636656523      37.570018148272368
   353   7       4.872774220444871      8.9522381082275615       37.89846932304004
   354   7      7.4216351434757533      9.0339149127376608      37.910752449344677
   355   6      9.9681227543646909      9.0010940186667554      37.794353098170653
   356   7      1.2119507476803788      10.979852425893313      37.898691073194314
   357   6      3.6634321734213682      11.154473619902486      37.761467642594077
   358   7       6.196673448911949      11.168394313944114      37.867252953483508
   359   5      8.6462333277807275      11.220058317688808      37.873125415491145
   360   7      11.165947480251061      11.221789161574289       37.91693824764689
   361   8      7.6552917309336559      4.7520082780062376      39.886471694104721
   362   8      11.358206390538941       4.122889478263577      38.840936409119244
