LAMMPS data file via write_data, version 11 Feb 2026, timestep = 1002, units = metal

362 atoms
8 atom types

0 12.6318719411 xlo xhi
0 15.1582463294 ylo yhi
0 52.6905365514 zlo zhi

Masses

1 26.9815
2 10.811
3 12.011
4 51.9961
5 55.845
6 95.95999999999999
7 58.6934
8 1.008

Atoms # atomic/kk

1 7 0 0 15 0 0 0
13 7 1.2631871941 2.1879043997 15 0 0 0
25 7 2.5263743882 4.3758087993 15 0 0 0
73 7 2.5263743882 0 15 0 0 0
85 6 3.7895615823 2.1879043997 15 0 0 0
313 1 0 4.3758087993 15 1 0 0
97 6 5.0527487765 4.3758087993 15 0 0 0
145 7 5.0527487765 0 15 0 0 0
157 7 6.3159359706 2.1879043997 15 0 0 0
169 4 7.5791231647 4.3758087993 15 0 0 0
217 7 7.5791231647 0 15 0 0 0
229 7 8.8423103588 2.1879043997 15 0 0 0
241 7 10.1054975529 4.3758087993 15 0 0 0
289 6 10.1054975529 0 15 0 0 0
301 7 11.368684747 2.1879043997 15 0 0 0
37 4 3.7895615823 6.563713199 15 0 0 0
265 7 0 8.7516175987 15 1 0 0
325 6 1.2631871941000004 6.563713199 15 1 0 0
337 7 2.5263743883000007 8.7516175987 15 1 0 0
49 7 5.0527487765 8.7516175987 15 0 0 0
109 5 6.3159359706 6.563713199 15 0 0 0
121 7 7.5791231647 8.7516175987 15 0 0 0
181 6 8.8423103588 6.563713199 15 0 0 0
193 7 10.1054975529 8.7516175987 15 0 0 0
253 7 11.368684747 6.563713199 15 0 0 0
277 7 1.2631871941000004 10.9395219984 15 1 0 0
349 7 3.7895615823999993 10.9395219984 15 1 0 0
61 7 6.3159359706 10.9395219984 15 0 0 0
133 7 8.8423103588 10.9395219984 15 0 0 0
205 7 11.368684747 10.9395219984 15 0 0 0
2 7 2.5263743882 1.4586029331 17.0627760501 0 0 0
3 6 1.2631871941 0.7293014666 19.1255521003 0 0 0
14 7 3.7895615823 3.6465073328 17.0627760501 0 0 0
15 5 2.5263743882 2.9172058662 19.1255521003 0 0 0
75 7 3.7895615823 0.7293014666 19.1255521003 0 0 0
290 7 0 1.4586029331 17.0627760501 1 0 0
302 7 1.2631871941000004 3.6465073328 17.0627760501 1 0 0
303 7 0 2.9172058662 19.1255521003 1 0 0
74 7 5.0527487765 1.4586029331 17.0627760501 0 0 0
86 7 6.3159359706 3.6465073328 17.0627760501 0 0 0
87 7 5.0527487765 2.9172058662 19.1255521003 0 0 0
146 7 7.5791231647 1.4586029331 17.0627760501 0 0 0
147 7 6.3159359706 0.7293014666 19.1255521003 0 0 0
159 5 7.5791231647 2.9172058662 19.1255521003 0 0 0
158 7 8.8423103588 3.6465073328 17.0627760501 0 0 0
218 7 10.1054975529 1.4586029331 17.0627760501 0 0 0
219 7 8.8423103588 0.7293014666 19.1255521003 0 0 0
230 6 11.368684747 3.6465073328 17.0627760501 0 0 0
231 7 10.1054975529 2.9172058662 19.1255521003 0 0 0
291 7 11.368684747 0.7293014666 19.1255521003 0 0 0
27 4 3.7895615823 5.1051102659 19.1255521003 0 0 0
242 7 0 5.8344117325 17.0627760501 1 0 0
254 7 1.2631871941000004 8.0223161321 17.0627760501 1 0 0
255 7 0 7.2930146656 19.1255521003 1 0 0
267 7 1.2631871941000004 9.4809190653 19.1255521003 1 0 0
314 7 2.5263743883000007 5.8344117325 17.0627760501 1 0 0
315 7 1.2631871941000004 5.1051102659 19.1255521003 1 0 0
326 7 3.7895615823999993 8.0223161321 17.0627760501 1 0 0
327 7 2.5263743883000007 7.2930146656 19.1255521003 1 0 0
339 4 3.7895615823999993 9.4809190653 19.1255521003 1 0 0
26 7 5.0527487765 5.8344117325 17.0627760501 0 0 0
38 7 6.3159359706 8.0223161321 17.0627760501 0 0 0
39 7 5.0527487765 7.2930146656 19.1255521003 0 0 0
51 7 6.3159359706 9.4809190653 19.1255521003 0 0 0
98 7 7.5791231647 5.8344117325 17.0627760501 0 0 0
99 7 6.3159359706 5.1051102659 19.1255521003 0 0 0
111 7 7.5791231647 7.2930146656 19.1255521003 0 0 0
110 6 8.8423103588 8.0223161321 17.0627760501 0 0 0
123 7 8.8423103588 9.4809190653 19.1255521003 0 0 0
170 7 10.1054975529 5.8344117325 17.0627760501 0 0 0
171 2 8.8423103588 5.1051102659 19.1255521003 0 0 0
182 4 11.368684747 8.0223161321 17.0627760501 0 0 0
183 7 10.1054975529 7.2930146656 19.1255521003 0 0 0
195 7 11.368684747 9.4809190653 19.1255521003 0 0 0
243 7 11.368684747 5.1051102659 19.1255521003 0 0 0
194 7 0 10.2102205318 17.0627760501 1 0 0
206 6 1.2631871941000004 12.3981249315 17.0627760501 1 0 0
207 7 0 11.6688234649 19.1255521003 1 0 0
209 7 1.3101338907999995 13.6179272369 19.5910829983 1 0 0
266 7 2.5263743883000007 10.2102205318 17.0627760501 1 0 0
278 7 3.7895615823999993 12.3981249315 17.0627760501 1 0 0
279 7 2.5263743883000007 11.6688234649 19.1255521003 1 0 0
329 7 3.7688014540999983 13.5510485387 19.8484076063 1 0 0
50 6 7.5791231647 10.2102205318 17.0627760501 0 0 0
63 7 7.5791231647 11.6688234649 19.1255521003 0 0 0
338 4 5.052748776500001 10.2102205318 17.0627760501 1 0 0
341 7 6.2848831593 13.6354391429 19.6220015421 1 0 0
350 1 6.3159359706 12.3981249315 17.0627760501 1 0 0
351 7 5.052748776500001 11.6688234649 19.1255521003 1 0 0
62 7 8.8423103588 12.3981249315 17.0627760501 0 0 0
122 7 10.1054975529 10.2102205318 17.0627760501 0 0 0
134 7 11.368684747 12.3981249315 17.0627760501 0 0 0
135 4 10.1054975529 11.6688234649 19.1255521003 0 0 0
137 7 11.303622045 13.6023675888 19.6348967713 0 0 0
4 4 1.2631871941 2.1879043997 21.1883281504 0 0 0
5 7 2.502766249810153 1.5269193513237025 23.232919513357917 0 0 0
16 7 2.5263743882 4.3758087993 21.1883281504 0 0 0
17 7 3.8305207995543635 3.786717316434174 23.19952802542725 0 0 0
64 7 0 0 21.1883281504 0 0 0
76 7 3.7895615823 2.1879043997 21.1883281504 0 0 0
136 7 2.5263743882 0 21.1883281504 0 0 0
304 5 0 4.3758087993 21.1883281504 1 0 0
305 7 1.3303405987476131 3.742577276845772 23.225062357797107 1 0 0
77 6 5.075747500243039 1.556581264873705 23.187507631770323 0 0 0
88 5 5.0527487765 4.3758087993 21.1883281504 0 0 0
89 7 6.355136081816331 3.705429865552447 23.225064914603035 0 0 0
148 7 6.3159359706 2.1879043997 21.1883281504 0 0 0
149 7 7.637672198506983 1.4289510215475383 23.204953550527275 0 0 0
160 7 7.5791231647 4.3758087993 21.1883281504 0 0 0
208 7 5.0527487765 0 21.1883281504 0 0 0
280 7 7.5791231647 0 21.1883281504 0 0 0
161 7 8.898576776278583 3.624872437549201 23.2760083256103 0 0 0
220 5 8.8423103588 2.1879043997 21.1883281504 0 0 0
221 1 10.167117904068709 1.396545678259821 23.36815594778343 0 0 0
232 4 10.1054975529 4.3758087993 21.1883281504 0 0 0
233 4 11.42511927977202 3.675289708557528 23.173333755905855 0 0 0
292 7 11.368684747 2.1879043997 21.1883281504 0 0 0
293 7 12.612217118473604 1.550736177457077 23.225099203005072 0 0 0
352 7 10.1054975529 0 21.1883281504 0 0 0
28 4 3.7895615823 6.563713199 21.1883281504 0 0 0
256 7 0 8.7516175987 21.1883281504 1 0 0
257 7 1.8341769162179002 9.822629804124144 22.510716951735674 1 0 0
258 7 0.9601363004383735 7.7578371737612715 23.380273308881495 1 0 0
259 7 0.009483017387171366 9.756082953465585 24.25084356804868 1 0 0
316 7 1.2631871941000004 6.563713199 21.1883281504 1 0 0
317 7 3.4580232195911074 8.132779855193254 22.862047109415375 1 0 0
318 7 2.5305476173007064 5.918032054288059 23.284993188631407 1 0 0
328 3 2.5263743883000007 8.7516175987 21.1883281504 1 0 0
29 7 6.80560902476226 9.2864982578549 22.761722468132408 0 0 0
30 5 5.088234183731795 6.098767181971382 23.306202191634142 0 0 0
40 7 5.0527487765 8.7516175987 21.1883281504 0 0 0
100 7 6.3159359706 6.563713199 21.1883281504 0 0 0
101 7 7.538916567422205 5.895789402547392 23.2537994147998 0 0 0
112 3 7.5791231647 8.7516175987 21.1883281504 0 0 0
113 7 8.797120576356672 8.10114764261671 23.079124045531426 0 0 0
172 7 8.8423103588 6.563713199 21.1883281504 0 0 0
173 7 10.107123783277816 5.898800947778871 23.11440108362081 0 0 0
184 5 10.1054975529 8.7516175987 21.1883281504 0 0 0
185 7 11.250884244682279 8.124312131677943 23.127186544591186 0 0 0
244 7 11.368684747 6.563713199 21.1883281504 0 0 0
245 7 12.593750697725147 5.7193827015959515 23.178414652434338 0 0 0
197 7 0.11666365149999969 12.7246815641 21.4348856416 1 0 0
210 7 1.1584422927876354 14.114669643819077 23.351821785339357 1 0 0
268 2 1.2631871941000004 10.9395219984 21.1883281504 1 0 0
269 7 2.4335582599 12.6380342095 21.9023006259 1 0 0
270 7 1.8765314551273946 11.68796830043197 24.18918554066151 1 0 0
281 7 3.6594300269049214 14.563547864589827 23.121562682885024 1 0 0
340 5 3.7895615823999993 10.9395219984 21.1883281504 1 0 0
342 7 4.057988277011413 10.556989788503138 23.467544501976704 1 0 0
41 7 8.132848499803256 11.695171406967933 23.400888207683945 0 0 0
52 7 6.3159359706 10.9395219984 21.1883281504 0 0 0
53 7 7.6345007156 12.9420853658 21.4809643975 0 0 0
150 7 6.24331256373416 14.384419400028564 23.380273196133636 0 -1 0
353 6 5.101580557099998 12.7949226297 21.9163059451 1 0 0
65 7 10.1661058172 12.8188395644 21.8995538876 0 0 0
66 1 8.713935345040937 14.248669710335694 23.44630987384639 0 0 0
124 7 8.8423103588 10.9395219984 21.1883281504 0 0 0
125 6 10.12168883970716 10.437254316686351 23.451905210220513 0 0 0
138 7 11.316078284638479 14.410658603162224 23.39163137097511 0 0 0
196 4 11.368684747 10.9395219984 21.1883281504 0 0 0
198 7 11.989718240697252 11.992384500751427 23.52493236879917 0 0 0
7 7 2.6678092748290174 1.4920884728116155 27.237804916836566 0 0 0
18 7 3.8360342182487117 2.3951239086164033 25.246751315617473 0 0 0
19 7 2.614289200282402 4.60776598599765 25.351050081015934 0 0 0
32 7 3.907239370032156 3.7580350524312953 27.31887056406196 0 0 0
294 4 0.1093482388485299 0.22274388668152714 25.14078861401668 1 0 0
295 7 0.2075614540456274 1.6849288357257763 27.34384485254839 1 0 0
306 6 1.3692222206570959 2.4108363420054864 25.309939800478254 1 0 0
307 4 0.11730414670546135 4.554532463831966 25.315504327372377 1 0 0
308 7 1.4238589434421347 3.9908317065437973 27.48148709416986 1 0 0
33 7 5.972409641286379 5.038108628188831 27.40829723322084 0 0 0
78 7 4.79590923273755 0.18138585930327863 25.12775066635351 0 0 0
79 6 5.132472982268087 1.5601516864694085 27.425289839227627 0 0 0
90 7 6.337628820440226 2.219765187487764 25.259303062618855 0 0 0
91 7 5.087708503882869 4.537788390865169 25.205046662898003 0 0 0
92 7 7.27452535245633 2.9563031195731253 27.600627828786173 0 0 0
151 2 7.385205193015167 1.1189182988579405 26.571756641644605 0 0 0
163 6 7.60072676343888 4.375328095805121 25.37437433678266 0 0 0
162 7 8.785681606318672 2.0297973581057103 25.344039610788485 0 0 0
222 3 10.950266523501112 2.0448448528446908 27.338134180106444 0 0 0
223 7 9.144379083891982 1.413849364670291 27.705531523448734 0 0 0
234 7 11.33555065234078 2.3599716736564536 25.420428305832015 0 0 0
235 4 9.693322310402856 3.6452182936599877 26.96761178537774 0 0 0
236 7 11.720871801585512 3.662656149113923 28.130320777925302 0 0 0
246 7 10.330821690402644 4.6308409315151575 25.10213923086981 0 0 0
31 7 3.8192032874355974 6.853409368833947 25.3101557832087 0 0 0
189 7 1.139806327733567 7.15409636870103 28.280637425637824 1 0 0
248 7 3.0744580527799448 5.930223846954541 27.46864464747094 1 0 0
260 7 2.7989817675398903 8.323846905555493 27.080956641432774 1 0 0
319 7 1.3597003123546274 6.7093690603584255 25.69692416491055 1 0 0
330 6 2.3257073009986904 9.011768599554992 24.87027039991355 1 0 0
42 7 5.223830659027897 8.629098996676166 24.494041930554026 0 0 0
43 4 6.100379303064096 9.636893471289417 26.789928339500154 0 0 0
102 7 6.414523413638583 6.675134642254016 25.498904875698297 0 0 0
103 7 7.8445543836877185 7.977766105223817 27.26547537506502 0 0 0
104 7 8.305715966263849 5.519460795662274 27.563815302764255 0 0 0
114 4 7.666707960773358 9.041082693791676 25.045905384018848 0 0 0
331 3 4.482655759526243 8.586182812610927 26.226137183651826 1 0 0
332 7 5.1750645961140425 7.35938654256709 27.551787770251003 1 0 0
115 4 10.095665564202926 9.383669153955982 27.539828554904645 0 0 0
126 7 10.173718944814434 8.796410536745455 25.247271753565677 0 0 0
174 6 8.873257805989365 6.675974227894126 25.211630182434853 0 0 0
175 7 10.216245605660882 7.150665785992567 27.15295409735987 0 0 0
186 7 11.556334067560178 6.756298557763226 25.066416847621216 0 0 0
188 7 12.434831647624296 8.515580788610222 26.630509861460016 0 0 0
247 7 12.169196514079845 5.826971517011437 27.176752604320658 0 0 0
6 4 2.4371971882876573 15.054620866127076 25.21063865927618 0 -1 0
67 4 1.2501956012358881 14.608418034764744 27.148055938067326 0 -1 0
139 7 3.81444441133635 14.33367317132952 27.183925939294284 0 -1 0
199 6 0.048734778060192246 12.975490137236983 25.648934857364285 1 0 0
200 7 1.1476087919800486 10.555503359246934 26.338372028372426 1 0 0
213 7 0.6481275440135194 12.243110347466407 28.066778912511687 1 0 0
271 7 2.455549533075056 12.595632958136806 26.365424743034435 1 0 0
272 7 3.836072884486898 10.510172587510343 26.07129361500342 1 0 0
54 6 6.18454178133498 10.977394097111162 24.697929835234152 0 0 0
211 7 6.245581618848533 14.505932327292417 26.66788146436564 0 -1 0
282 6 4.215959739140492 12.807234537733759 24.617770363786548 1 0 0
343 7 5.301920121142155 12.295963855073202 26.773477912683553 1 0 0
354 7 7.308936016692212 13.02434126105243 25.17495121383713 1 0 0
356 6 7.671639226211508 12.66030029235349 27.672433067170783 1 0 0
55 7 8.762863589262537 10.930806587703248 25.959737232292255 0 0 0
68 1 10.516191259380024 12.271524802544262 27.60719757345081 0 0 0
127 7 10.0619225480321 12.891633613119485 25.054417332091134 0 0 0
128 7 11.94048147974647 10.335111256240928 28.317160705342665 0 0 0
187 7 11.306489145327646 10.821124869464132 25.891395685721875 0 0 0
283 7 8.644330728591862 14.657063470455709 26.298525586278718 0 -1 0
355 6 11.019089974882569 15.074039793628524 26.780103952322456 0 -1 0
8 6 3.989956443172802 0.29946113336814195 29.341088146420915 0 0 0
9 7 4.135174645422446 1.5790337451971497 31.56942140298842 0 0 0
21 7 3.294156725362786 2.7056724188466403 29.394562447320702 0 0 0
238 7 2.499811284658037 3.5700195315330414 31.68331605443889 1 0 0
296 7 1.4677130613523042 0.8747398336654085 29.219646907206478 1 0 0
297 7 0.09876950316482327 0.7144666538671419 31.1625685013537 1 0 0
309 7 0.7560771491807705 3.104037140904073 29.932504020160344 1 0 0
358 2 2.019000048296728 1.7782871642040794 30.961550553686116 0 0 0
20 2 5.354098136121416 3.4524891996053033 28.72794598810175 0 0 0
80 4 7.1777330053867585 0.21058038996445788 28.597917310567027 0 0 0
82 7 7.8598550931734685 0.7353453481929119 32.26784354150774 0 0 0
93 6 6.325293844914374 1.8670712479447116 30.113590751620226 0 0 0
105 7 6.897381423220688 4.285402331314262 29.755063837047302 0 0 0
321 7 4.793468147010224 3.8585551610074194 30.917980305687006 1 0 0
94 7 8.443895853567867 3.126155306633021 31.397529745436668 0 0 0
154 7 10.41695184647876 1.66307811507783 31.888891664843438 0 0 0
164 7 9.1221496358848 3.512170884086218 29.168968359853245 0 0 0
165 7 8.873037862240853 1.2023627367580823 30.070191434509844 0 0 0
166 5 12.555181417679114 2.902635744872034 32.306447583611366 0 0 0
224 7 11.170805830447915 1.4974195852196222 29.269359082582874 0 0 0
237 7 11.10205743489371 3.812217729488058 30.50510985723413 0 0 0
178 7 0.5476869964481649 5.092159038285195 31.73999126751953 1 0 0
190 7 1.0123617025748195 7.395476831872199 30.84138605591956 1 0 0
201 7 0.1297506353263507 9.69835766709414 30.490710632570025 1 0 0
249 7 2.2806830477137088 5.059540194834558 29.624257571574557 1 0 0
250 7 3.531451723563972 5.862596023568145 31.544306484378147 1 0 0
261 7 3.151438706431568 7.3817180962643425 29.500357041538834 1 0 0
262 7 2.746789237298219 9.54103770674449 30.706877559876453 1 0 0
263 2 2.9131006138991 7.803219456920133 31.627194043560483 1 0 0
273 7 1.627901277353359 9.713295085895945 28.571837399662687 1 0 0
45 7 6.883205805666523 6.592933233783427 29.225825987262283 0 0 0
46 7 7.620766773367105 7.735639273324804 31.361422617502296 0 0 0
57 7 6.484110584451414 8.81964645368986 29.16777324652188 0 0 0
320 4 4.664748881101315 5.564236460303963 29.326389963211845 1 0 0
322 7 6.044931811364637 5.892893746211886 31.467936329237038 0 0 0
333 7 4.972998393666775 8.041604843021657 30.996230817515517 1 0 0
345 7 4.22676675323538 9.424469838849072 28.675634617656183 1 0 0
44 7 9.1409293754547 7.75935415183367 29.386303441475153 0 0 0
58 3 9.641485483282747 8.188629407030627 31.2316120448692 0 0 0
116 7 11.674485088712663 7.958230334199333 29.00878596201938 0 0 0
117 7 8.746886672788538 5.5344767662849135 30.70379604555364 0 0 0
118 7 10.951664540431151 6.70713903239967 30.99276580275835 0 0 0
129 7 10.170318074944149 9.805896213678725 30.182476787025422 0 0 0
131 7 11.288234621173412 9.036606362030764 32.26547775848208 0 0 0
176 7 10.344043473914144 5.5389047526773085 28.85834317059064 0 0 0
177 7 12.589544802727431 5.508012767071974 29.507710951275143 0 0 0
130 7 1.6448135932731272 11.556067778646021 30.241651517230903 1 0 0
143 4 0.06735522121654906 11.35418425026385 32.26707995705993 1 0 0
202 7 2.5212066965315585 14.965244918770026 31.212424667905093 1 0 0
212 7 2.228647071427257 13.693189361284379 29.159915248048478 1 0 0
274 7 3.955600393617026 12.716575417080001 30.639611401501522 1 0 0
285 6 3.4076462536931142 11.643716799326086 28.44185988158469 1 0 0
286 7 0.6530426046167903 13.460816790624374 31.09135628697909 1 -1 0
56 7 8.267518551462523 10.324910576420457 28.382231403393973 0 0 0
81 7 5.535573229337548 14.764211412170061 31.032682104558074 0 -1 0
153 4 7.790644985550844 14.305229995815447 30.447660536764896 0 -1 0
284 7 5.524334334348196 13.529425928237163 28.873338823300195 1 0 0
334 7 4.984322662225147 10.447510292804592 30.820204091677397 0 0 0
344 7 5.985404050802084 11.145225867141704 28.770746036951824 1 0 0
346 7 7.520514085194844 10.187369421443957 30.720126456936505 0 0 0
357 7 6.537150890334268 12.399398713876218 30.78689467738824 1 0 0
69 1 9.05970418667664 12.06677210938923 30.188954622364886 0 0 0
71 7 10.25366260436619 11.468887544736921 32.32632516914881 0 0 0
140 6 12.193129704076112 14.295990730129336 28.963258857976104 0 0 0
141 7 11.551936788217409 12.034928035809527 30.129608999638588 0 0 0
152 7 9.475641813078244 14.178871117833996 28.67585955906371 0 -1 0
225 7 10.496163655493737 14.633619848628298 30.811864528327988 0 -1 0
11 4 3.342410993631223 0.26523147932312396 34.426520752952754 0 0 0
36 7 4.152023006536261 4.178582685026383 35.600585076580124 0 0 0
239 4 0.42685117011870716 2.579831470972347 34.870721329270644 1 0 0
298 7 1.8788987951935663 1.5828841743106399 33.025725377554465 0 0 0
310 7 4.070699126177175 2.6240006067079347 33.714002879621255 0 0 0
311 7 2.579490925397251 2.298158312431268 35.534565498321825 1 0 0
312 7 1.130011778137128 0.20173963988440752 35.26958185266503 1 0 0
323 7 2.1371315397554485 4.23406274393259 33.94380476747901 1 0 0
324 7 0.967554928357019 4.639520029043012 36.000473728047815 1 0 0
10 5 5.605438704807444 0.7096938146621243 33.366310337005864 0 0 0
22 7 6.284232350068013 2.826373148136969 32.457427373306025 0 0 0
23 7 6.216958563550315 2.699198215487083 34.910884469428325 0 0 0
24 6 4.887331353632467 0.8006070490323242 35.77531460630543 0 0 0
34 7 7.786590662371043 4.898472267129443 32.891742366701926 0 0 0
35 6 5.146020049303417 4.808803613301411 33.50317437267879 0 0 0
83 7 7.445971877203864 0.4855422985409101 34.861523956226065 0 0 0
96 4 7.241424853211126 4.807105214981323 35.245306929502476 0 0 0
155 5 8.346380010743918 2.683797022201562 33.71245892462355 0 0 0
95 7 9.561742120475385 4.601789259871561 34.82639934140335 0 0 0
106 7 10.286313323712829 4.5706032681659465 32.51675316162342 0 0 0
107 1 9.182293767784598 2.1933436569170794 35.94170032851797 0 0 0
167 7 10.742949145074995 2.631101210914512 34.02894059017921 0 0 0
168 6 9.76964093702809 0.20920378409962853 33.98890998572667 0 0 0
179 7 11.337616207586267 3.604328863907511 36.12355868789472 0 0 0
180 7 11.432972564744112 1.0166348534735754 35.78561498352923 0 0 0
226 7 12.186650638006586 0.7151838824808399 33.4860973964615 0 0 0
251 7 12.232332734721338 4.632591958289162 34.0075092492489 0 0 0
48 3 4.0073649456671 7.648921903595189 35.58619771381994 0 0 0
203 6 1.2461020203904585 9.15825219220468 32.75207741177963 1 0 0
204 7 0.3693243119348891 8.336817177739576 34.8990321715517 1 0 0
252 2 0.6593847000975478 6.220204513893837 34.77692934916469 1 0 0
264 7 1.8601988022710563 6.689475135284631 33.1385763029529 1 0 0
275 4 3.894672599196567 9.63367839119378 32.84909283766576 1 0 0
276 7 2.787735342458523 8.867745297255357 34.94832635239645 1 0 0
336 7 2.7494020296342487 6.282761923860772 35.33193796328265 1 0 0
47 7 6.82550291524216 6.986878557664183 33.70758904416954 0 0 0
60 7 7.777899310368348 8.952755745808778 34.72005128691038 0 0 0
120 7 5.312192134033559 6.3441582039707844 35.5870843177395 0 0 0
335 6 4.3353793181077664 7.339498150249792 33.39771750947426 1 0 0
347 4 6.330210025924145 9.419653862235169 32.79887042745993 1 0 0
348 7 5.326502743102033 8.938974118797448 35.06009465912592 1 0 0
59 7 8.904474020684999 9.38915867055173 32.58868053211117 0 0 0
108 7 8.712708085086385 6.831172968229092 35.354419421640344 0 0 0
119 6 9.452384974370819 6.855122915363578 33.03868149438899 0 0 0
132 7 10.35040337840647 8.535797863892153 34.614897664356505 0 0 0
191 7 12.0921645519933 6.931437948968843 33.11552119060026 0 0 0
192 7 11.234182965074707 6.369759011259107 35.30699169554724 0 0 0
12 7 2.7390278215176664 13.127447900974238 34.8685217916747 0 -1 0
70 7 4.083598093070591 13.96042398371991 32.78251610879529 0 -1 0
215 6 2.5212010807566303 11.918924892849699 32.62945461581589 1 0 0
216 7 1.527577015177678 10.870087101693379 34.66382765138279 1 0 0
288 7 4.006151575027063 11.09877618679692 34.75972026365846 1 0 0
299 7 1.4676525919528762 14.244022715445485 33.16952246862964 1 -1 0
300 4 0.230971695737994 12.985874988593194 34.61911350172793 1 -1 0
84 7 5.364316898453997 13.56981068173882 34.85575402360647 0 -1 0
142 7 6.68592666547572 13.774660981664676 32.839308296864004 0 -1 0
156 6 7.950664326684546 13.113700735342205 34.72805915773108 0 -1 0
287 7 5.191473438029099 11.791296877395881 32.78409689600082 1 0 0
359 7 7.721216340870575 11.536782235353298 32.71699201139005 1 0 0
360 7 6.477754273826237 11.10378657353365 34.73337454658253 1 0 0
72 7 9.123284662220957 10.860248326196519 34.56659084511671 0 0 0
144 6 11.673418024681144 10.640378378459737 34.27614597333526 0 0 0
214 7 9.060957081969338 13.560449678417077 32.45692511585339 0 -1 0
227 5 11.583351047445403 13.603037165557692 32.69436575509178 0 -1 0
228 7 10.385591300396726 12.88263881448955 34.63763644889642 0 -1 0
240 3 11.525630000493447 14.459418989849386 34.80813323711482 0 -1 0
361 8 1.712726450121635 12.52304634627326 38.868724089386816 0 0 0
362 8 1.7741057881577642 12.489337347160285 38.11992740905408 0 0 0

Velocities

1 0 0 0
13 0 0 0
25 0 0 0
73 0 0 0
85 0 0 0
313 0 0 0
97 0 0 0
145 0 0 0
157 0 0 0
169 0 0 0
217 0 0 0
229 0 0 0
241 0 0 0
289 0 0 0
301 0 0 0
37 0 0 0
265 0 0 0
325 0 0 0
337 0 0 0
49 0 0 0
109 0 0 0
121 0 0 0
181 0 0 0
193 0 0 0
253 0 0 0
277 0 0 0
349 0 0 0
61 0 0 0
133 0 0 0
205 0 0 0
2 0 0 0
3 0 0 0
14 0 0 0
15 0 0 0
75 0 0 0
290 0 0 0
302 0 0 0
303 0 0 0
74 0 0 0
86 0 0 0
87 0 0 0
146 0 0 0
147 0 0 0
159 0 0 0
158 0 0 0
218 0 0 0
219 0 0 0
230 0 0 0
231 0 0 0
291 0 0 0
27 0 0 0
242 0 0 0
254 0 0 0
255 0 0 0
267 0 0 0
314 0 0 0
315 0 0 0
326 0 0 0
327 0 0 0
339 0 0 0
26 0 0 0
38 0 0 0
39 0 0 0
51 0 0 0
98 0 0 0
99 0 0 0
111 0 0 0
110 0 0 0
123 0 0 0
170 0 0 0
171 0 0 0
182 0 0 0
183 0 0 0
195 0 0 0
243 0 0 0
194 0 0 0
206 0 0 0
207 0 0 0
209 0 0 0
266 0 0 0
278 0 0 0
279 0 0 0
329 0 0 0
50 0 0 0
63 0 0 0
338 0 0 0
341 0 0 0
350 0 0 0
351 0 0 0
62 0 0 0
122 0 0 0
134 0 0 0
135 0 0 0
137 0 0 0
4 0 0 0
5 0 0 0
16 0 0 0
17 0 0 0
64 0 0 0
76 0 0 0
136 0 0 0
304 0 0 0
305 0 0 0
77 0 0 0
88 0 0 0
89 0 0 0
148 0 0 0
149 0 0 0
160 0 0 0
208 0 0 0
280 0 0 0
161 0 0 0
220 0 0 0
221 0 0 0
232 0 0 0
233 0 0 0
292 0 0 0
293 0 0 0
352 0 0 0
28 0 0 0
256 0 0 0
257 0 0 0
258 0 0 0
259 0 0 0
316 0 0 0
317 0 0 0
318 0 0 0
328 0 0 0
29 0 0 0
30 0 0 0
40 0 0 0
100 0 0 0
101 0 0 0
112 0 0 0
113 0 0 0
172 0 0 0
173 0 0 0
184 0 0 0
185 0 0 0
244 0 0 0
245 0 0 0
197 0 0 0
210 0 0 0
268 0 0 0
269 0 0 0
270 0 0 0
281 0 0 0
340 0 0 0
342 0 0 0
41 0 0 0
52 0 0 0
53 0 0 0
150 0 0 0
353 0 0 0
65 0 0 0
66 0 0 0
124 0 0 0
125 0 0 0
138 0 0 0
196 0 0 0
198 0 0 0
7 0 0 0
18 0 0 0
19 0 0 0
32 0 0 0
294 0 0 0
295 0 0 0
306 0 0 0
307 0 0 0
308 0 0 0
33 0 0 0
78 0 0 0
79 0 0 0
90 0 0 0
91 0 0 0
92 0 0 0
151 0 0 0
163 0 0 0
162 0 0 0
222 0 0 0
223 0 0 0
234 0 0 0
235 0 0 0
236 0 0 0
246 0 0 0
31 0 0 0
189 0 0 0
248 0 0 0
260 0 0 0
319 0 0 0
330 0 0 0
42 0 0 0
43 0 0 0
102 0 0 0
103 0 0 0
104 0 0 0
114 0 0 0
331 0 0 0
332 0 0 0
115 0 0 0
126 0 0 0
174 0 0 0
175 0 0 0
186 0 0 0
188 0 0 0
247 0 0 0
6 0 0 0
67 0 0 0
139 0 0 0
199 0 0 0
200 0 0 0
213 0 0 0
271 0 0 0
272 0 0 0
54 0 0 0
211 0 0 0
282 0 0 0
343 0 0 0
354 0 0 0
356 0 0 0
55 0 0 0
68 0 0 0
127 0 0 0
128 0 0 0
187 0 0 0
283 0 0 0
355 0 0 0
8 0 0 0
9 0 0 0
21 0 0 0
238 0 0 0
296 0 0 0
297 0 0 0
309 0 0 0
358 0 0 0
20 0 0 0
80 0 0 0
82 0 0 0
93 0 0 0
105 0 0 0
321 0 0 0
94 0 0 0
154 0 0 0
164 0 0 0
165 0 0 0
166 0 0 0
224 0 0 0
237 0 0 0
178 0 0 0
190 0 0 0
201 0 0 0
249 0 0 0
250 0 0 0
261 0 0 0
262 0 0 0
263 0 0 0
273 0 0 0
45 0 0 0
46 0 0 0
57 0 0 0
320 0 0 0
322 0 0 0
333 0 0 0
345 0 0 0
44 0 0 0
58 0 0 0
116 0 0 0
117 0 0 0
118 0 0 0
129 0 0 0
131 0 0 0
176 0 0 0
177 0 0 0
130 0 0 0
143 0 0 0
202 0 0 0
212 0 0 0
274 0 0 0
285 0 0 0
286 0 0 0
56 0 0 0
81 0 0 0
153 0 0 0
284 0 0 0
334 0 0 0
344 0 0 0
346 0 0 0
357 0 0 0
69 0 0 0
71 0 0 0
140 0 0 0
141 0 0 0
152 0 0 0
225 0 0 0
11 0 0 0
36 0 0 0
239 0 0 0
298 0 0 0
310 0 0 0
311 0 0 0
312 0 0 0
323 0 0 0
324 0 0 0
10 0 0 0
22 0 0 0
23 0 0 0
24 0 0 0
34 0 0 0
35 0 0 0
83 0 0 0
96 0 0 0
155 0 0 0
95 0 0 0
106 0 0 0
107 0 0 0
167 0 0 0
168 0 0 0
179 0 0 0
180 0 0 0
226 0 0 0
251 0 0 0
48 0 0 0
203 0 0 0
204 0 0 0
252 0 0 0
264 0 0 0
275 0 0 0
276 0 0 0
336 0 0 0
47 0 0 0
60 0 0 0
120 0 0 0
335 0 0 0
347 0 0 0
348 0 0 0
59 0 0 0
108 0 0 0
119 0 0 0
132 0 0 0
191 0 0 0
192 0 0 0
12 0 0 0
70 0 0 0
215 0 0 0
216 0 0 0
288 0 0 0
299 0 0 0
300 0 0 0
84 0 0 0
142 0 0 0
156 0 0 0
287 0 0 0
359 0 0 0
360 0 0 0
72 0 0 0
144 0 0 0
214 0 0 0
227 0 0 0
228 0 0 0
240 0 0 0
361 0 0 0
362 0 0 0
