LAMMPS (11 Feb 2026 - Development - patch_11Feb2026-99-gb75dfcc930-modified)
KOKKOS mode with Kokkos version 5.0.2 is enabled
  using double precision
  using view layout = legacy
  will use up to 1 GPU(s) per node
  using 1 OpenMP thread(s) per MPI task
package kokkos
package kokkos newton on neigh half
# ═══════════════════════════════════════════════════
# LAMMPS Minimization — bridge
# Notebook 05 | H2 at Bridge
# ═══════════════════════════════════════════════════

units          metal
atom_style     atomic
newton         on
boundary       p p f

read_data      structures/notebook05-adsorption-energy/111/ads_bridge.lammps
Reading data file ...
  orthogonal box = (0 0 0) to (12.447908 12.936245 52.360083)
  1 by 1 by 1 MPI processor grid
  reading atoms ...
  362 atoms
  read_data CPU = 0.009 seconds

pair_style     mliap unified /projects/westgroup/akinyemi.az/mace_lammps/models/mace-mp-0b2-medium.model-mliap_lammps.pt 0
pair_coeff     * * Al B C Cr Fe Mo Ni H

neighbor       2.0 bin
neigh_modify   every 1 delay 0 check yes

thermo         50
thermo_style   custom step pe fmax fnorm press

minimize       0  1e-06  10000  100000

CITE-CITE-CITE-CITE-CITE-CITE-CITE-CITE-CITE-CITE-CITE-CITE-CITE

Your simulation uses code contributions which should be cited:

- KOKKOS package: https://doi.org/10.1145/3731599.3767498

@inproceedings{Johansson25,
 author = {A. Johansson and E. Weinberg and C. Trott and M. McCarthy and S. Moore},
 title = {{LAMMPS-KOKKOS}: {P}erformance Portable Molecular Dynamics Across Exascale Architectures},
 year = 2025,
 booktitle = {Proceedings of the SC '25 Workshops of the International Conference for High Performance Computing,
  Networking, Storage and Analysis},
 pages = {1217–1232},
}

CITE-CITE-CITE-CITE-CITE-CITE-CITE-CITE-CITE-CITE-CITE-CITE-CITE

Neighbor list info ...
  update: every = 1 steps, delay = 0 steps, check = yes
  max neighbors/atom: 2000, page size: 100000
  master list distance cutoff = 7
  ghost atom cutoff = 7
  binsize = 7, bins = 2 2 8
  1 neighbor lists, perpetual/occasional/extra = 1 0 0
  (1) pair mliap/kk, perpetual
      attributes: full, newton on, kokkos_device
      pair build: full/bin/kk/device
      stencil: full/bin/3d
      bin: kk/device
WARNING: Fix MINIMIZE/kk not compatible with sending data in Kokkos communication (src/KOKKOS/comm_kokkos.cpp:842)
WARNING: Fix with atom-based arrays not compatible with sending data in Kokkos communication, switching to legacy exchange/border communication (src/KOKKOS/comm_kokkos.cpp:849)
WARNING: Fix MINIMIZE/kk not (yet) compatible with Kokkos sorting on device (src/KOKKOS/atom_kokkos.cpp:219)
WARNING: Fix with atom-based arrays not (yet) compatible with Kokkos sorting on device, switching to legacy host sorting (src/KOKKOS/atom_kokkos.cpp:225)
Per MPI rank memory allocation (min/avg/max) = 61.21 | 61.21 | 61.21 Mbytes
   Step         PotEng          Fmax          Fnorm          Press     
         0  -2373.6146      2.3787331      17.582342      15564.66     
        50  -2393.5855      0.10445504     0.21067176     8373.8971    
       100  -2393.6913      0.10056725     0.18162538     8404.0219    
       150  -2393.7104      0.0076669491   0.022404727    8516.7264    
       200  -2393.7106      0.00030584987  0.0011774533   8504.7762    
       250  -2393.7106      3.758104e-05   8.7206293e-05  8503.6339    
       300  -2393.7106      1.2304016e-06  4.07252e-06    8503.5855    
       328  -2393.7106      3.2571825e-07  9.8713689e-07  8503.5851    
Loop time of 21.6231 on 1 procs for 328 steps with 362 atoms

98.8% CPU use with 1 MPI tasks x 1 OpenMP threads

Minimization stats:
  Stopping criterion = force tolerance
  Energy initial, next-to-last, final = 
     -2373.61456808894  -2393.71057718376  -2393.71057718376
  Force two-norm initial, final = 17.582342 9.8713689e-07
  Force max component initial, final = 2.3787331 3.2571825e-07
  Final line search alpha, max atom move = 1 3.2571825e-07
  Iterations, force evaluations = 328 639

MPI task timing breakdown:
Section |  min time  |  avg time  |  max time  |%varavg| %total
---------------------------------------------------------------
Pair    | 21.52      | 21.52      | 21.52      |   0.0 | 99.52
Neigh   | 0.002612   | 0.002612   | 0.002612   |   0.0 |  0.01
Comm    | 0.019318   | 0.019318   | 0.019318   |   0.0 |  0.09
Output  | 0.00052688 | 0.00052688 | 0.00052688 |   0.0 |  0.00
Modify  | 0          | 0          | 0          |   0.0 |  0.00
Other   |            | 0.08054    |            |       |  0.37

Nlocal:            362 ave         362 max         362 min
Histogram: 1 0 0 0 0 0 0 0 0 0
Nghost:           1205 ave        1205 max        1205 min
Histogram: 1 0 0 0 0 0 0 0 0 0
Neighs:              0 ave           0 max           0 min
Histogram: 1 0 0 0 0 0 0 0 0 0
FullNghs:        43068 ave       43068 max       43068 min
Histogram: 1 0 0 0 0 0 0 0 0 0

Total # of neighbors = 43068
Ave neighs/atom = 118.97238
Neighbor list builds = 4
Dangerous builds = 0

variable  pe_final  equal  pe
variable  fmax_f    equal  fmax
variable  natoms    equal  atoms

print "ENERGY_RESULTS_START"
ENERGY_RESULTS_START
print "  job_name         : bridge"
  job_name         : bridge
print "  pe_final_eV      : ${pe_final}"
  pe_final_eV      : -2393.71057718376
print "  fmax_eV_per_Ang  : ${fmax_f}"
  fmax_eV_per_Ang  : 3.25718245781231e-07
print "  natoms           : ${natoms}"
  natoms           : 362
print "ENERGY_RESULTS_END"
ENERGY_RESULTS_END

write_data     structures/notebook05-adsorption-energy/111/ads_bridge_relaxed.lammps
System init for write_data ...
print "Written: structures/notebook05-adsorption-energy/111/ads_bridge_relaxed.lammps"
Written: structures/notebook05-adsorption-energy/111/ads_bridge_relaxed.lammps
Total wall time: 0:00:45
