LAMMPS (11 Feb 2026 - Development - patch_11Feb2026-99-gb75dfcc930-modified)
KOKKOS mode with Kokkos version 5.0.2 is enabled
  using double precision
  using view layout = legacy
  will use up to 1 GPU(s) per node
  using 1 OpenMP thread(s) per MPI task
Reading data file ...
  orthogonal box = (0 0 0) to (12.447908 12.936245 52.360083)
  1 by 1 by 1 MPI processor grid
  reading atoms ...
  362 atoms
  read_data CPU = 0.009 seconds
/home/akinyemi.az/miniforge3/envs/mace-lammps/lib/python3.11/site-packages/e3nn/o3/_wigner.py:10: FutureWarning: You are using `torch.load` with `weights_only=False` (the current default value), which uses the default pickle module implicitly. It is possible to construct malicious pickle data which will execute arbitrary code during unpickling (See https://github.com/pytorch/pytorch/blob/main/SECURITY.md#untrusted-models for more details). In a future release, the default value for `weights_only` will be flipped to `True`. This limits the functions that could be executed during unpickling. Arbitrary objects will no longer be allowed to be loaded via this mode unless they are explicitly allowlisted by the user via `torch.serialization.add_safe_globals`. We recommend you start setting `weights_only=True` for any use case where you don't have full control of the loaded file. Please open an issue on GitHub for any issues related to this experimental feature.
  _Jd, _W3j_flat, _W3j_indices = torch.load(os.path.join(os.path.dirname(__file__), 'constants.pt'))

CITE-CITE-CITE-CITE-CITE-CITE-CITE-CITE-CITE-CITE-CITE-CITE-CITE

Your simulation uses code contributions which should be cited:
- KOKKOS package: https://doi.org/10.1145/3731599.3767498
The log file lists these citations in BibTeX format.

CITE-CITE-CITE-CITE-CITE-CITE-CITE-CITE-CITE-CITE-CITE-CITE-CITE

Neighbor list info ...
  update: every = 1 steps, delay = 0 steps, check = yes
  max neighbors/atom: 2000, page size: 100000
  master list distance cutoff = 7
  ghost atom cutoff = 7
  binsize = 7, bins = 2 2 8
  1 neighbor lists, perpetual/occasional/extra = 1 0 0
  (1) pair mliap/kk, perpetual
      attributes: full, newton on, kokkos_device
      pair build: full/bin/kk/device
      stencil: full/bin/3d
      bin: kk/device
Setting up cg/kk style minimization ...
  Unit style    : metal
  Current step  : 0
WARNING: Fix MINIMIZE/kk not compatible with sending data in Kokkos communication (src/KOKKOS/comm_kokkos.cpp:842)
WARNING: Fix with atom-based arrays not compatible with sending data in Kokkos communication, switching to legacy exchange/border communication (src/KOKKOS/comm_kokkos.cpp:849)
WARNING: Fix MINIMIZE/kk not (yet) compatible with Kokkos sorting on device (src/KOKKOS/atom_kokkos.cpp:219)
WARNING: Fix with atom-based arrays not (yet) compatible with Kokkos sorting on device, switching to legacy host sorting (src/KOKKOS/atom_kokkos.cpp:225)
Per MPI rank memory allocation (min/avg/max) = 61.19 | 61.19 | 61.19 Mbytes
   Step         PotEng          Fmax          Fnorm          Press     
         0  -2373.8102      2.3787331      17.578997      15445.493    
        50  -2393.6322      0.12865444     0.27934666     8199.8736    
       100  -2393.6615      0.0059134435   0.030607219    8467.7556    
       150  -2393.662       0.0016995851   0.0034757708   8496.4446    
       200  -2393.662       6.0804391e-05  0.00015951741  8498.0885    
       250  -2393.662       3.337261e-06   1.0190857e-05  8498.2387    
       293  -2393.662       2.1428909e-07  9.3223304e-07  8498.2488    
Loop time of 22.0818 on 1 procs for 293 steps with 362 atoms

98.8% CPU use with 1 MPI tasks x 1 OpenMP threads

Minimization stats:
  Stopping criterion = force tolerance
  Energy initial, next-to-last, final = 
     -2373.81021971591  -2393.66200867757  -2393.66200867757
  Force two-norm initial, final = 17.578997 9.3223304e-07
  Force max component initial, final = 2.3787331 2.1428909e-07
  Final line search alpha, max atom move = 1 2.1428909e-07
  Iterations, force evaluations = 293 568

MPI task timing breakdown:
Section |  min time  |  avg time  |  max time  |%varavg| %total
---------------------------------------------------------------
Pair    | 21.986     | 21.986     | 21.986     |   0.0 | 99.57
Neigh   | 0.0014453  | 0.0014453  | 0.0014453  |   0.0 |  0.01
Comm    | 0.01799    | 0.01799    | 0.01799    |   0.0 |  0.08
Output  | 0.00043335 | 0.00043335 | 0.00043335 |   0.0 |  0.00
Modify  | 0          | 0          | 0          |   0.0 |  0.00
Other   |            | 0.07612    |            |       |  0.34

Nlocal:            362 ave         362 max         362 min
Histogram: 1 0 0 0 0 0 0 0 0 0
Nghost:           1199 ave        1199 max        1199 min
Histogram: 1 0 0 0 0 0 0 0 0 0
Neighs:              0 ave           0 max           0 min
Histogram: 1 0 0 0 0 0 0 0 0 0
FullNghs:        43082 ave       43082 max       43082 min
Histogram: 1 0 0 0 0 0 0 0 0 0

Total # of neighbors = 43082
Ave neighs/atom = 119.01105
Neighbor list builds = 2
Dangerous builds = 0
ENERGY_RESULTS_START
  job_name         : top_ni
  pe_final_eV      : -2393.66200867757
  fmax_eV_per_Ang  : 2.14289086638425e-07
  natoms           : 362
ENERGY_RESULTS_END
System init for write_data ...
Written: structures/notebook05-adsorption-energy/111/ads_top_ni_relaxed.lammps
Total wall time: 0:00:41
/home/akinyemi.az/miniforge3/envs/mace-lammps/lib/python3.11/tempfile.py:934: ResourceWarning: Implicitly cleaning up <TemporaryDirectory '/tmp/tmpp5kjbh4f'>
  _warnings.warn(warn_message, ResourceWarning)
Job top_ni finished: Fri May 15 11:03:21 PM EDT 2026
