LAMMPS (11 Feb 2026 - Development - patch_11Feb2026-99-gb75dfcc930-modified)
/home/akinyemi.az/miniforge3/envs/mace-lammps/lib/python3.11/site-packages/e3nn/o3/_wigner.py:10: FutureWarning: You are using `torch.load` with `weights_only=False` (the current default value), which uses the default pickle module implicitly. It is possible to construct malicious pickle data which will execute arbitrary code during unpickling (See https://github.com/pytorch/pytorch/blob/main/SECURITY.md#untrusted-models for more details). In a future release, the default value for `weights_only` will be flipped to `True`. This limits the functions that could be executed during unpickling. Arbitrary objects will no longer be allowed to be loaded via this mode unless they are explicitly allowlisted by the user via `torch.serialization.add_safe_globals`. We recommend you start setting `weights_only=True` for any use case where you don't have full control of the loaded file. Please open an issue on GitHub for any issues related to this experimental feature.
  _Jd, _W3j_flat, _W3j_indices = torch.load(os.path.join(os.path.dirname(__file__), 'constants.pt'))
/home/akinyemi.az/miniforge3/envs/mace-lammps/lib/python3.11/tempfile.py:934: ResourceWarning: Implicitly cleaning up <TemporaryDirectory '/tmp/tmp6jeih7_p'>
  _warnings.warn(warn_message, ResourceWarning)
KOKKOS mode with Kokkos version 5.0.2 is enabled
  using double precision
  using view layout = legacy
  will use up to 1 GPU(s) per node
  using 1 OpenMP thread(s) per MPI task
Reading data file ...
  orthogonal box = (0 0 0) to (12.447908 12.936245 52.360083)
  1 by 1 by 1 MPI processor grid
  reading atoms ...
  362 atoms
  read_data CPU = 0.017 seconds

CITE-CITE-CITE-CITE-CITE-CITE-CITE-CITE-CITE-CITE-CITE-CITE-CITE

Your simulation uses code contributions which should be cited:
- KOKKOS package: https://doi.org/10.1145/3731599.3767498
The log file lists these citations in BibTeX format.

CITE-CITE-CITE-CITE-CITE-CITE-CITE-CITE-CITE-CITE-CITE-CITE-CITE

Neighbor list info ...
  update: every = 1 steps, delay = 0 steps, check = yes
  max neighbors/atom: 2000, page size: 100000
  master list distance cutoff = 7
  ghost atom cutoff = 7
  binsize = 7, bins = 2 2 8
  1 neighbor lists, perpetual/occasional/extra = 1 0 0
  (1) pair mliap/kk, perpetual
      attributes: full, newton on, kokkos_device
      pair build: full/bin/kk/device
      stencil: full/bin/3d
      bin: kk/device
Setting up cg/kk style minimization ...
  Unit style    : metal
  Current step  : 0
WARNING: Fix MINIMIZE/kk not compatible with sending data in Kokkos communication (src/KOKKOS/comm_kokkos.cpp:842)
WARNING: Fix with atom-based arrays not compatible with sending data in Kokkos communication, switching to legacy exchange/border communication (src/KOKKOS/comm_kokkos.cpp:849)
WARNING: Fix MINIMIZE/kk not (yet) compatible with Kokkos sorting on device (src/KOKKOS/atom_kokkos.cpp:219)
WARNING: Fix with atom-based arrays not (yet) compatible with Kokkos sorting on device, switching to legacy host sorting (src/KOKKOS/atom_kokkos.cpp:225)
Per MPI rank memory allocation (min/avg/max) = 61.2 | 61.2 | 61.2 Mbytes
   Step         PotEng          Fmax          Fnorm          Press     
         0  -2373.7571      2.3787331      17.573251      15513.744    
        50  -2393.6135      0.12267523     0.23561786     8270.4452    
       100  -2393.6385      0.019333955    0.050133406    8510.6006    
       150  -2393.6408      0.027322883    0.048928061    8517.2565    
       200  -2393.6473      0.048771315    0.14862941     8503.1524    
       250  -2393.6615      0.037176932    0.10411514     8547.3669    
       300  -2393.6756      0.021174554    0.040717491    8513.8527    
       350  -2393.678       0.0022038075   0.0047768777   8504.7111    
       400  -2393.6781      0.00047622408  0.0012000238   8502.2772    
       450  -2393.6781      0.0002336711   0.00065660231  8502.4099    
       500  -2393.6781      5.6474462e-05  0.00015349628  8502.4064    
       550  -2393.6781      1.9710589e-05  5.0354387e-05  8502.3059    
       600  -2393.6781      4.2523383e-06  1.5447948e-05  8502.294     
       650  -2393.6781      1.2148697e-06  3.9804595e-06  8502.29      
       694  -2393.6781      2.0133285e-07  9.2646963e-07  8502.2938    
Loop time of 43.5054 on 1 procs for 694 steps with 362 atoms

98.9% CPU use with 1 MPI tasks x 1 OpenMP threads

Minimization stats:
  Stopping criterion = force tolerance
  Energy initial, next-to-last, final = 
     -2373.75710885758   -2393.6780648398   -2393.6780648398
  Force two-norm initial, final = 17.573251 9.2646963e-07
  Force max component initial, final = 2.3787331 2.0133285e-07
  Final line search alpha, max atom move = 1 2.0133285e-07
  Iterations, force evaluations = 694 1378

MPI task timing breakdown:
Section |  min time  |  avg time  |  max time  |%varavg| %total
---------------------------------------------------------------
Pair    | 43.295     | 43.295     | 43.295     |   0.0 | 99.52
Neigh   | 0.0026003  | 0.0026003  | 0.0026003  |   0.0 |  0.01
Comm    | 0.040423   | 0.040423   | 0.040423   |   0.0 |  0.09
Output  | 0.00085343 | 0.00085343 | 0.00085343 |   0.0 |  0.00
Modify  | 0          | 0          | 0          |   0.0 |  0.00
Other   |            | 0.167      |            |       |  0.38

Nlocal:            362 ave         362 max         362 min
Histogram: 1 0 0 0 0 0 0 0 0 0
Nghost:           1201 ave        1201 max        1201 min
Histogram: 1 0 0 0 0 0 0 0 0 0
Neighs:              0 ave           0 max           0 min
Histogram: 1 0 0 0 0 0 0 0 0 0
FullNghs:        43094 ave       43094 max       43094 min
Histogram: 1 0 0 0 0 0 0 0 0 0

Total # of neighbors = 43094
Ave neighs/atom = 119.0442
Neighbor list builds = 4
Dangerous builds = 0
ENERGY_RESULTS_START
  job_name         : fcc_hollow
  pe_final_eV      : -2393.6780648398
  fmax_eV_per_Ang  : 2.01332845464752e-07
  natoms           : 362
ENERGY_RESULTS_END
System init for write_data ...
Written: structures/notebook05-adsorption-energy/111/ads_fcc_hollow_relaxed.lammps
Total wall time: 0:01:05
Job fcc_hollow finished: Fri May 15 11:18:55 PM EDT 2026
