LAMMPS (11 Feb 2026 - Development - patch_11Feb2026-99-gb75dfcc930-modified)
KOKKOS mode with Kokkos version 5.0.2 is enabled
  using double precision
  using view layout = legacy
  will use up to 1 GPU(s) per node
  using 1 OpenMP thread(s) per MPI task
Reading data file ...
  orthogonal box = (0 0 0) to (12.447908 12.936245 52.360083)
  1 by 1 by 1 MPI processor grid
  reading atoms ...
  362 atoms
  read_data CPU = 0.009 seconds
/home/akinyemi.az/miniforge3/envs/mace-lammps/lib/python3.11/site-packages/e3nn/o3/_wigner.py:10: FutureWarning: You are using `torch.load` with `weights_only=False` (the current default value), which uses the default pickle module implicitly. It is possible to construct malicious pickle data which will execute arbitrary code during unpickling (See https://github.com/pytorch/pytorch/blob/main/SECURITY.md#untrusted-models for more details). In a future release, the default value for `weights_only` will be flipped to `True`. This limits the functions that could be executed during unpickling. Arbitrary objects will no longer be allowed to be loaded via this mode unless they are explicitly allowlisted by the user via `torch.serialization.add_safe_globals`. We recommend you start setting `weights_only=True` for any use case where you don't have full control of the loaded file. Please open an issue on GitHub for any issues related to this experimental feature.
  _Jd, _W3j_flat, _W3j_indices = torch.load(os.path.join(os.path.dirname(__file__), 'constants.pt'))

CITE-CITE-CITE-CITE-CITE-CITE-CITE-CITE-CITE-CITE-CITE-CITE-CITE

Your simulation uses code contributions which should be cited:
- KOKKOS package: https://doi.org/10.1145/3731599.3767498
The log file lists these citations in BibTeX format.

CITE-CITE-CITE-CITE-CITE-CITE-CITE-CITE-CITE-CITE-CITE-CITE-CITE

Neighbor list info ...
  update: every = 1 steps, delay = 0 steps, check = yes
  max neighbors/atom: 2000, page size: 100000
  master list distance cutoff = 7
  ghost atom cutoff = 7
  binsize = 7, bins = 2 2 8
  1 neighbor lists, perpetual/occasional/extra = 1 0 0
  (1) pair mliap/kk, perpetual
      attributes: full, newton on, kokkos_device
      pair build: full/bin/kk/device
      stencil: full/bin/3d
      bin: kk/device
Setting up cg/kk style minimization ...
  Unit style    : metal
  Current step  : 0
WARNING: Fix MINIMIZE/kk not compatible with sending data in Kokkos communication (src/KOKKOS/comm_kokkos.cpp:842)
WARNING: Fix with atom-based arrays not compatible with sending data in Kokkos communication, switching to legacy exchange/border communication (src/KOKKOS/comm_kokkos.cpp:849)
WARNING: Fix MINIMIZE/kk not (yet) compatible with Kokkos sorting on device (src/KOKKOS/atom_kokkos.cpp:219)
WARNING: Fix with atom-based arrays not (yet) compatible with Kokkos sorting on device, switching to legacy host sorting (src/KOKKOS/atom_kokkos.cpp:225)
Per MPI rank memory allocation (min/avg/max) = 61.21 | 61.21 | 61.21 Mbytes
   Step         PotEng          Fmax          Fnorm          Press     
         0  -2373.6146      2.3787331      17.582342      15564.66     
        50  -2393.5855      0.10445504     0.21067176     8373.8971    
       100  -2393.6913      0.10056725     0.18162538     8404.0219    
       150  -2393.7104      0.0076669491   0.022404727    8516.7264    
       200  -2393.7106      0.00030584987  0.0011774533   8504.7762    
       250  -2393.7106      3.758104e-05   8.7206293e-05  8503.6339    
       300  -2393.7106      1.2304016e-06  4.07252e-06    8503.5855    
       328  -2393.7106      3.2571825e-07  9.8713689e-07  8503.5851    
Loop time of 21.6231 on 1 procs for 328 steps with 362 atoms

98.8% CPU use with 1 MPI tasks x 1 OpenMP threads

Minimization stats:
  Stopping criterion = force tolerance
  Energy initial, next-to-last, final = 
     -2373.61456808894  -2393.71057718376  -2393.71057718376
  Force two-norm initial, final = 17.582342 9.8713689e-07
  Force max component initial, final = 2.3787331 3.2571825e-07
  Final line search alpha, max atom move = 1 3.2571825e-07
  Iterations, force evaluations = 328 639

MPI task timing breakdown:
Section |  min time  |  avg time  |  max time  |%varavg| %total
---------------------------------------------------------------
Pair    | 21.52      | 21.52      | 21.52      |   0.0 | 99.52
Neigh   | 0.002612   | 0.002612   | 0.002612   |   0.0 |  0.01
Comm    | 0.019318   | 0.019318   | 0.019318   |   0.0 |  0.09
Output  | 0.00052688 | 0.00052688 | 0.00052688 |   0.0 |  0.00
Modify  | 0          | 0          | 0          |   0.0 |  0.00
Other   |            | 0.08054    |            |       |  0.37

Nlocal:            362 ave         362 max         362 min
Histogram: 1 0 0 0 0 0 0 0 0 0
Nghost:           1205 ave        1205 max        1205 min
Histogram: 1 0 0 0 0 0 0 0 0 0
Neighs:              0 ave           0 max           0 min
Histogram: 1 0 0 0 0 0 0 0 0 0
FullNghs:        43068 ave       43068 max       43068 min
Histogram: 1 0 0 0 0 0 0 0 0 0

Total # of neighbors = 43068
Ave neighs/atom = 118.97238
Neighbor list builds = 4
Dangerous builds = 0
ENERGY_RESULTS_START
  job_name         : bridge
  pe_final_eV      : -2393.71057718376
  fmax_eV_per_Ang  : 3.25718245781231e-07
  natoms           : 362
ENERGY_RESULTS_END
System init for write_data ...
Written: structures/notebook05-adsorption-energy/111/ads_bridge_relaxed.lammps
Total wall time: 0:00:45
/home/akinyemi.az/miniforge3/envs/mace-lammps/lib/python3.11/tempfile.py:934: ResourceWarning: Implicitly cleaning up <TemporaryDirectory '/tmp/tmplkcw2aq8'>
  _warnings.warn(warn_message, ResourceWarning)
Job bridge finished: Fri May 15 11:17:35 PM EDT 2026
