T=600K Start: Sat Apr 25 02:21:01 AM EDT 2026
LAMMPS (11 Feb 2026 - Development - patch_11Feb2026-99-gb75dfcc930-modified)
KOKKOS mode with Kokkos version 5.0.2 is enabled
  using double precision
  using view layout = legacy
  will use up to 1 GPU(s) per node
  using 1 OpenMP thread(s) per MPI task
Reading data file ...
  orthogonal box = (0 0 0) to (17.857779 17.857779 17.857779)
  1 by 1 by 1 MPI processor grid
  reading atoms ...
  501 atoms
  read_data CPU = 0.008 seconds
/home/akinyemi.az/miniforge3/envs/mace-lammps/lib/python3.11/site-packages/e3nn/o3/_wigner.py:10: FutureWarning: You are using `torch.load` with `weights_only=False` (the current default value), which uses the default pickle module implicitly. It is possible to construct malicious pickle data which will execute arbitrary code during unpickling (See https://github.com/pytorch/pytorch/blob/main/SECURITY.md#untrusted-models for more details). In a future release, the default value for `weights_only` will be flipped to `True`. This limits the functions that could be executed during unpickling. Arbitrary objects will no longer be allowed to be loaded via this mode unless they are explicitly allowlisted by the user via `torch.serialization.add_safe_globals`. We recommend you start setting `weights_only=True` for any use case where you don't have full control of the loaded file. Please open an issue on GitHub for any issues related to this experimental feature.
  _Jd, _W3j_flat, _W3j_indices = torch.load(os.path.join(os.path.dirname(__file__), 'constants.pt'))
1 atoms in group H_atom
500 atoms in group metal
### Phase 1: Equilibration 250 ps at 600 K ###

CITE-CITE-CITE-CITE-CITE-CITE-CITE-CITE-CITE-CITE-CITE-CITE-CITE

Your simulation uses code contributions which should be cited:
- KOKKOS package: https://doi.org/10.1145/3731599.3767498
The log file lists these citations in BibTeX format.

CITE-CITE-CITE-CITE-CITE-CITE-CITE-CITE-CITE-CITE-CITE-CITE-CITE

Neighbor list info ...
  update: every = 1 steps, delay = 0 steps, check = yes
  max neighbors/atom: 2000, page size: 100000
  master list distance cutoff = 7
  ghost atom cutoff = 7
  binsize = 7, bins = 3 3 3
  1 neighbor lists, perpetual/occasional/extra = 1 0 0
  (1) pair mliap/kk, perpetual
      attributes: full, newton on, kokkos_device
      pair build: full/bin/kk/device
      stencil: full/bin/3d
      bin: kk/device
Setting up Verlet run ...
  Unit style    : metal
  Current step  : 0
  Time step     : 0.0005
Per MPI rank memory allocation (min/avg/max) = 80.93 | 80.93 | 80.93 Mbytes
   Step          Temp          PotEng         KinEng         TotEng         Press          Volume    
         0   600           -3371.6067      38.778043     -3332.8287      8120.2071      5694.8503    
      1000   597.08265     -3335.2551      38.589495     -3296.6656      39293.146      5694.8503    
      2000   574.37209     -3336.2818      37.12171      -3299.1601      35984.127      5694.8503    
      3000   615.10875     -3333.9518      39.754523     -3294.1973      34158.671      5694.8503    
      4000   628.63094     -3332.2436      40.628463     -3291.6152      39615.601      5694.8503    
      5000   577.89941     -3331.8938      37.349681     -3294.5441      39325.831      5694.8503    
      6000   619.75535     -3336.9935      40.054833     -3296.9387      34759.145      5694.8503    
      7000   613.71683     -3336.7027      39.664563     -3297.0381      35572.595      5694.8503    
      8000   622.47117     -3335.5049      40.230357     -3295.2746      36795.19       5694.8503    
      9000   616.72386     -3332.181       39.858908     -3292.3221      34975.111      5694.8503    
     10000   639.48274     -3335.8514      41.329816     -3294.5216      34331.742      5694.8503    
     11000   582.148       -3335.3049      37.624268     -3297.6806      35498.46       5694.8503    
     12000   588.16795     -3336.0708      38.013337     -3298.0575      34566.732      5694.8503    
     13000   615.30211     -3332.3044      39.76702      -3292.5374      37021.074      5694.8503    
     14000   611.82383     -3334.6443      39.542218     -3295.1021      37694.091      5694.8503    
     15000   594.22682     -3336.036       38.404922     -3297.6311      36132.349      5694.8503    
     16000   614.59275     -3336.0935      39.721174     -3296.3723      34189.69       5694.8503    
     17000   580.75985     -3332.2079      37.534551     -3294.6733      36727.375      5694.8503    
     18000   614.34082     -3336.3286      39.704891     -3296.6237      32777.581      5694.8503    
     19000   604.0706      -3336.6417      39.041127     -3297.6005      34329.285      5694.8503    
     20000   603.79444     -3337.6713      39.023278     -3298.648       31478.829      5694.8503    
     21000   601.89323     -3336.5859      38.900403     -3297.6855      33728.733      5694.8503    
     22000   634.57713     -3335.7514      41.012766     -3294.7387      37637.44       5694.8503    
     23000   606.70252     -3334.127       39.211228     -3294.9158      38354.695      5694.8503    
     24000   589.82374     -3336.186       38.120351     -3298.0657      39423.757      5694.8503    
     25000   568.81251     -3335.2354      36.762394     -3298.473       37203.299      5694.8503    
     26000   616.89431     -3336.8265      39.869924     -3296.9566      36619.578      5694.8503    
     27000   657.15058     -3335.8552      42.47169      -3293.3835      38433.683      5694.8503    
     28000   614.57648     -3332.4324      39.720123     -3292.7123      37318.03       5694.8503    
     29000   596.68436     -3337.1151      38.563753     -3298.5514      30954.438      5694.8503    
     30000   616.03681     -3336.7554      39.814504     -3296.9409      35467.249      5694.8503    
     31000   590.14094     -3334.3413      38.140852     -3296.2005      34496.038      5694.8503    
     32000   572.30126     -3336.7446      36.987872     -3299.7568      33277.087      5694.8503    
     33000   603.40995     -3337.2966      38.998429     -3298.2981      38046.543      5694.8503    
     34000   602.73487     -3336.9111      38.954799     -3297.9563      33283.959      5694.8503    
     35000   608.89139     -3333.6768      39.352695     -3294.3241      38303.123      5694.8503    
     36000   582.64868     -3335.2379      37.656626     -3297.5813      36266.925      5694.8503    
     37000   569.86395     -3336.1342      36.830349     -3299.3039      36111.983      5694.8503    
     38000   570.95458     -3333.7473      36.900836     -3296.8465      41678.552      5694.8503    
     39000   637.11341     -3334.4061      41.176686     -3293.2294      37643.769      5694.8503    
     40000   619.71129     -3335.2102      40.051985     -3295.1582      39082.075      5694.8503    
     41000   600.92939     -3335.0319      38.83811      -3296.1938      39834.86       5694.8503    
     42000   603.45052     -3338.8935      39.001051     -3299.8924      35249.749      5694.8503    
     43000   602.64519     -3336.1731      38.949002     -3297.2241      37430.08       5694.8503    
     44000   623.1977      -3336.0232      40.277312     -3295.7459      38784.365      5694.8503    
     45000   580.65824     -3335.4974      37.527984     -3297.9694      39545.83       5694.8503    
     46000   580.65163     -3336.9491      37.527557     -3299.4216      37596.415      5694.8503    
     47000   604.54417     -3335.9274      39.071733     -3296.8556      37520.517      5694.8503    
     48000   593.30323     -3335.1539      38.345231     -3296.8087      37418.947      5694.8503    
     49000   587.89777     -3337.2622      37.995876     -3299.2663      37981.612      5694.8503    
     50000   611.73062     -3335.9607      39.536194     -3296.4245      38793.848      5694.8503    
     51000   625.40871     -3336.7805      40.420211     -3296.3602      37246.593      5694.8503    
     52000   591.54097     -3335.2438      38.231336     -3297.0124      37595.212      5694.8503    
     53000   599.88079     -3335.5311      38.770339     -3296.7608      40337.53       5694.8503    
     54000   569.60813     -3335.071       36.813815     -3298.2571      38289.521      5694.8503    
     55000   603.35462     -3334.9496      38.994853     -3295.9548      40091.075      5694.8503    
     56000   628.47588     -3333.4799      40.618442     -3292.8615      42141.404      5694.8503    
     57000   611.62852     -3336.1933      39.529595     -3296.6637      40480.709      5694.8503    
     58000   584.65658     -3335.8996      37.786397     -3298.1133      37556.007      5694.8503    
     59000   570.90409     -3335.5082      36.897573     -3298.6106      38477.329      5694.8503    
     60000   585.0085      -3337.1085      37.809142     -3299.2993      38937.347      5694.8503    
     61000   602.02015     -3335.2038      38.908606     -3296.2952      39327.077      5694.8503    
     62000   573.31148     -3336.2543      37.053162     -3299.2011      37326.565      5694.8503    
     63000   597.25662     -3339.1486      38.600739     -3300.5479      37360.707      5694.8503    
     64000   611.70171     -3336.0122      39.534326     -3296.4779      40925.375      5694.8503    
     65000   617.30951     -3335.5726      39.896759     -3295.6759      40451.776      5694.8503    
     66000   587.62652     -3336.5362      37.978345     -3298.5578      36852.503      5694.8503    
     67000   550.96683     -3337.2383      35.609026     -3301.6293      35102.018      5694.8503    
     68000   608.19534     -3338.5206      39.307709     -3299.2129      36927.502      5694.8503    
     69000   595.68917     -3336.0764      38.499434     -3297.5769      38719.739      5694.8503    
     70000   614.74413     -3335.102       39.730958     -3295.371       38838.79       5694.8503    
     71000   555.77218     -3337.3356      35.919597     -3301.416       38677.796      5694.8503    
     72000   595.39841     -3333.7066      38.480642     -3295.2259      42010.512      5694.8503    
     73000   622.82122     -3335.118       40.252981     -3294.865       38803.019      5694.8503    
     74000   623.79755     -3335.524       40.316081     -3295.2079      40217.712      5694.8503    
     75000   598.62799     -3336.8826      38.68937      -3298.1932      36947.732      5694.8503    
     76000   599.13159     -3338.4252      38.721918     -3299.7033      35933.245      5694.8503    
     77000   591.80363     -3336.6765      38.248311     -3298.4282      39351.817      5694.8503    
     78000   603.93374     -3336.5045      39.032282     -3297.4722      38189.976      5694.8503    
     79000   631.34436     -3335.1462      40.803832     -3294.3424      41383.793      5694.8503    
     80000   647.63198     -3336.7065      41.856502     -3294.85        36314.824      5694.8503    
     81000   578.31178     -3335.0117      37.376332     -3297.6354      36251.767      5694.8503    
     82000   583.37993     -3334.9814      37.703887     -3297.2776      37002.516      5694.8503    
     83000   631.56626     -3334.978       40.818173     -3294.1598      34849.374      5694.8503    
     84000   620.81408     -3336.2021      40.123259     -3296.0789      35835.489      5694.8503    
     85000   580.69579     -3337.386       37.530411     -3299.8556      35539.036      5694.8503    
     86000   582.24136     -3335.0055      37.630301     -3297.3752      39896.824      5694.8503    
     87000   603.29494     -3336.3647      38.990996     -3297.3737      34478.273      5694.8503    
     88000   571.55818     -3334.9135      36.939847     -3297.9736      37489.421      5694.8503    
     89000   578.96499     -3339.3335      37.418549     -3301.9149      34192.754      5694.8503    
     90000   571.3503      -3337.8722      36.926412     -3300.9458      33746.923      5694.8503    
     91000   569.80544     -3336.7349      36.826567     -3299.9083      36474.403      5694.8503    
     92000   596.2909      -3335.9797      38.538324     -3297.4413      35710.411      5694.8503    
     93000   622.84116     -3334.7914      40.254269     -3294.5371      34522.054      5694.8503    
     94000   624.27363     -3334.6751      40.34685      -3294.3282      36313.43       5694.8503    
     95000   595.52434     -3336.7316      38.488781     -3298.2428      35797.75       5694.8503    
     96000   583.60703     -3338.0073      37.718565     -3300.2887      34368.323      5694.8503    
     97000   603.34667     -3337.5771      38.994339     -3298.5828      33681.638      5694.8503    
     98000   600.09226     -3337.6188      38.784006     -3298.8348      36172.903      5694.8503    
     99000   632.23866     -3333.9763      40.861631     -3293.1146      39342.28       5694.8503    
    100000   627.20613     -3335.816       40.536378     -3295.2797      34954.941      5694.8503    
    101000   619.16587     -3337.3165      40.016735     -3297.2997      37578.325      5694.8503    
    102000   573.04852     -3336.1059      37.036167     -3299.0697      34820.646      5694.8503    
    103000   593.21602     -3339.2019      38.339595     -3300.8623      32655.944      5694.8503    
    104000   615.45977     -3337.6172      39.777209     -3297.84        34465.492      5694.8503    
    105000   587.23376     -3335.5816      37.952961     -3297.6286      35172.678      5694.8503    
    106000   590.40115     -3339.3751      38.157669     -3301.2174      29334.316      5694.8503    
    107000   576.13646     -3335.861       37.235741     -3298.6253      34008.023      5694.8503    
    108000   605.38438     -3335.5027      39.126037     -3296.3766      35063.654      5694.8503    
    109000   597.43224     -3335.2324      38.612089     -3296.6203      35602.79       5694.8503    
    110000   563.51905     -3338.5822      36.420277     -3302.162       33035.281      5694.8503    
    111000   598.67216     -3338.4859      38.692225     -3299.7937      33486.061      5694.8503    
    112000   617.67995     -3336.9403      39.9207       -3297.0196      33767.887      5694.8503    
    113000   613.8335      -3336.4486      39.672104     -3296.7765      31218.869      5694.8503    
    114000   608.54408     -3337.9602      39.330248     -3298.63        31517.163      5694.8503    
    115000   562.96856     -3338.2799      36.384699     -3301.8952      35238.29       5694.8503    
    116000   623.05134     -3337.3411      40.267853     -3297.0732      33980.236      5694.8503    
    117000   616.85961     -3338.1623      39.867681     -3298.2946      35367.956      5694.8503    
    118000   582.23712     -3336.2957      37.630027     -3298.6657      31456.261      5694.8503    
    119000   601.07704     -3338.5928      38.847652     -3299.7452      34191.497      5694.8503    
    120000   611.61404     -3338.4665      39.52866      -3298.9378      31568.458      5694.8503    
    121000   601.26808     -3335.3875      38.859999     -3296.5275      35905.163      5694.8503    
    122000   617.11422     -3334.3467      39.884137     -3294.4626      35463.379      5694.8503    
    123000   589.96123     -3334.9449      38.129237     -3296.8157      37044.348      5694.8503    
    124000   573.25746     -3335.3539      37.049672     -3298.3042      32432.399      5694.8503    
    125000   574.62927     -3337.8837      37.138331     -3300.7454      35051.931      5694.8503    
    126000   554.16043     -3336.0088      35.815429     -3300.1934      35726.198      5694.8503    
    127000   572.35211     -3336.3215      36.991159     -3299.3303      34877.612      5694.8503    
    128000   615.4975      -3336.6995      39.779648     -3296.9198      34802.744      5694.8503    
    129000   610.27273     -3335.981       39.441971     -3296.539       34954.635      5694.8503    
    130000   603.36861     -3337.8312      38.995757     -3298.8354      35492.26       5694.8503    
    131000   584.52382     -3338.4792      37.777817     -3300.7014      30875.546      5694.8503    
    132000   616.85724     -3338.8259      39.867528     -3298.9584      29799.951      5694.8503    
    133000   630.70947     -3338.1922      40.762799     -3297.4294      31692.395      5694.8503    
    134000   596.91704     -3335.4591      38.578792     -3296.8804      36614.66       5694.8503    
    135000   623.56487     -3337.3934      40.301043     -3297.0924      34535.446      5694.8503    
    136000   595.95788     -3338.6667      38.516801     -3300.1499      32206.378      5694.8503    
    137000   575.0483      -3336.898       37.165414     -3299.7326      34618.172      5694.8503    
    138000   570.77007     -3338.8021      36.888911     -3301.9132      31502.455      5694.8503    
    139000   587.02927     -3337.1524      37.939744     -3299.2127      35929.795      5694.8503    
    140000   608.10085     -3335.6902      39.301602     -3296.3886      34731.532      5694.8503    
    141000   593.24753     -3336.5853      38.341631     -3298.2437      33626.353      5694.8503    
    142000   575.99872     -3339.1595      37.226839     -3301.9326      31959.764      5694.8503    
    143000   590.8083      -3337.0155      38.183983     -3298.8315      34459.01       5694.8503    
    144000   622.84735     -3336.1457      40.25467      -3295.8911      34068.488      5694.8503    
    145000   607.55903     -3336.1738      39.266584     -3296.9072      36286.787      5694.8503    
    146000   565.66769     -3335.8482      36.559144     -3299.2891      38649.572      5694.8503    
    147000   599.07309     -3337.8771      38.718137     -3299.1589      36592.283      5694.8503    
    148000   611.83698     -3337.2291      39.543069     -3297.686       34424.457      5694.8503    
    149000   588.26113     -3338.7957      38.01936      -3300.7763      35006.447      5694.8503    
    150000   593.79448     -3338.2843      38.37698      -3299.9073      32802.431      5694.8503    
    151000   596.25526     -3336.6774      38.536021     -3298.1414      35307.285      5694.8503    
    152000   602.54453     -3335.7275      38.942497     -3296.785       35524.916      5694.8503    
    153000   593.4362      -3336.0597      38.353824     -3297.7059      34313.425      5694.8503    
    154000   593.36608     -3339.5719      38.349293     -3301.2226      29608.568      5694.8503    
    155000   567.80176     -3337.4134      36.697069     -3300.7163      34731.313      5694.8503    
    156000   603.62689     -3337.7036      39.01245      -3298.6912      31974.701      5694.8503    
    157000   611.63011     -3336.3603      39.529699     -3296.8306      33449.417      5694.8503    
    158000   624.54372     -3336.6797      40.364306     -3296.3154      36034.318      5694.8503    
    159000   619.42572     -3337.3069      40.033529     -3297.2733      32920.883      5694.8503    
    160000   577.2759      -3336.6969      37.309383     -3299.3875      32462.759      5694.8503    
    161000   592.05294     -3339.4678      38.264424     -3301.2034      33433.708      5694.8503    
    162000   610.16768     -3337.8914      39.435182     -3298.4562      36221.324      5694.8503    
    163000   619.60325     -3338.0167      40.045003     -3297.9717      34654.517      5694.8503    
    164000   557.29886     -3337.8528      36.018266     -3301.8345      38433.843      5694.8503    
    165000   593.50053     -3338.5632      38.357982     -3300.2052      34667.809      5694.8503    
    166000   589.50344     -3336.1557      38.09965      -3298.056       37644.729      5694.8503    
    167000   583.22527     -3336.6861      37.693892     -3298.9922      38100.407      5694.8503    
    168000   582.09178     -3336.421       37.620634     -3298.8003      37613.561      5694.8503    
    169000   581.14095     -3336.8281      37.559181     -3299.2689      37198.409      5694.8503    
    170000   605.11526     -3339.2214      39.108643     -3300.1127      28423.251      5694.8503    
    171000   625.53583     -3337.8676      40.428426     -3297.4391      36521.636      5694.8503    
    172000   631.20177     -3336.428       40.794616     -3295.6334      36183.159      5694.8503    
    173000   621.33996     -3337.4513      40.157247     -3297.294       32751.492      5694.8503    
    174000   619.08008     -3340.0831      40.01119      -3300.0719      33245.4        5694.8503    
    175000   596.9478      -3336.5762      38.580779     -3297.9954      34267.111      5694.8503    
    176000   617.11516     -3340.189       39.884197     -3300.3048      31735.73       5694.8503    
    177000   592.48482     -3339.4035      38.292337     -3301.1111      34199.487      5694.8503    
    178000   595.87364     -3338.7265      38.511356     -3300.2151      34860.141      5694.8503    
    179000   634.09765     -3334.6718      40.981777     -3293.69        37507.794      5694.8503    
    180000   603.27913     -3337.078       38.989974     -3298.088       31837.36       5694.8503    
    181000   581.97785     -3337.274       37.613271     -3299.6608      34465.801      5694.8503    
    182000   591.70926     -3337.769       38.242213     -3299.5268      32057.956      5694.8503    
    183000   625.80033     -3336.3982      40.445521     -3295.9527      39518.187      5694.8503    
    184000   621.26984     -3336.6532      40.152715     -3296.5005      38754.159      5694.8503    
    185000   594.22695     -3338.9087      38.404931     -3300.5038      35904.506      5694.8503    
    186000   645.05295     -3340.3778      41.689819     -3298.688       30117.508      5694.8503    
    187000   596.51688     -3337.4328      38.552929     -3298.8798      34568.285      5694.8503    
    188000   607.92195     -3335.5479      39.290039     -3296.2579      39189.025      5694.8503    
    189000   608.60383     -3336.9557      39.33411      -3297.6216      35244.601      5694.8503    
    190000   582.73676     -3337.489       37.662319     -3299.8267      36521.115      5694.8503    
    191000   572.48626     -3340.1369      36.999828     -3303.1371      31529.47       5694.8503    
    192000   603.08266     -3337.7873      38.977276     -3298.81        34591.036      5694.8503    
    193000   600.05755     -3335.6087      38.781763     -3296.827       37022.371      5694.8503    
    194000   625.6053      -3338.7425      40.432916     -3298.3096      40740.917      5694.8503    
    195000   571.46776     -3337.4434      36.934003     -3300.5094      37614.71       5694.8503    
    196000   575.23963     -3336.7224      37.177779     -3299.5446      34957.451      5694.8503    
    197000   588.8184      -3337.7474      38.055376     -3299.6921      32190.041      5694.8503    
    198000   597.11973     -3338.8188      38.591891     -3300.2269      34068.571      5694.8503    
    199000   603.68256     -3337.3913      39.016048     -3298.3752      36420.174      5694.8503    
    200000   613.20571     -3336.3011      39.631529     -3296.6696      37149.711      5694.8503    
    201000   616.89992     -3337.4784      39.870287     -3297.6082      36480.439      5694.8503    
    202000   579.70036     -3338.8463      37.466076     -3301.3802      32097.548      5694.8503    
    203000   586.21496     -3339.5864      37.887115     -3301.6993      31681.269      5694.8503    
    204000   591.25091     -3335.3371      38.212589     -3297.1245      35444.268      5694.8503    
    205000   624.37056     -3337.853       40.353115     -3297.4998      39693.426      5694.8503    
    206000   629.90392     -3336.0202      40.710736     -3295.3094      36453.837      5694.8503    
    207000   632.69151     -3338.7136      40.890898     -3297.8227      33498.817      5694.8503    
    208000   594.36043     -3337.6044      38.413558     -3299.1908      35196.324      5694.8503    
    209000   606.77174     -3335.3324      39.215701     -3296.1167      36420.38       5694.8503    
    210000   579.48323     -3334.7012      37.452043     -3297.2492      35419.885      5694.8503    
    211000   594.85981     -3338.6439      38.445833     -3300.198       32164.731      5694.8503    
    212000   636.46286     -3338.4661      41.134641     -3297.3314      36610.503      5694.8503    
    213000   626.9983      -3337.0591      40.522945     -3296.5362      34665.361      5694.8503    
    214000   604.72712     -3338.6252      39.083558     -3299.5416      35952.04       5694.8503    
    215000   586.38271     -3338.7414      37.897957     -3300.8435      32314.696      5694.8503    
    216000   608.66755     -3337.4815      39.338228     -3298.1433      34660.189      5694.8503    
    217000   590.0668      -3335.8657      38.13606      -3297.7296      34661.945      5694.8503    
    218000   588.77415     -3336.9541      38.052516     -3298.9016      36390.871      5694.8503    
    219000   612.78575     -3338.1952      39.604387     -3298.5908      34773.787      5694.8503    
    220000   561.73791     -3337.4275      36.305162     -3301.1223      36029.583      5694.8503    
    221000   596.20658     -3338.0727      38.532875     -3299.5398      35435.286      5694.8503    
    222000   613.96419     -3336.0193      39.68055      -3296.3388      34173.326      5694.8503    
    223000   611.57334     -3337.2151      39.526029     -3297.6891      38039.795      5694.8503    
    224000   587.61156     -3336.4261      37.977377     -3298.4487      36029.697      5694.8503    
    225000   582.69883     -3338.6472      37.659868     -3300.9873      33350.215      5694.8503    
    226000   564.42289     -3334.902       36.478692     -3298.4233      35805.644      5694.8503    
    227000   617.46161     -3339.5888      39.906589     -3299.6822      29558.827      5694.8503    
    228000   596.77716     -3338.046       38.569751     -3299.4763      35310.99       5694.8503    
    229000   613.26027     -3338.0659      39.635056     -3298.4308      34021.618      5694.8503    
    230000   583.79347     -3335.2998      37.730614     -3297.5692      32943.824      5694.8503    
    231000   611.05533     -3338.5811      39.49255      -3299.0886      35979.431      5694.8503    
    232000   574.10711     -3339.7818      37.104584     -3302.6772      32883.316      5694.8503    
    233000   584.71535     -3337.582       37.790196     -3299.7918      36104.945      5694.8503    
    234000   608.33803     -3335.7783      39.316931     -3296.4614      37044.431      5694.8503    
    235000   602.97094     -3336.066       38.970055     -3297.0959      38173.625      5694.8503    
    236000   585.04363     -3337.0595      37.811412     -3299.2481      34894.464      5694.8503    
    237000   597.75246     -3339.2997      38.632785     -3300.6669      32344.008      5694.8503    
    238000   556.58393     -3338.532       35.97206      -3302.5599      33455.855      5694.8503    
    239000   576.6008      -3337.5599      37.265751     -3300.2942      39333.397      5694.8503    
    240000   637.43169     -3339.0019      41.197256     -3297.8047      35236.732      5694.8503    
    241000   590.28168     -3336.6737      38.149948     -3298.5237      39859.079      5694.8503    
    242000   609.33189     -3337.9597      39.381164     -3298.5785      38667.672      5694.8503    
    243000   589.4264      -3337.573       38.094671     -3299.4784      36457.447      5694.8503    
    244000   569.49227     -3339.6578      36.806326     -3302.8515      35013.712      5694.8503    
    245000   539.225       -3337.0255      34.850151     -3302.1754      33022.757      5694.8503    
    246000   590.81018     -3338.1243      38.184105     -3299.9402      34318.87       5694.8503    
    247000   604.19347     -3337.5153      39.049068     -3298.4662      37082.263      5694.8503    
    248000   581.18584     -3338.8748      37.562083     -3301.3127      38473.066      5694.8503    
    249000   585.87762     -3338.6975      37.865313     -3300.8322      35816.852      5694.8503    
    250000   588.60613     -3337.1154      38.041657     -3299.0738      35660.367      5694.8503    
    251000   635.18154     -3338.3967      41.051829     -3297.3449      34034.04       5694.8503    
    252000   590.23345     -3338.0007      38.146831     -3299.8539      35856.726      5694.8503    
    253000   620.55089     -3336.018       40.106249     -3295.9118      38620.243      5694.8503    
    254000   609.73646     -3337.9189      39.407312     -3298.5116      33635.083      5694.8503    
    255000   605.63548     -3338.8637      39.142265     -3299.7215      33652.176      5694.8503    
    256000   628.68043     -3341.84        40.631661     -3301.2083      34188.88       5694.8503    
    257000   563.71767     -3338.4556      36.433114     -3302.0225      38930.482      5694.8503    
    258000   621.00102     -3337.8633      40.135341     -3297.728       36721.698      5694.8503    
    259000   619.852       -3340.1113      40.06108      -3300.0502      35491.988      5694.8503    
    260000   603.7702      -3341.4183      39.021712     -3302.3966      32478.361      5694.8503    
    261000   585.64377     -3343.682       37.8502       -3305.8318      28200.578      5694.8503    
    262000   618.53196     -3339.2468      39.975765     -3299.271       35546.535      5694.8503    
    263000   577.70837     -3339.5155      37.337334     -3302.1781      35009.136      5694.8503    
    264000   625.02967     -3342.6587      40.395713     -3302.263       31501.268      5694.8503    
    265000   595.46771     -3339.7381      38.485121     -3301.253       34881.799      5694.8503    
    266000   611.3792      -3337.8369      39.513482     -3298.3234      36306.671      5694.8503    
    267000   634.77727     -3339.7195      41.025701     -3298.6938      35181.736      5694.8503    
    268000   584.47655     -3339.1682      37.774762     -3301.3934      34085.23       5694.8503    
    269000   578.9976      -3339.5043      37.420657     -3302.0836      29874.929      5694.8503    
    270000   613.84116     -3339.6556      39.672599     -3299.983       34100.876      5694.8503    
    271000   616.13836     -3339.3406      39.821067     -3299.5196      33002.855      5694.8503    
    272000   610.70495     -3340.747       39.469905     -3301.2771      31573.553      5694.8503    
    273000   589.4585      -3342.0831      38.096745     -3303.9864      30612.261      5694.8503    
    274000   610.34315     -3342.9112      39.446522     -3303.4646      28731.827      5694.8503    
    275000   602.21708     -3339.8421      38.921334     -3300.9208      30874.453      5694.8503    
    276000   623.91514     -3340.2395      40.323681     -3299.9158      32177.193      5694.8503    
    277000   645.01595     -3340.1057      41.687428     -3298.4183      32868.952      5694.8503    
    278000   578.84116     -3338.3826      37.410546     -3300.9721      33693.889      5694.8503    
    279000   593.39851     -3339.1755      38.351389     -3300.8241      32295.85       5694.8503    
    280000   598.16013     -3338.5414      38.659133     -3299.8822      34458.143      5694.8503    
    281000   563.78652     -3341.6792      36.437564     -3305.2417      32344.425      5694.8503    
    282000   599.2612      -3341.5582      38.730295     -3302.8279      29879.354      5694.8503    
    283000   632.96638     -3341.3359      40.908663     -3300.4272      31565.34       5694.8503    
    284000   591.77356     -3342.7764      38.246368     -3304.53        29010.553      5694.8503    
    285000   591.85623     -3338.359       38.251711     -3300.1073      33106.708      5694.8503    
    286000   613.13512     -3339.2652      39.626967     -3299.6382      34413.823      5694.8503    
    287000   613.23131     -3341.9822      39.633184     -3302.349       32915.861      5694.8503    
    288000   586.34732     -3341.2014      37.89567      -3303.3058      30456.869      5694.8503    
    289000   580.43007     -3340.3043      37.513238     -3302.7911      34963.261      5694.8503    
    290000   598.96495     -3334.6957      38.711148     -3295.9846      37992.052      5694.8503    
    291000   607.68522     -3338.8996      39.27474      -3299.6249      32809.084      5694.8503    
    292000   593.64584     -3340.2726      38.367374     -3301.9053      33320.634      5694.8503    
    293000   560.69129     -3338.9089      36.237519     -3302.6714      33325.721      5694.8503    
    294000   607.87546     -3340.7077      39.287035     -3301.4207      31501.789      5694.8503    
    295000   607.56681     -3339.8581      39.267087     -3300.591       32523.41       5694.8503    
    296000   620.7695      -3339.7083      40.120378     -3299.5879      33802.552      5694.8503    
    297000   565.91061     -3342.1821      36.574844     -3305.6073      32668.475      5694.8503    
    298000   567.22404     -3339.6364      36.659731     -3302.9767      32909.362      5694.8503    
    299000   593.11915     -3339.8953      38.333334     -3301.562       32878.426      5694.8503    
    300000   602.715       -3338.2776      38.953514     -3299.3241      32752.621      5694.8503    
    301000   643.49751     -3340.0727      41.58929      -3298.4834      33801.749      5694.8503    
    302000   629.49246     -3338.4807      40.684143     -3297.7965      32630.146      5694.8503    
    303000   608.17277     -3340.445       39.30625      -3301.1387      32817.737      5694.8503    
    304000   588.20782     -3340.2112      38.015914     -3302.1953      32787.426      5694.8503    
    305000   622.3606      -3342.4808      40.223211     -3302.2576      32338.959      5694.8503    
    306000   613.92721     -3338.14        39.67816      -3298.4618      35950.224      5694.8503    
    307000   628.83216     -3339.6659      40.641468     -3299.0244      32189.589      5694.8503    
    308000   576.20601     -3341.6484      37.240236     -3304.4081      30880.327      5694.8503    
    309000   592.49578     -3341.1992      38.293046     -3302.9062      32477.499      5694.8503    
    310000   642.49621     -3341.374       41.524577     -3299.8494      30911.58       5694.8503    
    311000   611.91284     -3341.9358      39.547971     -3302.3878      30257.862      5694.8503    
    312000   577.07175     -3340.3857      37.296189     -3303.0895      32300.784      5694.8503    
    313000   557.14032     -3339.7573      36.008019     -3303.7492      37941.448      5694.8503    
    314000   577.33712     -3339.7191      37.31334      -3302.4058      29968.888      5694.8503    
    315000   611.89362     -3339.7208      39.546729     -3300.1741      34796.237      5694.8503    
    316000   645.20766     -3338.1067      41.699818     -3296.4069      36240.84       5694.8503    
    317000   599.56368     -3339.8405      38.749844     -3301.0906      34198.559      5694.8503    
    318000   551.1162      -3338.7133      35.61868      -3303.0946      31921.595      5694.8503    
    319000   597.19948     -3338.6777      38.597046     -3300.0806      35284.223      5694.8503    
    320000   567.12393     -3341.2469      36.653261     -3304.5936      31949.754      5694.8503    
    321000   565.29691     -3341.4347      36.53518      -3304.8995      33365.191      5694.8503    
    322000   608.29949     -3342.2574      39.31444      -3302.943       30297.153      5694.8503    
    323000   601.83561     -3338.3464      38.896679     -3299.4498      34504.272      5694.8503    
    324000   611.91663     -3337.5292      39.548216     -3297.981       36924.931      5694.8503    
    325000   573.09881     -3339.4023      37.039417     -3302.3629      33279.401      5694.8503    
    326000   554.98475     -3338.5901      35.868705     -3302.7214      34947.875      5694.8503    
    327000   624.88116     -3339.7772      40.386115     -3299.3911      34542.405      5694.8503    
    328000   637.39885     -3338.1289      41.195134     -3296.9338      36508.687      5694.8503    
    329000   633.06066     -3341.8476      40.914757     -3300.9328      32428.952      5694.8503    
    330000   593.76733     -3340.3769      38.375226     -3302.0017      33767.822      5694.8503    
    331000   590.18406     -3340.4224      38.143639     -3302.2787      30889.112      5694.8503    
    332000   588.32746     -3339.2106      38.023646     -3301.187       34781.479      5694.8503    
    333000   624.32959     -3340.2563      40.350467     -3299.9058      34084.924      5694.8503    
    334000   592.94229     -3339.6052      38.321903     -3301.2833      33341.168      5694.8503    
    335000   603.77281     -3337.8538      39.02188      -3298.8319      34730.958      5694.8503    
    336000   598.3253      -3340.5266      38.669808     -3301.8568      32224.823      5694.8503    
    337000   579.90684     -3340.896       37.479421     -3303.4165      33702.348      5694.8503    
    338000   608.24863     -3340.7403      39.311153     -3301.4291      28140.673      5694.8503    
    339000   569.08802     -3340.6142      36.7802       -3303.834       34612.295      5694.8503    
    340000   592.73641     -3339.1214      38.308597     -3300.8128      33709.367      5694.8503    
    341000   618.54952     -3339.5624      39.976901     -3299.5855      33458.325      5694.8503    
    342000   614.50198     -3337.2174      39.715307     -3297.5021      32469.061      5694.8503    
    343000   612.16634     -3338.6242      39.564355     -3299.0598      34663.058      5694.8503    
    344000   572.17285     -3340.0408      36.979573     -3303.0613      33260.34       5694.8503    
    345000   612.45843     -3342.1095      39.583233     -3302.5262      28856.689      5694.8503    
    346000   578.29581     -3340.5627      37.3753       -3303.1874      29712.708      5694.8503    
    347000   595.72635     -3341.6494      38.501837     -3303.1476      30873.306      5694.8503    
    348000   608.62446     -3339.0433      39.335443     -3299.7079      34564.978      5694.8503    
    349000   595.57792     -3340.4124      38.492244     -3301.9201      32264.499      5694.8503    
    350000   555.28014     -3339.6806      35.887796     -3303.7928      32032.048      5694.8503    
    351000   613.55375     -3339.6492      39.654023     -3299.9951      33951.046      5694.8503    
    352000   588.49417     -3341.8647      38.034421     -3303.8303      31677.175      5694.8503    
    353000   561.32631     -3341.1142      36.27856      -3304.8356      31792.317      5694.8503    
    354000   580.6505      -3341.7027      37.527484     -3304.1752      30901.762      5694.8503    
    355000   575.14334     -3338.3391      37.171556     -3301.1675      33678.047      5694.8503    
    356000   592.07929     -3341.7367      38.266127     -3303.4705      32594.651      5694.8503    
    357000   640.46608     -3339.076       41.393369     -3297.6826      34958.165      5694.8503    
    358000   607.17899     -3337.0377      39.242022     -3297.7956      35568.174      5694.8503    
    359000   569.32932     -3339.0576      36.795795     -3302.2618      34113.344      5694.8503    
    360000   606.68194     -3338.3979      39.209897     -3299.188       33765.55       5694.8503    
    361000   602.35623     -3339.3102      38.930327     -3300.3799      33221.885      5694.8503    
    362000   591.73641     -3339.0038      38.243967     -3300.7599      32251.783      5694.8503    
    363000   594.30546     -3341.9561      38.410005     -3303.5461      31754.818      5694.8503    
    364000   558.07741     -3340.2837      36.068583     -3304.2151      30102.666      5694.8503    
    365000   595.77284     -3341.5925      38.504842     -3303.0877      31410.691      5694.8503    
    366000   582.61398     -3339.4546      37.654384     -3301.8002      34108.5        5694.8503    
    367000   635.33248     -3339.9663      41.061584     -3298.9047      31206.514      5694.8503    
    368000   643.12005     -3338.859       41.564896     -3297.2941      33950.708      5694.8503    
    369000   621.26799     -3339.1659      40.152595     -3299.0133      35081.448      5694.8503    
    370000   607.35058     -3340.6064      39.253112     -3301.3532      29637.07       5694.8503    
    371000   585.84154     -3340.1448      37.862981     -3302.2818      34870.14       5694.8503    
    372000   567.29403     -3337.0479      36.664254     -3300.3837      33987.949      5694.8503    
    373000   591.09439     -3338.8596      38.202473     -3300.6571      32887.607      5694.8503    
    374000   581.66772     -3340.1173      37.593227     -3302.524       32119.539      5694.8503    
    375000   575.39136     -3341.3048      37.187585     -3304.1172      31499.677      5694.8503    
    376000   588.3464      -3338.8785      38.024871     -3300.8536      36146.906      5694.8503    
    377000   596.15608     -3342.377       38.529611     -3303.8474      31302.963      5694.8503    
    378000   615.88431     -3341.901       39.804648     -3302.0964      30328.846      5694.8503    
    379000   584.7921      -3339.6013      37.795156     -3301.8062      34858.873      5694.8503    
    380000   616.06358     -3342.5901      39.816234     -3302.7739      32967.432      5694.8503    
    381000   629.77993     -3338.7887      40.702722     -3298.0859      37574.264      5694.8503    
    382000   628.99786     -3339.5153      40.652178     -3298.8631      33410.013      5694.8503    
    383000   608.59945     -3339.7596      39.333827     -3300.4258      33479.752      5694.8503    
    384000   587.15979     -3340.9053      37.94818      -3302.9571      34073.63       5694.8503    
    385000   601.98996     -3339.634       38.906655     -3300.7274      35007.647      5694.8503    
    386000   639.26126     -3340.094       41.315502     -3298.7785      33787.376      5694.8503    
    387000   581.7567      -3339.4105      37.598978     -3301.8115      34498.66       5694.8503    
    388000   604.28344     -3342.6627      39.054883     -3303.6078      31119.222      5694.8503    
    389000   631.53122     -3341.3739      40.815909     -3300.5579      34631.931      5694.8503    
    390000   600.19053     -3340.4842      38.790357     -3301.6938      33208.061      5694.8503    
    391000   614.12687     -3339.921       39.691064     -3300.2299      34974.679      5694.8503    
    392000   614.79978     -3339.0972      39.734554     -3299.3626      33547.184      5694.8503    
    393000   621.92584     -3339.5211      40.195112     -3299.326       32251.037      5694.8503    
    394000   613.54419     -3340.4047      39.653406     -3300.7513      31648.638      5694.8503    
    395000   633.71212     -3341.5025      40.95686      -3300.5456      32770.358      5694.8503    
    396000   589.2939      -3339.9785      38.086108     -3301.8924      32173.701      5694.8503    
    397000   596.96245     -3339.1715      38.581727     -3300.5898      34696.544      5694.8503    
    398000   577.11174     -3337.8845      37.298774     -3300.5857      33835.524      5694.8503    
    399000   604.9321      -3338.3126      39.096805     -3299.2158      35174.768      5694.8503    
    400000   616.67629     -3341.6189      39.855834     -3301.763       29374.234      5694.8503    
    401000   608.19766     -3341.1455      39.307859     -3301.8376      32317.213      5694.8503    
    402000   576.03521     -3339.7196      37.229197     -3302.4904      35110.298      5694.8503    
    403000   609.67614     -3340.9878      39.403413     -3301.5844      32002.665      5694.8503    
    404000   624.39595     -3340.7009      40.354755     -3300.3461      33547.584      5694.8503    
    405000   587.64136     -3340.3461      37.979304     -3302.3668      32814.54       5694.8503    
    406000   592.9191      -3339.6197      38.320405     -3301.2993      30090.719      5694.8503    
    407000   586.44014     -3340.3601      37.901669     -3302.4585      37609.35       5694.8503    
    408000   617.44522     -3342.0206      39.90553      -3302.1151      30496.888      5694.8503    
    409000   614.695       -3338.6759      39.727782     -3298.9481      35228.578      5694.8503    
    410000   612.04364     -3340.0697      39.556425     -3300.5133      32347.79       5694.8503    
    411000   595.85156     -3342.6146      38.50993      -3304.1047      36135.078      5694.8503    
    412000   585.89009     -3339.69        37.866119     -3301.8239      35407.931      5694.8503    
    413000   575.53447     -3337.19        37.196834     -3299.9932      36648.3        5694.8503    
    414000   591.19903     -3342.1512      38.209236     -3303.942       32570.633      5694.8503    
    415000   565.89823     -3342.0362      36.574044     -3305.4622      33050.334      5694.8503    
    416000   624.16496     -3343.7745      40.339827     -3303.4347      34161.763      5694.8503    
    417000   614.81739     -3341.6988      39.735693     -3301.9631      32031.659      5694.8503    
    418000   592.66035     -3339.2164      38.303681     -3300.9127      36614.413      5694.8503    
    419000   628.39056     -3340.3389      40.612927     -3299.726       36413.846      5694.8503    
    420000   584.80323     -3341.0805      37.795875     -3303.2846      35609.557      5694.8503    
    421000   563.43042     -3340.446       36.414549     -3304.0314      32436.972      5694.8503    
    422000   576.48125     -3338.2579      37.258025     -3300.9999      36941.305      5694.8503    
    423000   583.15991     -3337.7509      37.689667     -3300.0612      37391.99       5694.8503    
    424000   638.62741     -3339.9048      41.274536     -3298.6302      35133.93       5694.8503    
    425000   595.66532     -3339.575       38.497893     -3301.0771      35797.48       5694.8503    
    426000   586.05695     -3341.1151      37.876903     -3303.2382      32233.684      5694.8503    
    427000   603.13937     -3339.5389      38.980941     -3300.558       34388.155      5694.8503    
    428000   638.31853     -3339.1601      41.254573     -3297.9056      35657.167      5694.8503    
    429000   623.01381     -3338.9679      40.265428     -3298.7025      37105.959      5694.8503    
    430000   612.4626      -3341.6804      39.583502     -3302.0969      33159.245      5694.8503    
    431000   590.15093     -3340.5885      38.141498     -3302.447       35334.429      5694.8503    
    432000   590.16644     -3338.5528      38.1425       -3300.4103      32488.456      5694.8503    
    433000   618.00989     -3337.1585      39.942024     -3297.2165      36534.027      5694.8503    
    434000   593.43197     -3338.2791      38.353551     -3299.9255      33982.765      5694.8503    
    435000   614.02107     -3341.9171      39.684226     -3302.2328      32103.422      5694.8503    
    436000   573.37492     -3340.0571      37.057263     -3302.9998      33898.064      5694.8503    
    437000   582.98477     -3339.2133      37.678348     -3301.5349      34281.371      5694.8503    
    438000   625.06457     -3339.1199      40.397968     -3298.7219      37132.119      5694.8503    
    439000   659.84283     -3341.9553      42.64569      -3299.3096      33151.518      5694.8503    
    440000   602.48518     -3340.1317      38.938661     -3301.1931      33655.25       5694.8503    
    441000   568.52001     -3341.3092      36.743489     -3304.5657      30706.569      5694.8503    
    442000   592.67616     -3343.6949      38.304703     -3305.3902      28947.6        5694.8503    
    443000   602.43577     -3339.1508      38.935467     -3300.2153      33949.392      5694.8503    
    444000   602.47509     -3340.2329      38.938009     -3301.2949      33528.841      5694.8503    
    445000   593.17808     -3340.8452      38.337142     -3302.5081      33859.805      5694.8503    
    446000   596.89804     -3343.1154      38.577563     -3304.5378      30440.168      5694.8503    
    447000   599.68418     -3342.5598      38.757632     -3303.8022      31482.572      5694.8503    
    448000   583.05462     -3340.7598      37.682863     -3303.077       32357.615      5694.8503    
    449000   631.85654     -3340.4591      40.836934     -3299.6222      32952.484      5694.8503    
    450000   632.98688     -3341.1677      40.909988     -3300.2578      28212.528      5694.8503    
    451000   620.59578     -3342.3784      40.10915      -3302.2693      31054.344      5694.8503    
    452000   571.15931     -3341.6237      36.914067     -3304.7096      31096.143      5694.8503    
    453000   604.88469     -3341.1023      39.093741     -3302.0085      31546.833      5694.8503    
    454000   586.08732     -3340.9359      37.878866     -3303.057       33912.278      5694.8503    
    455000   592.2157      -3342.9434      38.274944     -3304.6685      31081.514      5694.8503    
    456000   554.29406     -3340.4298      35.824065     -3304.6057      33783.489      5694.8503    
    457000   623.66186     -3341.0271      40.307311     -3300.7198      32793.823      5694.8503    
    458000   622.06908     -3342.7088      40.20437      -3302.5044      31362.405      5694.8503    
    459000   582.09263     -3340.5443      37.620689     -3302.9236      33572.397      5694.8503    
    460000   585.25962     -3339.254       37.825372     -3301.4286      35100.659      5694.8503    
    461000   638.74688     -3341.1697      41.282257     -3299.8874      33904.589      5694.8503    
    462000   594.84396     -3341.8502      38.444809     -3303.4054      31785.196      5694.8503    
    463000   621.10588     -3342.8531      40.142118     -3302.711       32155.08       5694.8503    
    464000   586.45072     -3339.3636      37.902352     -3301.4612      34151.63       5694.8503    
    465000   614.75105     -3339.6905      39.731405     -3299.9591      34397.494      5694.8503    
    466000   604.99216     -3339.0144      39.100687     -3299.9137      33287.794      5694.8503    
    467000   607.03645     -3339.3141      39.23281      -3300.0813      34894.286      5694.8503    
    468000   588.24848     -3340.2732      38.018542     -3302.2546      33011.673      5694.8503    
    469000   601.94782     -3342.6185      38.903931     -3303.7146      29663.839      5694.8503    
    470000   593.75708     -3342.6583      38.374563     -3304.2838      31049.209      5694.8503    
    471000   588.78589     -3342.282       38.053274     -3304.2287      28937.142      5694.8503    
    472000   609.40519     -3341.077       39.385901     -3301.6911      31862.198      5694.8503    
    473000   611.20701     -3339.2474      39.502354     -3299.745       33325.435      5694.8503    
    474000   638.86207     -3339.7581      41.289702     -3298.4684      35700.883      5694.8503    
    475000   601.42667     -3340.9896      38.870249     -3302.1194      32128.419      5694.8503    
    476000   580.06532     -3340.2743      37.489664     -3302.7846      33488.991      5694.8503    
    477000   605.51657     -3340.5335      39.13458      -3301.3989      32962.621      5694.8503    
    478000   574.57663     -3339.1252      37.134929     -3301.9903      35243.582      5694.8503    
    479000   574.38736     -3340.2081      37.122697     -3303.0854      31737.022      5694.8503    
    480000   597.45254     -3341.6106      38.613401     -3302.9972      33478.702      5694.8503    
    481000   607.20958     -3337.8837      39.243999     -3298.6397      35470.432      5694.8503    
    482000   585.80167     -3338.2734      37.860404     -3300.413       36575.566      5694.8503    
    483000   598.88741     -3338.8446      38.706137     -3300.1384      32919.581      5694.8503    
    484000   568.48463     -3342.5815      36.741203     -3305.8403      31530.097      5694.8503    
    485000   600.24509     -3342.3433      38.793883     -3303.5494      32268.362      5694.8503    
    486000   589.67554     -3340.7174      38.110773     -3302.6067      32913.238      5694.8503    
    487000   621.99343     -3341.1382      40.19948      -3300.9387      32198.078      5694.8503    
    488000   609.2274      -3341.3238      39.374411     -3301.9494      32082.012      5694.8503    
    489000   546.57601     -3340.9321      35.325247     -3305.6068      31250.364      5694.8503    
    490000   580.36529     -3342.4786      37.509051     -3304.9695      29267.689      5694.8503    
    491000   632.59927     -3341.474       40.884937     -3300.589       30684.827      5694.8503    
    492000   638.64185     -3343.0483      41.275469     -3301.7728      32084.374      5694.8503    
    493000   589.88687     -3342.5332      38.124431     -3304.4088      32715.494      5694.8503    
    494000   581.4231      -3341.4691      37.577417     -3303.8917      30178.531      5694.8503    
    495000   612.03443     -3340.1815      39.555829     -3300.6257      36353.404      5694.8503    
    496000   580.72216     -3339.4416      37.532115     -3301.9095      35245.401      5694.8503    
    497000   620.78407     -3339.341       40.12132      -3299.2197      36587.275      5694.8503    
    498000   622.00609     -3340.6842      40.200299     -3300.4839      35224.4        5694.8503    
    499000   639.35451     -3341.8196      41.321528     -3300.4981      34310.952      5694.8503    
    500000   588.0559      -3340.5558      38.006096     -3302.5497      33809.083      5694.8503    
Loop time of 15653.5 on 1 procs for 500000 steps with 501 atoms

Performance: 1.380 ns/day, 17.393 hours/ns, 31.942 timesteps/s, 16.003 katom-step/s
99.1% CPU use with 1 MPI tasks x 1 OpenMP threads

MPI task timing breakdown:
Section |  min time  |  avg time  |  max time  |%varavg| %total
---------------------------------------------------------------
Pair    | 15587      | 15587      | 15587      |   0.0 | 99.58
Neigh   | 0.39817    | 0.39817    | 0.39817    |   0.0 |  0.00
Comm    | 20.09      | 20.09      | 20.09      |   0.0 |  0.13
Output  | 0.99886    | 0.99886    | 0.99886    |   0.0 |  0.01
Modify  | 25.271     | 25.271     | 25.271     |   0.0 |  0.16
Other   |            | 19.39      |            |       |  0.12

Nlocal:            501 ave         501 max         501 min
Histogram: 1 0 0 0 0 0 0 0 0 0
Nghost:           2105 ave        2105 max        2105 min
Histogram: 1 0 0 0 0 0 0 0 0 0
Neighs:              0 ave           0 max           0 min
Histogram: 1 0 0 0 0 0 0 0 0 0
FullNghs:        66148 ave       66148 max       66148 min
Histogram: 1 0 0 0 0 0 0 0 0 0

Total # of neighbors = 66148
Ave neighs/atom = 132.03194
Neighbor list builds = 978
Dangerous builds = 0
### Phase 2: Production 750 ps at 600 K ###
Setting up Verlet run ...
  Unit style    : metal
  Current step  : 500000
  Time step     : 0.0005
WARNING: Fix STORE/ATOM not compatible with sending data in Kokkos communication (src/KOKKOS/comm_kokkos.cpp:842)
WARNING: Fix with atom-based arrays not compatible with sending data in Kokkos communication, switching to legacy exchange/border communication (src/KOKKOS/comm_kokkos.cpp:849)
WARNING: Fix STORE/ATOM not (yet) compatible with Kokkos sorting on device (src/KOKKOS/atom_kokkos.cpp:219)
WARNING: Fix with atom-based arrays not (yet) compatible with Kokkos sorting on device, switching to legacy host sorting (src/KOKKOS/atom_kokkos.cpp:225)
Per MPI rank memory allocation (min/avg/max) = 89.54 | 89.54 | 89.54 Mbytes
   Step          Temp          PotEng         KinEng         TotEng         Press          Volume    
    500000   588.0559      -3340.5558      38.006096     -3302.5497      33809.083      5694.8503    
    501000   583.86182     -3340.9803      37.735032     -3303.2452      31912.882      5694.8503    
    502000   591.77624     -3342.9631      38.246541     -3304.7166      29489.218      5694.8503    
    503000   623.37308     -3341.0976      40.288648     -3300.809       30685.158      5694.8503    
    504000   591.05887     -3341.8926      38.200177     -3303.6924      34475.041      5694.8503    
    505000   589.24477     -3341.3183      38.082933     -3303.2354      32845.931      5694.8503    
    506000   592.20369     -3341.7294      38.274168     -3303.4552      31753.663      5694.8503    
    507000   623.61726     -3340.8583      40.304428     -3300.5539      32337.015      5694.8503    
    508000   579.93664     -3339.8424      37.481347     -3302.361       33205.557      5694.8503    
    509000   586.1938      -3340.6161      37.885748     -3302.7303      34832.359      5694.8503    
    510000   586.65984     -3338.6711      37.915868     -3300.7552      32959.266      5694.8503    
    511000   614.8815      -3341.6743      39.739836     -3301.9345      28809.988      5694.8503    
    512000   575.30317     -3340.4654      37.181885     -3303.2835      30528.584      5694.8503    
    513000   558.05172     -3340.8057      36.066923     -3304.7388      33030.249      5694.8503    
    514000   595.33874     -3342.6221      38.476786     -3304.1453      28447.553      5694.8503    
    515000   632.08871     -3341.547       40.851939     -3300.695       29021.809      5694.8503    
    516000   603.39288     -3339.2612      38.997325     -3300.2638      34486.567      5694.8503    
    517000   580.38011     -3344.0507      37.510008     -3306.5407      29538.529      5694.8503    
    518000   563.09679     -3340.0422      36.392986     -3303.6492      35749.023      5694.8503    
    519000   614.78406     -3341.1115      39.733538     -3301.3779      34402.88       5694.8503    
    520000   596.57828     -3338.6518      38.556897     -3300.0949      34636.408      5694.8503    
    521000   617.03679     -3336.6993      39.879132     -3296.8202      35871.246      5694.8503    
    522000   596.93691     -3341.4294      38.580076     -3302.8493      33201.692      5694.8503    
    523000   605.78987     -3341.2183      39.152243     -3302.0661      32755.749      5694.8503    
    524000   570.31611     -3336.6158      36.859572     -3299.7562      39123.429      5694.8503    
    525000   620.6741      -3339.2722      40.114212     -3299.158       33499.58       5694.8503    
    526000   608.40207     -3342.777       39.32107      -3303.4559      32025.771      5694.8503    
    527000   590.61505     -3339.6118      38.171494     -3301.4403      34065.284      5694.8503    
    528000   659.90332     -3340.6518      42.649599     -3298.0022      31012.628      5694.8503    
    529000   564.4143      -3339.1902      36.478137     -3302.7121      35303.651      5694.8503    
    530000   626.48845     -3341.2009      40.489994     -3300.7109      32635.428      5694.8503    
    531000   607.81477     -3338.2877      39.283113     -3299.0046      35525.003      5694.8503    
    532000   618.51232     -3340.3304      39.974496     -3300.3559      33687.565      5694.8503    
    533000   604.77336     -3340.9561      39.086546     -3301.8696      31841.543      5694.8503    
    534000   547.01765     -3341.9617      35.35379      -3306.608       30375.01       5694.8503    
    535000   593.58032     -3341.0995      38.363139     -3302.7364      34403.977      5694.8503    
    536000   607.21753     -3340.7934      39.244513     -3301.5489      31869.505      5694.8503    
    537000   608.47433     -3339.2623      39.32574      -3299.9365      33398.139      5694.8503    
    538000   592.894       -3340.96        38.318782     -3302.6412      34110.445      5694.8503    
    539000   560.49179     -3340.631       36.224625     -3304.4064      31805.131      5694.8503    
    540000   589.256       -3343.4998      38.083658     -3305.4161      28985.611      5694.8503    
    541000   585.1419      -3338.4544      37.817763     -3300.6366      34519.531      5694.8503    
    542000   608.62444     -3339.1065      39.335442     -3299.7711      36779.521      5694.8503    
    543000   578.41219     -3339.2208      37.382822     -3301.838       31671.997      5694.8503    
    544000   569.07881     -3341.4176      36.779605     -3304.638       33370.249      5694.8503    
    545000   587.03116     -3340.4825      37.939866     -3302.5426      32876.236      5694.8503    
    546000   614.34167     -3340.5994      39.704947     -3300.8944      32973.811      5694.8503    
    547000   619.52206     -3342.7018      40.039756     -3302.662       32425.409      5694.8503    
    548000   545.54531     -3342.4812      35.258633     -3307.2226      31600.324      5694.8503    
    549000   614.49496     -3341.8365      39.714854     -3302.1216      30637.088      5694.8503    
    550000   634.15468     -3341.8054      40.985463     -3300.8199      32206.768      5694.8503    
    551000   586.57011     -3340.4185      37.910069     -3302.5084      33981.246      5694.8503    
    552000   563.46009     -3341.0003      36.416466     -3304.5838      33199.522      5694.8503    
    553000   579.70104     -3341.5028      37.46612      -3304.0367      31914.336      5694.8503    
    554000   605.49422     -3338.8751      39.133135     -3299.7419      36423.667      5694.8503    
    555000   576.92259     -3338.1186      37.286549     -3300.832       35642.253      5694.8503    
    556000   579.02935     -3338.8779      37.422709     -3301.4552      35491.907      5694.8503    
    557000   596.02899     -3340.6843      38.521397     -3302.1629      32791.141      5694.8503    
    558000   586.69574     -3340.5264      37.918188     -3302.6082      34725.938      5694.8503    
    559000   595.62599     -3343.6884      38.495351     -3305.1931      32015.93       5694.8503    
    560000   602.64124     -3340.0699      38.948747     -3301.1211      33261.522      5694.8503    
    561000   595.623       -3338.8772      38.495157     -3300.3821      30505.946      5694.8503    
    562000   552.16459     -3340.8953      35.686437     -3305.2089      31633.482      5694.8503    
    563000   586.24242     -3340.057       37.88889      -3302.1681      34273.833      5694.8503    
    564000   598.43751     -3340.0768      38.67706      -3301.3998      35551.284      5694.8503    
    565000   594.70312     -3342.3828      38.435706     -3303.9471      33035.197      5694.8503    
    566000   547.20736     -3341.825       35.366051     -3306.459       32721.755      5694.8503    
    567000   624.12798     -3340.4905      40.337437     -3300.1531      32872.309      5694.8503    
    568000   599.22483     -3339.9957      38.727944     -3301.2677      38388.681      5694.8503    
    569000   609.76148     -3340.5841      39.408929     -3301.1752      32944.184      5694.8503    
    570000   577.29645     -3340.8707      37.310711     -3303.5599      33928.254      5694.8503    
    571000   609.77499     -3341.6304      39.409802     -3302.2206      34376.52       5694.8503    
    572000   604.50334     -3338.2651      39.069095     -3299.196       34781.747      5694.8503    
    573000   624.90324     -3340.5491      40.387542     -3300.1616      33575.355      5694.8503    
    574000   555.66716     -3341.4604      35.912809     -3305.5476      32866.387      5694.8503    
    575000   597.95558     -3342.44        38.645913     -3303.7941      32660.922      5694.8503    
    576000   601.49275     -3340.858       38.87452      -3301.9835      35089.296      5694.8503    
    577000   603.19626     -3340.4727      38.984618     -3301.4881      35915.65       5694.8503    
    578000   625.32068     -3342.14        40.414521     -3301.7255      32364.207      5694.8503    
    579000   598.06944     -3341.5132      38.653271     -3302.86        32685.777      5694.8503    
    580000   563.25482     -3339.7149      36.4032       -3303.3117      35213.022      5694.8503    
    581000   589.74454     -3340.1173      38.115233     -3302.0021      35308.761      5694.8503    
    582000   612.50315     -3340.9935      39.586123     -3301.4073      36701.555      5694.8503    
    583000   584.95        -3342.6054      37.805361     -3304.8         31691.378      5694.8503    
    584000   606.86041     -3340.1207      39.221432     -3300.8992      34458.182      5694.8503    
    585000   620.23445     -3340.3635      40.085798     -3300.2777      32812.52       5694.8503    
    586000   574.95636     -3342.8572      37.159471     -3305.6977      33393.321      5694.8503    
    587000   583.4965      -3341.2143      37.711421     -3303.5028      33983.143      5694.8503    
    588000   618.4696      -3341.7509      39.971735     -3301.7792      31177.532      5694.8503    
    589000   610.10939     -3343.2053      39.431414     -3303.7739      30917.009      5694.8503    
    590000   598.93838     -3340.7181      38.709431     -3302.0087      32033.618      5694.8503    
    591000   593.94147     -3340.5946      38.386481     -3302.2081      33088.863      5694.8503    
    592000   599.91083     -3336.5088      38.77228      -3297.7365      36148.483      5694.8503    
    593000   630.03643     -3340.1515      40.7193       -3299.4322      34552.301      5694.8503    
    594000   604.28111     -3341.0664      39.054732     -3302.0117      34241.212      5694.8503    
    595000   593.22013     -3340.569       38.33986      -3302.2291      33151.566      5694.8503    
    596000   644.25412     -3340.7257      41.63819      -3299.0875      32857.313      5694.8503    
    597000   587.97092     -3339.4132      38.000604     -3301.4126      33391.205      5694.8503    
    598000   610.38213     -3341.1699      39.449041     -3301.7209      35272.643      5694.8503    
    599000   633.77546     -3339.5505      40.960954     -3298.5896      36852.62       5694.8503    
    600000   616.8883      -3339.8095      39.869535     -3299.94        36797.154      5694.8503    
    601000   568.65252     -3340.3443      36.752054     -3303.5923      34266.965      5694.8503    
    602000   601.94749     -3340.7543      38.90391      -3301.8504      37003.656      5694.8503    
    603000   588.59517     -3339.3683      38.040949     -3301.3273      35678.014      5694.8503    
    604000   633.41556     -3343.8586      40.937694     -3302.9209      33731.817      5694.8503    
    605000   583.94388     -3342.056       37.740335     -3304.3156      31418.446      5694.8503    
    606000   610.75233     -3340.8697      39.472967     -3301.3967      33968.351      5694.8503    
    607000   622.15715     -3338.0571      40.210062     -3297.847       37572.008      5694.8503    
    608000   597.93534     -3339.8502      38.644605     -3301.2056      36581.091      5694.8503    
    609000   569.48259     -3339.4909      36.805701     -3302.6852      34360.256      5694.8503    
    610000   621.73342     -3339.7761      40.182676     -3299.5934      35824.208      5694.8503    
    611000   635.22105     -3339.4519      41.054383     -3298.3976      37160.413      5694.8503    
    612000   616.46239     -3340.0559      39.842009     -3300.2139      35969.983      5694.8503    
    613000   569.25162     -3339.7621      36.790774     -3302.9713      33620.932      5694.8503    
    614000   587.03324     -3342.1073      37.940001     -3304.1673      33319.54       5694.8503    
    615000   557.01286     -3342.3188      35.999782     -3306.3191      32001.991      5694.8503    
    616000   621.55901     -3338.6757      40.171404     -3298.5043      35214.032      5694.8503    
    617000   599.78156     -3339.6575      38.763926     -3300.8936      36578.681      5694.8503    
    618000   593.16629     -3340.3463      38.33638      -3302.01        33334.981      5694.8503    
    619000   625.95404     -3343.7037      40.455455     -3303.2483      33012.505      5694.8503    
    620000   578.73451     -3342.0407      37.403653     -3304.6371      34678.479      5694.8503    
    621000   615.48098     -3339.994       39.77858      -3300.2155      34583.911      5694.8503    
    622000   616.32561     -3339.4156      39.833169     -3299.5824      33522.997      5694.8503    
    623000   598.64232     -3339.9076      38.690296     -3301.2173      34409.222      5694.8503    
    624000   582.09952     -3341.0954      37.621134     -3303.4743      33097.465      5694.8503    
    625000   591.92192     -3340.6657      38.255957     -3302.4097      36472.143      5694.8503    
    626000   599.31223     -3342.2814      38.733593     -3303.5478      32299.141      5694.8503    
    627000   613.81112     -3341.1554      39.670657     -3301.4848      30871.322      5694.8503    
    628000   648.17542     -3340.4669      41.891625     -3298.5752      34478.747      5694.8503    
    629000   608.65111     -3340.1353      39.337165     -3300.7981      36482.891      5694.8503    
    630000   599.73774     -3340.4621      38.761094     -3301.7011      34489.122      5694.8503    
    631000   552.96369     -3341.0421      35.738083     -3305.304       34106.114      5694.8503    
    632000   582.4693      -3342.153       37.645033     -3304.508       32811.339      5694.8503    
    633000   609.49054     -3341.2334      39.391418     -3301.8419      34132.63       5694.8503    
    634000   640.73554     -3341.6474      41.410784     -3300.2367      35054.129      5694.8503    
    635000   610.10592     -3338.0213      39.43119      -3298.5901      35631.696      5694.8503    
    636000   609.02801     -3339.0132      39.361525     -3299.6517      35684.267      5694.8503    
    637000   599.881       -3341.2018      38.770353     -3302.4314      30468.049      5694.8503    
    638000   611.95613     -3342.3866      39.550769     -3302.8359      32150.867      5694.8503    
    639000   582.55572     -3340.114       37.650619     -3302.4634      33392.123      5694.8503    
    640000   592.87324     -3339.206       38.31744      -3300.8886      36668.427      5694.8503    
    641000   613.9324      -3341.4605      39.678496     -3301.782       32219.659      5694.8503    
    642000   556.5269      -3342.8114      35.968374     -3306.843       31398.504      5694.8503    
    643000   596.60981     -3338.5399      38.558935     -3299.981       34538.264      5694.8503    
    644000   633.1172      -3339.4041      40.918411     -3298.4857      37406.106      5694.8503    
    645000   608.35289     -3340.4284      39.317891     -3301.1105      34982.603      5694.8503    
    646000   581.38805     -3341.0682      37.575152     -3303.4931      32753.442      5694.8503    
    647000   602.75624     -3341.6909      38.95618      -3302.7347      30893.49       5694.8503    
    648000   584.94168     -3340.9249      37.804824     -3303.1201      33336.498      5694.8503    
    649000   643.41605     -3340.7294      41.584026     -3299.1454      36545.883      5694.8503    
    650000   662.72682     -3341.5461      42.832082     -3298.7141      33324.977      5694.8503    
    651000   627.18193     -3342.3601      40.534814     -3301.8253      32889.081      5694.8503    
    652000   588.56227     -3339.7537      38.038822     -3301.7149      34745.946      5694.8503    
    653000   574.27662     -3339.0459      37.11554      -3301.9303      33543.086      5694.8503    
    654000   572.19125     -3342.4924      36.980762     -3305.5117      33290.478      5694.8503    
    655000   605.02959     -3341.0242      39.103106     -3301.9211      36283.489      5694.8503    
    656000   608.60591     -3340.8551      39.334244     -3301.5208      35265.653      5694.8503    
    657000   608.90264     -3341.8962      39.353421     -3302.5428      34189.777      5694.8503    
    658000   561.79403     -3341.9142      36.308789     -3305.6054      32351.316      5694.8503    
    659000   579.59073     -3342.11        37.458991     -3304.651       31894.813      5694.8503    
    660000   604.09107     -3339.7275      39.04245      -3300.685       36202.264      5694.8503    
    661000   601.02011     -3338.8991      38.843973     -3300.0551      35267.693      5694.8503    
    662000   583.97281     -3337.9661      37.742205     -3300.2239      33522.431      5694.8503    
    663000   576.46699     -3339.7579      37.257103     -3302.5008      34733.75       5694.8503    
    664000   576.76337     -3340.2879      37.276259     -3303.0117      33546.785      5694.8503    
    665000   584.37195     -3341.9135      37.768001     -3304.1455      33961.405      5694.8503    
    666000   588.12933     -3340.8366      38.010841     -3302.8258      36066.728      5694.8503    
    667000   632.71049     -3340.7521      40.892125     -3299.86        34873.04       5694.8503    
    668000   595.46599     -3339.4151      38.48501      -3300.9301      36195.574      5694.8503    
    669000   603.67685     -3342.8538      39.015679     -3303.8381      34204.273      5694.8503    
    670000   593.24109     -3341.5916      38.341214     -3303.2504      32477.264      5694.8503    
    671000   616.8972      -3337.7866      39.870111     -3297.9165      38152.386      5694.8503    
    672000   628.48513     -3341.0949      40.619039     -3300.4759      34372.14       5694.8503    
    673000   596.40086     -3340.8501      38.545431     -3302.3047      32304.876      5694.8503    
    674000   585.03157     -3341.6381      37.810633     -3303.8274      34792.287      5694.8503    
    675000   620.37011     -3340.3144      40.094565     -3300.2198      33602.95       5694.8503    
    676000   604.60626     -3337.9735      39.075747     -3298.8978      37026.984      5694.8503    
    677000   628.54718     -3341.6961      40.62305      -3301.073       32044.971      5694.8503    
    678000   595.27308     -3342.1557      38.472543     -3303.6832      33132.916      5694.8503    
    679000   611.92297     -3340.9311      39.548626     -3301.3825      31866.046      5694.8503    
    680000   624.75732     -3340.7582      40.378111     -3300.3801      34619.86       5694.8503    
    681000   603.39357     -3339.8275      38.99737      -3300.8301      35577.584      5694.8503    
    682000   577.89687     -3341.6628      37.349517     -3304.3133      32038.644      5694.8503    
    683000   578.60552     -3340.7487      37.395317     -3303.3533      33957.746      5694.8503    
    684000   613.25738     -3340.1989      39.634869     -3300.5641      35848.571      5694.8503    
    685000   618.74853     -3340.5958      39.989762     -3300.6061      32699.463      5694.8503    
    686000   578.289       -3340.7106      37.37486      -3303.3357      33296.187      5694.8503    
    687000   580.39573     -3341.4749      37.511018     -3303.9639      34271.23       5694.8503    
    688000   609.23258     -3341.7513      39.374746     -3302.3766      33175.907      5694.8503    
    689000   609.02971     -3340.895       39.361634     -3301.5334      33515.385      5694.8503    
    690000   634.12283     -3339.9216      40.983405     -3298.9382      35921.993      5694.8503    
    691000   563.12444     -3338.5777      36.394773     -3302.1829      33314.783      5694.8503    
    692000   579.10255     -3342.1241      37.42744      -3304.6967      34399.376      5694.8503    
    693000   594.9545      -3341.5293      38.451953     -3303.0774      31616.314      5694.8503    
    694000   622.17075     -3341.9852      40.210941     -3301.7743      34137.555      5694.8503    
    695000   611.007       -3340.0954      39.489427     -3300.606       35906.859      5694.8503    
    696000   603.67551     -3341.4951      39.015592     -3302.4795      32579.589      5694.8503    
    697000   629.10386     -3344.6828      40.659028     -3304.0237      28344.548      5694.8503    
    698000   592.48446     -3341.6029      38.292313     -3303.3106      32055.58       5694.8503    
    699000   590.41852     -3342.9382      38.158792     -3304.7794      31836.39       5694.8503    
    700000   632.0955      -3342.253       40.852378     -3301.4007      33311.904      5694.8503    
    701000   611.2882      -3341.3029      39.507601     -3301.7953      32584.084      5694.8503    
    702000   574.6917      -3338.4487      37.142366     -3301.3063      37863.868      5694.8503    
    703000   597.96717     -3339.793       38.646662     -3301.1463      33687.758      5694.8503    
    704000   608.44436     -3340.374       39.323803     -3301.0502      32916.915      5694.8503    
    705000   577.96883     -3340.0428      37.354168     -3302.6886      33226.345      5694.8503    
    706000   596.3904      -3338.8511      38.544755     -3300.3063      33969.518      5694.8503    
    707000   630.83882     -3338.6912      40.771159     -3297.92        34607.355      5694.8503    
    708000   615.5642      -3341.034       39.783959     -3301.25        33223.359      5694.8503    
    709000   586.36351     -3340.342       37.896716     -3302.4453      31470.262      5694.8503    
    710000   577.99186     -3340.4356      37.355656     -3303.08        31012.234      5694.8503    
    711000   607.26746     -3339.422       39.24774      -3300.1742      31881.539      5694.8503    
    712000   586.84055     -3344.421       37.927548     -3306.4934      30842.107      5694.8503    
    713000   583.95448     -3340.8092      37.74102      -3303.0682      36471.516      5694.8503    
    714000   601.63993     -3341.0213      38.884032     -3302.1372      31869.898      5694.8503    
    715000   633.91167     -3341.3302      40.969757     -3300.3604      34683.265      5694.8503    
    716000   603.71811     -3341.1736      39.018345     -3302.1553      32226.288      5694.8503    
    717000   600.86882     -3342.3564      38.834195     -3303.5222      32781.023      5694.8503    
    718000   597.25393     -3338.8763      38.600565     -3300.2757      34553.912      5694.8503    
    719000   585.20031     -3342.023       37.821538     -3304.2014      32685.021      5694.8503    
    720000   582.04503     -3343.3882      37.617612     -3305.7706      30167.541      5694.8503    
    721000   602.13244     -3340.8125      38.915864     -3301.8967      32009.846      5694.8503    
    722000   583.91114     -3339.445       37.73822      -3301.7067      35157.078      5694.8503    
    723000   579.05845     -3341.311       37.42459      -3303.8865      31840.556      5694.8503    
    724000   621.36004     -3337.8749      40.158544     -3297.7163      37334.174      5694.8503    
    725000   622.29946     -3339.8522      40.219259     -3299.633       35763.496      5694.8503    
    726000   591.56171     -3340.7314      38.232676     -3302.4987      32636.185      5694.8503    
    727000   626.8136      -3340.9428      40.511008     -3300.4318      32140.123      5694.8503    
    728000   603.32572     -3341.2622      38.992985     -3302.2692      31705.981      5694.8503    
    729000   559.58133     -3339.94        36.165782     -3303.7743      30012.403      5694.8503    
    730000   629.60847     -3340.9846      40.691641     -3300.2929      32268.766      5694.8503    
    731000   595.17399     -3337.4751      38.466138     -3299.009       35391.945      5694.8503    
    732000   599.84644     -3340.4907      38.768119     -3301.7226      34847.577      5694.8503    
    733000   618.04109     -3341.7229      39.944041     -3301.7789      34327.188      5694.8503    
    734000   619.71581     -3340.054       40.052277     -3300.0017      33310.84       5694.8503    
    735000   609.13238     -3338.7837      39.36827      -3299.4155      34067.031      5694.8503    
    736000   643.81906     -3340.7807      41.610073     -3299.1706      33759.924      5694.8503    
    737000   594.71794     -3342.4508      38.436663     -3304.0142      27110.532      5694.8503    
    738000   574.2291      -3340.3367      37.112468     -3303.2242      32995.942      5694.8503    
    739000   631.10874     -3339.1215      40.788603     -3298.3329      34790.186      5694.8503    
    740000   592.70502     -3338.7232      38.306568     -3300.4166      36347.918      5694.8503    
    741000   623.1756      -3342.8001      40.275884     -3302.5242      31340.754      5694.8503    
    742000   585.48357     -3337.9768      37.839846     -3300.137       36662.541      5694.8503    
    743000   601.87056     -3341.6693      38.898938     -3302.7704      31326.951      5694.8503    
    744000   603.04362     -3342.8233      38.974753     -3303.8485      30653.948      5694.8503    
    745000   622.21408     -3341.0458      40.213741     -3300.8321      33362.425      5694.8503    
    746000   611.71783     -3339.0897      39.535368     -3299.5543      35307.058      5694.8503    
    747000   590.55292     -3339.5567      38.167478     -3301.3892      34144.606      5694.8503    
    748000   594.45746     -3341.0292      38.419829     -3302.6094      35943.405      5694.8503    
    749000   617.92029     -3340.58        39.936233     -3300.6437      33511.979      5694.8503    
    750000   616.33975     -3340.1977      39.834083     -3300.3636      31125.745      5694.8503    
    751000   575.92429     -3340.1846      37.222029     -3302.9625      33210.377      5694.8503    
    752000   601.06217     -3339.9944      38.846691     -3301.1477      33294.857      5694.8503    
    753000   608.57072     -3338.312       39.33197      -3298.98        38208.152      5694.8503    
    754000   619.3157      -3340.9162      40.026418     -3300.8898      32377.249      5694.8503    
    755000   550.33092     -3337.8164      35.567927     -3302.2484      36607.93       5694.8503    
    756000   552.49508     -3342.4999      35.707797     -3306.7921      30103.961      5694.8503    
    757000   586.07687     -3340.9551      37.878191     -3303.0769      30772.553      5694.8503    
    758000   593.26769     -3339.8061      38.342934     -3301.4632      34100.611      5694.8503    
    759000   584.10377     -3342.1715      37.750669     -3304.4209      30033.82       5694.8503    
    760000   570.42859     -3341.9105      36.866841     -3305.0437      30826.133      5694.8503    
    761000   612.95608     -3340.7177      39.615396     -3301.1023      32244.885      5694.8503    
    762000   591.65065     -3339.6428      38.238424     -3301.4044      34459.612      5694.8503    
    763000   585.63281     -3341.8354      37.849491     -3303.9859      32356.049      5694.8503    
    764000   604.09403     -3341.5146      39.042641     -3302.4719      34323.554      5694.8503    
    765000   598.69695     -3338.9714      38.693827     -3300.2775      31026.103      5694.8503    
    766000   615.48755     -3339.0788      39.779005     -3299.2998      35246.016      5694.8503    
    767000   610.25318     -3341.8638      39.440707     -3302.4231      31568.001      5694.8503    
    768000   573.11727     -3338.3207      37.040611     -3301.2801      31561.289      5694.8503    
    769000   612.1748      -3342.2161      39.564902     -3302.6512      32722.193      5694.8503    
    770000   617.70056     -3342.3831      39.922032     -3302.4611      33579.278      5694.8503    
    771000   591.46539     -3339.0493      38.226451     -3300.8229      33973.411      5694.8503    
    772000   587.50671     -3343.0301      37.970601     -3305.0595      30754.277      5694.8503    
    773000   589.05713     -3342.2707      38.070805     -3304.1999      30213.817      5694.8503    
    774000   617.24337     -3341.5069      39.892484     -3301.6144      32548.541      5694.8503    
    775000   591.04932     -3338.422       38.199561     -3300.2224      33826.238      5694.8503    
    776000   636.09078     -3338.4608      41.110593     -3297.3502      34940.832      5694.8503    
    777000   579.0406      -3340.4362      37.423436     -3303.0127      32758.097      5694.8503    
    778000   585.21778     -3341.7263      37.822667     -3303.9036      32364.406      5694.8503    
    779000   636.6553      -3337.795       41.147078     -3296.648       35829.825      5694.8503    
    780000   607.0238      -3339.4547      39.231992     -3300.2227      36726.662      5694.8503    
    781000   601.80688     -3341.0624      38.894822     -3302.1676      34992.403      5694.8503    
    782000   570.80355     -3341.0101      36.891075     -3304.119       32450.208      5694.8503    
    783000   594.6509      -3340.7043      38.432331     -3302.2719      32010.817      5694.8503    
    784000   614.11454     -3338.7519      39.690267     -3299.0616      33823.127      5694.8503    
    785000   621.06122     -3339.947       40.139232     -3299.8078      35670.934      5694.8503    
    786000   592.10741     -3341.488       38.267945     -3303.22        33095.097      5694.8503    
    787000   582.95347     -3340.3467      37.676325     -3302.6704      30475.1        5694.8503    
    788000   593.22857     -3341.0706      38.340406     -3302.7302      32762.521      5694.8503    
    789000   577.21578     -3338.2578      37.305498     -3300.9523      34245.238      5694.8503    
    790000   611.6039      -3341.0794      39.528005     -3301.5514      31841.841      5694.8503    
    791000   587.96292     -3342.0324      38.000086     -3304.0323      31188.957      5694.8503    
    792000   596.40809     -3340.9262      38.545898     -3302.3803      35203.355      5694.8503    
    793000   608.64821     -3339.161       39.336978     -3299.824       36097.08       5694.8503    
    794000   617.82652     -3339.5207      39.930173     -3299.5906      34081.284      5694.8503    
    795000   600.6944      -3341.5872      38.822922     -3302.7643      30697.456      5694.8503    
    796000   620.62473     -3338.1168      40.111021     -3298.0058      35683.692      5694.8503    
    797000   616.37228     -3340.5225      39.836185     -3300.6864      31080.944      5694.8503    
    798000   572.203       -3339.7471      36.981521     -3302.7656      34288.413      5694.8503    
    799000   609.04127     -3341.9434      39.362381     -3302.581       30649.482      5694.8503    
    800000   626.39918     -3339.8588      40.484225     -3299.3746      31616.807      5694.8503    
    801000   561.48974     -3339.9764      36.289123     -3303.6873      31364.211      5694.8503    
    802000   618.25963     -3343.2636      39.958165     -3303.3055      31266.107      5694.8503    
    803000   634.64201     -3340.9212      41.016959     -3299.9043      32537.155      5694.8503    
    804000   625.41339     -3339.5756      40.420513     -3299.1551      31778.707      5694.8503    
    805000   611.65869     -3339.3852      39.531545     -3299.8536      36638.44       5694.8503    
    806000   569.51017     -3343.4011      36.807484     -3306.5936      31213.3        5694.8503    
    807000   618.416       -3339.5448      39.968271     -3299.5765      31672.628      5694.8503    
    808000   600.48008     -3340.4445      38.809071     -3301.6354      32592.741      5694.8503    
    809000   581.41048     -3340.9581      37.576601     -3303.3815      31938.16       5694.8503    
    810000   584.11199     -3342.8221      37.7512       -3305.0709      32478.045      5694.8503    
    811000   586.75149     -3341.6338      37.921791     -3303.712       31142.955      5694.8503    
    812000   602.58817     -3339.4927      38.945317     -3300.5474      32333.748      5694.8503    
    813000   591.51961     -3340.7076      38.229955     -3302.4776      35918.394      5694.8503    
    814000   569.28063     -3339.9286      36.792648     -3303.136       32047.862      5694.8503    
    815000   609.3437      -3338.6742      39.381928     -3299.2922      32080.613      5694.8503    
    816000   615.31721     -3339.976       39.767996     -3300.208       31874.893      5694.8503    
    817000   562.78991     -3338.4482      36.373153     -3302.075       32471.427      5694.8503    
    818000   591.63682     -3343.1936      38.237531     -3304.956       25971.455      5694.8503    
    819000   565.64748     -3341.4735      36.557838     -3304.9156      30764.321      5694.8503    
    820000   603.48526     -3340.9106      39.003296     -3301.9073      31568.755      5694.8503    
    821000   597.92245     -3342.3695      38.643771     -3303.7257      31018.973      5694.8503    
    822000   566.12646     -3338.9476      36.588794     -3302.3588      34223.358      5694.8503    
    823000   621.68189     -3342.0545      40.179346     -3301.8751      29529.558      5694.8503    
    824000   660.60376     -3338.9401      42.694869     -3296.2453      32820.034      5694.8503    
    825000   618.31745     -3342.1508      39.961901     -3302.1889      28337.404      5694.8503    
    826000   576.83205     -3340.9895      37.280697     -3303.7089      31208.213      5694.8503    
    827000   604.91729     -3340.0685      39.095848     -3300.9726      33318.169      5694.8503    
    828000   615.39507     -3338.3859      39.773028     -3298.6128      34863.513      5694.8503    
    829000   621.11595     -3340.9622      40.142769     -3300.8195      32188.503      5694.8503    
    830000   581.8485      -3342.0046      37.604911     -3304.3997      28798.477      5694.8503    
    831000   584.09594     -3339.9919      37.750163     -3302.2418      32880.764      5694.8503    
    832000   571.0391      -3343.2002      36.906298     -3306.2939      32100.636      5694.8503    
    833000   591.1804      -3341.5896      38.208032     -3303.3815      30947.827      5694.8503    
    834000   611.79066     -3342.0003      39.540074     -3302.4602      32503.315      5694.8503    
    835000   616.57707     -3339.6568      39.849421     -3299.8073      31470.688      5694.8503    
    836000   637.52777     -3341.4091      41.203466     -3300.2056      29428.234      5694.8503    
    837000   608.28341     -3340.2141      39.313401     -3300.9007      33650.935      5694.8503    
    838000   617.159       -3337.8167      39.887031     -3297.9296      36418.342      5694.8503    
    839000   626.48289     -3343.0275      40.489635     -3302.5378      28735.347      5694.8503    
    840000   579.30245     -3340.0327      37.440359     -3302.5924      32815.689      5694.8503    
    841000   624.29063     -3340.3348      40.347949     -3299.9869      31743.328      5694.8503    
    842000   588.72841     -3339.9001      38.04956      -3301.8506      35383.992      5694.8503    
    843000   610.9968      -3344.2867      39.488767     -3304.798       28854.509      5694.8503    
    844000   584.11561     -3342.5337      37.751434     -3304.7823      30407.901      5694.8503    
    845000   590.14298     -3340.5         38.140984     -3302.359       33329.497      5694.8503    
    846000   631.84967     -3341.5458      40.83649      -3300.7093      33471.279      5694.8503    
    847000   653.42518     -3341.1731      42.230917     -3298.9422      30469.029      5694.8503    
    848000   624.71332     -3338.6309      40.375267     -3298.2557      32981.303      5694.8503    
    849000   603.80851     -3342.8247      39.024188     -3303.8005      31351.608      5694.8503    
    850000   596.54044     -3338.993       38.554452     -3300.4385      32760.687      5694.8503    
    851000   579.87353     -3339.6443      37.477268     -3302.167       32205.833      5694.8503    
    852000   599.15145     -3340.975       38.723202     -3302.2518      32475.198      5694.8503    
    853000   628.0386      -3339.2447      40.59018      -3298.6545      36046.512      5694.8503    
    854000   584.33179     -3338.3336      37.765406     -3300.5682      34571.557      5694.8503    
    855000   568.39887     -3339.6526      36.73566      -3302.9169      34777.916      5694.8503    
    856000   575.13125     -3341.6493      37.170775     -3304.4786      29816.764      5694.8503    
    857000   586.11825     -3343.6558      37.880865     -3305.775       29011.824      5694.8503    
    858000   623.44269     -3341.5297      40.293146     -3301.2366      31047.142      5694.8503    
    859000   601.01238     -3340.0167      38.843474     -3301.1732      28401.459      5694.8503    
    860000   600.42834     -3340.321       38.805727     -3301.5153      31477.821      5694.8503    
    861000   593.30358     -3342.107       38.345254     -3303.7618      30268.716      5694.8503    
    862000   612.55017     -3338.0021      39.589162     -3298.4129      33582.257      5694.8503    
    863000   608.82843     -3337.9599      39.348626     -3298.6113      34278.57       5694.8503    
    864000   562.24452     -3338.7632      36.337904     -3302.4253      32402.9        5694.8503    
    865000   595.65179     -3340.4683      38.497018     -3301.9713      33822.827      5694.8503    
    866000   632.22086     -3340.7934      40.86048      -3299.9329      34171.535      5694.8503    
    867000   625.34358     -3341.7495      40.416001     -3301.3335      29791.189      5694.8503    
    868000   615.0566      -3341.2076      39.751153     -3301.4565      30933.224      5694.8503    
    869000   626.36067     -3341.2781      40.481735     -3300.7963      29925.593      5694.8503    
    870000   599.64848     -3341.4542      38.755325     -3302.6989      32327.127      5694.8503    
    871000   599.88993     -3342.3604      38.77093      -3303.5894      31910.653      5694.8503    
    872000   613.88173     -3340.9912      39.675221     -3301.316       33397.393      5694.8503    
    873000   581.80361     -3341.3749      37.602009     -3303.7729      32022.447      5694.8503    
    874000   589.8214      -3343.8586      38.1202       -3305.7384      28596.073      5694.8503    
    875000   623.12697     -3342.6224      40.272741     -3302.3497      30580.271      5694.8503    
    876000   594.15421     -3340.8228      38.40023      -3302.4226      28961.365      5694.8503    
    877000   590.48974     -3344.0816      38.163395     -3305.9182      25108.426      5694.8503    
    878000   592.44132     -3343.9005      38.289525     -3305.611       27708.992      5694.8503    
    879000   591.91501     -3340.8837      38.25551      -3302.6282      30401.718      5694.8503    
    880000   623.04045     -3341.8952      40.267149     -3301.6281      30990.463      5694.8503    
    881000   593.09993     -3341.9067      38.332091     -3303.5746      28169.876      5694.8503    
    882000   604.36815     -3344.3206      39.060357     -3305.2602      24764.386      5694.8503    
    883000   675.00525     -3342.2989      43.625638     -3298.6732      30312.995      5694.8503    
    884000   627.78701     -3341.67        40.57392      -3301.0961      29008.416      5694.8503    
    885000   567.45612     -3341.2438      36.67473      -3304.5691      29592.207      5694.8503    
    886000   560.24687     -3343.3508      36.208796     -3307.142       26723.572      5694.8503    
    887000   585.55098     -3343.2293      37.844203     -3305.3851      26003.888      5694.8503    
    888000   636.61444     -3343.063       41.144437     -3301.9186      25889.72       5694.8503    
    889000   640.34945     -3342.0177      41.385831     -3300.6318      29967.805      5694.8503    
    890000   601.44636     -3343.5395      38.871522     -3304.668       26407.145      5694.8503    
    891000   583.97203     -3343.5924      37.742155     -3305.8503      26296.486      5694.8503    
    892000   621.03989     -3343.4373      40.137853     -3303.2995      25914.465      5694.8503    
    893000   618.55506     -3342.8761      39.977258     -3302.8989      29233.381      5694.8503    
    894000   575.82344     -3342.6263      37.21551      -3305.4108      27792.526      5694.8503    
    895000   577.97281     -3342.5626      37.354425     -3305.2082      36335.791      5694.8503    
    896000   588.74555     -3341.3473      38.050667     -3303.2966      33464.399      5694.8503    
    897000   598.56388     -3343.3447      38.685227     -3304.6594      28555.786      5694.8503    
    898000   596.39785     -3340.839       38.545236     -3302.2938      33220.643      5694.8503    
    899000   611.17801     -3341.3421      39.500479     -3301.8417      30382.077      5694.8503    
    900000   595.66558     -3341.3101      38.497909     -3302.8122      28018.487      5694.8503    
    901000   580.3946      -3340.5341      37.510945     -3303.0232      31664.694      5694.8503    
    902000   563.07411     -3343.9269      36.391521     -3307.5354      26833.75       5694.8503    
    903000   596.27542     -3343.918       38.537324     -3305.3807      26467.199      5694.8503    
    904000   601.12729     -3342.9234      38.8509       -3304.0725      28155.544      5694.8503    
    905000   606.13012     -3342.0481      39.174234     -3302.8738      28616.435      5694.8503    
    906000   628.00214     -3339.4497      40.587824     -3298.8619      32211.652      5694.8503    
    907000   613.87704     -3343.4823      39.674918     -3303.8074      27773.475      5694.8503    
    908000   596.10689     -3342.3422      38.526431     -3303.8158      28432.84       5694.8503    
    909000   632.23608     -3342.3876      40.861464     -3301.5262      30298.52       5694.8503    
    910000   597.80071     -3341.6481      38.635903     -3303.0122      31494.407      5694.8503    
    911000   597.70332     -3344.0121      38.629609     -3305.3825      27120.122      5694.8503    
    912000   584.90683     -3342.6606      37.802571     -3304.8581      31667.403      5694.8503    
    913000   572.29976     -3344.6829      36.987775     -3307.6952      29840.624      5694.8503    
    914000   577.47729     -3342.7667      37.322399     -3305.4443      28236.815      5694.8503    
    915000   574.35031     -3340.1545      37.120302     -3303.0342      35441.822      5694.8503    
    916000   602.98604     -3343.2474      38.971032     -3304.2764      29598.711      5694.8503    
    917000   604.86895     -3342.5832      39.092724     -3303.4905      29189.295      5694.8503    
    918000   590.68261     -3343.8824      38.17586      -3305.7065      28980.023      5694.8503    
    919000   583.05164     -3343.9023      37.68267      -3306.2197      24622.428      5694.8503    
    920000   572.22969     -3343.5755      36.983246     -3306.5922      30364.505      5694.8503    
    921000   588.40709     -3342.164       38.028793     -3304.1352      30149.071      5694.8503    
    922000   612.67142     -3342.827       39.596998     -3303.23        29849.304      5694.8503    
    923000   636.17985     -3345.7174      41.11635      -3304.601       28870.667      5694.8503    
    924000   578.29048     -3345.0436      37.374956     -3307.6687      28695.669      5694.8503    
    925000   580.83854     -3344.2411      37.539637     -3306.7015      27468.72       5694.8503    
    926000   579.4591      -3342.9537      37.450484     -3305.5032      32375.804      5694.8503    
    927000   613.92742     -3344.9478      39.678174     -3305.2696      28776.803      5694.8503    
    928000   565.8562      -3340.7618      36.571327     -3304.1904      30148.307      5694.8503    
    929000   578.92084     -3341.8194      37.415696     -3304.4037      29376.431      5694.8503    
    930000   592.49285     -3341.984       38.292856     -3303.6912      30957.553      5694.8503    
    931000   619.62316     -3345.8891      40.04629      -3305.8428      25993.3        5694.8503    
    932000   599.20269     -3343.6769      38.726513     -3304.9504      28048.121      5694.8503    
    933000   609.91355     -3341.7734      39.418757     -3302.3546      29902.219      5694.8503    
    934000   611.07731     -3340.599       39.493971     -3301.1051      33394.827      5694.8503    
    935000   607.94214     -3344.0133      39.291345     -3304.722       27838.028      5694.8503    
    936000   601.05306     -3345.0861      38.846103     -3306.24        28208.494      5694.8503    
    937000   591.28697     -3342.0359      38.21492      -3303.821       29112.463      5694.8503    
    938000   582.63461     -3344.4488      37.655717     -3306.7931      27686.358      5694.8503    
    939000   586.92245     -3345.1173      37.932841     -3307.1845      26869.854      5694.8503    
    940000   583.47139     -3342.3316      37.709798     -3304.6218      29256.56       5694.8503    
    941000   587.03346     -3341.6926      37.940015     -3303.7526      30650.993      5694.8503    
    942000   590.26157     -3342.3039      38.148648     -3304.1553      31862.121      5694.8503    
    943000   560.72736     -3342.6918      36.23985      -3306.4519      30562.418      5694.8503    
    944000   581.48912     -3342.4061      37.581684     -3304.8244      27744.478      5694.8503    
    945000   646.7131      -3344.7216      41.797115     -3302.9245      30108.677      5694.8503    
    946000   634.72814     -3343.6863      41.022526     -3302.6638      28844.319      5694.8503    
    947000   592.55581     -3343.6779      38.296925     -3305.381       27511.558      5694.8503    
    948000   571.83694     -3342.3758      36.957863     -3305.4179      28376.632      5694.8503    
    949000   625.22415     -3342.81        40.408282     -3302.4018      30518.241      5694.8503    
    950000   612.5713      -3340.7079      39.590528     -3301.1173      33933.513      5694.8503    
    951000   633.31423     -3344.4941      40.931145     -3303.563       28160.104      5694.8503    
    952000   592.262       -3344.1863      38.277936     -3305.9083      28470.12       5694.8503    
    953000   585.64008     -3343.9816      37.849961     -3306.1316      30150.223      5694.8503    
    954000   587.71718     -3343.4315      37.984204     -3305.4473      29061.705      5694.8503    
    955000   608.03488     -3342.7515      39.297339     -3303.4542      30269.684      5694.8503    
    956000   617.38809     -3344.3515      39.901837     -3304.4497      28411.853      5694.8503    
    957000   617.07981     -3341.3895      39.881913     -3301.5076      32103.763      5694.8503    
    958000   627.71351     -3342.0855      40.569169     -3301.5163      32820.765      5694.8503    
    959000   561.35427     -3342.1913      36.280367     -3305.9109      29095.409      5694.8503    
    960000   586.56015     -3343.1907      37.909425     -3305.2813      30171.606      5694.8503    
    961000   599.03657     -3340.9317      38.715777     -3302.2159      31102.338      5694.8503    
    962000   623.91246     -3340.3969      40.323507     -3300.0734      33694.905      5694.8503    
    963000   614.25118     -3344.6022      39.699098     -3304.9031      26702.708      5694.8503    
    964000   625.1328      -3345.8569      40.402378     -3305.4545      27066.569      5694.8503    
    965000   613.96858     -3345.2623      39.680834     -3305.5815      28822.583      5694.8503    
    966000   617.29043     -3339.2295      39.895525     -3299.3339      34662.185      5694.8503    
    967000   612.07809     -3344.4417      39.558652     -3304.8831      28238.404      5694.8503    
    968000   630.12704     -3345.7891      40.725156     -3305.0639      29611.008      5694.8503    
    969000   584.77369     -3343.9725      37.793966     -3306.1786      27669.232      5694.8503    
    970000   613.70987     -3341.9184      39.664113     -3302.2543      32705.625      5694.8503    
    971000   618.9543      -3342.1447      40.003061     -3302.1416      34249.027      5694.8503    
    972000   582.5967      -3343.2546      37.653267     -3305.6013      32546.89       5694.8503    
    973000   583.11248     -3341.4876      37.686602     -3303.801       34041.618      5694.8503    
    974000   629.50136     -3342.5433      40.684719     -3301.8585      30829.541      5694.8503    
    975000   581.77005     -3342.0531      37.599841     -3304.4533      32691.898      5694.8503    
    976000   576.24917     -3342.9317      37.243026     -3305.6887      31992.242      5694.8503    
    977000   628.24064     -3342.5415      40.603238     -3301.9382      33537.568      5694.8503    
    978000   614.9972      -3341.8733      39.747314     -3302.126       32447.578      5694.8503    
    979000   575.46011     -3343.4084      37.192029     -3306.2164      32139.823      5694.8503    
    980000   616.38477     -3343.6687      39.836993     -3303.8317      32485.756      5694.8503    
    981000   643.95302     -3341.624       41.61873      -3300.0053      31614.667      5694.8503    
    982000   624.43643     -3344.7051      40.357372     -3304.3477      27672.184      5694.8503    
    983000   598.20247     -3344.7457      38.661869     -3306.0838      29771.771      5694.8503    
    984000   575.32107     -3343.9124      37.183043     -3306.7294      32097.363      5694.8503    
    985000   626.47267     -3342.1773      40.488974     -3301.6883      30404.496      5694.8503    
    986000   617.86519     -3342.0443      39.932672     -3302.1117      31223.654      5694.8503    
    987000   602.87726     -3345.3442      38.964001     -3306.3802      28381.681      5694.8503    
    988000   575.11126     -3342.5059      37.169482     -3305.3364      28611.873      5694.8503    
    989000   603.71334     -3342.1448      39.018037     -3303.1268      28577.999      5694.8503    
    990000   610.77015     -3344.4178      39.474119     -3304.9437      26174.333      5694.8503    
    991000   620.04782     -3343.8969      40.073735     -3303.8232      27183.884      5694.8503    
    992000   622.10536     -3342.2738      40.206714     -3302.0671      29482.71       5694.8503    
    993000   633.45904     -3344.5459      40.940503     -3303.6054      28971.779      5694.8503    
    994000   617.42413     -3344.1773      39.904167     -3304.2731      28436.413      5694.8503    
    995000   592.86617     -3344.437       38.316984     -3306.12        31109.984      5694.8503    
    996000   605.92139     -3344.9664      39.160743     -3305.8057      27846.754      5694.8503    
    997000   576.99995     -3343.6606      37.291549     -3306.3691      27525.807      5694.8503    
    998000   584.26588     -3341.6681      37.761146     -3303.907       28930.032      5694.8503    
    999000   619.5242      -3343.4005      40.039894     -3303.3607      31720.565      5694.8503    
   1000000   582.67222     -3341.0624      37.658148     -3303.4042      30243.589      5694.8503    
   1001000   600.43515     -3344.2021      38.806167     -3305.3959      30538.895      5694.8503    
   1002000   618.69484     -3342.6471      39.986292     -3302.6608      32134.738      5694.8503    
   1003000   625.00545     -3341.592       40.394148     -3301.1979      32655.997      5694.8503    
   1004000   585.48533     -3344.1403      37.839959     -3306.3004      28853.915      5694.8503    
   1005000   604.27968     -3343.6346      39.05464      -3304.58        28855.528      5694.8503    
   1006000   606.49701     -3339.4021      39.197946     -3300.2041      34311.452      5694.8503    
   1007000   614.72209     -3342.1976      39.729533     -3302.468       29599.449      5694.8503    
   1008000   593.69604     -3344.1491      38.370618     -3305.7785      31267.434      5694.8503    
   1009000   583.57567     -3342.7246      37.716538     -3305.008       31825.574      5694.8503    
   1010000   630.34577     -3341.8253      40.739293     -3301.086       31440.231      5694.8503    
   1011000   594.74614     -3342.3727      38.438486     -3303.9342      31521.587      5694.8503    
   1012000   604.07545     -3344.7021      39.04144      -3305.6606      30557.367      5694.8503    
   1013000   593.80839     -3342.6243      38.377879     -3304.2464      32171.124      5694.8503    
   1014000   593.14427     -3339.5261      38.334957     -3301.1912      33748.648      5694.8503    
   1015000   612.61984     -3342.8333      39.593664     -3303.2396      30322.434      5694.8503    
   1016000   566.17272     -3343.9215      36.591784     -3307.3297      33791.867      5694.8503    
   1017000   571.60519     -3342.66        36.942885     -3305.7171      30011.851      5694.8503    
   1018000   604.95144     -3343.8416      39.098056     -3304.7436      29629.197      5694.8503    
   1019000   585.24332     -3341.6619      37.824318     -3303.8376      31352.43       5694.8503    
   1020000   630.00936     -3342.2585      40.717551     -3301.5409      29541.567      5694.8503    
   1021000   606.21041     -3343.1421      39.179423     -3303.9627      33495.408      5694.8503    
   1022000   614.63579     -3345.659       39.723955     -3305.9351      28293.73       5694.8503    
   1023000   572.43615     -3342.6548      36.99659      -3305.6582      33700.62       5694.8503    
   1024000   589.72915     -3342.8191      38.114238     -3304.7048      33212.579      5694.8503    
   1025000   582.01731     -3341.5811      37.615821     -3303.9652      33081.376      5694.8503    
   1026000   585.64109     -3343.2782      37.850026     -3305.4282      32070.041      5694.8503    
   1027000   615.11323     -3345.402       39.754813     -3305.6472      29235.027      5694.8503    
   1028000   584.21019     -3342.3191      37.757547     -3304.5616      34260.956      5694.8503    
   1029000   608.4065      -3344.0774      39.321356     -3304.756       32930.553      5694.8503    
   1030000   558.68942     -3343.6945      36.108138     -3307.5864      32574.332      5694.8503    
   1031000   583.30572     -3345.7368      37.699091     -3308.0377      29132.676      5694.8503    
   1032000   583.87576     -3343.3331      37.735933     -3305.5972      32048.619      5694.8503    
   1033000   616.53377     -3344.0372      39.846622     -3304.1906      30345.483      5694.8503    
   1034000   591.49315     -3341.3103      38.228245     -3303.0821      33103.941      5694.8503    
   1035000   604.52428     -3344.503       39.070448     -3305.4325      31444.885      5694.8503    
   1036000   607.11347     -3345.4263      39.237788     -3306.1885      31183.177      5694.8503    
   1037000   593.30266     -3342.5222      38.345194     -3304.1771      32772.046      5694.8503    
   1038000   597.01821     -3343.7947      38.58533      -3305.2094      30214.855      5694.8503    
   1039000   592.05848     -3345.5077      38.264783     -3307.2429      28440.427      5694.8503    
   1040000   608.17192     -3344.2283      39.306195     -3304.9221      29034.799      5694.8503    
   1041000   545.68291     -3342.5012      35.267526     -3307.2337      33505.946      5694.8503    
   1042000   616.6279      -3346.4382      39.852706     -3306.5855      29292.603      5694.8503    
   1043000   608.93435     -3343.4843      39.355471     -3304.1289      30692.186      5694.8503    
   1044000   627.26504     -3344.5471      40.540185     -3304.0069      31335.07       5694.8503    
   1045000   610.12765     -3345.171       39.432595     -3305.7384      30942.065      5694.8503    
   1046000   618.82518     -3342.7871      39.994717     -3302.7924      33465.371      5694.8503    
   1047000   626.65775     -3343.1496      40.500936     -3302.6487      30034.433      5694.8503    
   1048000   619.93414     -3347.1315      40.066388     -3307.0651      28746.501      5694.8503    
   1049000   581.7607      -3345.3861      37.599236     -3307.7868      29209.591      5694.8503    
   1050000   650.67676     -3341.3838      42.053286     -3299.3305      35489.39       5694.8503    
   1051000   591.67455     -3342.5121      38.239969     -3304.2721      32108.737      5694.8503    
   1052000   598.12648     -3343.8866      38.656958     -3305.2296      31812.498      5694.8503    
   1053000   601.24921     -3342.7232      38.85878      -3303.8644      32880.028      5694.8503    
   1054000   605.59378     -3342.8884      39.13957      -3303.7489      33579.527      5694.8503    
   1055000   599.07977     -3344.3664      38.718569     -3305.6478      32030.236      5694.8503    
   1056000   608.75884     -3343.9542      39.344128     -3304.6101      28782.432      5694.8503    
   1057000   622.28081     -3342.1768      40.218054     -3301.9587      31976.566      5694.8503    
   1058000   619.26734     -3344.4477      40.023293     -3304.4244      32242.123      5694.8503    
   1059000   588.16507     -3344.6824      38.013151     -3306.6692      25694.019      5694.8503    
   1060000   588.71316     -3345.4831      38.048574     -3307.4346      28910.02       5694.8503    
   1061000   650.61908     -3340.3438      42.049558     -3298.2943      33870.963      5694.8503    
   1062000   607.65602     -3345.3829      39.272853     -3306.1101      28976.383      5694.8503    
   1063000   575.01944     -3343.9925      37.163548     -3306.8289      32704.894      5694.8503    
   1064000   589.14557     -3345.4519      38.076521     -3307.3754      29964.716      5694.8503    
   1065000   604.40064     -3343.7352      39.062457     -3304.6728      30343.881      5694.8503    
   1066000   613.76199     -3344.3089      39.667482     -3304.6414      30168.878      5694.8503    
   1067000   590.90658     -3345.1831      38.190335     -3306.9928      28512.713      5694.8503    
   1068000   586.3867      -3342.7102      37.898215     -3304.812       32030.884      5694.8503    
   1069000   614.13375     -3341.3896      39.691509     -3301.6981      33458.515      5694.8503    
   1070000   597.5684      -3342.783       38.620889     -3304.1622      30636.549      5694.8503    
   1071000   631.23941     -3344.4076      40.797049     -3303.6106      32765.386      5694.8503    
   1072000   595.69732     -3344.7045      38.499961     -3306.2045      31463.2        5694.8503    
   1073000   566.91185     -3346.456       36.639554     -3309.8164      30265.937      5694.8503    
   1074000   569.48932     -3341.282       36.806136     -3304.4759      33005.477      5694.8503    
   1075000   614.13796     -3342.6486      39.691781     -3302.9568      34437.449      5694.8503    
   1076000   587.21156     -3343.8632      37.951526     -3305.9117      29656.069      5694.8503    
   1077000   574.5363      -3344.3139      37.132323     -3307.1816      32095.299      5694.8503    
   1078000   588.80286     -3344.7997      38.054372     -3306.7453      30427.341      5694.8503    
   1079000   593.3774      -3343.3251      38.350025     -3304.9751      31926.453      5694.8503    
   1080000   563.11499     -3344.3309      36.394162     -3307.9367      30072.102      5694.8503    
   1081000   631.01016     -3342.9784      40.782232     -3302.1962      31205.201      5694.8503    
   1082000   600.73605     -3341.9605      38.825615     -3303.1349      34761.54       5694.8503    
   1083000   626.30677     -3345.1437      40.478252     -3304.6655      29381.453      5694.8503    
   1084000   590.63264     -3343.3396      38.17263      -3305.1669      30941.594      5694.8503    
   1085000   632.68816     -3343.8834      40.890682     -3302.9927      30714.363      5694.8503    
   1086000   593.92203     -3342.4228      38.385224     -3304.0376      31805.479      5694.8503    
   1087000   590.4959      -3345.2285      38.163793     -3307.0647      30867.361      5694.8503    
   1088000   573.07123     -3346.0865      37.037635     -3309.0489      28234.29       5694.8503    
   1089000   601.99478     -3345.3992      38.906966     -3306.4923      32762.151      5694.8503    
   1090000   609.27824     -3343.5502      39.377697     -3304.1725      33292.594      5694.8503    
   1091000   618.67224     -3345.4252      39.984832     -3305.4403      30378.739      5694.8503    
   1092000   598.06267     -3345.9799      38.652834     -3307.3271      30335.138      5694.8503    
   1093000   580.36789     -3343.7731      37.509219     -3306.2639      33433.243      5694.8503    
   1094000   622.90276     -3343.0279      40.258251     -3302.7697      30883.74       5694.8503    
   1095000   604.70344     -3343.464       39.082027     -3304.382       32945.08       5694.8503    
   1096000   590.78707     -3344.0682      38.182611     -3305.8856      29930.744      5694.8503    
   1097000   597.22176     -3343.9871      38.598486     -3305.3886      29674.673      5694.8503    
   1098000   564.54684     -3344.0299      36.486703     -3307.5432      29655.736      5694.8503    
   1099000   616.00374     -3345.4281      39.812367     -3305.6157      30539.588      5694.8503    
   1100000   604.04846     -3343.5556      39.039696     -3304.5159      28008.124      5694.8503    
   1101000   611.94074     -3344.484       39.549774     -3304.9342      28581.777      5694.8503    
   1102000   581.09657     -3344.743       37.556314     -3307.1867      30800.332      5694.8503    
   1103000   568.48819     -3344.6682      36.741433     -3307.9268      29440.616      5694.8503    
   1104000   594.1768      -3343.0991      38.40169      -3304.6974      26883.011      5694.8503    
   1105000   621.681       -3341.7026      40.179288     -3301.5233      34759.578      5694.8503    
   1106000   665.11582     -3344.9111      42.986484     -3301.9246      30131.814      5694.8503    
   1107000   650.24111     -3345.2945      42.02513      -3303.2693      31321.899      5694.8503    
   1108000   573.18189     -3345.4089      37.044787     -3308.3641      28199.161      5694.8503    
   1109000   593.65854     -3346.4066      38.368195     -3308.0385      28983.22       5694.8503    
   1110000   592.38169     -3343.3781      38.285672     -3305.0925      31761.223      5694.8503    
   1111000   634.66151     -3346.0546      41.01822      -3305.0364      30483.879      5694.8503    
   1112000   570.63815     -3345.4828      36.880385     -3308.6024      29964.546      5694.8503    
   1113000   578.73274     -3345.8494      37.403539     -3308.4459      27887.27       5694.8503    
   1114000   584.71815     -3344.2073      37.790377     -3306.4169      31296.024      5694.8503    
   1115000   584.3331      -3342.0135      37.76549      -3304.248       31994.627      5694.8503    
   1116000   626.77996     -3343.8002      40.508834     -3303.2913      32696.748      5694.8503    
   1117000   597.74786     -3344.8457      38.632488     -3306.2132      27723.011      5694.8503    
   1118000   576.46189     -3344.7232      37.256774     -3307.4664      28098.386      5694.8503    
   1119000   594.82527     -3343.4448      38.4436       -3305.0012      30719.057      5694.8503    
   1120000   598.77226     -3343.281       38.698694     -3304.5823      31047.888      5694.8503    
   1121000   609.98105     -3346.4876      39.423119     -3307.0645      28026.215      5694.8503    
   1122000   594.9814      -3345.0735      38.453691     -3306.6198      31789.642      5694.8503    
   1123000   592.93415     -3341.4448      38.321377     -3303.1234      34297.308      5694.8503    
   1124000   622.05057     -3342.711       40.203173     -3302.5078      34486.625      5694.8503    
   1125000   622.85526     -3344.5173      40.255181     -3304.2622      34681.592      5694.8503    
   1126000   558.44191     -3345.4964      36.092141     -3309.4042      28584.821      5694.8503    
   1127000   553.48172     -3343.6059      35.771564     -3307.8343      31819.543      5694.8503    
   1128000   589.8224      -3342.7456      38.120264     -3304.6253      31854.881      5694.8503    
   1129000   599.90491     -3344.8833      38.771898     -3306.1114      31809.652      5694.8503    
   1130000   569.05278     -3344.7702      36.777923     -3307.9922      30294.227      5694.8503    
   1131000   576.07741     -3343.9005      37.231925     -3306.6686      32509.089      5694.8503    
   1132000   615.91718     -3344.3604      39.806772     -3304.5536      31546.635      5694.8503    
   1133000   632.54356     -3342.8317      40.881336     -3301.9504      33927.143      5694.8503    
   1134000   595.86293     -3343.1706      38.510664     -3304.6599      32637.446      5694.8503    
   1135000   594.24606     -3343.5756      38.406166     -3305.1695      31616.68       5694.8503    
   1136000   556.88402     -3344.9127      35.991455     -3308.9213      30177.276      5694.8503    
   1137000   590.76066     -3345.7763      38.180904     -3307.5954      28758.525      5694.8503    
   1138000   588.5498      -3342.7679      38.038016     -3304.7299      35007.748      5694.8503    
   1139000   590.05455     -3341.9378      38.135269     -3303.8025      31536.486      5694.8503    
   1140000   618.13794     -3345.2172      39.9503       -3305.2669      30249.99       5694.8503    
   1141000   622.83306     -3345.3365      40.253746     -3305.0828      29973.594      5694.8503    
   1142000   621.6322      -3345.3213      40.176134     -3305.1451      30631.265      5694.8503    
   1143000   624.90308     -3343.7223      40.387531     -3303.3347      33362.127      5694.8503    
   1144000   647.20289     -3342.9337      41.82877      -3301.105       32039.417      5694.8503    
   1145000   628.68495     -3343.885       40.631954     -3303.2531      29059.336      5694.8503    
   1146000   623.09179     -3344.1278      40.270468     -3303.8573      31694.127      5694.8503    
   1147000   591.70726     -3342.527       38.242083     -3304.2849      31466.616      5694.8503    
   1148000   583.43784     -3343.5196      37.70763      -3305.812       31617.955      5694.8503    
   1149000   600.15127     -3345.5564      38.78782      -3306.7686      30574.886      5694.8503    
   1150000   593.44255     -3343.6882      38.354235     -3305.334       31165.505      5694.8503    
   1151000   569.39446     -3344.4178      36.800005     -3307.6178      29601.447      5694.8503    
   1152000   587.46204     -3343.8209      37.967714     -3305.8532      31369.064      5694.8503    
   1153000   605.48829     -3342.5145      39.132752     -3303.3818      31441.702      5694.8503    
   1154000   621.39166     -3344.297       40.160588     -3304.1364      30644.761      5694.8503    
   1155000   583.28462     -3344.6734      37.697727     -3306.9757      32676.706      5694.8503    
   1156000   626.24214     -3344.2329      40.474075     -3303.7588      31076.928      5694.8503    
   1157000   643.81469     -3342.9103      41.60979      -3301.3005      34054.472      5694.8503    
   1158000   605.33722     -3346.3558      39.122988     -3307.2328      30201.223      5694.8503    
   1159000   619.89141     -3345.1422      40.063627     -3305.0786      28881.638      5694.8503    
   1160000   629.27061     -3345.5323      40.669805     -3304.8625      31417.715      5694.8503    
   1161000   592.36574     -3344.9348      38.284641     -3306.6501      28506.962      5694.8503    
   1162000   603.65487     -3345.0919      39.014258     -3306.0777      28869.995      5694.8503    
   1163000   629.0333      -3345.935       40.654468     -3305.2806      30321.907      5694.8503    
   1164000   574.72777     -3341.5933      37.144697     -3304.4486      33653.608      5694.8503    
   1165000   629.01234     -3341.9298      40.653113     -3301.2767      35942.25       5694.8503    
   1166000   573.85346     -3340.3679      37.088191     -3303.2797      34251.324      5694.8503    
   1167000   610.15935     -3345.5067      39.434643     -3306.072       29093.596      5694.8503    
   1168000   607.87601     -3343.5504      39.28707      -3304.2633      30974.846      5694.8503    
   1169000   638.01245     -3343.5077      41.234791     -3302.2729      31084.173      5694.8503    
   1170000   578.00023     -3342.5003      37.356197     -3305.1441      32051.896      5694.8503    
   1171000   599.09832     -3345.7443      38.719768     -3307.0245      29832.441      5694.8503    
   1172000   573.30273     -3341.7518      37.052597     -3304.6992      32729.892      5694.8503    
   1173000   590.47995     -3344.6398      38.162762     -3306.477       28163.798      5694.8503    
   1174000   585.21992     -3344.7428      37.822806     -3306.92        29096.134      5694.8503    
   1175000   598.52632     -3343.0885      38.6828       -3304.4057      32920.796      5694.8503    
   1176000   610.10111     -3341.4267      39.430879     -3301.9958      33191.566      5694.8503    
   1177000   565.94249     -3343.249       36.576904     -3306.6721      31438.793      5694.8503    
   1178000   572.23657     -3344.9963      36.983691     -3308.0126      30489.242      5694.8503    
   1179000   609.68474     -3342.3856      39.403969     -3302.9816      31914.788      5694.8503    
   1180000   569.13934     -3340.4717      36.783517     -3303.6882      31364.835      5694.8503    
   1181000   623.31215     -3343.7906      40.28471      -3303.5059      31462.381      5694.8503    
   1182000   534.52763     -3342.8731      34.54656      -3308.3265      32852.76       5694.8503    
   1183000   594.87839     -3344.1326      38.447034     -3305.6855      28431.635      5694.8503    
   1184000   593.59871     -3341.8618      38.364328     -3303.4975      31857.501      5694.8503    
   1185000   608.07756     -3341.6961      39.300097     -3302.396       30462.017      5694.8503    
   1186000   571.60935     -3340.9896      36.943154     -3304.0464      30088.488      5694.8503    
   1187000   595.69905     -3343.1238      38.500073     -3304.6237      30084.79       5694.8503    
   1188000   602.71254     -3343.4013      38.953355     -3304.4479      29988.002      5694.8503    
   1189000   615.15514     -3340.3327      39.757521     -3300.5752      33596.91       5694.8503    
   1190000   585.97441     -3345.3078      37.871568     -3307.4362      28447.797      5694.8503    
   1191000   564.45642     -3343.6492      36.480859     -3307.1683      29497.525      5694.8503    
   1192000   554.47591     -3341.5317      35.835818     -3305.6959      33624.961      5694.8503    
   1193000   635.94839     -3343.3824      41.101391     -3302.281       30621.781      5694.8503    
   1194000   623.19486     -3343.9953      40.277129     -3303.7181      29341.958      5694.8503    
   1195000   598.3205      -3343.1374      38.669497     -3304.4679      28610.562      5694.8503    
   1196000   562.70116     -3344.6233      36.367416     -3308.2559      28710.19       5694.8503    
   1197000   577.65754     -3344.6897      37.334049     -3307.3556      29359.758      5694.8503    
   1198000   650.72677     -3342.1058      42.056519     -3300.0493      33009.651      5694.8503    
   1199000   597.25489     -3344.8593      38.600627     -3306.2587      28625.123      5694.8503    
   1200000   599.39937     -3345.8553      38.739225     -3307.1161      30450.107      5694.8503    
   1201000   568.56698     -3344.1897      36.746525     -3307.4432      30622.452      5694.8503    
   1202000   611.07414     -3344.0235      39.493766     -3304.5297      31795.072      5694.8503    
   1203000   608.2217      -3342.7146      39.309413     -3303.4051      33869.6        5694.8503    
   1204000   598.93014     -3341.1547      38.708898     -3302.4458      32654.231      5694.8503    
   1205000   592.19961     -3342.6561      38.273904     -3304.3822      32635.48       5694.8503    
   1206000   601.8001      -3345.1615      38.894384     -3306.2671      30657.326      5694.8503    
   1207000   588.56        -3342.1145      38.038675     -3304.0758      32325.072      5694.8503    
   1208000   602.64593     -3342.6014      38.94905      -3303.6523      32740.996      5694.8503    
   1209000   599.16444     -3344.8812      38.724041     -3306.1571      28933.914      5694.8503    
   1210000   591.02969     -3346.6029      38.198292     -3308.4046      28035.184      5694.8503    
   1211000   612.45007     -3344.2097      39.582693     -3304.627       32366.342      5694.8503    
   1212000   615.53118     -3343.752       39.781825     -3303.9701      31166.74       5694.8503    
   1213000   595.60887     -3345.9123      38.494245     -3307.418       27883.471      5694.8503    
   1214000   597.56016     -3345.782       38.620357     -3307.1617      26881.714      5694.8503    
   1215000   596.03821     -3344.4839      38.521993     -3305.9619      31118.383      5694.8503    
   1216000   628.4821      -3344.2935      40.618844     -3303.6747      32251.753      5694.8503    
   1217000   573.07727     -3345.593       37.038026     -3308.555       28876.055      5694.8503    
   1218000   597.52261     -3344.5663      38.61793      -3305.9484      28677.406      5694.8503    
   1219000   566.20045     -3342.4073      36.593576     -3305.8137      29853.361      5694.8503    
   1220000   588.57876     -3343.9462      38.039888     -3305.9063      29467.555      5694.8503    
   1221000   612.58528     -3343.352       39.591431     -3303.7606      31596.695      5694.8503    
   1222000   604.33136     -3340.9046      39.05798      -3301.8466      32022.051      5694.8503    
   1223000   618.35459     -3342.5928      39.964302     -3302.6285      30234.049      5694.8503    
   1224000   585.70517     -3343.4805      37.854168     -3305.6263      27625.42       5694.8503    
   1225000   617.55772     -3343.2025      39.9128       -3303.2897      27066.919      5694.8503    
   1226000   614.6165      -3342.5396      39.722709     -3302.8169      32404.009      5694.8503    
   1227000   612.79628     -3347.7139      39.605068     -3308.1089      26622.898      5694.8503    
   1228000   572.36356     -3345.4573      36.991899     -3308.4654      29196.458      5694.8503    
   1229000   608.5887      -3344.2959      39.333132     -3304.9628      30329.214      5694.8503    
   1230000   585.09107     -3342.4087      37.814478     -3304.5943      31578.639      5694.8503    
   1231000   605.21775     -3345.4519      39.115267     -3306.3367      29407.642      5694.8503    
   1232000   561.36834     -3343.026       36.281276     -3306.7447      31962.727      5694.8503    
   1233000   632.58579     -3344.421       40.884065     -3303.537       29576.106      5694.8503    
   1234000   591.32809     -3344.3244      38.217577     -3306.1068      29931.149      5694.8503    
   1235000   580.1517      -3345.7044      37.495246     -3308.2092      28923.124      5694.8503    
   1236000   585.26382     -3343.1964      37.825643     -3305.3707      32705.912      5694.8503    
   1237000   618.00566     -3342.6706      39.941751     -3302.7289      29180.69       5694.8503    
   1238000   572.8433      -3342.5758      37.022904     -3305.5529      29948.79       5694.8503    
   1239000   587.64843     -3345.0027      37.979761     -3307.0229      29349.657      5694.8503    
   1240000   597.47558     -3344.5811      38.61489      -3305.9662      28617.108      5694.8503    
   1241000   647.36902     -3343.6573      41.839506     -3301.8178      31568.87       5694.8503    
   1242000   610.70314     -3341.5553      39.469788     -3302.0855      31855.01       5694.8503    
   1243000   608.60171     -3343.0171      39.333972     -3303.6832      32011.349      5694.8503    
   1244000   580.28362     -3342.5457      37.503773     -3305.0419      32261.16       5694.8503    
   1245000   600.37868     -3347.0013      38.802517     -3308.1988      28358.678      5694.8503    
   1246000   610.02523     -3345.1393      39.425975     -3305.7133      29764.782      5694.8503    
   1247000   585.69008     -3342.4337      37.853192     -3304.5806      29699.822      5694.8503    
   1248000   581.31598     -3343.801       37.570494     -3306.2305      29984.539      5694.8503    
   1249000   575.8083      -3347.3926      37.214532     -3310.178       28734.895      5694.8503    
   1250000   584.06779     -3343.158       37.748344     -3305.4097      30595.575      5694.8503    
   1251000   617.46863     -3343.0302      39.907042     -3303.1232      32248.294      5694.8503    
   1252000   616.18854     -3343.5151      39.82431      -3303.6908      29123.075      5694.8503    
   1253000   631.73527     -3345.0891      40.829096     -3304.26        29695.564      5694.8503    
   1254000   573.23135     -3344.0271      37.047984     -3306.9792      29724.685      5694.8503    
   1255000   593.70421     -3344.4772      38.371146     -3306.1061      27399.558      5694.8503    
   1256000   617.84497     -3344.9524      39.931365     -3305.021       30953.786      5694.8503    
   1257000   632.71059     -3344.5522      40.892132     -3303.6601      31476.257      5694.8503    
   1258000   602.48089     -3344.1972      38.938383     -3305.2588      31247.02       5694.8503    
   1259000   578.26703     -3344.92        37.37344      -3307.5466      29412.837      5694.8503    
   1260000   588.92367     -3342.3376      38.062179     -3304.2755      32315.914      5694.8503    
   1261000   598.01639     -3342.3275      38.649843     -3303.6777      30523.552      5694.8503    
   1262000   595.35458     -3341.4046      38.47781      -3302.9268      35056.44       5694.8503    
   1263000   584.42246     -3343.7235      37.771266     -3305.9522      32384.976      5694.8503    
   1264000   569.15012     -3344.5202      36.784213     -3307.736       30502.171      5694.8503    
   1265000   576.49984     -3342.8646      37.259226     -3305.6054      32822.681      5694.8503    
   1266000   590.72649     -3345.4231      38.178696     -3307.2444      29893.4        5694.8503    
   1267000   577.21149     -3345.4089      37.305221     -3308.1036      29674.562      5694.8503    
   1268000   589.68304     -3344.5937      38.111258     -3306.4824      31479.06       5694.8503    
   1269000   610.21788     -3344.0512      39.438426     -3304.6127      30082.426      5694.8503    
   1270000   596.30403     -3343.2778      38.539173     -3304.7386      33431.172      5694.8503    
   1271000   562.7447      -3344.9155      36.370231     -3308.5452      26913.154      5694.8503    
   1272000   603.69007     -3343.9156      39.016533     -3304.8991      30233.601      5694.8503    
   1273000   589.71007     -3342.6481      38.113005     -3304.5351      32918.514      5694.8503    
   1274000   630.90339     -3343.2528      40.775332     -3302.4774      31367.078      5694.8503    
   1275000   592.84554     -3342.7216      38.31565      -3304.4059      34167.432      5694.8503    
   1276000   584.15676     -3343.5432      37.754093     -3305.7891      30036.731      5694.8503    
   1277000   582.36224     -3344.8949      37.638114     -3307.2567      34173.945      5694.8503    
   1278000   643.68813     -3341.25        41.60161      -3299.6484      35422.096      5694.8503    
   1279000   554.798       -3342.0282      35.856635     -3306.1715      33052.678      5694.8503    
   1280000   573.80946     -3344.7666      37.085347     -3307.6812      30771.101      5694.8503    
   1281000   583.76072     -3344.0636      37.728497     -3306.3351      28315.865      5694.8503    
   1282000   607.59955     -3342.6476      39.269203     -3303.3784      32321.427      5694.8503    
   1283000   619.96537     -3341.1668      40.068407     -3301.0984      32374.605      5694.8503    
   1284000   586.29883     -3343.8986      37.892536     -3306.0061      31068.047      5694.8503    
   1285000   624.30833     -3342.844       40.349093     -3302.4949      34021.915      5694.8503    
   1286000   614.76986     -3342.9048      39.73262      -3303.1722      31519.486      5694.8503    
   1287000   586.41148     -3344.327       37.899816     -3306.4272      29185.428      5694.8503    
   1288000   572.38846     -3344.0639      36.993508     -3307.0704      29812.093      5694.8503    
   1289000   612.00394     -3344.783       39.553859     -3305.2291      31970.529      5694.8503    
   1290000   607.02322     -3344.1344      39.231955     -3304.9024      30161.778      5694.8503    
   1291000   605.61654     -3346.1914      39.141041     -3307.0503      29907.133      5694.8503    
   1292000   568.97279     -3343.949       36.772752     -3307.1762      33902.118      5694.8503    
   1293000   664.88248     -3343.2707      42.971403     -3300.2993      31843.428      5694.8503    
   1294000   600.2341      -3344.1893      38.793173     -3305.3961      27741.246      5694.8503    
   1295000   580.1826      -3343.5666      37.497244     -3306.0694      32863.522      5694.8503    
   1296000   610.33395     -3347.2679      39.445927     -3307.822       27020.424      5694.8503    
   1297000   592.93038     -3345.462       38.321133     -3307.1409      30629.943      5694.8503    
   1298000   620.69007     -3344.0859      40.115244     -3303.9707      33712.709      5694.8503    
   1299000   588.21916     -3344.2672      38.016647     -3306.2506      30834.632      5694.8503    
   1300000   617.90266     -3346.6681      39.935094     -3306.733       27531.93       5694.8503    
   1301000   616.04383     -3345.0142      39.814958     -3305.1992      31450.867      5694.8503    
   1302000   603.98203     -3343.325       39.035402     -3304.2896      30276.41       5694.8503    
   1303000   606.32085     -3343.62        39.186561     -3304.4334      31288.468      5694.8503    
   1304000   581.63963     -3343.9456      37.591412     -3306.3542      30943.462      5694.8503    
   1305000   596.24423     -3343.3458      38.535308     -3304.8105      31099.956      5694.8503    
   1306000   639.82791     -3343.4263      41.352124     -3302.0741      30880.182      5694.8503    
   1307000   606.10102     -3343.3659      39.172353     -3304.1936      29266.516      5694.8503    
   1308000   617.11158     -3345.1843      39.883966     -3305.3003      27000.64       5694.8503    
   1309000   595.35972     -3343.3197      38.478142     -3304.8416      29586.305      5694.8503    
   1310000   617.0806      -3343.5883      39.881964     -3303.7064      30147.014      5694.8503    
   1311000   621.24354     -3346.593       40.151015     -3306.442       27554.446      5694.8503    
   1312000   590.52253     -3343.8757      38.165514     -3305.7101      30661.499      5694.8503    
   1313000   576.90643     -3342.0967      37.285504     -3304.8112      30236.907      5694.8503    
   1314000   595.85751     -3341.4525      38.510314     -3302.9422      32167.243      5694.8503    
   1315000   598.41467     -3341.7881      38.675584     -3303.1126      31023.521      5694.8503    
   1316000   614.31995     -3344.1857      39.703543     -3304.4822      29937.472      5694.8503    
   1317000   571.36217     -3344.4546      36.927178     -3307.5274      29468.284      5694.8503    
   1318000   582.58476     -3344.7716      37.652495     -3307.1191      27135.738      5694.8503    
   1319000   639.45014     -3344.726       41.327709     -3303.3983      27788.83       5694.8503    
   1320000   602.84223     -3344.5726      38.961737     -3305.6109      30416.511      5694.8503    
   1321000   587.48832     -3343.0633      37.969413     -3305.0939      26666.438      5694.8503    
   1322000   571.32729     -3344.2316      36.924924     -3307.3067      27664.436      5694.8503    
   1323000   646.66188     -3343.9045      41.793804     -3302.1107      29663.134      5694.8503    
   1324000   595.50688     -3343.659       38.487653     -3305.1713      29432.321      5694.8503    
   1325000   585.96054     -3343.4292      37.870672     -3305.5586      26858.867      5694.8503    
   1326000   616.95677     -3342.1129      39.873961     -3302.239       32781.558      5694.8503    
   1327000   568.99019     -3340.9856      36.773877     -3304.2117      32357.028      5694.8503    
   1328000   602.10555     -3344.1785      38.914125     -3305.2644      28275.094      5694.8503    
   1329000   575.22454     -3344.5794      37.176804     -3307.4026      28203.968      5694.8503    
   1330000   592.46071     -3343.9563      38.290778     -3305.6655      30457.901      5694.8503    
   1331000   589.20447     -3342.915       38.080328     -3304.8347      31742.518      5694.8503    
   1332000   607.79552     -3342.5274      39.281869     -3303.2455      31002.228      5694.8503    
   1333000   635.7253      -3343.8635      41.086972     -3302.7765      32583.182      5694.8503    
   1334000   590.58113     -3344.7422      38.169301     -3306.5729      31184.703      5694.8503    
   1335000   598.28583     -3344.2329      38.667256     -3305.5656      28567.213      5694.8503    
   1336000   596.60423     -3342.7834      38.558574     -3304.2248      29975.679      5694.8503    
   1337000   586.59339     -3344.5508      37.911574     -3306.6393      32518.008      5694.8503    
   1338000   593.88799     -3344.5785      38.383024     -3306.1955      29346.871      5694.8503    
   1339000   636.45895     -3344.5533      41.134388     -3303.4189      32183.902      5694.8503    
   1340000   569.1138      -3343.4173      36.781866     -3306.6354      31050.829      5694.8503    
   1341000   619.38401     -3346.4175      40.030833     -3306.3866      30498.872      5694.8503    
   1342000   582.6474      -3345.0031      37.656544     -3307.3465      30426.651      5694.8503    
   1343000   614.06347     -3345.2645      39.686967     -3305.5775      29116.52       5694.8503    
   1344000   624.79662     -3344.3103      40.380651     -3303.9297      31285.083      5694.8503    
   1345000   619.36115     -3342.7441      40.029356     -3302.7148      33125.798      5694.8503    
   1346000   625.7827      -3342.5585      40.444381     -3302.1141      29591.979      5694.8503    
   1347000   593.19516     -3343.0379      38.338246     -3304.6997      32005.751      5694.8503    
   1348000   593.35617     -3344.4584      38.348652     -3306.1098      27583.675      5694.8503    
   1349000   587.47178     -3343.8218      37.968344     -3305.8535      27635.407      5694.8503    
   1350000   587.58473     -3342.6819      37.975644     -3304.7062      31431.004      5694.8503    
   1351000   663.80949     -3343.1188      42.902056     -3300.2167      28614.64       5694.8503    
   1352000   579.09657     -3344.2449      37.427053     -3306.8178      30095.405      5694.8503    
   1353000   593.82704     -3345.8615      38.379085     -3307.4824      27844.659      5694.8503    
   1354000   620.94896     -3343.2517      40.131976     -3303.1198      30662.579      5694.8503    
   1355000   601.79485     -3343.8363      38.894045     -3304.9422      29433.702      5694.8503    
   1356000   612.33855     -3346.4688      39.575485     -3306.8933      31575.749      5694.8503    
   1357000   561.87988     -3345.0615      36.314337     -3308.7472      30128.844      5694.8503    
   1358000   596.27625     -3346.0906      38.537378     -3307.5533      30157.553      5694.8503    
   1359000   586.37339     -3343.9949      37.897355     -3306.0976      32126.822      5694.8503    
   1360000   594.1186      -3341.7947      38.397928     -3303.3968      34078.103      5694.8503    
   1361000   622.73753     -3342.6397      40.247572     -3302.3921      34819.367      5694.8503    
   1362000   597.8977      -3344.0195      38.642172     -3305.3774      31403.642      5694.8503    
   1363000   597.40683     -3346.5696      38.610447     -3307.9591      28733.788      5694.8503    
   1364000   583.9367      -3343.3692      37.739871     -3305.6293      31091.776      5694.8503    
   1365000   591.88965     -3342.4517      38.253871     -3304.1979      31788.877      5694.8503    
   1366000   604.67879     -3344.0121      39.080434     -3304.9317      32069.064      5694.8503    
   1367000   595.19905     -3343.7903      38.467758     -3305.3225      31283.758      5694.8503    
   1368000   550.34874     -3343.6372      35.569079     -3308.0681      27641.674      5694.8503    
   1369000   585.09563     -3344.296       37.814773     -3306.4812      28645.928      5694.8503    
   1370000   596.75037     -3343.3757      38.56802      -3304.8077      29020.678      5694.8503    
   1371000   618.20275     -3342.1618      39.954489     -3302.2073      34117.917      5694.8503    
   1372000   610.12377     -3343.896       39.432344     -3304.4637      29151.7        5694.8503    
   1373000   591.39824     -3344.585       38.222111     -3306.3629      28773.916      5694.8503    
   1374000   634.49386     -3343.4022      41.007384     -3302.3948      32146.242      5694.8503    
   1375000   622.68025     -3344.5829      40.24387      -3304.339       31932.87       5694.8503    
   1376000   572.53907     -3343.5722      37.003242     -3306.569       33230.109      5694.8503    
   1377000   596.33465     -3340.4352      38.541151     -3301.8941      34876.53       5694.8503    
   1378000   655.15685     -3343.2548      42.342835     -3300.912       30812.821      5694.8503    
   1379000   602.43707     -3344.1077      38.935552     -3305.1722      29427.677      5694.8503    
   1380000   576.21457     -3345.2074      37.240789     -3307.9666      29233.062      5694.8503    
   1381000   630.60444     -3345.6032      40.75601      -3304.8472      29739.3        5694.8503    
   1382000   618.60442     -3343.4105      39.980448     -3303.43        30968.392      5694.8503    
   1383000   578.74372     -3343.3071      37.404249     -3305.9029      29428.555      5694.8503    
   1384000   566.11835     -3344.3558      36.58827      -3307.7675      30733.617      5694.8503    
   1385000   599.42458     -3343.6822      38.740854     -3304.9414      30335.861      5694.8503    
   1386000   578.14422     -3342.886       37.365503     -3305.5205      30259.667      5694.8503    
   1387000   592.95432     -3347.2837      38.322681     -3308.961       28216.494      5694.8503    
   1388000   598.19685     -3346.0927      38.661506     -3307.4312      29147.219      5694.8503    
   1389000   582.47171     -3343.1633      37.645189     -3305.5181      33312.066      5694.8503    
   1390000   611.15035     -3344.2634      39.498691     -3304.7647      30417.249      5694.8503    
   1391000   587.92577     -3345.2855      37.997685     -3307.2878      31520.21       5694.8503    
   1392000   583.9396      -3347.2815      37.740059     -3309.5414      27276.835      5694.8503    
   1393000   614.6718      -3345.2117      39.726283     -3305.4854      31986.881      5694.8503    
   1394000   607.6494      -3342.2683      39.272425     -3302.9958      34418.689      5694.8503    
   1395000   586.21405     -3340.7754      37.887056     -3302.8884      34784.901      5694.8503    
   1396000   590.1511      -3344.3113      38.141509     -3306.1698      32746.322      5694.8503    
   1397000   619.1936      -3345.5033      40.018528     -3305.4847      31381.659      5694.8503    
   1398000   612.69655     -3341.9447      39.598622     -3302.3461      33689.563      5694.8503    
   1399000   629.22453     -3343.1511      40.666827     -3302.4843      33713.846      5694.8503    
   1400000   598.74022     -3344.7677      38.696624     -3306.0711      28641.219      5694.8503    
   1401000   588.9541      -3344.7075      38.064146     -3306.6434      31240.74       5694.8503    
   1402000   577.61117     -3344.7407      37.331052     -3307.4096      30811.023      5694.8503    
   1403000   607.63187     -3344.4614      39.271292     -3305.1901      32994.054      5694.8503    
   1404000   574.60986     -3341.3758      37.137077     -3304.2387      32200.189      5694.8503    
   1405000   628.30413     -3342.7732      40.607341     -3302.1659      31099.855      5694.8503    
   1406000   637.70594     -3344.5089      41.214981     -3303.2939      31580.574      5694.8503    
   1407000   573.08997     -3343.6186      37.038846     -3306.5798      30723.376      5694.8503    
   1408000   586.86512     -3344.5567      37.929135     -3306.6275      28902.166      5694.8503    
   1409000   626.68436     -3345.6378      40.502655     -3305.1352      28396.376      5694.8503    
   1410000   621.84683     -3342.5335      40.190005     -3302.3435      34053.626      5694.8503    
   1411000   630.32453     -3341.6562      40.73792      -3300.9183      32909.96       5694.8503    
   1412000   625.84159     -3343.8354      40.448187     -3303.3872      31279.626      5694.8503    
   1413000   576.26732     -3342.7469      37.244199     -3305.5027      32074.715      5694.8503    
   1414000   560.51654     -3344.6241      36.226225     -3308.3979      30101.066      5694.8503    
   1415000   579.12431     -3345.0928      37.428846     -3307.6639      30864.947      5694.8503    
   1416000   577.15058     -3343.2387      37.301284     -3305.9374      30901.668      5694.8503    
   1417000   609.04829     -3345.2282      39.362835     -3305.8653      29994.885      5694.8503    
   1418000   571.00031     -3344.8969      36.903792     -3307.9931      29314.537      5694.8503    
   1419000   589.57441     -3344.6395      38.104237     -3306.5352      29069.998      5694.8503    
   1420000   601.60094     -3344.0595      38.881512     -3305.178       30021.066      5694.8503    
   1421000   628.10823     -3344.3952      40.59468      -3303.8005      30562.627      5694.8503    
   1422000   620.24619     -3343.8114      40.086556     -3303.7248      28593.64       5694.8503    
   1423000   626.44175     -3346.874       40.486976     -3306.387       26761.488      5694.8503    
   1424000   567.07791     -3344.2567      36.650286     -3307.6064      32452.544      5694.8503    
   1425000   575.97437     -3343.396       37.225266     -3306.1708      30695.002      5694.8503    
   1426000   620.55865     -3343.6574      40.10675      -3303.5507      31594.829      5694.8503    
   1427000   661.10065     -3342.5912      42.726983     -3299.8642      33203.25       5694.8503    
   1428000   579.78478     -3343.2833      37.471532     -3305.8118      31339.811      5694.8503    
   1429000   610.6221      -3345.662       39.464551     -3306.1975      30371.751      5694.8503    
   1430000   580.82691     -3345.8574      37.538885     -3308.3185      29624.768      5694.8503    
   1431000   572.56149     -3342.5537      37.00469      -3305.5491      34593.065      5694.8503    
   1432000   617.57684     -3345.5966      39.914036     -3305.6826      30787.984      5694.8503    
   1433000   578.35877     -3345.4259      37.379369     -3308.0465      29155.059      5694.8503    
   1434000   574.8812      -3341.2303      37.154613     -3304.0757      31946.943      5694.8503    
   1435000   587.94533     -3345.4173      37.998949     -3307.4184      28294.461      5694.8503    
   1436000   601.27307     -3346.1928      38.860322     -3307.3325      26018.042      5694.8503    
   1437000   615.25366     -3342.0392      39.763889     -3302.2753      31514.195      5694.8503    
   1438000   605.37401     -3341.7408      39.125366     -3302.6155      29934.221      5694.8503    
   1439000   578.78859     -3343.8708      37.407149     -3306.4637      29621.992      5694.8503    
   1440000   587.08459     -3344.7172      37.94332      -3306.7738      27375.778      5694.8503    
   1441000   616.7511      -3342.0375      39.860668     -3302.1769      32037.734      5694.8503    
   1442000   572.93686     -3340.5172      37.028951     -3303.4883      30170.784      5694.8503    
   1443000   587.63854     -3344.13        37.979121     -3306.1509      30538.731      5694.8503    
   1444000   582.31888     -3345.6364      37.635312     -3308.0011      27655.151      5694.8503    
   1445000   557.93244     -3344.9415      36.059214     -3308.8823      27349.86       5694.8503    
   1446000   604.81399     -3344.1859      39.089172     -3305.0968      32645.024      5694.8503    
   1447000   592.90622     -3342.2367      38.319572     -3303.9171      34040.404      5694.8503    
   1448000   618.88937     -3346.6386      39.998865     -3306.6398      30315.76       5694.8503    
   1449000   577.6601      -3345.981       37.334214     -3308.6468      28722.94       5694.8503    
   1450000   570.39059     -3342.566       36.864385     -3305.7016      31764.362      5694.8503    
   1451000   617.55153     -3343.1438      39.9124       -3303.2314      32050.32       5694.8503    
   1452000   592.97133     -3343.6229      38.32378      -3305.2991      32477.496      5694.8503    
   1453000   563.18661     -3346.0507      36.398792     -3309.652       30255.25       5694.8503    
   1454000   612.44011     -3344.8225      39.582048     -3305.2405      31952.791      5694.8503    
   1455000   627.37127     -3343.7138      40.54705      -3303.1667      33499.256      5694.8503    
   1456000   601.6385      -3343.9694      38.88394      -3305.0855      32147.293      5694.8503    
   1457000   613.25806     -3344.1829      39.634913     -3304.548       32842.514      5694.8503    
   1458000   617.25829     -3343.4119      39.893448     -3303.5185      32028.192      5694.8503    
   1459000   607.70857     -3343.2769      39.276249     -3304.0006      32318.478      5694.8503    
   1460000   608.51041     -3345.5541      39.328072     -3306.226       31897.541      5694.8503    
   1461000   601.13087     -3344.3976      38.851132     -3305.5464      32287.906      5694.8503    
   1462000   584.63832     -3343.2065      37.785217     -3305.4213      35311.008      5694.8503    
   1463000   609.29529     -3342.5137      39.378799     -3303.1349      29969.954      5694.8503    
   1464000   615.83818     -3343.2011      39.801666     -3303.3995      32526.144      5694.8503    
   1465000   586.81179     -3346.4587      37.925688     -3308.533       29235.561      5694.8503    
   1466000   638.32401     -3346.1793      41.254927     -3304.9244      31517.003      5694.8503    
   1467000   649.25088     -3345.4365      41.961132     -3303.4754      30626.22       5694.8503    
   1468000   617.3312      -3342.444       39.89816      -3302.5458      34031.615      5694.8503    
   1469000   575.91596     -3342.2435      37.22149      -3305.022       32667.337      5694.8503    
   1470000   606.04645     -3345.5918      39.168826     -3306.4229      29101.206      5694.8503    
   1471000   598.3924      -3343.3711      38.674144     -3304.6969      32083.474      5694.8503    
   1472000   615.88865     -3342.697       39.804928     -3302.8921      32935.823      5694.8503    
   1473000   645.2702      -3343.0066      41.70386      -3301.3027      33488.436      5694.8503    
   1474000   638.54928     -3342.5303      41.269486     -3301.2608      29635.117      5694.8503    
   1475000   608.04051     -3343.9042      39.297702     -3304.6065      28196.937      5694.8503    
   1476000   589.19224     -3342.2226      38.079537     -3304.1431      31915.142      5694.8503    
   1477000   624.2877      -3343.0041      40.347759     -3302.6563      29164.838      5694.8503    
   1478000   609.40578     -3346.2535      39.385939     -3306.8676      28860.422      5694.8503    
   1479000   614.28122     -3344.0259      39.70104      -3304.3249      29225.931      5694.8503    
   1480000   607.54942     -3343.1807      39.265963     -3303.9147      27371.612      5694.8503    
   1481000   588.45407     -3340.1038      38.031829     -3302.072       33899.759      5694.8503    
   1482000   601.13942     -3342.1055      38.851684     -3303.2538      29694.041      5694.8503    
   1483000   578.44344     -3345.9406      37.384841     -3308.5557      27086.832      5694.8503    
   1484000   616.22534     -3344.6029      39.826688     -3304.7762      29148.555      5694.8503    
   1485000   631.93777     -3344.7989      40.842184     -3303.9568      29215.815      5694.8503    
   1486000   631.21112     -3345.9189      40.79522      -3305.1236      27520.365      5694.8503    
   1487000   595.87613     -3345.5338      38.511517     -3307.0223      26720.137      5694.8503    
   1488000   602.45582     -3343.9125      38.936763     -3304.9757      31141.11       5694.8503    
   1489000   587.54752     -3341.9781      37.973239     -3304.0048      31687.162      5694.8503    
   1490000   609.84611     -3340.9875      39.414399     -3301.5731      31061.557      5694.8503    
   1491000   609.13257     -3344.3457      39.368282     -3304.9774      29525.356      5694.8503    
   1492000   582.33545     -3345.0747      37.636382     -3307.4383      28943.997      5694.8503    
   1493000   593.50947     -3343.4537      38.35856      -3305.0951      29354.117      5694.8503    
   1494000   613.28964     -3344.0551      39.636954     -3304.4181      29830.452      5694.8503    
   1495000   601.59949     -3344.1448      38.881418     -3305.2634      30408.176      5694.8503    
   1496000   607.94093     -3344.2087      39.291266     -3304.9174      28815.726      5694.8503    
   1497000   613.57547     -3342.8621      39.655427     -3303.2067      30187.219      5694.8503    
   1498000   614.17491     -3347.52        39.694169     -3307.8258      24831.418      5694.8503    
   1499000   596.62904     -3347.082       38.560178     -3308.5218      25203.078      5694.8503    
   1500000   629.05428     -3342.9075      40.655824     -3302.2516      29196.139      5694.8503    
   1501000   602.27155     -3342.6144      38.924854     -3303.6896      32667.231      5694.8503    
   1502000   606.97097     -3345.0328      39.228578     -3305.8042      30687.221      5694.8503    
   1503000   620.43104     -3340.9999      40.098503     -3300.9014      34471.198      5694.8503    
   1504000   593.41528     -3340.8796      38.352473     -3302.5271      30137.919      5694.8503    
   1505000   600.70543     -3343.5993      38.823636     -3304.7756      30059.739      5694.8503    
   1506000   582.83786     -3343.2176      37.668853     -3305.5488      29194.146      5694.8503    
   1507000   609.58427     -3343.3904      39.397475     -3303.9929      31492.825      5694.8503    
   1508000   624.26082     -3343.4684      40.346022     -3303.1224      31189.585      5694.8503    
   1509000   603.05167     -3345.0743      38.975273     -3306.0991      27637.958      5694.8503    
   1510000   595.21725     -3342.9451      38.468934     -3304.4762      29530.864      5694.8503    
   1511000   596.13354     -3339.9428      38.528154     -3301.4146      35733.923      5694.8503    
   1512000   646.74005     -3345.4894      41.798856     -3303.6905      28898.789      5694.8503    
   1513000   580.96348     -3343.0141      37.547712     -3305.4664      31386.439      5694.8503    
   1514000   599.86274     -3344.4256      38.769173     -3305.6564      27227.631      5694.8503    
   1515000   612.60072     -3342.7145      39.592429     -3303.1221      29287.243      5694.8503    
   1516000   647.35455     -3343.3604      41.838571     -3301.5218      31041.47       5694.8503    
   1517000   620.45867     -3344.3061      40.100289     -3304.2058      27836.411      5694.8503    
   1518000   581.70307     -3344.7368      37.595512     -3307.1413      28241.931      5694.8503    
   1519000   564.20597     -3343.2355      36.464673     -3306.7708      30251.559      5694.8503    
   1520000   626.45177     -3343.8105      40.487623     -3303.3229      30197.666      5694.8503    
   1521000   606.32863     -3344.9405      39.187063     -3305.7534      30258.784      5694.8503    
   1522000   570.79088     -3345.2836      36.890256     -3308.3933      26371.071      5694.8503    
   1523000   598.00974     -3343.05        38.649413     -3304.4006      28997.841      5694.8503    
   1524000   594.30715     -3341.7521      38.410114     -3303.342       33617.421      5694.8503    
   1525000   594.6257      -3339.7494      38.430702     -3301.3187      32864.266      5694.8503    
   1526000   642.58307     -3342.5645      41.53019      -3301.0343      29601.012      5694.8503    
   1527000   567.08683     -3342.8802      36.650863     -3306.2293      30997.702      5694.8503    
   1528000   590.35495     -3343.6689      38.154683     -3305.5143      29199.263      5694.8503    
   1529000   586.15105     -3344.7152      37.882985     -3306.8322      27798.614      5694.8503    
   1530000   577.95305     -3343.9408      37.353147     -3306.5877      30918.331      5694.8503    
   1531000   615.86351     -3342.8074      39.803303     -3303.0041      29863.847      5694.8503    
   1532000   588.0156      -3343.5675      38.003491     -3305.564       26871.059      5694.8503    
   1533000   588.13262     -3344.9231      38.011054     -3306.912       27480.767      5694.8503    
   1534000   569.75953     -3341.6777      36.8236       -3304.8541      29551.27       5694.8503    
   1535000   608.80245     -3342.0451      39.346947     -3302.6981      32963.879      5694.8503    
   1536000   604.8168      -3339.5858      39.089354     -3300.4964      32940.629      5694.8503    
   1537000   572.6279      -3342.4946      37.008983     -3305.4856      31671.523      5694.8503    
   1538000   599.38553     -3345.333       38.73833      -3306.5947      28714.495      5694.8503    
   1539000   615.19137     -3343.903       39.759863     -3304.1431      28706.477      5694.8503    
   1540000   599.02264     -3342.7483      38.714877     -3304.0335      30709.292      5694.8503    
   1541000   579.00841     -3343.3838      37.421356     -3305.9625      28947.947      5694.8503    
   1542000   573.08453     -3343.5982      37.038495     -3306.5597      27673.445      5694.8503    
   1543000   595.82624     -3343.7164      38.508293     -3305.2081      28428.99       5694.8503    
   1544000   583.36896     -3341.6333      37.703178     -3303.9301      30584.765      5694.8503    
   1545000   646.16928     -3342.5415      41.761967     -3300.7795      31558.227      5694.8503    
   1546000   627.13133     -3341.8554      40.531544     -3301.3239      30245.592      5694.8503    
   1547000   592.67137     -3344.0214      38.304393     -3305.717       32368.45       5694.8503    
   1548000   575.96167     -3341.9717      37.224445     -3304.7473      29508.957      5694.8503    
   1549000   604.14063     -3342.0257      39.045653     -3302.98        30571.902      5694.8503    
   1550000   625.82936     -3340.2098      40.447397     -3299.7624      35127.238      5694.8503    
   1551000   590.43159     -3343.3839      38.159637     -3305.2242      29100.912      5694.8503    
   1552000   590.57939     -3345.0927      38.169189     -3306.9235      31389.671      5694.8503    
   1553000   616.46903     -3342.9584      39.842438     -3303.116       31462.371      5694.8503    
   1554000   567.68579     -3341.9243      36.689574     -3305.2348      31709.611      5694.8503    
   1555000   569.02324     -3342.619       36.776013     -3305.843       31944.175      5694.8503    
   1556000   584.67526     -3341.3279      37.787605     -3303.5403      33011.666      5694.8503    
   1557000   588.92208     -3341.8564      38.062077     -3303.7943      31539.548      5694.8503    
   1558000   600.76824     -3344.9509      38.827695     -3306.1232      26899.307      5694.8503    
   1559000   609.11893     -3343.0988      39.367401     -3303.7314      28213.872      5694.8503    
   1560000   631.39473     -3342.2094      40.807087     -3301.4023      27700.276      5694.8503    
   1561000   608.41062     -3342.5641      39.321622     -3303.2425      31630.412      5694.8503    
   1562000   562.90937     -3340.5044      36.380874     -3304.1235      31256.418      5694.8503    
   1563000   607.326       -3344.3391      39.251523     -3305.0875      29068.676      5694.8503    
   1564000   556.99218     -3340.2543      35.998445     -3304.2558      30421.723      5694.8503    
   1565000   611.44908     -3342.4643      39.517999     -3302.9463      31322.475      5694.8503    
   1566000   633.68927     -3342.8928      40.955383     -3301.9374      31213.231      5694.8503    
   1567000   656.45642     -3342.6847      42.426826     -3300.2579      29661.496      5694.8503    
   1568000   593.07575     -3344.2003      38.330529     -3305.8697      28748.951      5694.8503    
   1569000   598.44124     -3344.7317      38.677301     -3306.0544      27350.317      5694.8503    
   1570000   609.19521     -3344.0705      39.37233      -3304.6982      27405.361      5694.8503    
   1571000   611.35605     -3343.6193      39.511986     -3304.1073      28644.535      5694.8503    
   1572000   610.6071      -3342.1544      39.463581     -3302.6908      30349.352      5694.8503    
   1573000   598.05963     -3343.3292      38.652637     -3304.6766      29659.389      5694.8503    
   1574000   596.76891     -3346.1648      38.569218     -3307.5956      28026.121      5694.8503    
   1575000   574.52365     -3343.837       37.131505     -3306.7055      29221.25       5694.8503    
   1576000   584.54074     -3343.3467      37.77891      -3305.5678      29403.202      5694.8503    
   1577000   603.50024     -3343.0189      39.004265     -3304.0147      31448.452      5694.8503    
   1578000   623.41454     -3342.9862      40.291327     -3302.6949      29824.113      5694.8503    
   1579000   595.4571      -3340.0253      38.484436     -3301.5409      32103.801      5694.8503    
   1580000   605.92796     -3340.1548      39.161168     -3300.9936      34036.431      5694.8503    
   1581000   613.35618     -3344.4887      39.641254     -3304.8475      29966.074      5694.8503    
   1582000   555.44684     -3342.1527      35.898569     -3306.2542      30714.749      5694.8503    
   1583000   597.98527     -3345.1972      38.647832     -3306.5494      28343.586      5694.8503    
   1584000   603.51168     -3344.0455      39.005004     -3305.0405      29759.945      5694.8503    
   1585000   605.38947     -3342.863       39.126365     -3303.7366      29552.535      5694.8503    
   1586000   582.09018     -3343.2826      37.620531     -3305.662       30552.506      5694.8503    
   1587000   597.5719      -3343.336       38.621115     -3304.7149      28925.669      5694.8503    
   1588000   588.3011      -3341.1195      38.021942     -3303.0976      30386.796      5694.8503    
   1589000   620.08877     -3341.1813      40.076382     -3301.1049      33328.935      5694.8503    
   1590000   638.60504     -3341.5832      41.27309      -3300.3101      28670.006      5694.8503    
   1591000   610.72136     -3345.1646      39.470966     -3305.6936      30150.263      5694.8503    
   1592000   582.29307     -3344.2049      37.633644     -3306.5713      30554.491      5694.8503    
   1593000   607.94619     -3344.207       39.291606     -3304.9154      31444.862      5694.8503    
   1594000   607.31502     -3341.0764      39.250814     -3301.8256      31637.202      5694.8503    
   1595000   623.95918     -3343.7454      40.326527     -3303.4188      29308.24       5694.8503    
   1596000   575.45245     -3342.7959      37.191533     -3305.6044      30360.477      5694.8503    
   1597000   589.29013     -3341.7963      38.085864     -3303.7104      30317.126      5694.8503    
   1598000   603.47823     -3343.4035      39.002842     -3304.4007      29991.271      5694.8503    
   1599000   626.91182     -3344.2734      40.517356     -3303.756       30191.973      5694.8503    
   1600000   559.7412      -3345.4136      36.176115     -3309.2375      30541.24       5694.8503    
   1601000   607.97853     -3343.3397      39.293696     -3304.046       31681.797      5694.8503    
   1602000   641.40752     -3344.4638      41.454214     -3303.0096      30328.882      5694.8503    
   1603000   613.59087     -3343.2482      39.656423     -3303.5917      31095.088      5694.8503    
   1604000   597.29993     -3341.7218      38.603538     -3303.1183      32148.878      5694.8503    
   1605000   541.18924     -3342.8848      34.9771       -3307.9077      28312.141      5694.8503    
   1606000   579.27007     -3344.2637      37.438267     -3306.8255      30150.217      5694.8503    
   1607000   593.63839     -3343.9731      38.366892     -3305.6063      31609.585      5694.8503    
   1608000   594.11711     -3342.03        38.397832     -3303.6321      32429.094      5694.8503    
   1609000   613.23754     -3344.5923      39.633586     -3304.9587      28189.882      5694.8503    
   1610000   607.56088     -3343.8974      39.266704     -3304.6307      28447.536      5694.8503    
   1611000   593.94611     -3345.728       38.38678      -3307.3413      28815.737      5694.8503    
   1612000   569.88922     -3341.9812      36.831982     -3305.1492      32313.026      5694.8503    
   1613000   619.46097     -3343.4592      40.035808     -3303.4234      30782.036      5694.8503    
   1614000   577.77612     -3341.4066      37.341713     -3304.0649      30106.4        5694.8503    
   1615000   605.88506     -3345.0153      39.158395     -3305.8569      30297.791      5694.8503    
   1616000   597.9662      -3344.7252      38.646599     -3306.0786      27771.985      5694.8503    
   1617000   663.91161     -3343.789       42.908656     -3300.8804      30485.25       5694.8503    
   1618000   600.98129     -3341.6264      38.841464     -3302.7849      30650.715      5694.8503    
   1619000   617.655       -3344.6067      39.919088     -3304.6876      27361.809      5694.8503    
   1620000   573.32353     -3342.2853      37.053941     -3305.2314      32228.963      5694.8503    
   1621000   628.72199     -3346.1806      40.634348     -3305.5462      26999.772      5694.8503    
   1622000   611.75348     -3339.373       39.537672     -3299.8353      34124.308      5694.8503    
   1623000   634.35943     -3342.8084      40.998696     -3301.8097      30974.633      5694.8503    
   1624000   579.33991     -3344.0048      37.442781     -3306.562       29321.663      5694.8503    
   1625000   576.53599     -3341.3275      37.261563     -3304.066       30593.934      5694.8503    
   1626000   580.2071      -3343.4249      37.498827     -3305.9261      28752.565      5694.8503    
   1627000   613.65312     -3343.4514      39.660446     -3303.7909      31325.239      5694.8503    
   1628000   615.20897     -3340.7768      39.761        -3301.0158      32087.225      5694.8503    
   1629000   604.43557     -3341.3914      39.064715     -3302.3267      33478.705      5694.8503    
   1630000   584.6092      -3341.8614      37.783335     -3304.0781      32687.84       5694.8503    
   1631000   574.73632     -3343.0008      37.14525      -3305.8556      30973.196      5694.8503    
   1632000   582.38375     -3345.1345      37.639504     -3307.495       28385.4        5694.8503    
   1633000   584.13914     -3344.4709      37.752955     -3306.7179      29995.259      5694.8503    
   1634000   614.49407     -3344.2498      39.714796     -3304.535       28482.105      5694.8503    
   1635000   599.95102     -3343.8486      38.774878     -3305.0737      31007.966      5694.8503    
   1636000   583.03505     -3344.2675      37.681598     -3306.5859      30585.248      5694.8503    
   1637000   616.55155     -3343.5755      39.847771     -3303.7277      31914.943      5694.8503    
   1638000   625.18726     -3342.2277      40.405898     -3301.8218      32434.82       5694.8503    
   1639000   620.82248     -3344.6888      40.123802     -3304.565       30409.241      5694.8503    
   1640000   581.11312     -3343.694       37.557383     -3306.1366      31262.72       5694.8503    
   1641000   556.8491      -3344.9289      35.989198     -3308.9397      28211.631      5694.8503    
   1642000   585.87172     -3343.015       37.864932     -3305.1501      31146.376      5694.8503    
   1643000   611.87738     -3343.5248      39.545679     -3303.9792      34167.763      5694.8503    
   1644000   640.10816     -3343.0747      41.370237     -3301.7045      30314.889      5694.8503    
   1645000   603.35165     -3342.6029      38.994661     -3303.6083      32926.349      5694.8503    
   1646000   599.86529     -3344.8343      38.769337     -3306.0649      27790.582      5694.8503    
   1647000   586.18031     -3342.1288      37.884876     -3304.2439      31652.255      5694.8503    
   1648000   600.70893     -3340.2868      38.823862     -3301.4629      35342.113      5694.8503    
   1649000   616.33455     -3342.7092      39.833747     -3302.8754      33432.706      5694.8503    
   1650000   602.85052     -3343.1057      38.962273     -3304.1434      30376.41       5694.8503    
   1651000   600.95317     -3344.7264      38.839647     -3305.8868      28090.401      5694.8503    
   1652000   583.46059     -3344.1822      37.7091       -3306.4731      29238.537      5694.8503    
   1653000   614.53858     -3343.189       39.717673     -3303.4713      32428.257      5694.8503    
   1654000   593.9863      -3342.8975      38.389377     -3304.5081      32671.483      5694.8503    
   1655000   613.59407     -3345.9975      39.656629     -3306.3409      28113.41       5694.8503    
   1656000   591.21664     -3343.2779      38.210374     -3305.0675      28221.518      5694.8503    
   1657000   605.12117     -3340.4331      39.109025     -3301.3241      31117.406      5694.8503    
   1658000   612.35116     -3341.808       39.5763       -3302.2317      37047.884      5694.8503    
   1659000   603.69085     -3344.6206      39.016583     -3305.6041      28562.507      5694.8503    
   1660000   598.82324     -3344.3055      38.701989     -3305.6035      31249.236      5694.8503    
   1661000   632.63278     -3342.0585      40.887102     -3301.1714      32918.793      5694.8503    
   1662000   606.65741     -3342.9382      39.208313     -3303.7298      31015.092      5694.8503    
   1663000   600.14191     -3345.6455      38.787215     -3306.8582      26127.684      5694.8503    
   1664000   628.73128     -3347.643       40.634948     -3307.0081      26960.082      5694.8503    
   1665000   617.16838     -3342.1203      39.887637     -3302.2327      32648.433      5694.8503    
   1666000   617.66298     -3340.7978      39.919603     -3300.8782      33159.642      5694.8503    
   1667000   581.10308     -3343.2576      37.556734     -3305.7009      31151.306      5694.8503    
   1668000   593.70278     -3343.8994      38.371054     -3305.5283      31559.048      5694.8503    
   1669000   595.30887     -3342.3799      38.474855     -3303.905       31598.471      5694.8503    
   1670000   564.40251     -3345.4366      36.477375     -3308.9592      27671.928      5694.8503    
   1671000   568.7887      -3345.0416      36.760855     -3308.2808      27046.011      5694.8503    
   1672000   589.83034     -3344.1432      38.120778     -3306.0224      30448.199      5694.8503    
   1673000   645.37667     -3345.7278      41.710741     -3304.0171      27919.439      5694.8503    
   1674000   624.20599     -3342.189       40.342478     -3301.8465      32405.72       5694.8503    
   1675000   621.9319      -3344.7293      40.195504     -3304.5338      28761.808      5694.8503    
   1676000   598.97286     -3343.9555      38.711659     -3305.2438      28265.429      5694.8503    
   1677000   576.36213     -3343.3266      37.250326     -3306.0763      28280.169      5694.8503    
   1678000   589.90072     -3343.5023      38.125326     -3305.377       30015.112      5694.8503    
   1679000   619.46426     -3341.6907      40.03602      -3301.6546      34439.403      5694.8503    
   1680000   614.3372      -3343.0971      39.704658     -3303.3925      31642.229      5694.8503    
   1681000   594.14441     -3343.7921      38.399596     -3305.3925      30298.805      5694.8503    
   1682000   606.573       -3345.9641      39.202857     -3306.7612      28625.553      5694.8503    
   1683000   607.4612      -3343.9599      39.260262     -3304.6996      29000.944      5694.8503    
   1684000   616.73075     -3343.8556      39.859353     -3303.9963      31273.313      5694.8503    
   1685000   592.00842     -3344.5989      38.261547     -3306.3374      28751.617      5694.8503    
   1686000   582.63672     -3343.0801      37.655854     -3305.4242      30404.62       5694.8503    
   1687000   597.54586     -3343.0967      38.619432     -3304.4773      30430.538      5694.8503    
   1688000   603.81261     -3343.2885      39.024453     -3304.264       29078.685      5694.8503    
   1689000   584.25932     -3343.6113      37.760723     -3305.8505      29695.757      5694.8503    
   1690000   568.11729     -3345.0638      36.717462     -3308.3464      30610.005      5694.8503    
   1691000   617.30895     -3345.6564      39.896722     -3305.7597      32850.106      5694.8503    
   1692000   617.73692     -3343.7898      39.924382     -3303.8654      27988.079      5694.8503    
   1693000   606.65373     -3344.8726      39.208074     -3305.6645      28592.121      5694.8503    
   1694000   586.82447     -3346.0451      37.926508     -3308.1186      26531.793      5694.8503    
   1695000   577.50023     -3345.3221      37.323882     -3307.9982      25660.471      5694.8503    
   1696000   580.49527     -3344.8622      37.517451     -3307.3448      27462.912      5694.8503    
   1697000   608.59122     -3343.8448      39.333295     -3304.5115      28038.857      5694.8503    
   1698000   614.85023     -3348.6215      39.737815     -3308.8837      27479.054      5694.8503    
   1699000   571.49198     -3344.0367      36.935568     -3307.1011      26904.998      5694.8503    
   1700000   578.94841     -3343.287       37.417478     -3305.8696      31147.324      5694.8503    
   1701000   593.78505     -3343.11        38.376371     -3304.7337      30265.333      5694.8503    
   1702000   573.14478     -3347.0014      37.042389     -3309.959       22026.003      5694.8503    
   1703000   596.60894     -3346.7465      38.558879     -3308.1876      28100.929      5694.8503    
   1704000   614.37068     -3344.707       39.706821     -3305.0002      27298.93       5694.8503    
   1705000   592.11293     -3343.2514      38.268302     -3304.9831      31141.576      5694.8503    
   1706000   573.95364     -3345.0759      37.094665     -3307.9812      27284.194      5694.8503    
   1707000   580.14394     -3345.973       37.494745     -3308.4783      27849.372      5694.8503    
   1708000   593.64569     -3344.4547      38.367364     -3306.0873      25990.429      5694.8503    
   1709000   612.59459     -3344.1423      39.592033     -3304.5503      27513.302      5694.8503    
   1710000   643.92097     -3343.7761      41.616659     -3302.1594      29429.181      5694.8503    
   1711000   605.14363     -3344.3731      39.110476     -3305.2626      28052.216      5694.8503    
   1712000   610.98164     -3345.2101      39.487788     -3305.7223      28313.651      5694.8503    
   1713000   603.35109     -3347.1122      38.994625     -3308.1176      22610.97       5694.8503    
   1714000   605.03971     -3343.2721      39.10376      -3304.1683      32186.384      5694.8503    
   1715000   607.10628     -3341.8267      39.237323     -3302.5894      31150.268      5694.8503    
   1716000   592.39923     -3346.0592      38.286805     -3307.7724      26491.304      5694.8503    
   1717000   574.85458     -3343.7671      37.152893     -3306.6142      31207.049      5694.8503    
   1718000   630.12919     -3343.2528      40.725295     -3302.5275      28354.958      5694.8503    
   1719000   591.85356     -3344.8085      38.251539     -3306.557       28031.856      5694.8503    
   1720000   583.67204     -3343.2631      37.722767     -3305.5403      29808.063      5694.8503    
   1721000   582.29475     -3341.7518      37.633752     -3304.118       31270.441      5694.8503    
   1722000   613.5707      -3344.0231      39.655119     -3304.3679      29270.176      5694.8503    
   1723000   545.57829     -3343.7785      35.260764     -3308.5178      31390.414      5694.8503    
   1724000   620.69456     -3344.2255      40.115535     -3304.11        28597.237      5694.8503    
   1725000   616.6698      -3342.9569      39.855414     -3303.1014      30698.512      5694.8503    
   1726000   564.78624     -3343.1563      36.502176     -3306.6542      31142.836      5694.8503    
   1727000   587.95949     -3346.6192      37.999864     -3308.6193      26648.588      5694.8503    
   1728000   596.32545     -3345.9913      38.540557     -3307.4507      27098.773      5694.8503    
   1729000   607.15408     -3343.7237      39.240412     -3304.4833      27937.363      5694.8503    
   1730000   637.67741     -3344.0268      41.213137     -3302.8136      30049.498      5694.8503    
   1731000   613.39019     -3345.7379      39.643452     -3306.0945      29235.892      5694.8503    
   1732000   596.21163     -3346.6662      38.533201     -3308.133       27445.797      5694.8503    
   1733000   600.94429     -3345.9533      38.839073     -3307.1142      30108.693      5694.8503    
   1734000   587.3247      -3343.2139      37.958838     -3305.2551      33087.454      5694.8503    
   1735000   623.3615      -3342.4653      40.287899     -3302.1774      29160.01       5694.8503    
   1736000   622.52144     -3344.1625      40.233606     -3303.9289      30058.346      5694.8503    
   1737000   583.87096     -3344.1558      37.735622     -3306.4202      25345.613      5694.8503    
   1738000   583.63268     -3346.4024      37.720222     -3308.6822      26695.981      5694.8503    
   1739000   631.89796     -3345.6861      40.839611     -3304.8464      28239.096      5694.8503    
   1740000   611.05909     -3345.4126      39.492794     -3305.9198      27053.827      5694.8503    
   1741000   608.64483     -3346.7817      39.336759     -3307.4449      28830.573      5694.8503    
   1742000   602.49696     -3344.5846      38.939422     -3305.6452      30638.623      5694.8503    
   1743000   614.97212     -3343.5395      39.745693     -3303.7938      29510.182      5694.8503    
   1744000   589.75967     -3343.7632      38.11621      -3305.647       28873.293      5694.8503    
   1745000   568.37845     -3347.2562      36.734341     -3310.5219      24484.351      5694.8503    
   1746000   614.15589     -3347.0539      39.69294      -3307.3609      25117.425      5694.8503    
   1747000   605.21105     -3345.1948      39.114834     -3306.0799      28458.395      5694.8503    
   1748000   596.3941      -3343.3272      38.544994     -3304.7823      28817.248      5694.8503    
   1749000   610.13081     -3342.0863      39.432799     -3302.6535      30277.146      5694.8503    
   1750000   584.69424     -3341.3494      37.788831     -3303.5606      32758.047      5694.8503    
   1751000   590.23459     -3343.8988      38.146904     -3305.7519      28660.029      5694.8503    
   1752000   601.77162     -3345.3854      38.892544     -3306.4929      28548.165      5694.8503    
   1753000   619.54109     -3345.097       40.040985     -3305.056       24101.884      5694.8503    
   1754000   587.52085     -3342.438       37.971515     -3304.4665      28023.106      5694.8503    
   1755000   603.86861     -3343.7425      39.028072     -3304.7145      31160.626      5694.8503    
   1756000   582.47097     -3343.3816      37.645141     -3305.7364      29211.917      5694.8503    
   1757000   616.98175     -3347.8821      39.875575     -3308.0065      27382.084      5694.8503    
   1758000   576.52857     -3346.68        37.261083     -3309.4189      28819.296      5694.8503    
   1759000   604.1935      -3346.0672      39.049069     -3307.0182      27704.945      5694.8503    
   1760000   558.94648     -3341.8154      36.124751     -3305.6907      29560.06       5694.8503    
   1761000   597.27952     -3345.3529      38.602219     -3306.7507      28329.516      5694.8503    
   1762000   594.58363     -3341.4578      38.427983     -3303.0298      30831.25       5694.8503    
   1763000   641.03636     -3345.0842      41.430227     -3303.6539      25454.672      5694.8503    
   1764000   589.05361     -3344.5935      38.070578     -3306.5229      29525.867      5694.8503    
   1765000   588.94642     -3343.89        38.06365      -3305.8264      30419.472      5694.8503    
   1766000   583.67205     -3345.6172      37.722767     -3307.8944      25632.158      5694.8503    
   1767000   588.94011     -3346.1384      38.063242     -3308.0752      27783.655      5694.8503    
   1768000   595.13967     -3343.6399      38.46392      -3305.176       29808.569      5694.8503    
   1769000   591.00691     -3348.373       38.196819     -3310.1762      26846.996      5694.8503    
   1770000   563.83094     -3343.8455      36.440434     -3307.4051      27765.389      5694.8503    
   1771000   603.08325     -3344.0767      38.977314     -3305.0994      27823.879      5694.8503    
   1772000   659.192       -3346.228       42.603626     -3303.6244      29946.386      5694.8503    
   1773000   618.21716     -3345.4911      39.95542      -3305.5357      27227.337      5694.8503    
   1774000   605.26003     -3346.2323      39.117999     -3307.1143      28422.703      5694.8503    
   1775000   608.06772     -3342.4522      39.299461     -3303.1528      28878.392      5694.8503    
   1776000   608.69878     -3344.2802      39.340246     -3304.94        29257.27       5694.8503    
   1777000   614.6293      -3347.001       39.723536     -3307.2775      25903.792      5694.8503    
   1778000   572.09113     -3345.4715      36.974291     -3308.4972      26638.664      5694.8503    
   1779000   594.95643     -3344.6958      38.452077     -3306.2437      28086.033      5694.8503    
   1780000   606.70657     -3342.8868      39.211489     -3303.6753      28428.169      5694.8503    
   1781000   580.99586     -3343.6414      37.549804     -3306.0916      31309.633      5694.8503    
   1782000   598.39736     -3345.877       38.674465     -3307.2026      25871.361      5694.8503    
   1783000   589.1813      -3345.9329      38.07883      -3307.8541      25697.988      5694.8503    
   1784000   579.39233     -3346.5243      37.446168     -3309.0781      26219.429      5694.8503    
   1785000   596.89296     -3344.4714      38.577236     -3305.8941      30369.632      5694.8503    
   1786000   653.43033     -3345.7497      42.23125      -3303.5184      29310.666      5694.8503    
   1787000   623.2192      -3346.7086      40.278702     -3306.4299      28950.36       5694.8503    
   1788000   593.62807     -3345.0595      38.366225     -3306.6933      27850.572      5694.8503    
   1789000   611.95553     -3342.709       39.55073      -3303.1583      27117.319      5694.8503    
   1790000   623.07431     -3344.0764      40.269338     -3303.807       29953.985      5694.8503    
   1791000   604.63811     -3343.1644      39.077805     -3304.0866      29912.865      5694.8503    
   1792000   582.62639     -3345.4295      37.655186     -3307.7743      26068.4        5694.8503    
   1793000   606.4475      -3344.5502      39.194746     -3305.3555      30078.458      5694.8503    
   1794000   638.26736     -3344.5784      41.251266     -3303.3272      30583.248      5694.8503    
   1795000   579.42372     -3345.9492      37.448197     -3308.501       27317.272      5694.8503    
   1796000   606.84105     -3346.8599      39.220181     -3307.6398      26528.37       5694.8503    
   1797000   610.27274     -3343.8406      39.441971     -3304.3986      30264.928      5694.8503    
   1798000   583.52967     -3342.3914      37.713565     -3304.6778      30567.582      5694.8503    
   1799000   582.47333     -3345.3634      37.645293     -3307.7181      25715.293      5694.8503    
   1800000   604.56274     -3345.1409      39.072934     -3306.068       26732.636      5694.8503    
   1801000   643.3229      -3343.7442      41.578006     -3302.1662      30022.861      5694.8503    
   1802000   614.3611      -3342.6374      39.706202     -3302.9312      31489.176      5694.8503    
   1803000   609.94513     -3342.7823      39.420798     -3303.3615      27195.607      5694.8503    
   1804000   589.64901     -3344.6661      38.109058     -3306.5571      26200.172      5694.8503    
   1805000   576.53105     -3344.7184      37.261244     -3307.4571      27399.321      5694.8503    
   1806000   642.93269     -3342.5382      41.552787     -3300.9854      31437.643      5694.8503    
   1807000   622.70023     -3343.5906      40.245161     -3303.3455      28368.684      5694.8503    
   1808000   559.21176     -3342.1832      36.141897     -3306.0413      30512.874      5694.8503    
   1809000   589.19762     -3345.0086      38.079885     -3306.9287      27397.605      5694.8503    
   1810000   580.90317     -3345.1014      37.543814     -3307.5576      28259.002      5694.8503    
   1811000   566.70131     -3342.7574      36.625947     -3306.1315      29020.013      5694.8503    
   1812000   592.21868     -3343.1261      38.275136     -3304.851       29483.921      5694.8503    
   1813000   554.27486     -3344.6089      35.822824     -3308.7861      27686.851      5694.8503    
   1814000   559.88462     -3345.4488      36.185384     -3309.2634      25910.63       5694.8503    
   1815000   586.69125     -3345.4685      37.917898     -3307.5506      27194.767      5694.8503    
   1816000   596.03478     -3344.4079      38.521771     -3305.8862      29581.219      5694.8503    
   1817000   565.51205     -3342.5206      36.549085     -3305.9715      28495.836      5694.8503    
   1818000   613.71708     -3345.3747      39.664579     -3305.7101      27125.962      5694.8503    
   1819000   541.64953     -3345.1808      35.006848     -3310.1739      28562.174      5694.8503    
   1820000   562.81451     -3344.4186      36.374742     -3308.0438      28933.852      5694.8503    
   1821000   593.19652     -3344.8647      38.338334     -3306.5264      27877.428      5694.8503    
   1822000   646.33875     -3344.9465      41.772921     -3303.1735      28992.067      5694.8503    
   1823000   624.16548     -3344.272       40.33986      -3303.9322      30608.381      5694.8503    
   1824000   587.03251     -3345.2482      37.939953     -3307.3082      29575.372      5694.8503    
   1825000   581.1006      -3343.4973      37.556574     -3305.9407      31601.855      5694.8503    
   1826000   644.14205     -3345.4507      41.630947     -3303.8197      29293.046      5694.8503    
   1827000   643.19573     -3343.5911      41.569787     -3302.0213      32394.838      5694.8503    
   1828000   638.02005     -3345.3135      41.235282     -3304.0782      28486.547      5694.8503    
   1829000   585.4996      -3344.649       37.840881     -3306.8081      29558.814      5694.8503    
   1830000   608.05992     -3343.9442      39.298957     -3304.6452      29697.704      5694.8503    
   1831000   628.95275     -3343.876       40.649262     -3303.2267      29119.073      5694.8503    
   1832000   617.09016     -3346.1214      39.882582     -3306.2388      29851.056      5694.8503    
   1833000   587.96557     -3345.1946      38.000257     -3307.1944      25598.676      5694.8503    
   1834000   580.04347     -3345.6689      37.488252     -3308.1807      27675.879      5694.8503    
   1835000   549.07078     -3344.1147      35.486484     -3308.6283      28861.695      5694.8503    
   1836000   621.89446     -3344.7737      40.193084     -3304.5807      28265.642      5694.8503    
   1837000   608.76493     -3345.2056      39.344521     -3305.8611      30898.752      5694.8503    
   1838000   586.95684     -3343.9742      37.935063     -3306.0391      30889.49       5694.8503    
   1839000   641.90489     -3343.683       41.486359     -3302.1967      30751.783      5694.8503    
   1840000   596.41455     -3345.0327      38.546315     -3306.4864      28635.984      5694.8503    
   1841000   606.43479     -3346.2663      39.193925     -3307.0724      25385.041      5694.8503    
   1842000   633.18341     -3342.9457      40.92269      -3302.023       30719.249      5694.8503    
   1843000   606.93715     -3341.5688      39.226392     -3302.3424      30306.639      5694.8503    
   1844000   591.89139     -3343.9838      38.253983     -3305.7298      29175.219      5694.8503    
   1845000   588.01757     -3344.9641      38.003618     -3306.9605      25922.287      5694.8503    
   1846000   635.11228     -3345.9098      41.047353     -3304.8625      28710.265      5694.8503    
   1847000   631.9703      -3341.9821      40.844286     -3301.1378      30223.23       5694.8503    
   1848000   611.64814     -3345.1422      39.530863     -3305.6113      30756.618      5694.8503    
   1849000   584.05677     -3345.1732      37.747631     -3307.4256      28550.339      5694.8503    
   1850000   546.6038      -3346.9131      35.327043     -3311.5861      28223.938      5694.8503    
   1851000   627.25343     -3344.125       40.539435     -3303.5856      29735.989      5694.8503    
   1852000   589.80599     -3344.1733      38.119204     -3306.0541      28154.069      5694.8503    
   1853000   599.11284     -3342.1652      38.720706     -3303.4445      33200.503      5694.8503    
   1854000   585.44059     -3343.8386      37.837068     -3306.0015      27923.908      5694.8503    
   1855000   598.76383     -3344.7811      38.69815      -3306.0829      28734.084      5694.8503    
   1856000   649.48828     -3344.9575      41.976475     -3302.9811      27824.21       5694.8503    
   1857000   615.55754     -3342.7075      39.783528     -3302.9239      30714.33       5694.8503    
   1858000   619.08089     -3345.4773      40.011243     -3305.4661      26977.462      5694.8503    
   1859000   645.46941     -3347.6512      41.716735     -3305.9345      24923.265      5694.8503    
   1860000   554.3947      -3344.2629      35.830569     -3308.4323      29635.341      5694.8503    
   1861000   564.04078     -3344.1651      36.453996     -3307.7111      27547.037      5694.8503    
   1862000   594.72231     -3343.2628      38.436946     -3304.8258      31049.228      5694.8503    
   1863000   622.12242     -3343.6961      40.207817     -3303.4883      29379.654      5694.8503    
   1864000   602.14929     -3345.177       38.916952     -3306.2601      27755.391      5694.8503    
   1865000   603.06398     -3344.0838      38.976069     -3305.1077      29201.316      5694.8503    
   1866000   596.07753     -3342.1582      38.524534     -3303.6336      30017.868      5694.8503    
   1867000   596.59188     -3344.5567      38.557777     -3305.9989      29918.024      5694.8503    
   1868000   569.57977     -3344.5901      36.811982     -3307.7781      27051.945      5694.8503    
   1869000   618.62763     -3344.7337      39.981948     -3304.7518      28458.279      5694.8503    
   1870000   609.7288      -3341.5188      39.406817     -3302.112       31458.05       5694.8503    
   1871000   623.52407     -3344.0137      40.298406     -3303.7153      27105.094      5694.8503    
   1872000   594.0649      -3344.9507      38.394457     -3306.5563      24833.972      5694.8503    
   1873000   610.26897     -3347.1662      39.441728     -3307.7245      26033.733      5694.8503    
   1874000   597.91834     -3345.4381      38.643506     -3306.7946      27142.649      5694.8503    
   1875000   594.92603     -3343.9134      38.450112     -3305.4633      31156.224      5694.8503    
   1876000   587.1086      -3342.989       37.944872     -3305.0441      30950.933      5694.8503    
   1877000   610.48905     -3343.3327      39.455952     -3303.8768      29836.367      5694.8503    
   1878000   585.7447      -3345.4251      37.856723     -3307.5684      27993.593      5694.8503    
   1879000   584.15267     -3345.1611      37.753829     -3307.4073      28791.853      5694.8503    
   1880000   593.31159     -3345.4287      38.345771     -3307.0829      25223.875      5694.8503    
   1881000   568.30238     -3345.6559      36.729424     -3308.9264      29301.435      5694.8503    
   1882000   593.98586     -3345.4883      38.389349     -3307.099       26986.778      5694.8503    
   1883000   594.45959     -3343.8772      38.419967     -3305.4572      27882.497      5694.8503    
   1884000   631.97126     -3342.446       40.844348     -3301.6016      32155.439      5694.8503    
   1885000   577.82356     -3344.9025      37.344778     -3307.5577      26964.29       5694.8503    
   1886000   587.35021     -3344.5083      37.960487     -3306.5478      27652.123      5694.8503    
   1887000   632.92116     -3345.8709      40.90574      -3304.9651      27897.597      5694.8503    
   1888000   607.77812     -3344.2963      39.280744     -3305.0155      29553.413      5694.8503    
   1889000   586.24234     -3344.1148      37.888885     -3306.2259      30308.088      5694.8503    
   1890000   633.02115     -3344.5812      40.912203     -3303.669       31436.067      5694.8503    
   1891000   612.86965     -3343.0084      39.60981      -3303.3986      30804.644      5694.8503    
   1892000   617.15962     -3342.3316      39.887071     -3302.4445      30638.785      5694.8503    
   1893000   581.69183     -3344.5397      37.594785     -3306.9449      29499.034      5694.8503    
   1894000   594.40989     -3345.4508      38.416754     -3307.0341      25242.611      5694.8503    
   1895000   579.87352     -3343.9232      37.477268     -3306.4459      31084.286      5694.8503    
   1896000   634.95555     -3345.0477      41.037223     -3304.0105      27498.232      5694.8503    
   1897000   598.45917     -3343.8469      38.67846      -3305.1684      26039.352      5694.8503    
   1898000   597.39166     -3345.0761      38.609467     -3306.4667      27379.796      5694.8503    
   1899000   596.49292     -3346.5922      38.551381     -3308.0408      24601.886      5694.8503    
   1900000   553.3136      -3346.361       35.760698     -3310.6003      27265.756      5694.8503    
   1901000   575.26432     -3343.096       37.179375     -3305.9166      27898.641      5694.8503    
   1902000   608.84608     -3344.5796      39.349766     -3305.2298      28167.581      5694.8503    
   1903000   585.30447     -3345.1227      37.82827      -3307.2944      26452.273      5694.8503    
   1904000   583.55688     -3344.9873      37.715323     -3307.272       26832.014      5694.8503    
   1905000   585.90957     -3346.8716      37.867378     -3309.0042      23622.921      5694.8503    
   1906000   611.36369     -3343.9873      39.51248      -3304.4748      28011.738      5694.8503    
   1907000   585.98525     -3343.3762      37.872269     -3305.5039      28417.932      5694.8503    
   1908000   543.12597     -3344.0722      35.102271     -3308.9699      29202.807      5694.8503    
   1909000   581.88911     -3346.9454      37.607535     -3309.3379      24540.939      5694.8503    
   1910000   601.56817     -3344.5771      38.879395     -3305.6977      26848.539      5694.8503    
   1911000   608.88981     -3343.9806      39.352593     -3304.628       30918.922      5694.8503    
   1912000   572.19205     -3346.6237      36.980813     -3309.6428      29690.906      5694.8503    
   1913000   588.05287     -3346.7274      38.0059       -3308.7215      26204.891      5694.8503    
   1914000   615.42131     -3346.3747      39.774724     -3306.6         27336.998      5694.8503    
   1915000   586.89493     -3343.0003      37.931062     -3305.0692      29998.423      5694.8503    
   1916000   590.21093     -3346.7687      38.145375     -3308.6233      27606.539      5694.8503    
   1917000   571.3039      -3346.3731      36.923412     -3309.4497      27738.691      5694.8503    
   1918000   596.73197     -3345.0096      38.56683      -3306.4428      26277.473      5694.8503    
   1919000   607.01908     -3343.6072      39.231687     -3304.3755      30717.945      5694.8503    
   1920000   600.70912     -3341.6762      38.823874     -3302.8524      31660.986      5694.8503    
   1921000   584.93191     -3343.5867      37.804192     -3305.7825      30211.742      5694.8503    
   1922000   619.13079     -3345.9175      40.014468     -3305.9031      29034.214      5694.8503    
   1923000   568.19443     -3346.0286      36.722447     -3309.3062      29680.966      5694.8503    
   1924000   561.75179     -3343.6981      36.306059     -3307.392       28579.161      5694.8503    
   1925000   593.45179     -3343.6982      38.354832     -3305.3434      27402.462      5694.8503    
   1926000   612.37094     -3345.1884      39.577578     -3305.6108      28324.354      5694.8503    
   1927000   602.24562     -3345.2943      38.923178     -3306.3711      29068.197      5694.8503    
   1928000   558.62598     -3345.1753      36.104038     -3309.0712      29138.627      5694.8503    
   1929000   581.22448     -3344.646       37.56458      -3307.0815      29646.953      5694.8503    
   1930000   606.38408     -3343.0759      39.190647     -3303.8853      30398.239      5694.8503    
   1931000   602.69335     -3344.8872      38.952115     -3305.9351      26591.482      5694.8503    
   1932000   600.45354     -3346.9299      38.807356     -3308.1225      25319.477      5694.8503    
   1933000   612.00227     -3346.0775      39.553751     -3306.5237      26825.561      5694.8503    
   1934000   619.77553     -3343.9916      40.056138     -3303.9355      27941.731      5694.8503    
   1935000   600.06449     -3344.1972      38.782212     -3305.415       28529.91       5694.8503    
   1936000   575.69869     -3345.7285      37.207448     -3308.5211      28036.453      5694.8503    
   1937000   577.94736     -3346.0032      37.35278      -3308.6504      24681.874      5694.8503    
   1938000   601.36467     -3343.9193      38.866242     -3305.0531      30220.403      5694.8503    
   1939000   596.29682     -3342.885       38.538707     -3304.3463      31592.545      5694.8503    
   1940000   596.33517     -3343.503       38.541185     -3304.9618      31741.524      5694.8503    
   1941000   566.08301     -3343.5681      36.585986     -3306.9822      28993.083      5694.8503    
   1942000   633.40849     -3345.8283      40.937236     -3304.8911      27615.928      5694.8503    
   1943000   614.15365     -3345.1199      39.692795     -3305.4271      28729.129      5694.8503    
   1944000   548.94068     -3345.4467      35.478076     -3309.9686      28076.398      5694.8503    
   1945000   574.07688     -3345.5921      37.10263      -3308.4895      29926.659      5694.8503    
   1946000   586.92447     -3343.5464      37.932971     -3305.6134      28431.744      5694.8503    
   1947000   602.218       -3343.3491      38.921393     -3304.4277      31487.933      5694.8503    
   1948000   587.01852     -3344.8219      37.939049     -3306.8828      27504.783      5694.8503    
   1949000   597.4259      -3346.7887      38.611679     -3308.177       26419.847      5694.8503    
   1950000   567.73255     -3345.4238      36.692596     -3308.7312      27874.449      5694.8503    
   1951000   608.29893     -3343.8668      39.314404     -3304.5524      27996.499      5694.8503    
   1952000   612.97337     -3343.1762      39.616513     -3303.5597      28952.768      5694.8503    
   1953000   660.06772     -3344.4178      42.660225     -3301.7576      28900.353      5694.8503    
   1954000   596.28109     -3343.5742      38.53769      -3305.0365      31561.466      5694.8503    
   1955000   564.29739     -3343.0251      36.470581     -3306.5545      27092.824      5694.8503    
   1956000   579.44002     -3343.6082      37.449251     -3306.159       30485.456      5694.8503    
   1957000   630.0991      -3344.5112      40.723351     -3303.7879      29929.354      5694.8503    
   1958000   623.58859     -3342.9658      40.302576     -3302.6632      31117.705      5694.8503    
   1959000   572.83657     -3342.6564      37.022469     -3305.6339      31488.879      5694.8503    
   1960000   601.23784     -3344.805       38.858045     -3305.947       31529.275      5694.8503    
   1961000   556.71468     -3343.2612      35.98051      -3307.2807      30339.839      5694.8503    
   1962000   617.48497     -3343.6178      39.908098     -3303.7097      30393.135      5694.8503    
   1963000   631.28269     -3342.8736      40.799846     -3302.0737      30020.147      5694.8503    
   1964000   581.5212      -3342.8235      37.583757     -3305.2398      29960.333      5694.8503    
   1965000   594.50074     -3346.4004      38.422626     -3307.9777      27762.546      5694.8503    
   1966000   586.20503     -3345.6507      37.886474     -3307.7642      26785.429      5694.8503    
   1967000   599.68851     -3346.045       38.757912     -3307.2871      26678.55       5694.8503    
   1968000   615.27029     -3346.1146      39.764963     -3306.3496      25801.243      5694.8503    
   1969000   615.39585     -3342.9693      39.773079     -3303.1962      29960.037      5694.8503    
   1970000   653.01692     -3343.7957      42.204531     -3301.5912      29160.357      5694.8503    
   1971000   591.88723     -3343.3979      38.253714     -3305.1442      31406.981      5694.8503    
   1972000   592.51709     -3344.9152      38.294423     -3306.6208      29795.846      5694.8503    
   1973000   600.03418     -3344.7051      38.780252     -3305.9248      28468.748      5694.8503    
   1974000   640.98002     -3343.4354      41.426585     -3302.0088      28907.832      5694.8503    
   1975000   657.1604      -3344.4526      42.472324     -3301.9803      27795.697      5694.8503    
   1976000   567.16004     -3342.7789      36.655594     -3306.1233      29317.797      5694.8503    
   1977000   601.46212     -3345.8311      38.872541     -3306.9585      28470.445      5694.8503    
   1978000   633.21211     -3340.3287      40.924545     -3299.4042      33935.864      5694.8503    
   1979000   576.38507     -3343.2149      37.251809     -3305.963       30321.686      5694.8503    
   1980000   603.18671     -3345.7366      38.984001     -3306.7526      28362.557      5694.8503    
   1981000   554.59657     -3346.7264      35.843617     -3310.8828      25432.838      5694.8503    
   1982000   619.87558     -3344.9543      40.062604     -3304.8917      29094.334      5694.8503    
   1983000   617.3293      -3343.4634      39.898037     -3303.5653      30377.428      5694.8503    
   1984000   590.4117      -3340.1541      38.158351     -3301.9958      34672.496      5694.8503    
   1985000   616.06533     -3345.0954      39.816347     -3305.2791      28000.554      5694.8503    
   1986000   591.4512      -3345.1835      38.225534     -3306.9579      27436.445      5694.8503    
   1987000   619.67708     -3344.6653      40.049775     -3304.6156      26965.352      5694.8503    
   1988000   601.1708      -3341.5589      38.853712     -3302.7052      32320.182      5694.8503    
   1989000   619.07587     -3344.9554      40.010918     -3304.9445      29504.145      5694.8503    
   1990000   599.42579     -3345.0316      38.740932     -3306.2906      27357.705      5694.8503    
   1991000   603.865       -3343.3862      39.027839     -3304.3583      29352.087      5694.8503    
   1992000   568.16158     -3342.3804      36.720324     -3305.66        31034.179      5694.8503    
   1993000   588.98581     -3345.8349      38.066196     -3307.7687      28097.739      5694.8503    
   1994000   559.99153     -3345.9982      36.192293     -3309.806       30810.301      5694.8503    
   1995000   627.78502     -3343.9634      40.573791     -3303.3896      31350.334      5694.8503    
   1996000   635.95866     -3343.8036      41.102054     -3302.7016      31019.994      5694.8503    
   1997000   609.13381     -3343.5925      39.368362     -3304.2241      31762.324      5694.8503    
   1998000   596.2859      -3344.3135      38.538001     -3305.7755      31036.671      5694.8503    
   1999000   593.98685     -3346.6784      38.389413     -3308.289       25937.036      5694.8503    
   2000000   596.01149     -3343.8378      38.520266     -3305.3175      29535.254      5694.8503    
Loop time of 47040.5 on 1 procs for 1500000 steps with 501 atoms

Performance: 1.378 ns/day, 17.422 hours/ns, 31.887 timesteps/s, 15.976 katom-step/s
99.1% CPU use with 1 MPI tasks x 1 OpenMP threads

MPI task timing breakdown:
Section |  min time  |  avg time  |  max time  |%varavg| %total
---------------------------------------------------------------
Pair    | 45458      | 45458      | 45458      |   0.0 | 96.63
Neigh   | 2.4108     | 2.4108     | 2.4108     |   0.0 |  0.01
Comm    | 57.336     | 57.336     | 57.336     |   0.0 |  0.12
Output  | 3.8355     | 3.8355     | 3.8355     |   0.0 |  0.01
Modify  | 1460.2     | 1460.2     | 1460.2     |   0.0 |  3.10
Other   |            | 59.11      |            |       |  0.13

Nlocal:            501 ave         501 max         501 min
Histogram: 1 0 0 0 0 0 0 0 0 0
Nghost:           2121 ave        2121 max        2121 min
Histogram: 1 0 0 0 0 0 0 0 0 0
Neighs:              0 ave           0 max           0 min
Histogram: 1 0 0 0 0 0 0 0 0 0
FullNghs:        66126 ave       66126 max       66126 min
Histogram: 1 0 0 0 0 0 0 0 0 0

Total # of neighbors = 66126
Ave neighs/atom = 131.98802
Neighbor list builds = 3818
Dangerous builds = 0
EQUIL_RESULTS_START
  T_K          : 600
  pe_final_eV  : -3343.83777283314
  temp_final_K : 596.011488631855
  press_final  : 29535.2542806024
EQUIL_RESULTS_END
System init for write_restart ...
System init for write_data ...
Total wall time: 17:25:12
/home/akinyemi.az/miniforge3/envs/mace-lammps/lib/python3.11/tempfile.py:934: ResourceWarning: Implicitly cleaning up <TemporaryDirectory '/tmp/tmpcp1463cn'>
  _warnings.warn(warn_message, ResourceWarning)
T=600K End: Sat Apr 25 07:46:16 PM EDT 2026
