T=800K Start: Sat Apr 25 02:27:28 AM EDT 2026
LAMMPS (11 Feb 2026 - Development - patch_11Feb2026-99-gb75dfcc930-modified)
KOKKOS mode with Kokkos version 5.0.2 is enabled
  using double precision
  using view layout = legacy
  will use up to 1 GPU(s) per node
  using 1 OpenMP thread(s) per MPI task
Reading data file ...
  orthogonal box = (0 0 0) to (17.857779 17.857779 17.857779)
  1 by 1 by 1 MPI processor grid
  reading atoms ...
  501 atoms
  read_data CPU = 0.007 seconds
/home/akinyemi.az/miniforge3/envs/mace-lammps/lib/python3.11/site-packages/e3nn/o3/_wigner.py:10: FutureWarning: You are using `torch.load` with `weights_only=False` (the current default value), which uses the default pickle module implicitly. It is possible to construct malicious pickle data which will execute arbitrary code during unpickling (See https://github.com/pytorch/pytorch/blob/main/SECURITY.md#untrusted-models for more details). In a future release, the default value for `weights_only` will be flipped to `True`. This limits the functions that could be executed during unpickling. Arbitrary objects will no longer be allowed to be loaded via this mode unless they are explicitly allowlisted by the user via `torch.serialization.add_safe_globals`. We recommend you start setting `weights_only=True` for any use case where you don't have full control of the loaded file. Please open an issue on GitHub for any issues related to this experimental feature.
  _Jd, _W3j_flat, _W3j_indices = torch.load(os.path.join(os.path.dirname(__file__), 'constants.pt'))
1 atoms in group H_atom
500 atoms in group metal
### Phase 1: Equilibration 250 ps at 800 K ###

CITE-CITE-CITE-CITE-CITE-CITE-CITE-CITE-CITE-CITE-CITE-CITE-CITE

Your simulation uses code contributions which should be cited:
- KOKKOS package: https://doi.org/10.1145/3731599.3767498
The log file lists these citations in BibTeX format.

CITE-CITE-CITE-CITE-CITE-CITE-CITE-CITE-CITE-CITE-CITE-CITE-CITE

Neighbor list info ...
  update: every = 1 steps, delay = 0 steps, check = yes
  max neighbors/atom: 2000, page size: 100000
  master list distance cutoff = 7
  ghost atom cutoff = 7
  binsize = 7, bins = 3 3 3
  1 neighbor lists, perpetual/occasional/extra = 1 0 0
  (1) pair mliap/kk, perpetual
      attributes: full, newton on, kokkos_device
      pair build: full/bin/kk/device
      stencil: full/bin/3d
      bin: kk/device
Setting up Verlet run ...
  Unit style    : metal
  Current step  : 0
  Time step     : 0.0005
Per MPI rank memory allocation (min/avg/max) = 80.93 | 80.93 | 80.93 Mbytes
   Step          Temp          PotEng         KinEng         TotEng         Press          Volume    
         0   800           -3371.6067      51.704058     -3319.9026      10544.591      5694.8503    
      1000   813.83042     -3324.1217      52.597919     -3271.5238      51797.049      5694.8503    
      2000   735.2397      -3320.2364      47.518595     -3272.7178      50575.054      5694.8503    
      3000   813.22774     -3321.7868      52.558968     -3269.2278      49621.691      5694.8503    
      4000   819.85066     -3319.8891      52.987008     -3266.9021      53077.497      5694.8503    
      5000   799.51168     -3321.263       51.672498     -3269.5905      51678.853      5694.8503    
      6000   778.49113     -3322.4928      50.313938     -3272.1788      46637.215      5694.8503    
      7000   804.85646     -3321.0346      52.017931     -3269.0166      51471.253      5694.8503    
      8000   796.25656     -3323.075       51.462119     -3271.6129      50611.316      5694.8503    
      9000   797.09831     -3321.5544      51.516522     -3270.0379      55529.071      5694.8503    
     10000   855.3899      -3319.1622      55.283912     -3263.8783      56787.393      5694.8503    
     11000   814.67364     -3318.7027      52.652416     -3266.0503      54706.538      5694.8503    
     12000   817.46087     -3321.7646      52.832555     -3268.9321      50131.576      5694.8503    
     13000   772.9795      -3322.4643      49.957721     -3272.5066      47405.256      5694.8503    
     14000   763.00237     -3320.4851      49.312898     -3271.1722      48732.595      5694.8503    
     15000   839.18232     -3323.0383      54.236414     -3268.8019      47655.42       5694.8503    
     16000   810.26953     -3319.1365      52.367778     -3266.7687      49816.235      5694.8503    
     17000   803.57103     -3322.6425      51.934854     -3270.7076      46784.037      5694.8503    
     18000   764.56101     -3321.6221      49.413634     -3272.2085      48690.426      5694.8503    
     19000   750.70116     -3321.2702      48.517871     -3272.7524      48689.254      5694.8503    
     20000   825.15192     -3321.3253      53.329628     -3267.9957      49879.067      5694.8503    
     21000   796.87583     -3320.1197      51.502143     -3268.6176      49021.969      5694.8503    
     22000   778.82407     -3319.4091      50.335456     -3269.0737      50912.449      5694.8503    
     23000   769.63514     -3326.0796      49.741575     -3276.338       48817.703      5694.8503    
     24000   776.65236     -3320.0259      50.195098     -3269.8308      49769.419      5694.8503    
     25000   791.98571     -3324.2006      51.186094     -3273.0145      47803.623      5694.8503    
     26000   772.70785     -3324.8791      49.940164     -3274.939       50445.433      5694.8503    
     27000   776.45912     -3322.8795      50.182609     -3272.6969      46293.807      5694.8503    
     28000   785.4189      -3319.4989      50.76168      -3268.7372      51091.084      5694.8503    
     29000   768.19142     -3322.5052      49.648267     -3272.8569      47911.778      5694.8503    
     30000   765.63365     -3323.6981      49.482958     -3274.2152      46045.746      5694.8503    
     31000   809.74526     -3322.7793      52.333895     -3270.4454      50973.273      5694.8503    
     32000   783.90206     -3319.5702      50.663647     -3268.9066      50704.658      5694.8503    
     33000   797.13683     -3323.1031      51.519011     -3271.5841      47388.438      5694.8503    
     34000   783.29255     -3323.1131      50.624254     -3272.4888      49771.328      5694.8503    
     35000   756.30199     -3319.8827      48.879852     -3271.0028      52592.383      5694.8503    
     36000   794.8861      -3323.3253      51.373547     -3271.9517      50744.18       5694.8503    
     37000   783.23536     -3323.7562      50.620558     -3273.1356      49919.008      5694.8503    
     38000   829.67316     -3322.581       53.621837     -3268.9592      53318.975      5694.8503    
     39000   809.05918     -3321.8538      52.289553     -3269.5642      54871.137      5694.8503    
     40000   805.76896     -3321.6067      52.076906     -3269.5298      52582.188      5694.8503    
     41000   818.25594     -3324.7806      52.883941     -3271.8967      50145.582      5694.8503    
     42000   789.96874     -3322.1309      51.055737     -3271.0752      51938.783      5694.8503    
     43000   852.06178     -3323.0529      55.068815     -3267.9841      49845.121      5694.8503    
     44000   775.46265     -3321.7641      50.118207     -3271.6459      51508.175      5694.8503    
     45000   780.10764     -3322.3566      50.418413     -3271.9382      46732.249      5694.8503    
     46000   840.03809     -3323.4203      54.291722     -3269.1285      52384.662      5694.8503    
     47000   785.46687     -3321.9546      50.764781     -3271.1899      47628.157      5694.8503    
     48000   793.19364     -3326.1072      51.264163     -3274.843       47774.215      5694.8503    
     49000   810.63172     -3320.3232      52.391187     -3267.932       54889.141      5694.8503    
     50000   780.23613     -3318.0516      50.426718     -3267.6249      50372.038      5694.8503    
     51000   799.16972     -3322.4686      51.650397     -3270.8182      48582.491      5694.8503    
     52000   793.44404     -3323.4111      51.280346     -3272.1307      47526.653      5694.8503    
     53000   813.87632     -3324.0522      52.600886     -3271.4513      53872.492      5694.8503    
     54000   843.48941     -3323.8679      54.514781     -3269.3531      51259.759      5694.8503    
     55000   772.91024     -3321.1541      49.953245     -3271.2009      51207.81       5694.8503    
     56000   785.2022      -3324.5126      50.747675     -3273.765       49131.349      5694.8503    
     57000   822.92841     -3325.9457      53.185923     -3272.7598      46550.664      5694.8503    
     58000   865.41825     -3324.5569      55.932044     -3268.6249      47731.9        5694.8503    
     59000   844.71763     -3325.7592      54.594162     -3271.165       50876.001      5694.8503    
     60000   814.15853     -3323.4         52.619125     -3270.7809      47672.232      5694.8503    
     61000   742.62934     -3328.5682      47.996188     -3280.572       43101.717      5694.8503    
     62000   766.48775     -3325.085       49.538159     -3275.5468      48370.999      5694.8503    
     63000   795.49738     -3323.6242      51.413054     -3272.2112      47427.716      5694.8503    
     64000   802.60584     -3325.8267      51.872474     -3273.9542      46720.559      5694.8503    
     65000   780.07785     -3326.8267      50.416488     -3276.4102      46916.96       5694.8503    
     66000   801.80363     -3324.0735      51.820627     -3272.2529      46599.299      5694.8503    
     67000   814.81884     -3323.4188      52.661801     -3270.757       50738.367      5694.8503    
     68000   784.80877     -3325.5188      50.722248     -3274.7966      44594.475      5694.8503    
     69000   754.05025     -3326.5412      48.734322     -3277.8069      45135.029      5694.8503    
     70000   806.04636     -3327.0842      52.094835     -3274.9893      46935.562      5694.8503    
     71000   842.48901     -3327.9879      54.450126     -3273.5378      45310.249      5694.8503    
     72000   844.70481     -3320.8067      54.593333     -3266.2133      51334.584      5694.8503    
     73000   790.1344      -3328.2313      51.066444     -3277.1648      43315.346      5694.8503    
     74000   776.47814     -3327.3234      50.183838     -3277.1395      44532.151      5694.8503    
     75000   778.33613     -3325.7526      50.303921     -3275.4487      48129.859      5694.8503    
     76000   776.5912      -3323.8889      50.191146     -3273.6977      49154.963      5694.8503    
     77000   823.79994     -3321.7455      53.24225      -3268.5033      50007.541      5694.8503    
     78000   864.05694     -3325.922       55.844063     -3270.078       49234.36       5694.8503    
     79000   790.17831     -3324.3736      51.069282     -3273.3043      50227.887      5694.8503    
     80000   785.18796     -3326.8605      50.746755     -3276.1137      44424.303      5694.8503    
     81000   750.12731     -3324.7158      48.480783     -3276.2351      46717.349      5694.8503    
     82000   819.25595     -3325.4606      52.948571     -3272.512       48707.484      5694.8503    
     83000   834.41599     -3323.1888      53.928366     -3269.2604      49080.493      5694.8503    
     84000   820.32558     -3323.825       53.017702     -3270.8073      49093.521      5694.8503    
     85000   801.06588     -3325.6195      51.772946     -3273.8466      45846.467      5694.8503    
     86000   841.07154     -3323.3958      54.358514     -3269.0373      48208.08       5694.8503    
     87000   852.75043     -3322.885       55.113322     -3267.7717      47825.262      5694.8503    
     88000   830.35115     -3325.9175      53.665655     -3272.2518      46247.774      5694.8503    
     89000   777.8891      -3326.3219      50.275029     -3276.0469      46355.057      5694.8503    
     90000   810.31568     -3326.6749      52.370761     -3274.3041      44229.934      5694.8503    
     91000   849.37468     -3321.5612      54.895147     -3266.666       50003.464      5694.8503    
     92000   790.69644     -3327.3079      51.102768     -3276.2051      46241.773      5694.8503    
     93000   758.77939     -3326.3118      49.039967     -3277.2719      42492.637      5694.8503    
     94000   905.69044     -3324.6543      58.534839     -3266.1195      50034.87       5694.8503    
     95000   785.4221      -3321.6338      50.761887     -3270.8719      50570.744      5694.8503    
     96000   783.71387     -3323.5714      50.651484     -3272.9199      46617.868      5694.8503    
     97000   767.15338     -3323.8681      49.581178     -3274.2869      42860.482      5694.8503    
     98000   781.38691     -3323.9254      50.501093     -3273.4243      43601.352      5694.8503    
     99000   831.32492     -3323.3072      53.72859      -3269.5786      47171.529      5694.8503    
    100000   828.26651     -3323.0063      53.530925     -3269.4754      47348.296      5694.8503    
    101000   783.55153     -3325.8062      50.640992     -3275.1652      43667.509      5694.8503    
    102000   776.66707     -3327.0213      50.196049     -3276.8252      44792.698      5694.8503    
    103000   836.6918      -3323.7294      54.075452     -3269.6539      45440.458      5694.8503    
    104000   863.99102     -3324.7276      55.839802     -3268.8878      47895.886      5694.8503    
    105000   778.30277     -3323.9907      50.301764     -3273.689       45976.374      5694.8503    
    106000   792.6794      -3325.8751      51.230927     -3274.6442      44909.951      5694.8503    
    107000   772.8268      -3328.0405      49.947852     -3278.0926      42723.856      5694.8503    
    108000   795.43831     -3327.524       51.409236     -3276.1148      45133.342      5694.8503    
    109000   774.93354     -3323.115       50.084011     -3273.031       47990.737      5694.8503    
    110000   785.62953     -3326.011       50.775294     -3275.2357      45605.311      5694.8503    
    111000   857.26903     -3325.8729      55.40536      -3270.4675      47501.44       5694.8503    
    112000   852.81539     -3323.5067      55.117521     -3268.3892      45567.557      5694.8503    
    113000   803.6567      -3326.5377      51.940391     -3274.5973      45880.314      5694.8503    
    114000   788.97191     -3326.2283      50.991311     -3275.237       44229.307      5694.8503    
    115000   811.75455     -3327.1219      52.463755     -3274.6581      45418.928      5694.8503    
    116000   834.15671     -3327.8704      53.911609     -3273.9588      47584.953      5694.8503    
    117000   834.65872     -3325.4417      53.944054     -3271.4976      42394.931      5694.8503    
    118000   802.02755     -3324.6471      51.835099     -3272.812       44398.13       5694.8503    
    119000   774.01035     -3325.4462      50.024345     -3275.4219      44656.616      5694.8503    
    120000   776.16325     -3329.1927      50.163487     -3279.0292      41992.52       5694.8503    
    121000   796.147       -3327.6758      51.455038     -3276.2208      40962.093      5694.8503    
    122000   803.94155     -3325.4753      51.958801     -3273.5165      45111.227      5694.8503    
    123000   761.15769     -3324.6299      49.193677     -3275.4362      43244.226      5694.8503    
    124000   766.28778     -3322.9613      49.525235     -3273.4361      48563.303      5694.8503    
    125000   824.76931     -3323.7301      53.3049       -3270.4252      46523.476      5694.8503    
    126000   817.30036     -3322.3775      52.822182     -3269.5553      49193.51       5694.8503    
    127000   786.64482     -3326.9004      50.840912     -3276.0595      41793.492      5694.8503    
    128000   783.27842     -3327.6038      50.623341     -3276.9804      44572.205      5694.8503    
    129000   823.11052     -3325.9659      53.197693     -3272.7683      48495.43       5694.8503    
    130000   840.93439     -3327.0957      54.349651     -3272.746       45666.055      5694.8503    
    131000   800.49427     -3325.3707      51.736003     -3273.6347      44307.588      5694.8503    
    132000   805.33792     -3327.2492      52.049048     -3275.2002      41622.711      5694.8503    
    133000   784.26142     -3328.2984      50.686872     -3277.6115      44918.768      5694.8503    
    134000   779.3327      -3328.1738      50.368329     -3277.8055      44622.976      5694.8503    
    135000   783.36174     -3326.1144      50.628726     -3275.4857      45549.899      5694.8503    
    136000   773.86893     -3323.3391      50.015205     -3273.3239      48095.899      5694.8503    
    137000   788.03366     -3323.9102      50.930672     -3272.9796      50146.561      5694.8503    
    138000   843.85526     -3324.3343      54.538426     -3269.7959      46654.026      5694.8503    
    139000   818.88898     -3327.6322      52.924854     -3274.7074      48996.722      5694.8503    
    140000   831.18756     -3328.6251      53.719712     -3274.9054      45636.944      5694.8503    
    141000   798.17301     -3324.5681      51.58598      -3272.9821      49808.322      5694.8503    
    142000   796.77455     -3328.2195      51.495597     -3276.7239      45474.759      5694.8503    
    143000   774.27724     -3327.8442      50.041594     -3277.8026      42965.934      5694.8503    
    144000   800.5101      -3327.4707      51.737026     -3275.7337      45222.314      5694.8503    
    145000   758.68397     -3325.8774      49.0338       -3276.8436      45816.878      5694.8503    
    146000   789.96261     -3323.8148      51.055341     -3272.7594      48340.087      5694.8503    
    147000   808.68321     -3330.8811      52.265254     -3278.6159      44085.266      5694.8503    
    148000   776.03456     -3327.7182      50.15517      -3277.563       42336.672      5694.8503    
    149000   794.32015     -3327.0628      51.336969     -3275.7258      44912.687      5694.8503    
    150000   830.8992      -3321.1075      53.701076     -3267.4064      51472.075      5694.8503    
    151000   763.76592     -3324.2134      49.362247     -3274.8511      46528.84       5694.8503    
    152000   810.1359      -3328.7195      52.359142     -3276.3604      44584.495      5694.8503    
    153000   789.65195     -3330.8697      51.035263     -3279.8344      42825.929      5694.8503    
    154000   793.5157      -3330.1236      51.284977     -3278.8387      43090.973      5694.8503    
    155000   789.82995     -3324.1088      51.046767     -3273.062       48931.147      5694.8503    
    156000   846.55582     -3326.0129      54.712964     -3271.2999      48292.317      5694.8503    
    157000   791.3405      -3328.3587      51.144394     -3277.2143      39320.73       5694.8503    
    158000   750.32553     -3325.975       48.493593     -3277.4814      45381.223      5694.8503    
    159000   760.07413     -3326.6717      49.123646     -3277.5481      46290.358      5694.8503    
    160000   768.51362     -3324.8035      49.669091     -3275.1344      44961.99       5694.8503    
    161000   801.90172     -3326.6229      51.826966     -3274.7959      45786.926      5694.8503    
    162000   827.22479     -3323.5359      53.463598     -3270.0723      46032.099      5694.8503    
    163000   814.31667     -3322.4547      52.629345     -3269.8253      46707.591      5694.8503    
    164000   735.77451     -3323.946       47.55316      -3276.3928      47633.051      5694.8503    
    165000   794.57126     -3329.9004      51.353198     -3278.5472      46013.695      5694.8503    
    166000   817.57403     -3328.9254      52.839869     -3276.0856      41231.177      5694.8503    
    167000   792.45955     -3325.276       51.216718     -3274.0593      47081.598      5694.8503    
    168000   774.37962     -3326.8494      50.048211     -3276.8012      44820.72       5694.8503    
    169000   777.77208     -3327.813       50.267466     -3277.5455      44387.451      5694.8503    
    170000   801.86182     -3324.8367      51.824387     -3273.0123      46541.543      5694.8503    
    171000   831.10181     -3328.0277      53.71417      -3274.3135      47070.122      5694.8503    
    172000   732.93918     -3327.4038      47.369913     -3280.0338      43905.432      5694.8503    
    173000   768.6262      -3327.3874      49.676367     -3277.711       44255.338      5694.8503    
    174000   850.89331     -3323.1119      54.993297     -3268.1186      47669.348      5694.8503    
    175000   757.18706     -3328.1878      48.937055     -3279.2507      45182.986      5694.8503    
    176000   785.67116     -3329.452       50.777984     -3278.674       43432.634      5694.8503    
    177000   824.97995     -3326.3941      53.318514     -3273.0756      49161.918      5694.8503    
    178000   769.54446     -3323.1301      49.735714     -3273.3944      47839.946      5694.8503    
    179000   835.12621     -3323.5842      53.974268     -3269.61        49644.219      5694.8503    
    180000   853.06674     -3328.4354      55.133765     -3273.3016      44847.933      5694.8503    
    181000   794.8304      -3326.4567      51.369947     -3275.0867      46560.293      5694.8503    
    182000   786.81062     -3328.2252      50.851627     -3277.3736      45423.707      5694.8503    
    183000   783.92457     -3329.1225      50.665102     -3278.4574      46526.119      5694.8503    
    184000   814.53418     -3329.8343      52.643403     -3277.1909      42377.371      5694.8503    
    185000   804.40874     -3323.5971      51.988995     -3271.6081      49226.641      5694.8503    
    186000   777.46521     -3322.6071      50.247633     -3272.3595      49266.363      5694.8503    
    187000   758.52815     -3324.5449      49.023729     -3275.5212      46254.909      5694.8503    
    188000   770.19287     -3326.7007      49.777621     -3276.9231      46689.529      5694.8503    
    189000   789.07668     -3326.217       50.998083     -3275.2189      47285.756      5694.8503    
    190000   824.39552     -3325.7352      53.280742     -3272.4545      47454.601      5694.8503    
    191000   803.96848     -3326.0521      51.960541     -3274.0916      49678.872      5694.8503    
    192000   861.44205     -3325.607       55.675062     -3269.9319      46584.054      5694.8503    
    193000   823.29152     -3325.0095      53.209391     -3271.8001      45068.107      5694.8503    
    194000   796.37038     -3326.8746      51.469476     -3275.4051      45332.183      5694.8503    
    195000   822.99205     -3323.497       53.190036     -3270.307       49378.382      5694.8503    
    196000   830.81422     -3325.6394      53.695583     -3271.9438      45702.796      5694.8503    
    197000   826.66129     -3326.6872      53.427179     -3273.2601      46661.711      5694.8503    
    198000   724.7898      -3329.6326      46.843217     -3282.7894      43485.485      5694.8503    
    199000   834.21363     -3326.9898      53.915288     -3273.0745      46228.277      5694.8503    
    200000   796.83303     -3325.4685      51.499376     -3273.9691      45524.807      5694.8503    
    201000   792.17508     -3325.5733      51.198333     -3274.3749      48856.87       5694.8503    
    202000   825.49376     -3330.5127      53.351722     -3277.161       43609.68       5694.8503    
    203000   764.9649      -3326.1204      49.439737     -3276.6807      45451.36       5694.8503    
    204000   813.2747      -3326.2558      52.562003     -3273.6938      45241.853      5694.8503    
    205000   830.51023     -3328.1983      53.675936     -3274.5224      44093.225      5694.8503    
    206000   802.9553      -3328.4057      51.89506      -3276.5107      42855.996      5694.8503    
    207000   764.34192     -3325.8435      49.399474     -3276.444       44628.772      5694.8503    
    208000   786.86801     -3325.9542      50.855336     -3275.0988      44762.84       5694.8503    
    209000   847.5379      -3324.0257      54.776436     -3269.2493      47862.002      5694.8503    
    210000   748.63097     -3326.0478      48.384074     -3277.6637      45829.892      5694.8503    
    211000   783.68082     -3327.3141      50.649348     -3276.6648      43716.223      5694.8503    
    212000   776.45085     -3324.5095      50.182075     -3274.3274      46769.12       5694.8503    
    213000   823.20813     -3324.8445      53.204001     -3271.6405      46034.469      5694.8503    
    214000   848.58495     -3329.4423      54.844107     -3274.5982      46711.975      5694.8503    
    215000   797.89273     -3327.688       51.567865     -3276.1202      48072.353      5694.8503    
    216000   861.6531      -3326.4783      55.688702     -3270.7896      47644.463      5694.8503    
    217000   765.90821     -3324.1923      49.500703     -3274.6915      44673.439      5694.8503    
    218000   776.68633     -3325.7935      50.197294     -3275.5962      48946.402      5694.8503    
    219000   808.0803      -3326.6358      52.226288     -3274.4095      46126.764      5694.8503    
    220000   830.3585      -3323.5891      53.66613      -3269.9229      49645.773      5694.8503    
    221000   849.75698     -3326.8625      54.919855     -3271.9426      44627.522      5694.8503    
    222000   827.26926     -3328.0245      53.466472     -3274.558       46156.359      5694.8503    
    223000   792.14975     -3325.5201      51.196696     -3274.3234      45072.944      5694.8503    
    224000   739.82046     -3327.3639      47.81465      -3279.5492      45229.093      5694.8503    
    225000   772.44883     -3328.2681      49.923424     -3278.3446      43903.934      5694.8503    
    226000   802.87386     -3326.6335      51.889795     -3274.7437      44388.638      5694.8503    
    227000   809.93134     -3325.5376      52.345921     -3273.1916      47917.979      5694.8503    
    228000   790.98876     -3325.7998      51.121661     -3274.6782      48341.182      5694.8503    
    229000   765.89662     -3322.1185      49.499954     -3272.6186      48347.818      5694.8503    
    230000   742.93714     -3323.3881      48.016081     -3275.372       45012.872      5694.8503    
    231000   784.15123     -3326.6021      50.679751     -3275.9223      45202.783      5694.8503    
    232000   803.55902     -3326.0008      51.934078     -3274.0667      47985.236      5694.8503    
    233000   800.87988     -3325.3173      51.760925     -3273.5564      46345.65       5694.8503    
    234000   824.20195     -3329.6313      53.268232     -3276.3631      42878.023      5694.8503    
    235000   771.27043     -3330.105       49.847264     -3280.2578      41721.513      5694.8503    
    236000   784.99852     -3326.9209      50.734511     -3276.1863      46097.981      5694.8503    
    237000   821.7448      -3325.8243      53.109426     -3272.7149      45302.105      5694.8503    
    238000   776.11477     -3324.9585      50.160354     -3274.7981      46214.078      5694.8503    
    239000   833.11443     -3330.798       53.844246     -3276.9537      42878.52       5694.8503    
    240000   844.0556      -3325.095       54.551375     -3270.5436      45234.226      5694.8503    
    241000   830.57207     -3325.5333      53.679933     -3271.8534      46574.766      5694.8503    
    242000   787.5219      -3325.7638      50.897597     -3274.8662      49695.385      5694.8503    
    243000   801.15806     -3328.0627      51.778903     -3276.2838      42675.871      5694.8503    
    244000   755.72397     -3328.7275      48.842495     -3279.885       45850.117      5694.8503    
    245000   832.63274     -3333.2835      53.813114     -3279.4704      41801.199      5694.8503    
    246000   796.40536     -3326.7689      51.471736     -3275.2972      42040.087      5694.8503    
    247000   817.76475     -3325.604       52.852195     -3272.7518      48708.084      5694.8503    
    248000   783.12024     -3329.2121      50.613118     -3278.599       42501.14       5694.8503    
    249000   745.73194     -3326.3635      48.196709     -3278.1668      42758.608      5694.8503    
    250000   831.91194     -3324.8782      53.766529     -3271.1117      46729.245      5694.8503    
    251000   786.87573     -3320.8587      50.855835     -3270.0029      49507.555      5694.8503    
    252000   780.21423     -3326.0695      50.425302     -3275.6442      46604.041      5694.8503    
    253000   810.41445     -3328.468       52.377145     -3276.0908      42253.199      5694.8503    
    254000   771.02581     -3326.0044      49.831454     -3276.1729      43242.511      5694.8503    
    255000   809.12789     -3323.6377      52.293994     -3271.3437      54214.345      5694.8503    
    256000   835.36004     -3325.1627      53.98938      -3271.1733      46430.813      5694.8503    
    257000   802.65182     -3328.3543      51.875445     -3276.4789      47909.591      5694.8503    
    258000   771.50777     -3324.5043      49.862603     -3274.6417      48274.563      5694.8503    
    259000   847.01319     -3325.8818      54.742524     -3271.1393      47726.431      5694.8503    
    260000   852.8001      -3326.0512      55.116532     -3270.9347      42951.212      5694.8503    
    261000   803.39004     -3326.4763      51.923156     -3274.5531      47737.983      5694.8503    
    262000   823.55405     -3327.0269      53.226358     -3273.8005      46868.143      5694.8503    
    263000   762.91958     -3327.3328      49.307548     -3278.0252      47720.524      5694.8503    
    264000   837.99428     -3329.3786      54.159631     -3275.2189      46771.363      5694.8503    
    265000   805.12711     -3327.6046      52.035424     -3275.5692      50206.961      5694.8503    
    266000   784.53809     -3330.2932      50.704754     -3279.5884      45296.876      5694.8503    
    267000   766.8756      -3327.8249      49.563226     -3278.2617      45124.901      5694.8503    
    268000   787.53685     -3325.522       50.898563     -3274.6234      50722.002      5694.8503    
    269000   803.88586     -3328.3958      51.955201     -3276.4406      45599.944      5694.8503    
    270000   779.64531     -3330.0128      50.388533     -3279.6242      42415.462      5694.8503    
    271000   837.72375     -3330.0867      54.142147     -3275.9446      44165.377      5694.8503    
    272000   771.70698     -3326.0392      49.875478     -3276.1637      47306.782      5694.8503    
    273000   815.85465     -3329.9367      52.728745     -3277.2079      43794.529      5694.8503    
    274000   784.7992      -3328.0884      50.721629     -3277.3667      47506.291      5694.8503    
    275000   813.3671      -3328.6701      52.567975     -3276.1021      46530.701      5694.8503    
    276000   789.31028     -3325.1078      51.01318      -3274.0947      50054.204      5694.8503    
    277000   746.67549     -3329.2569      48.257691     -3280.9992      44087.399      5694.8503    
    278000   754.40717     -3328.2188      48.75739      -3279.4614      43832.253      5694.8503    
    279000   809.95036     -3328.3592      52.347151     -3276.012       44164.48       5694.8503    
    280000   795.02208     -3327.3875      51.382335     -3276.0051      47113.388      5694.8503    
    281000   803.77678     -3326.3286      51.948151     -3274.3804      50875.593      5694.8503    
    282000   806.93653     -3331.2896      52.152367     -3279.1373      44293.999      5694.8503    
    283000   762.19517     -3328.4891      49.260729     -3279.2284      47089.989      5694.8503    
    284000   800.95259     -3327.8361      51.765624     -3276.0705      49391.381      5694.8503    
    285000   770.01611     -3326.3109      49.766197     -3276.5447      46534.368      5694.8503    
    286000   762.20742     -3330.197       49.261521     -3280.9355      47860.454      5694.8503    
    287000   784.30732     -3330.1924      50.689839     -3279.5026      44354.429      5694.8503    
    288000   758.08174     -3327.1024      48.994878     -3278.1075      45427.864      5694.8503    
    289000   785.40702     -3327.3251      50.760912     -3276.5641      49020.981      5694.8503    
    290000   835.42943     -3327.3151      53.993864     -3273.3212      49946.911      5694.8503    
    291000   834.04431     -3327.874       53.904344     -3273.9696      47393.486      5694.8503    
    292000   778.02751     -3328.7935      50.283975     -3278.5095      49887.137      5694.8503    
    293000   833.62082     -3329.5515      53.876974     -3275.6746      47291.137      5694.8503    
    294000   800.95314     -3325.4891      51.76566      -3273.7235      50315.079      5694.8503    
    295000   866.07226     -3329.4053      55.974313     -3273.4309      46267.336      5694.8503    
    296000   811.77769     -3329.4138      52.465251     -3276.9485      47177.764      5694.8503    
    297000   819.19073     -3329.7186      52.944356     -3276.7743      47408.074      5694.8503    
    298000   827.2722      -3326.4834      53.466662     -3273.0167      50795.235      5694.8503    
    299000   847.19125     -3327.7164      54.754032     -3272.9623      50280.651      5694.8503    
    300000   771.69447     -3327.6207      49.87467      -3277.746       45759.043      5694.8503    
    301000   806.82532     -3330.5908      52.145179     -3278.4457      47158.949      5694.8503    
    302000   758.36907     -3326.7366      49.013448     -3277.7231      49105.41       5694.8503    
    303000   798.64465     -3326.0963      51.616461     -3274.4799      49497.868      5694.8503    
    304000   828.42577     -3327.9148      53.541217     -3274.3736      50174.732      5694.8503    
    305000   786.26379     -3328.8406      50.816286     -3278.0243      49320.947      5694.8503    
    306000   788.65677     -3330.9092      50.970944     -3279.9383      47253.331      5694.8503    
    307000   810.26657     -3327.6399      52.367587     -3275.2723      50011.829      5694.8503    
    308000   798.5203      -3328.7398      51.608425     -3277.1313      48963.605      5694.8503    
    309000   812.66224     -3328.8743      52.522419     -3276.3519      49528.772      5694.8503    
    310000   844.571       -3326.1203      54.584685     -3271.5356      51680.403      5694.8503    
    311000   788.39295     -3327.6921      50.953894     -3276.7382      46147.368      5694.8503    
    312000   775.94563     -3329.6083      50.149423     -3279.4589      48423.746      5694.8503    
    313000   807.32116     -3329.62        52.177225     -3277.4427      47461.434      5694.8503    
    314000   735.63537     -3323.4859      47.544167     -3275.9417      53205.491      5694.8503    
    315000   812.25838     -3329.0161      52.496318     -3276.5198      47750.126      5694.8503    
    316000   792.1509      -3331.2029      51.19677      -3280.0061      46707.159      5694.8503    
    317000   788.66843     -3329.4916      50.971698     -3278.52        45765.319      5694.8503    
    318000   792.24069     -3330.1218      51.202573     -3278.9192      44938.434      5694.8503    
    319000   773.0478      -3330.6411      49.962135     -3280.6789      45369.816      5694.8503    
    320000   807.20603     -3329.229       52.169784     -3277.0592      48969.321      5694.8503    
    321000   834.35994     -3329.4476      53.924743     -3275.5228      45528.656      5694.8503    
    322000   811.82427     -3327.7614      52.468262     -3275.2931      51365.077      5694.8503    
    323000   779.33864     -3329.2603      50.368713     -3278.8916      47951.661      5694.8503    
    324000   862.38585     -3327.7474      55.73606      -3272.0114      53017.897      5694.8503    
    325000   821.95085     -3325.8992      53.122743     -3272.7765      51405.06       5694.8503    
    326000   792.46308     -3329.2164      51.216946     -3277.9994      48591.543      5694.8503    
    327000   783.21986     -3329.6434      50.619556     -3279.0239      46782.691      5694.8503    
    328000   825.87063     -3332.5719      53.376079     -3279.1958      42776.303      5694.8503    
    329000   856.15284     -3331.3015      55.33322      -3275.9683      47612.537      5694.8503    
    330000   852.65069     -3328.8177      55.106876     -3273.7108      48270.541      5694.8503    
    331000   812.29181     -3328.0296      52.498478     -3275.5311      48696.444      5694.8503    
    332000   796.3839      -3330.8547      51.470349     -3279.3844      47216.006      5694.8503    
    333000   806.77959     -3327.7561      52.142223     -3275.6139      47235.343      5694.8503    
    334000   819.55847     -3325.6049      52.968123     -3272.6368      51079.355      5694.8503    
    335000   817.91532     -3332.0434      52.861927     -3279.1815      47514.791      5694.8503    
    336000   803.20312     -3330.1684      51.911076     -3278.2573      46011.441      5694.8503    
    337000   798.02541     -3327.702       51.57644      -3276.1255      49606.275      5694.8503    
    338000   815.8288      -3328.2689      52.727074     -3275.5419      50411.583      5694.8503    
    339000   801.94066     -3328.906       51.829483     -3277.0765      45694.336      5694.8503    
    340000   819.87739     -3330.098       52.988735     -3277.1093      42792.808      5694.8503    
    341000   788.0201      -3329.2619      50.929796     -3278.3321      49384.003      5694.8503    
    342000   841.55464     -3325.9263      54.389737     -3271.5365      49486.834      5694.8503    
    343000   850.49685     -3330.3002      54.967673     -3275.3325      46281.444      5694.8503    
    344000   751.25074     -3326.6451      48.55339      -3278.0917      50297.264      5694.8503    
    345000   788.38429     -3331.0171      50.953334     -3280.0638      47910.462      5694.8503    
    346000   893.39059     -3329.0825      57.739899     -3271.3426      47347.427      5694.8503    
    347000   783.97039     -3325.6376      50.668063     -3274.9695      49730.914      5694.8503    
    348000   824.9932      -3332.245       53.31937      -3278.9256      47078.892      5694.8503    
    349000   773.93018     -3330.6365      50.019163     -3280.6173      47574.06       5694.8503    
    350000   795.06882     -3333.0336      51.385355     -3281.6482      42402.325      5694.8503    
    351000   800.61852     -3329.4745      51.744033     -3277.7305      45120.652      5694.8503    
    352000   796.67395     -3327.049       51.489095     -3275.5599      47500.215      5694.8503    
    353000   790.1964      -3329.3533      51.070451     -3278.2828      47074.417      5694.8503    
    354000   790.64684     -3328.8278      51.099563     -3277.7282      47784.304      5694.8503    
    355000   799.66898     -3326.2033      51.682664     -3274.5207      51011.585      5694.8503    
    356000   802.82271     -3329.3978      51.88649      -3277.5113      45153.711      5694.8503    
    357000   814.20614     -3331.2032      52.622202     -3278.581       46228.725      5694.8503    
    358000   845.12416     -3330.4167      54.620436     -3275.7963      45699.79       5694.8503    
    359000   844.18722     -3330.6691      54.559881     -3276.1093      47031.386      5694.8503    
    360000   820.13604     -3331.587       53.005452     -3278.5815      50067.281      5694.8503    
    361000   757.61091     -3330.4609      48.964448     -3281.4965      45036.37       5694.8503    
    362000   813.66559     -3330.4843      52.587266     -3277.897       41656.959      5694.8503    
    363000   813.29989     -3325.7524      52.563631     -3273.1888      50817.11       5694.8503    
    364000   831.15179     -3328.3733      53.717401     -3274.6559      48094.325      5694.8503    
    365000   781.4055      -3328.2703      50.502294     -3277.768       47264.903      5694.8503    
    366000   783.68438     -3328.5462      50.649578     -3277.8966      47227.179      5694.8503    
    367000   813.98388     -3326.9406      52.607837     -3274.3327      46121.612      5694.8503    
    368000   812.96843     -3329.0841      52.542208     -3276.5419      45417.014      5694.8503    
    369000   809.02665     -3331.0721      52.287451     -3278.7847      46474.439      5694.8503    
    370000   780.10976     -3330.2683      50.41855      -3279.8498      42582.715      5694.8503    
    371000   761.01595     -3325.6988      49.184516     -3276.5142      49624.212      5694.8503    
    372000   787.65709     -3326.3936      50.906335     -3275.4873      49149.769      5694.8503    
    373000   799.20246     -3329.4033      51.652513     -3277.7507      45717.425      5694.8503    
    374000   797.32304     -3329.0374      51.531046     -3277.5063      47276.254      5694.8503    
    375000   806.89594     -3327.6379      52.149743     -3275.4881      49025.777      5694.8503    
    376000   793.45007     -3328.5468      51.280736     -3277.266       47167.446      5694.8503    
    377000   754.69126     -3333.7801      48.775751     -3285.0044      41452.756      5694.8503    
    378000   771.92778     -3326.0343      49.889748     -3276.1445      48559.291      5694.8503    
    379000   818.98443     -3328.1104      52.931023     -3275.1794      48935.082      5694.8503    
    380000   744.71077     -3331.8123      48.130711     -3283.6816      45208.638      5694.8503    
    381000   803.70368     -3332.8007      51.943427     -3280.8572      47587.843      5694.8503    
    382000   813.15804     -3330.4561      52.554463     -3277.9017      47471.465      5694.8503    
    383000   791.68571     -3328.3992      51.166705     -3277.2325      47708.087      5694.8503    
    384000   815.45795     -3328.9402      52.703106     -3276.2371      49323.004      5694.8503    
    385000   747.75452     -3330.895       48.327429     -3282.5675      43613.605      5694.8503    
    386000   781.14953     -3330.5701      50.485751     -3280.0843      45304.36       5694.8503    
    387000   760.96486     -3328.6973      49.181214     -3279.5161      48261.263      5694.8503    
    388000   784.60145     -3330.2782      50.708849     -3279.5694      46493.003      5694.8503    
    389000   820.18488     -3329.997       53.008608     -3276.9884      44830.11       5694.8503    
    390000   775.83515     -3327.8447      50.142282     -3277.7024      48788.285      5694.8503    
    391000   777.56078     -3332.4239      50.25381      -3282.1701      43714.566      5694.8503    
    392000   810.95995     -3333.1555      52.4124       -3280.7431      42830.848      5694.8503    
    393000   820.237       -3328.9781      53.011977     -3275.9662      47506.544      5694.8503    
    394000   857.9968      -3331.8642      55.452395     -3276.4118      44730.319      5694.8503    
    395000   820.23963     -3327.9048      53.012147     -3274.8926      46295.871      5694.8503    
    396000   840.91348     -3327.7915      54.348299     -3273.4432      48717.287      5694.8503    
    397000   766.57404     -3329.2292      49.543736     -3279.6855      47272.63       5694.8503    
    398000   814.99003     -3333.175       52.672865     -3280.5021      40738.903      5694.8503    
    399000   774.21086     -3332.1826      50.037304     -3282.1453      43902.55       5694.8503    
    400000   824.75589     -3332.341       53.304033     -3279.037       42058.262      5694.8503    
    401000   803.63257     -3328.7503      51.938831     -3276.8115      46312.856      5694.8503    
    402000   786.99721     -3332.0367      50.863687     -3281.173       45841.228      5694.8503    
    403000   778.79122     -3330.8911      50.333333     -3280.5577      45561.201      5694.8503    
    404000   766.82413     -3325.1332      49.559899     -3275.5733      53758.786      5694.8503    
    405000   767.03984     -3327.2732      49.573841     -3277.6994      50519.374      5694.8503    
    406000   809.43768     -3325.5306      52.314016     -3273.2166      51004.485      5694.8503    
    407000   819.03875     -3326.7524      52.934534     -3273.8179      52420.856      5694.8503    
    408000   777.88556     -3330.5019      50.2748       -3280.2271      49297.021      5694.8503    
    409000   805.90833     -3330.1822      52.085914     -3278.0963      47571.296      5694.8503    
    410000   804.13354     -3328.2511      51.971209     -3276.2799      47190.234      5694.8503    
    411000   746.82356     -3330.7043      48.267261     -3282.437       43626.561      5694.8503    
    412000   798.02035     -3327.1094      51.576113     -3275.5333      48176.969      5694.8503    
    413000   804.99545     -3327.025       52.026914     -3274.9981      48587.375      5694.8503    
    414000   777.03877     -3329.8904      50.220072     -3279.6704      49415.57       5694.8503    
    415000   766.73108     -3329.8251      49.553885     -3280.2712      45811.852      5694.8503    
    416000   800.75288     -3330.3976      51.752717     -3278.6449      49862.998      5694.8503    
    417000   791.96438     -3327.3035      51.184716     -3276.1188      50863.719      5694.8503    
    418000   815.79607     -3331.9234      52.724959     -3279.1984      45601.428      5694.8503    
    419000   813.56731     -3331.5445      52.580914     -3278.9636      46183.06       5694.8503    
    420000   812.22501     -3329.4687      52.494161     -3276.9745      47167.075      5694.8503    
    421000   824.77534     -3329.0828      53.30529      -3275.7776      49569.587      5694.8503    
    422000   846.91499     -3328.0045      54.736177     -3273.2683      52231.346      5694.8503    
    423000   747.10134     -3326.2461      48.285214     -3277.9609      49645.05       5694.8503    
    424000   795.42267     -3330.9478      51.408225     -3279.5396      44989.148      5694.8503    
    425000   829.45254     -3329.644       53.607578     -3276.0364      47839.16       5694.8503    
    426000   847.08684     -3327.1234      54.747284     -3272.3761      51507.305      5694.8503    
    427000   793.20378     -3329.1126      51.264818     -3277.8478      49777.786      5694.8503    
    428000   750.75976     -3330.0139      48.521658     -3281.4923      46438.077      5694.8503    
    429000   743.31761     -3330.5182      48.040671     -3282.4775      49171.199      5694.8503    
    430000   777.03783     -3327.2516      50.220011     -3277.0316      50662.573      5694.8503    
    431000   785.35619     -3328.1559      50.757628     -3277.3983      48562.602      5694.8503    
    432000   789.49442     -3328.9991      51.025082     -3277.974       46240.358      5694.8503    
    433000   817.18702     -3331.8001      52.814856     -3278.9852      46846.13       5694.8503    
    434000   825.04479     -3333.1828      53.322705     -3279.8601      46438.579      5694.8503    
    435000   831.79259     -3330.3812      53.758816     -3276.6224      47738.525      5694.8503    
    436000   776.69741     -3331.3583      50.19801      -3281.1603      46492.824      5694.8503    
    437000   827.92799     -3332.8233      53.509046     -3279.3142      45880.88       5694.8503    
    438000   840.49208     -3331.1504      54.321064     -3276.8294      49931.394      5694.8503    
    439000   815.72562     -3327.9809      52.720406     -3275.2605      49001.626      5694.8503    
    440000   742.00484     -3328.2399      47.955827     -3280.2841      49407.495      5694.8503    
    441000   778.25999     -3333.5359      50.298999     -3283.2369      45367.634      5694.8503    
    442000   823.59538     -3331.1128      53.229029     -3277.8838      47220.046      5694.8503    
    443000   779.02089     -3331.618       50.348177     -3281.2698      45017.686      5694.8503    
    444000   776.16477     -3330.1261      50.163585     -3279.9625      46596.59       5694.8503    
    445000   844.34285     -3325.7303      54.569939     -3271.1604      51930.09       5694.8503    
    446000   803.68921     -3328.0271      51.942492     -3276.0846      50091.172      5694.8503    
    447000   822.83922     -3331.561       53.180159     -3278.3808      46924.373      5694.8503    
    448000   795.57684     -3330.8444      51.418189     -3279.4262      46046.716      5694.8503    
    449000   845.13202     -3330.4684      54.620943     -3275.8475      45530.483      5694.8503    
    450000   811.44036     -3328.1803      52.443449     -3275.7369      49120.746      5694.8503    
    451000   809.45094     -3332.6057      52.314873     -3280.2908      44173.913      5694.8503    
    452000   789.26552     -3331.5838      51.010288     -3280.5735      45390.759      5694.8503    
    453000   842.93655     -3330.5268      54.47905      -3276.0478      45548.001      5694.8503    
    454000   829.28478     -3329.0414      53.596735     -3275.4446      50395.975      5694.8503    
    455000   809.76989     -3330.2291      52.335487     -3277.8936      46445.49       5694.8503    
    456000   747.9336      -3329.065       48.339003     -3280.726       42757.052      5694.8503    
    457000   806.58856     -3332.8861      52.129877     -3280.7562      42584.149      5694.8503    
    458000   782.45661     -3325.3322      50.570228     -3274.762       48214.685      5694.8503    
    459000   757.39481     -3327.7024      48.950481     -3278.7519      44104.692      5694.8503    
    460000   795.51846     -3329.5876      51.414416     -3278.1732      47163.617      5694.8503    
    461000   801.4306      -3327.8696      51.796518     -3276.0731      48854.499      5694.8503    
    462000   805.43877     -3330.5503      52.055566     -3278.4948      45885.863      5694.8503    
    463000   769.02798     -3330.4998      49.702334     -3280.7975      44729.603      5694.8503    
    464000   813.36592     -3326.2459      52.567898     -3273.678       48783.04       5694.8503    
    465000   824.74865     -3326.0405      53.303565     -3272.7369      48609.666      5694.8503    
    466000   783.25595     -3330.0159      50.621889     -3279.394       40831.952      5694.8503    
    467000   824.7991      -3332.8719      53.306826     -3279.5651      42107.592      5694.8503    
    468000   827.61635     -3330.2061      53.488905     -3276.7172      45674.983      5694.8503    
    469000   839.37754     -3328.3364      54.249031     -3274.0873      46224.928      5694.8503    
    470000   821.49862     -3331.1697      53.093516     -3278.0762      47885.822      5694.8503    
    471000   820.99718     -3330.9956      53.061107     -3277.9345      43887.101      5694.8503    
    472000   803.39752     -3327.3584      51.92364      -3275.4347      44645.797      5694.8503    
    473000   781.74059     -3328.9499      50.523951     -3278.426       48785.388      5694.8503    
    474000   815.28838     -3331.83        52.692147     -3279.1379      44779.181      5694.8503    
    475000   911.26291     -3328.9372      58.894988     -3270.0422      49901.137      5694.8503    
    476000   819.1341      -3329.1686      52.940696     -3276.2279      47982.781      5694.8503    
    477000   797.64293     -3329.4846      51.551721     -3277.9329      46241.411      5694.8503    
    478000   857.75957     -3330.3441      55.437063     -3274.907       47012.308      5694.8503    
    479000   721.7428      -3332.6151      46.64629      -3285.9688      42441.958      5694.8503    
    480000   799.1855      -3328.2402      51.651417     -3276.5888      46206.438      5694.8503    
    481000   803.02939     -3327.35        51.899848     -3275.4502      45973.408      5694.8503    
    482000   747.7373      -3329.4256      48.326316     -3281.0993      46558.813      5694.8503    
    483000   797.66717     -3332.8451      51.553287     -3281.2918      42545.351      5694.8503    
    484000   791.20215     -3329.5348      51.135452     -3278.3994      45807.4        5694.8503    
    485000   796.68902     -3330.0429      51.490069     -3278.5529      45235.685      5694.8503    
    486000   813.62433     -3329.9849      52.584599     -3277.4003      44767.68       5694.8503    
    487000   798.9357      -3327.1879      51.635272     -3275.5526      50619.007      5694.8503    
    488000   751.09775     -3333.2721      48.543502     -3284.7286      41504.653      5694.8503    
    489000   821.45999     -3331.4315      53.091018     -3278.3405      44748.694      5694.8503    
    490000   777.5179      -3327.6006      50.251038     -3277.3495      47315.74       5694.8503    
    491000   798.12229     -3331.8373      51.582702     -3280.2546      43795.318      5694.8503    
    492000   723.1645      -3331.1577      46.738174     -3284.4195      43798.982      5694.8503    
    493000   783.39766     -3330.243       50.631048     -3279.6119      44953.862      5694.8503    
    494000   782.66743     -3329.4446      50.583853     -3278.8607      47812.631      5694.8503    
    495000   821.06422     -3332.2364      53.06544      -3279.171       42558.71       5694.8503    
    496000   816.01977     -3324.5873      52.739417     -3271.8479      50306.381      5694.8503    
    497000   754.49101     -3326.4465      48.762809     -3277.6837      46245.952      5694.8503    
    498000   823.59194     -3332.0412      53.228807     -3278.8124      46547.72       5694.8503    
    499000   804.43335     -3328.9026      51.990586     -3276.912       42980.669      5694.8503    
    500000   836.35924     -3329.3941      54.053958     -3275.3402      49004.639      5694.8503    
Loop time of 15137.7 on 1 procs for 500000 steps with 501 atoms

Performance: 1.427 ns/day, 16.820 hours/ns, 33.030 timesteps/s, 16.548 katom-step/s
99.1% CPU use with 1 MPI tasks x 1 OpenMP threads

MPI task timing breakdown:
Section |  min time  |  avg time  |  max time  |%varavg| %total
---------------------------------------------------------------
Pair    | 15072      | 15072      | 15072      |   0.0 | 99.57
Neigh   | 0.84171    | 0.84171    | 0.84171    |   0.0 |  0.01
Comm    | 19.805     | 19.805     | 19.805     |   0.0 |  0.13
Output  | 0.90288    | 0.90288    | 0.90288    |   0.0 |  0.01
Modify  | 25.661     | 25.661     | 25.661     |   0.0 |  0.17
Other   |            | 18.59      |            |       |  0.12

Nlocal:            501 ave         501 max         501 min
Histogram: 1 0 0 0 0 0 0 0 0 0
Nghost:           2166 ave        2166 max        2166 min
Histogram: 1 0 0 0 0 0 0 0 0 0
Neighs:              0 ave           0 max           0 min
Histogram: 1 0 0 0 0 0 0 0 0 0
FullNghs:        65700 ave       65700 max       65700 min
Histogram: 1 0 0 0 0 0 0 0 0 0

Total # of neighbors = 65700
Ave neighs/atom = 131.13772
Neighbor list builds = 2050
Dangerous builds = 0
### Phase 2: Production 750 ps at 800 K ###
Setting up Verlet run ...
  Unit style    : metal
  Current step  : 500000
  Time step     : 0.0005
WARNING: Fix STORE/ATOM not compatible with sending data in Kokkos communication (src/KOKKOS/comm_kokkos.cpp:842)
WARNING: Fix with atom-based arrays not compatible with sending data in Kokkos communication, switching to legacy exchange/border communication (src/KOKKOS/comm_kokkos.cpp:849)
WARNING: Fix STORE/ATOM not (yet) compatible with Kokkos sorting on device (src/KOKKOS/atom_kokkos.cpp:219)
WARNING: Fix with atom-based arrays not (yet) compatible with Kokkos sorting on device, switching to legacy host sorting (src/KOKKOS/atom_kokkos.cpp:225)
Per MPI rank memory allocation (min/avg/max) = 89.79 | 89.79 | 89.79 Mbytes
   Step          Temp          PotEng         KinEng         TotEng         Press          Volume    
    500000   836.35924     -3329.3941      54.053958     -3275.3402      49004.639      5694.8503    
    501000   794.99757     -3330.4134      51.38075      -3279.0326      45213.618      5694.8503    
    502000   763.19042     -3331.6934      49.325052     -3282.3683      44656.795      5694.8503    
    503000   749.95684     -3331.5439      48.469765     -3283.0742      41522.875      5694.8503    
    504000   760.33652     -3326.1726      49.140604     -3277.032       48968.944      5694.8503    
    505000   759.24627     -3330.0231      49.070142     -3280.9529      45443.333      5694.8503    
    506000   774.35885     -3329.6851      50.046869     -3279.6382      44881.113      5694.8503    
    507000   796.37111     -3330.2272      51.469522     -3278.7577      46347.014      5694.8503    
    508000   827.25013     -3328.2388      53.465236     -3274.7735      48513.103      5694.8503    
    509000   820.23519     -3331.1009      53.01186      -3278.089       43121.456      5694.8503    
    510000   778.9499      -3330.1254      50.343588     -3279.7818      44652.821      5694.8503    
    511000   826.5754      -3329.9882      53.421628     -3276.5665      42182.154      5694.8503    
    512000   829.26262     -3328.4684      53.595304     -3274.8731      46822.923      5694.8503    
    513000   791.71191     -3328.5166      51.168398     -3277.3482      43548.987      5694.8503    
    514000   797.91891     -3331.9132      51.569557     -3280.3437      39319.327      5694.8503    
    515000   786.85788     -3330.1759      50.854682     -3279.3212      47048.111      5694.8503    
    516000   795.01398     -3330.1357      51.381811     -3278.7539      42919.22       5694.8503    
    517000   800.22573     -3329.8493      51.718647     -3278.1307      44817.258      5694.8503    
    518000   823.36952     -3332.791       53.214432     -3279.5765      41980.834      5694.8503    
    519000   856.95293     -3329.4308      55.38493      -3274.0459      46729.054      5694.8503    
    520000   827.97888     -3328.671       53.512335     -3275.1587      46100.867      5694.8503    
    521000   770.55879     -3330.5486      49.80127      -3280.7474      43481.169      5694.8503    
    522000   766.28201     -3328.4729      49.524862     -3278.948       43763.872      5694.8503    
    523000   752.18926     -3331.4839      48.614047     -3282.8699      43606.621      5694.8503    
    524000   800.73297     -3331.8022      51.75143      -3280.0507      41991.64       5694.8503    
    525000   806.19161     -3329.5127      52.104222     -3277.4084      44335.698      5694.8503    
    526000   790.90363     -3328.1112      51.116159     -3276.995       46014.855      5694.8503    
    527000   731.76093     -3332.0153      47.293762     -3284.7215      40107.233      5694.8503    
    528000   758.97596     -3329.7619      49.052671     -3280.7092      42823.967      5694.8503    
    529000   818.92008     -3330.9506      52.926864     -3278.0238      42393.467      5694.8503    
    530000   791.72083     -3327.5762      51.168975     -3276.4072      48153.413      5694.8503    
    531000   823.33325     -3327.6808      53.212087     -3274.4687      46345.086      5694.8503    
    532000   822.16971     -3327.542       53.136888     -3274.4051      43447.562      5694.8503    
    533000   753.9913      -3327.5689      48.730512     -3278.8384      45262.484      5694.8503    
    534000   811.95003     -3330.5939      52.476389     -3278.1175      44874.712      5694.8503    
    535000   820.06394     -3326.4521      53.000792     -3273.4513      50177.456      5694.8503    
    536000   805.18087     -3325.9733      52.038898     -3273.9344      47512.16       5694.8503    
    537000   799.48431     -3331.7062      51.670729     -3280.0355      44142.459      5694.8503    
    538000   841.61314     -3333.1264      54.393518     -3278.7329      39164.545      5694.8503    
    539000   802.22307     -3335.976       51.847735     -3284.1283      41364.473      5694.8503    
    540000   817.44965     -3332.8479      52.83183      -3280.0161      46316.927      5694.8503    
    541000   809.77878     -3329.6184      52.336061     -3277.2823      45237.998      5694.8503    
    542000   756.56087     -3327.7327      48.896584     -3278.8361      47467.74       5694.8503    
    543000   804.43147     -3331.6987      51.990464     -3279.7082      46841.516      5694.8503    
    544000   768.93014     -3329.1945      49.69601      -3279.4985      47872.637      5694.8503    
    545000   806.3211      -3333.3456      52.112591     -3281.233       43959.305      5694.8503    
    546000   835.84698     -3331.8949      54.020851     -3277.874       42838.802      5694.8503    
    547000   770.66124     -3326.6713      49.807892     -3276.8634      47423.522      5694.8503    
    548000   783.07675     -3330.9227      50.610307     -3280.3124      43400.422      5694.8503    
    549000   836.82752     -3326.6254      54.084223     -3272.5412      51586.159      5694.8503    
    550000   796.79025     -3329.6779      51.496612     -3278.1813      45952.552      5694.8503    
    551000   810.16405     -3331.6468      52.360961     -3279.2858      45103.292      5694.8503    
    552000   751.73288     -3330.0705      48.58455      -3281.4859      44376.736      5694.8503    
    553000   823.56169     -3330.3927      53.226852     -3277.1658      43325.145      5694.8503    
    554000   851.43885     -3328.5909      55.028555     -3273.5623      42172.374      5694.8503    
    555000   783.7482      -3328.1294      50.653703     -3277.4757      47418.395      5694.8503    
    556000   770.63711     -3328.9332      49.806332     -3279.1268      44238.926      5694.8503    
    557000   798.60353     -3333.2831      51.613804     -3281.6693      44855.231      5694.8503    
    558000   820.31626     -3330.3269      53.017099     -3277.3098      45537.387      5694.8503    
    559000   808.30778     -3329.6449      52.24099      -3277.4039      47683.076      5694.8503    
    560000   760.0905      -3328.1042      49.124704     -3278.9795      48527.06       5694.8503    
    561000   775.75319     -3326.0225      50.136985     -3275.8855      46404.766      5694.8503    
    562000   769.46781     -3327.0513      49.730761     -3277.3206      47597.935      5694.8503    
    563000   809.4236      -3331.4847      52.313106     -3279.1716      43454.637      5694.8503    
    564000   801.5775      -3328.1016      51.806012     -3276.2956      46025.642      5694.8503    
    565000   815.23376     -3326.618       52.688617     -3273.9294      48831.679      5694.8503    
    566000   814.0712      -3329.5366      52.613481     -3276.9231      45913.699      5694.8503    
    567000   763.93632     -3329.4704      49.37326      -3280.0972      45144.51       5694.8503    
    568000   800.49128     -3329.0377      51.73581      -3277.3019      47674.347      5694.8503    
    569000   778.63281     -3331.3269      50.323095     -3281.0038      42776.969      5694.8503    
    570000   798.62755     -3327.2725      51.615357     -3275.6572      46746.341      5694.8503    
    571000   837.85789     -3327.6157      54.150816     -3273.4649      50824.887      5694.8503    
    572000   829.85003     -3333.3705      53.633268     -3279.7372      44247.013      5694.8503    
    573000   823.11774     -3332.7785      53.198159     -3279.5804      42854.834      5694.8503    
    574000   811.80751     -3328.9076      52.467178     -3276.4404      49667.045      5694.8503    
    575000   869.86539     -3328.1479      56.219463     -3271.9285      48673.736      5694.8503    
    576000   788.44111     -3328.3301      50.957006     -3277.3731      46721.155      5694.8503    
    577000   764.20522     -3328.7065      49.390639     -3279.3159      48191.785      5694.8503    
    578000   753.22801     -3326.0075      48.681181     -3277.3264      50328.92       5694.8503    
    579000   823.41794     -3328.519       53.217561     -3275.3015      47476.847      5694.8503    
    580000   799.39722     -3330.7201      51.6651       -3279.055       44380.975      5694.8503    
    581000   790.80696     -3330.1045      51.109911     -3278.9946      44467.717      5694.8503    
    582000   822.93345     -3327.6489      53.186248     -3274.4626      51433.125      5694.8503    
    583000   846.70356     -3329.6785      54.722512     -3274.956       46515.779      5694.8503    
    584000   817.40444     -3330.1127      52.828908     -3277.2838      45000.523      5694.8503    
    585000   741.69512     -3331.6376      47.935809     -3283.7018      47173.358      5694.8503    
    586000   751.37071     -3330.9519      48.561143     -3282.3908      42867.598      5694.8503    
    587000   819.99118     -3331.6609      52.99609      -3278.6648      43733.494      5694.8503    
    588000   834.97243     -3331.3421      53.964329     -3277.3778      41867.412      5694.8503    
    589000   786.82583     -3332.0609      50.85261      -3281.2083      45813.227      5694.8503    
    590000   795.00889     -3332.3984      51.381482     -3281.017       44577.762      5694.8503    
    591000   778.47995     -3328.6319      50.313216     -3278.3186      47732.232      5694.8503    
    592000   815.54484     -3330.7584      52.708722     -3278.0497      45039.658      5694.8503    
    593000   732.21314     -3327.9568      47.322988     -3280.6338      47889.261      5694.8503    
    594000   794.54916     -3330.2348      51.35177      -3278.883       46070.488      5694.8503    
    595000   824.20375     -3329.627       53.268348     -3276.3586      45762.411      5694.8503    
    596000   810.99604     -3329.5585      52.414733     -3277.1438      47683.398      5694.8503    
    597000   777.47699     -3327.847       50.248394     -3277.5986      48333.983      5694.8503    
    598000   847.88425     -3333.3778      54.798821     -3278.5789      45750.21       5694.8503    
    599000   800.55473     -3335.5505      51.73991      -3283.8106      41766.917      5694.8503    
    600000   766.99955     -3330.1062      49.571237     -3280.535       46656.415      5694.8503    
    601000   820.74494     -3330.5887      53.044805     -3277.5439      46038.265      5694.8503    
    602000   763.45684     -3330.1762      49.342271     -3280.834       47666.145      5694.8503    
    603000   817.43487     -3331.2979      52.830875     -3278.4671      46876.3        5694.8503    
    604000   787.78876     -3327.013       50.914845     -3276.0982      49774.074      5694.8503    
    605000   789.15049     -3331.5825      51.002853     -3280.5796      45075.516      5694.8503    
    606000   828.02956     -3330.6151      53.51561      -3277.0995      46143.388      5694.8503    
    607000   810.51292     -3329.3195      52.383509     -3276.936       44222.317      5694.8503    
    608000   769.9431      -3333.7603      49.761478     -3283.9988      43539.138      5694.8503    
    609000   779.93606     -3331.4463      50.407324     -3281.039       43826.406      5694.8503    
    610000   785.40224     -3329.3269      50.760604     -3278.5663      48512.207      5694.8503    
    611000   802.31993     -3330.7928      51.853995     -3278.9388      48833.946      5694.8503    
    612000   802.74652     -3327.531       51.881566     -3275.6494      48140.678      5694.8503    
    613000   838.80493     -3331.9149      54.212024     -3277.7028      46189.538      5694.8503    
    614000   769.9186      -3329.4751      49.759895     -3279.7152      50207.855      5694.8503    
    615000   769.16186     -3335.3077      49.710987     -3285.5967      42051.576      5694.8503    
    616000   813.84894     -3330.9316      52.599116     -3278.3325      47669.213      5694.8503    
    617000   801.80145     -3328.482       51.820486     -3276.6615      46987.05       5694.8503    
    618000   864.46832     -3327.9205      55.87065      -3272.0499      49665.819      5694.8503    
    619000   776.55428     -3329.1978      50.18876      -3279.009       45410.11       5694.8503    
    620000   808.42318     -3333.0422      52.248449     -3280.7937      44908.809      5694.8503    
    621000   766.97158     -3328.5451      49.569429     -3278.9757      44156.862      5694.8503    
    622000   842.06265     -3327.7887      54.42257      -3273.3661      44551.099      5694.8503    
    623000   811.80491     -3328.079       52.467011     -3275.612       49334.899      5694.8503    
    624000   818.78455     -3329.2936      52.918105     -3276.3755      44024.941      5694.8503    
    625000   799.60909     -3331.9026      51.678793     -3280.2238      45758.595      5694.8503    
    626000   804.78485     -3333.4764      52.013303     -3281.4631      44182.522      5694.8503    
    627000   811.58827     -3330.2317      52.453009     -3277.7787      45263.783      5694.8503    
    628000   785.32893     -3334.5263      50.755866     -3283.7704      41729.376      5694.8503    
    629000   793.16339     -3333.3553      51.262208     -3282.0931      43152.226      5694.8503    
    630000   801.4407      -3331.002       51.79717      -3279.2048      48928.735      5694.8503    
    631000   805.24511     -3329.7478      52.04305      -3277.7047      46942.267      5694.8503    
    632000   816.09465     -3333.8902      52.744257     -3281.1459      44523.563      5694.8503    
    633000   795.11642     -3329.1833      51.388432     -3277.7949      46631.541      5694.8503    
    634000   782.3705      -3329.1873      50.564662     -3278.6226      46704.559      5694.8503    
    635000   714.84468     -3332.6035      46.200463     -3286.4031      42126.249      5694.8503    
    636000   794.94295     -3327.6919      51.377221     -3276.3146      47958.028      5694.8503    
    637000   786.99862     -3328.4046      50.863778     -3277.5408      47499.721      5694.8503    
    638000   793.92237     -3331.0709      51.31126      -3279.7596      44973.715      5694.8503    
    639000   776.50878     -3327.0699      50.185819     -3276.8841      48302.112      5694.8503    
    640000   806.08841     -3328.2151      52.097552     -3276.1176      48864.284      5694.8503    
    641000   774.72702     -3327.5188      50.070663     -3277.4482      47829.969      5694.8503    
    642000   754.03565     -3334.416       48.733378     -3285.6826      40663.01       5694.8503    
    643000   838.00849     -3330.396       54.160549     -3276.2354      42889.668      5694.8503    
    644000   800.25842     -3328.5438      51.72076      -3276.8231      46286.802      5694.8503    
    645000   773.93326     -3329.8776      50.019362     -3279.8582      44978.255      5694.8503    
    646000   772.09715     -3332.5543      49.900695     -3282.6536      44628.582      5694.8503    
    647000   831.95756     -3334.7635      53.769478     -3280.994       40191.647      5694.8503    
    648000   832.27417     -3330.3987      53.78994      -3276.6088      47380.945      5694.8503    
    649000   777.44046     -3329.2333      50.246034     -3278.9872      43777.633      5694.8503    
    650000   803.30289     -3335.426       51.917524     -3283.5084      40553.082      5694.8503    
    651000   794.04177     -3330.6016      51.318977     -3279.2826      47984.239      5694.8503    
    652000   796.94322     -3328.2932      51.506498     -3276.7867      46890.682      5694.8503    
    653000   764.04749     -3329.3235      49.380445     -3279.943       44473.854      5694.8503    
    654000   726.00198     -3330.7326      46.92156      -3283.811       45831.431      5694.8503    
    655000   768.60859     -3330.9978      49.675229     -3281.3226      45061.143      5694.8503    
    656000   808.48377     -3331.5323      52.252364     -3279.28        44534.424      5694.8503    
    657000   816.45961     -3329.8326      52.767844     -3277.0647      46487.335      5694.8503    
    658000   818.56252     -3330.6201      52.903755     -3277.7163      45472.256      5694.8503    
    659000   789.82766     -3328.1355      51.046619     -3277.0889      48161.999      5694.8503    
    660000   830.1248      -3332.5388      53.651026     -3278.8878      43187.244      5694.8503    
    661000   749.415       -3330.5633      48.434746     -3282.1285      43932.056      5694.8503    
    662000   798.79922     -3329.9882      51.626452     -3278.3617      44037.687      5694.8503    
    663000   804.05377     -3327.1453      51.966054     -3275.1792      46414.712      5694.8503    
    664000   828.47608     -3331.5453      53.544469     -3278.0008      46141.994      5694.8503    
    665000   795.12865     -3330.8341      51.389222     -3279.4449      46129.243      5694.8503    
    666000   744.84706     -3330.8723      48.13952      -3282.7327      46118.553      5694.8503    
    667000   725.11747     -3330.9494      46.864395     -3284.085       46163.844      5694.8503    
    668000   825.98389     -3331.9453      53.383399     -3278.5619      43468.13       5694.8503    
    669000   809.72397     -3330.8943      52.332519     -3278.5618      48909.777      5694.8503    
    670000   793.84099     -3332.854       51.306001     -3281.548       46619.428      5694.8503    
    671000   746.49997     -3325.7735      48.246347     -3277.5271      47449.386      5694.8503    
    672000   751.25022     -3327.4397      48.553356     -3278.8863      49423.759      5694.8503    
    673000   763.72012     -3332.7391      49.359287     -3283.3799      44515.967      5694.8503    
    674000   802.10245     -3329.9176      51.83994      -3278.0777      47571.551      5694.8503    
    675000   852.04475     -3330.2093      55.067714     -3275.1416      47541.686      5694.8503    
    676000   772.20327     -3327.3103      49.907553     -3277.4028      49552.97       5694.8503    
    677000   795.77867     -3330.2002      51.431233     -3278.769       44641.376      5694.8503    
    678000   831.1606      -3332.1294      53.71797      -3278.4115      44351.616      5694.8503    
    679000   810.88257     -3326.9466      52.407399     -3274.5392      47686.761      5694.8503    
    680000   831.80611     -3331.2858      53.759689     -3277.5261      44517.038      5694.8503    
    681000   760.94069     -3329.2054      49.179652     -3280.0257      47197.024      5694.8503    
    682000   754.9182      -3333.1266      48.790418     -3284.3362      42529.263      5694.8503    
    683000   778.97011     -3332.3627      50.344894     -3282.0178      48203.85       5694.8503    
    684000   799.49371     -3329.838       51.671336     -3278.1667      43117.634      5694.8503    
    685000   766.12993     -3327.2998      49.515033     -3277.7847      48648.44       5694.8503    
    686000   812.56021     -3332.6488      52.515825     -3280.1329      46351.505      5694.8503    
    687000   761.29476     -3333.999       49.202535     -3284.7965      44623.402      5694.8503    
    688000   786.82394     -3330.3319      50.852488     -3279.4794      46980.248      5694.8503    
    689000   826.65597     -3328.6201      53.426835     -3275.1933      45788.63       5694.8503    
    690000   819.77393     -3329.6973      52.982049     -3276.7152      46218.896      5694.8503    
    691000   788.21699     -3330.0133      50.942521     -3279.0708      47096.297      5694.8503    
    692000   761.71927     -3332.9112      49.229972     -3283.6812      44135.167      5694.8503    
    693000   750.85527     -3331.5462      48.527831     -3283.0184      43712.964      5694.8503    
    694000   777.89864     -3329.4402      50.275646     -3279.1646      47519.315      5694.8503    
    695000   838.40408     -3330.7413      54.186117     -3276.5552      46537.646      5694.8503    
    696000   825.87551     -3332.082       53.376394     -3278.7056      46080.656      5694.8503    
    697000   796.58233     -3329.9064      51.483174     -3278.4232      44398.627      5694.8503    
    698000   837.77224     -3331.5747      54.145281     -3277.4294      46742.649      5694.8503    
    699000   859.02978     -3329.8977      55.519157     -3274.3785      46399.482      5694.8503    
    700000   811.52088     -3330.3313      52.448654     -3277.8827      48114.07       5694.8503    
    701000   777.80534     -3331.4116      50.269616     -3281.142       46440.42       5694.8503    
    702000   816.18257     -3332.2326      52.749939     -3279.4827      45272.049      5694.8503    
    703000   795.39167     -3330.1333      51.406221     -3278.727       47583.071      5694.8503    
    704000   805.8911      -3328.9223      52.0848       -3276.8375      47358.024      5694.8503    
    705000   789.44365     -3330.06        51.0218       -3279.0382      46068.184      5694.8503    
    706000   780.06925     -3331.3014      50.415933     -3280.8855      45747.674      5694.8503    
    707000   766.9532      -3333.6197      49.568241     -3284.0515      40749.918      5694.8503    
    708000   746.29968     -3330.6151      48.233402     -3282.3817      45577.501      5694.8503    
    709000   821.3817      -3329.6518      53.085959     -3276.5658      46889.66       5694.8503    
    710000   807.68639     -3330.7437      52.20083      -3278.5429      45803.23       5694.8503    
    711000   795.20873     -3330.4448      51.394398     -3279.0504      47892.037      5694.8503    
    712000   799.53381     -3332.4205      51.673928     -3280.7466      48915.44       5694.8503    
    713000   790.29621     -3333.3811      51.076901     -3282.3042      39240.263      5694.8503    
    714000   819.89065     -3331.7576      52.989592     -3278.768       45868.15       5694.8503    
    715000   790.21421     -3327.4052      51.071602     -3276.3336      48557.331      5694.8503    
    716000   744.73417     -3327.4728      48.132224     -3279.3406      47029.438      5694.8503    
    717000   806.38172     -3332.1421      52.116509     -3280.0256      41697.052      5694.8503    
    718000   781.09559     -3333.0307      50.482265     -3282.5484      43758.112      5694.8503    
    719000   796.93126     -3330.8509      51.505725     -3279.3452      45216.172      5694.8503    
    720000   804.28702     -3329.1416      51.981129     -3277.1605      46159.137      5694.8503    
    721000   825.15652     -3331.7081      53.329926     -3278.3782      45975.896      5694.8503    
    722000   786.3075      -3332.9523      50.819111     -3282.1332      40191.011      5694.8503    
    723000   713.83095     -3331.125       46.134946     -3284.99        43551.954      5694.8503    
    724000   861.74283     -3331.6622      55.694502     -3275.9677      44564.578      5694.8503    
    725000   833.39413     -3331.5875      53.862323     -3277.7251      44821.815      5694.8503    
    726000   781.7643      -3331.885       50.525484     -3281.3595      44336.957      5694.8503    
    727000   776.04651     -3328.6386      50.155942     -3278.4827      44868.675      5694.8503    
    728000   784.6009      -3333.9389      50.708813     -3283.2301      42074.737      5694.8503    
    729000   745.55284     -3331.2709      48.185134     -3283.0857      42519.777      5694.8503    
    730000   786.02061     -3330.3252      50.800569     -3279.5246      44268.203      5694.8503    
    731000   798.48619     -3328.639       51.60622      -3277.0328      45146.69       5694.8503    
    732000   768.9131      -3331.7527      49.69491      -3282.0578      43285.276      5694.8503    
    733000   763.86037     -3329.4996      49.368351     -3280.1313      47044.704      5694.8503    
    734000   795.95083     -3328.7905      51.44236      -3277.3481      44936.045      5694.8503    
    735000   803.00968     -3331.3549      51.898574     -3279.4564      43940.246      5694.8503    
    736000   771.71683     -3332.7441      49.876115     -3282.868       41420.413      5694.8503    
    737000   830.32299     -3328.9041      53.663835     -3275.2403      46712.615      5694.8503    
    738000   848.96487     -3330.6725      54.868661     -3275.8039      45717.463      5694.8503    
    739000   834.55764     -3331.8996      53.937521     -3277.9621      45260.767      5694.8503    
    740000   758.97776     -3329.3963      49.052788     -3280.3435      46228.396      5694.8503    
    741000   751.72931     -3329.8671      48.58432      -3281.2828      44755.54       5694.8503    
    742000   829.43989     -3335.1479      53.60676      -3281.5412      42624.036      5694.8503    
    743000   763.11593     -3328.0784      49.320238     -3278.7582      46464.161      5694.8503    
    744000   778.58543     -3327.6493      50.320033     -3277.3293      50918.179      5694.8503    
    745000   837.16631     -3327.9236      54.106119     -3273.8175      47522.92       5694.8503    
    746000   805.29251     -3329.8557      52.046114     -3277.8096      44809.291      5694.8503    
    747000   801.45938     -3333.4449      51.798378     -3281.6466      43928.498      5694.8503    
    748000   777.71344     -3330.709       50.263676     -3280.4453      42326.773      5694.8503    
    749000   818.89167     -3332.8284      52.925028     -3279.9034      43301.856      5694.8503    
    750000   825.503       -3329.402       53.352319     -3276.0497      47425.591      5694.8503    
    751000   836.862       -3330.8748      54.086452     -3276.7884      46319.292      5694.8503    
    752000   778.58227     -3332.0729      50.319829     -3281.7531      43209.141      5694.8503    
    753000   783.03708     -3333.2735      50.607743     -3282.6657      43567.534      5694.8503    
    754000   804.01117     -3330.9436      51.9633       -3278.9803      48393.035      5694.8503    
    755000   799.03924     -3328.1073      51.641964     -3276.4653      52285.119      5694.8503    
    756000   800.01417     -3328.2949      51.704974     -3276.5899      49489.939      5694.8503    
    757000   778.30833     -3324.5138      50.302124     -3274.2117      47645.909      5694.8503    
    758000   770.61049     -3330.3927      49.804612     -3280.5881      45643.149      5694.8503    
    759000   746.66464     -3328.5813      48.25699      -3280.3243      47416.072      5694.8503    
    760000   763.54969     -3327.4676      49.348272     -3278.1194      45137.597      5694.8503    
    761000   834.55591     -3330.6789      53.937409     -3276.7415      44835.993      5694.8503    
    762000   824.7619      -3328.1881      53.304421     -3274.8836      47218.798      5694.8503    
    763000   804.25806     -3330.4451      51.979256     -3278.4659      43039.28       5694.8503    
    764000   764.19302     -3332.4581      49.38985      -3283.0683      42486.488      5694.8503    
    765000   766.61187     -3330.6884      49.546181     -3281.1422      44014.011      5694.8503    
    766000   782.02008     -3328.8226      50.542014     -3278.2806      45040.224      5694.8503    
    767000   802.10473     -3330.9544      51.840087     -3279.1143      45147.23       5694.8503    
    768000   724.03946     -3332.4091      46.794723     -3285.6144      43879.596      5694.8503    
    769000   781.83383     -3329.81        50.529977     -3279.28        47811.005      5694.8503    
    770000   845.15032     -3332.3013      54.622126     -3277.6791      44419.627      5694.8503    
    771000   822.66443     -3328.0087      53.168862     -3274.8398      48011.246      5694.8503    
    772000   790.10999     -3331.3412      51.064866     -3280.2763      46215.981      5694.8503    
    773000   782.43863     -3332.205       50.569065     -3281.636       42746.922      5694.8503    
    774000   830.50051     -3330.0664      53.675308     -3276.391       44476.893      5694.8503    
    775000   812.21229     -3330.0908      52.493339     -3277.5975      46681.866      5694.8503    
    776000   781.50291     -3330.1436      50.50859      -3279.635       46018.312      5694.8503    
    777000   876.66984     -3333.1992      56.659236     -3276.5399      43318.695      5694.8503    
    778000   751.40443     -3329.4102      48.563323     -3280.8469      42589.848      5694.8503    
    779000   764.15753     -3331.9582      49.387556     -3282.5706      43494.613      5694.8503    
    780000   758.83978     -3330.3658      49.04387      -3281.3219      42669.917      5694.8503    
    781000   774.09516     -3330.2552      50.029826     -3280.2253      43276.868      5694.8503    
    782000   844.31127     -3331.3897      54.567898     -3276.8218      43965.819      5694.8503    
    783000   860.81678     -3331.2832      55.634651     -3275.6486      44350.72       5694.8503    
    784000   780.57056     -3326.5102      50.448332     -3276.0619      44844.373      5694.8503    
    785000   788.59246     -3330.8283      50.966788     -3279.8615      45159.382      5694.8503    
    786000   792.3252      -3333.2595      51.208035     -3282.0515      39855.38       5694.8503    
    787000   869.8415      -3325.4074      56.217919     -3269.1895      50574.36       5694.8503    
    788000   805.7744      -3333.0375      52.077258     -3280.9602      43964.818      5694.8503    
    789000   791.80035     -3331.1261      51.174114     -3279.9519      43306.56       5694.8503    
    790000   819.76047     -3327.4432      52.981178     -3274.462       44928.595      5694.8503    
    791000   867.64819     -3329.0225      56.076165     -3272.9464      44135.434      5694.8503    
    792000   757.11236     -3330.7801      48.932227     -3281.8479      41575.506      5694.8503    
    793000   820.08033     -3332.6763      53.001851     -3279.6744      41003.559      5694.8503    
    794000   808.98351     -3330.1495      52.284663     -3277.8648      44158.388      5694.8503    
    795000   831.29792     -3329.8564      53.726845     -3276.1296      44905.172      5694.8503    
    796000   798.56644     -3327.2223      51.611407     -3275.6109      44076.163      5694.8503    
    797000   786.03391     -3329.819       50.801428     -3279.0175      42856.289      5694.8503    
    798000   759.77823     -3329.1664      49.104522     -3280.0619      46042.91       5694.8503    
    799000   773.90253     -3332.5261      50.017377     -3282.5088      45816.582      5694.8503    
    800000   800.07931     -3332.3642      51.709184     -3280.655       42563.071      5694.8503    
    801000   784.97005     -3329.883       50.732671     -3279.1504      46016.154      5694.8503    
    802000   836.23307     -3330.6017      54.045804     -3276.5559      44371.736      5694.8503    
    803000   788.91281     -3329.7255      50.987492     -3278.738       46131.593      5694.8503    
    804000   740.5659      -3330.1655      47.862828     -3282.3027      42312.892      5694.8503    
    805000   764.02845     -3333.2743      49.379214     -3283.8951      40668.476      5694.8503    
    806000   803.70547     -3332.4231      51.943543     -3280.4796      43836.705      5694.8503    
    807000   811.60582     -3330.7042      52.454143     -3278.2501      45025.359      5694.8503    
    808000   843.74421     -3332.1039      54.53125      -3277.5727      43026.479      5694.8503    
    809000   804.82734     -3331.4485      52.016049     -3279.4325      45360.232      5694.8503    
    810000   762.27676     -3335.7803      49.266003     -3286.5143      40849.253      5694.8503    
    811000   808.90334     -3330.3024      52.279481     -3278.0229      45968.155      5694.8503    
    812000   817.16863     -3333.1885      52.813668     -3280.3748      44439.124      5694.8503    
    813000   821.84041     -3332.8354      53.115605     -3279.7198      43421.868      5694.8503    
    814000   776.71451     -3327.6809      50.199115     -3277.4818      49932.237      5694.8503    
    815000   791.13954     -3329.6717      51.131406     -3278.5403      46855.418      5694.8503    
    816000   723.86063     -3332.673       46.783165     -3285.8898      43644.996      5694.8503    
    817000   807.20375     -3329.9118      52.169637     -3277.7422      49026.568      5694.8503    
    818000   851.27464     -3331.3149      55.017941     -3276.2969      46890.427      5694.8503    
    819000   753.14147     -3331.7387      48.675588     -3283.0631      47149.663      5694.8503    
    820000   786.7056      -3333.5685      50.84484      -3282.7237      42551.765      5694.8503    
    821000   829.99195     -3330.6995      53.64244      -3277.057       48750.105      5694.8503    
    822000   804.61557     -3330.7501      52.002362     -3278.7477      47550.898      5694.8503    
    823000   826.64073     -3334.7911      53.42585      -3281.3652      41309.408      5694.8503    
    824000   809.36221     -3329.9161      52.309138     -3277.6069      49047.805      5694.8503    
    825000   820.31501     -3332.2563      53.017019     -3279.2393      44227.21       5694.8503    
    826000   818.13354     -3334.7602      52.87603      -3281.8841      45357.924      5694.8503    
    827000   803.64875     -3331.6875      51.939877     -3279.7476      46238.717      5694.8503    
    828000   861.2873      -3332.6169      55.66506      -3276.9518      44383.917      5694.8503    
    829000   822.04056     -3329.9415      53.128541     -3276.8129      46700.232      5694.8503    
    830000   830.28445     -3327.6607      53.661344     -3273.9993      50639.344      5694.8503    
    831000   752.61198     -3331.1417      48.641367     -3282.5003      42854.433      5694.8503    
    832000   749.13317     -3327.6057      48.416531     -3279.1891      47609.899      5694.8503    
    833000   798.44579     -3330.431       51.60361      -3278.8274      50013.322      5694.8503    
    834000   827.81225     -3329.3112      53.501566     -3275.8096      46812.905      5694.8503    
    835000   790.71895     -3328.6153      51.104223     -3277.5111      48087.778      5694.8503    
    836000   833.7359      -3335.2102      53.884412     -3281.3257      42538.999      5694.8503    
    837000   793.56652     -3332.3847      51.288262     -3281.0965      45968.825      5694.8503    
    838000   871.57922     -3329.0282      56.330228     -3272.698       48434.404      5694.8503    
    839000   815.93179     -3333.9709      52.733731     -3281.2372      41365.799      5694.8503    
    840000   761.23869     -3332.1848      49.198912     -3282.9859      45498.465      5694.8503    
    841000   768.59661     -3330.6082      49.674454     -3280.9338      45587.244      5694.8503    
    842000   807.38777     -3329.0129      52.18153      -3276.8314      46475.078      5694.8503    
    843000   735.8347      -3328.1027      47.55705      -3280.5456      49007.295      5694.8503    
    844000   829.82233     -3334.8501      53.631477     -3281.2186      43696.748      5694.8503    
    845000   839.12559     -3331.9536      54.232748     -3277.7208      48803.217      5694.8503    
    846000   847.62727     -3329.3939      54.782212     -3274.6117      47007.394      5694.8503    
    847000   841.83214     -3331.9547      54.407672     -3277.5471      44215.795      5694.8503    
    848000   832.81771     -3334.003       53.825069     -3280.1779      43389.06       5694.8503    
    849000   760.73067     -3333.3871      49.166078     -3284.2211      44485.553      5694.8503    
    850000   768.32579     -3332.593       49.656952     -3282.936       43331.984      5694.8503    
    851000   777.43122     -3329.7547      50.245436     -3279.5093      46560.418      5694.8503    
    852000   782.78867     -3331.9419      50.591689     -3281.3502      44264.468      5694.8503    
    853000   844.15103     -3333.5611      54.557542     -3279.0036      43368.785      5694.8503    
    854000   838.21287     -3331.1825      54.173758     -3277.0088      45374.719      5694.8503    
    855000   849.73125     -3330.7932      54.918192     -3275.875       46851.232      5694.8503    
    856000   819.73932     -3332.6223      52.979811     -3279.6425      44441.396      5694.8503    
    857000   743.44525     -3328.8747      48.048921     -3280.8258      52019.955      5694.8503    
    858000   789.99576     -3333.9283      51.057483     -3282.8708      44421.448      5694.8503    
    859000   756.61315     -3334.3955      48.899963     -3285.4955      43521.757      5694.8503    
    860000   742.73422     -3331.2202      48.002966     -3283.2172      45633.611      5694.8503    
    861000   833.99121     -3333.2172      53.900912     -3279.3163      45917.304      5694.8503    
    862000   785.81869     -3330.5438      50.787519     -3279.7563      46120.079      5694.8503    
    863000   824.40343     -3329.8047      53.281254     -3276.5235      48850.275      5694.8503    
    864000   804.29464     -3330.5109      51.981621     -3278.5293      47045.229      5694.8503    
    865000   758.88537     -3331.8448      49.046816     -3282.798       45936.423      5694.8503    
    866000   756.12027     -3333.8848      48.868108     -3285.0167      44918.917      5694.8503    
    867000   806.81151     -3334.6312      52.144286     -3282.4869      43116.499      5694.8503    
    868000   780.35026     -3328.6463      50.434094     -3278.2122      46889.759      5694.8503    
    869000   785.73061     -3332.1301      50.781827     -3281.3482      42990.955      5694.8503    
    870000   829.45736     -3329.2226      53.607889     -3275.6147      47446.315      5694.8503    
    871000   823.28212     -3330.7115      53.208783     -3277.5027      48924.354      5694.8503    
    872000   808.90414     -3332.2195      52.279533     -3279.9399      43374.808      5694.8503    
    873000   760.53204     -3329.9734      49.153241     -3280.8202      45370.442      5694.8503    
    874000   839.85699     -3330.9314      54.280018     -3276.6514      45534.02       5694.8503    
    875000   826.56372     -3326.8676      53.420873     -3273.4467      47408          5694.8503    
    876000   783.29482     -3333.0584      50.624401     -3282.434       42845.174      5694.8503    
    877000   795.07242     -3333.1668      51.385588     -3281.7813      41767.772      5694.8503    
    878000   800.10507     -3331.3531      51.710848     -3279.6423      44129.581      5694.8503    
    879000   786.80512     -3333.4563      50.851272     -3282.605       40280.107      5694.8503    
    880000   799.09278     -3334.8498      51.645424     -3283.2044      41832.899      5694.8503    
    881000   806.79104     -3334.4662      52.142964     -3282.3232      44538.574      5694.8503    
    882000   759.57169     -3330.4942      49.091173     -3281.403       45143.56       5694.8503    
    883000   805.3181      -3332.281       52.047767     -3280.2333      44239.548      5694.8503    
    884000   771.0788      -3327.7871      49.834879     -3277.9522      50258.783      5694.8503    
    885000   781.83204     -3329.0787      50.529862     -3278.5488      46963.654      5694.8503    
    886000   818.30426     -3334.1521      52.887064     -3281.265       44038.776      5694.8503    
    887000   764.06803     -3332.8305      49.381772     -3283.4487      42101.298      5694.8503    
    888000   750.19184     -3333.3311      48.484953     -3284.8462      40251.324      5694.8503    
    889000   773.54347     -3331.4792      49.994171     -3281.485       42414.132      5694.8503    
    890000   797.86148     -3331.0574      51.565845     -3279.4916      45919.125      5694.8503    
    891000   796.62488     -3330.8018      51.485924     -3279.3159      44306.244      5694.8503    
    892000   779.01234     -3335.8768      50.347624     -3285.5292      43261.851      5694.8503    
    893000   781.47958     -3333.659       50.507082     -3283.1519      41387.535      5694.8503    
    894000   788.97956     -3331.4456      50.991806     -3280.4538      46707.069      5694.8503    
    895000   779.48323     -3328.4475      50.378057     -3278.0694      47411.072      5694.8503    
    896000   799.59989     -3329.3819      51.678199     -3277.7037      50244.155      5694.8503    
    897000   775.98258     -3331.6844      50.15181      -3281.5326      43066.353      5694.8503    
    898000   800.63315     -3337.4046      51.744978     -3285.6596      40942.555      5694.8503    
    899000   768.06561     -3329.5542      49.640136     -3279.914       44783.958      5694.8503    
    900000   810.43647     -3331.6396      52.378568     -3279.261       43839.093      5694.8503    
    901000   828.68548     -3329.8032      53.558003     -3276.2452      44922.143      5694.8503    
    902000   836.08902     -3329.8044      54.036494     -3275.768       47063.964      5694.8503    
    903000   828.31984     -3334.9553      53.534371     -3281.4209      39526.959      5694.8503    
    904000   840.03982     -3332.7149      54.291834     -3278.4231      43703.039      5694.8503    
    905000   878.81383     -3331.2514      56.797802     -3274.4536      48889.822      5694.8503    
    906000   872.26296     -3332.7516      56.374418     -3276.3772      41075.899      5694.8503    
    907000   813.13275     -3331.9752      52.552829     -3279.4224      43894.894      5694.8503    
    908000   800.87498     -3331.7671      51.760608     -3280.0065      41984.619      5694.8503    
    909000   750.57007     -3332.8642      48.509398     -3284.3548      43018.369      5694.8503    
    910000   787.53329     -3332.2613      50.898334     -3281.363       47225.148      5694.8503    
    911000   828.85975     -3330.0637      53.569266     -3276.4944      48705.292      5694.8503    
    912000   809.60592     -3331.1622      52.324889     -3278.8373      44717.656      5694.8503    
    913000   812.07614     -3330.8197      52.48454      -3278.3351      44104.739      5694.8503    
    914000   731.7803      -3333.0506      47.295014     -3285.7556      42440.449      5694.8503    
    915000   781.35356     -3332.4107      50.498937     -3281.9118      44541.952      5694.8503    
    916000   810.5147      -3329.9879      52.383624     -3277.6042      44304.017      5694.8503    
    917000   832.9557      -3335.4579      53.833987     -3281.6239      39651.347      5694.8503    
    918000   773.54286     -3334.7221      49.994131     -3284.728       40152.049      5694.8503    
    919000   811.81157     -3328.7959      52.467441     -3276.3285      43090.22       5694.8503    
    920000   846.19305     -3334.2309      54.689518     -3279.5413      39971.555      5694.8503    
    921000   798.28799     -3331.2148      51.59341      -3279.6214      46028.912      5694.8503    
    922000   805.92225     -3329.1438      52.086813     -3277.057       46886.947      5694.8503    
    923000   814.50697     -3332.1463      52.641645     -3279.5046      45260.851      5694.8503    
    924000   763.65777     -3330.4271      49.355257     -3281.0718      42875.876      5694.8503    
    925000   802.3684      -3332.2991      51.857128     -3280.442       43385.093      5694.8503    
    926000   802.69832     -3329.0161      51.87845      -3277.1376      44350.254      5694.8503    
    927000   815.91069     -3330.5459      52.732367     -3277.8136      43267.473      5694.8503    
    928000   781.92258     -3331.8343      50.535713     -3281.2986      43577.791      5694.8503    
    929000   800.59015     -3331.1618      51.742199     -3279.4196      43987.888      5694.8503    
    930000   800.88361     -3328.409       51.761165     -3276.6479      46043.173      5694.8503    
    931000   770.54944     -3330.33        49.800666     -3280.5293      45118.064      5694.8503    
    932000   791.60749     -3334.5514      51.16165      -3283.3898      40538.711      5694.8503    
    933000   781.61673     -3332.39        50.515946     -3281.874       45846.497      5694.8503    
    934000   803.6361      -3332.2461      51.939059     -3280.307       45095.038      5694.8503    
    935000   779.2595      -3333.8811      50.363598     -3283.5175      44814.409      5694.8503    
    936000   797.86362     -3333.6965      51.565984     -3282.1306      42373.031      5694.8503    
    937000   811.31954     -3332.6097      52.435641     -3280.174       44366.042      5694.8503    
    938000   803.61012     -3330.6336      51.93738      -3278.6963      44187.962      5694.8503    
    939000   771.26042     -3331.5641      49.846617     -3281.7175      42565.042      5694.8503    
    940000   829.41306     -3333.4794      53.605026     -3279.8744      41676.831      5694.8503    
    941000   766.37827     -3331.8748      49.531083     -3282.3437      43127.413      5694.8503    
    942000   775.43515     -3331.532       50.11643      -3281.4156      47607.416      5694.8503    
    943000   754.81197     -3332.6124      48.783552     -3283.8289      42701.316      5694.8503    
    944000   810.14909     -3334.7514      52.359994     -3282.3914      41527.648      5694.8503    
    945000   818.19857     -3331.5762      52.880233     -3278.696       46289.245      5694.8503    
    946000   797.4366      -3330.1594      51.538386     -3278.621       44791.917      5694.8503    
    947000   835.86607     -3329.3066      54.022085     -3275.2845      45431.173      5694.8503    
    948000   804.54975     -3329.6213      51.998109     -3277.6232      44056.035      5694.8503    
    949000   808.72842     -3332.179       52.268176     -3279.9109      42342.886      5694.8503    
    950000   747.68588     -3333.3499      48.322993     -3285.0269      40624.159      5694.8503    
    951000   762.11778     -3331.301       49.255727     -3282.0453      44070.031      5694.8503    
    952000   803.50222     -3330.3587      51.930407     -3278.4283      47233.292      5694.8503    
    953000   803.71261     -3332.9492      51.944004     -3281.0052      42909.34       5694.8503    
    954000   766.25256     -3333.2998      49.522959     -3283.7768      44432.56       5694.8503    
    955000   770.18156     -3330.841       49.77689      -3281.0641      44085.815      5694.8503    
    956000   830.30721     -3330.928       53.662815     -3277.2652      45473.962      5694.8503    
    957000   830.92556     -3329.1032      53.702779     -3275.4004      46910.996      5694.8503    
    958000   822.75645     -3331.5291      53.174809     -3278.3543      44517.509      5694.8503    
    959000   759.52183     -3331.2747      49.087951     -3282.1867      43194.045      5694.8503    
    960000   747.88689     -3329.9868      48.335984     -3281.6508      47238.718      5694.8503    
    961000   776.3268      -3332.4497      50.174057     -3282.2757      45223.324      5694.8503    
    962000   788.68166     -3330.9313      50.972553     -3279.9588      44235.784      5694.8503    
    963000   802.05091     -3331.127       51.836609     -3279.2904      44247.513      5694.8503    
    964000   806.64364     -3334.9675      52.133437     -3282.8341      41670.886      5694.8503    
    965000   803.17124     -3333.6195      51.909015     -3281.7105      39986.05       5694.8503    
    966000   803.11669     -3331.7317      51.90549      -3279.8262      44147.823      5694.8503    
    967000   770.34167     -3333.3652      49.787238     -3283.578       44573.336      5694.8503    
    968000   795.36075     -3333.5274      51.404223     -3282.1232      40584.537      5694.8503    
    969000   813.09469     -3333.4759      52.550369     -3280.9255      44927.767      5694.8503    
    970000   843.00609     -3327.4933      54.483545     -3273.0098      47624.498      5694.8503    
    971000   794.91322     -3330.026       51.375299     -3278.6507      46296.988      5694.8503    
    972000   767.89726     -3330.8749      49.629255     -3281.2456      45863.789      5694.8503    
    973000   799.42751     -3331.5152      51.667058     -3279.8482      46490.357      5694.8503    
    974000   810.48993     -3331.7458      52.382023     -3279.3638      45223.46       5694.8503    
    975000   748.65344     -3332.0117      48.385526     -3283.6262      42853.455      5694.8503    
    976000   762.24482     -3333.3544      49.263938     -3284.0905      43706.757      5694.8503    
    977000   837.38887     -3330.1642      54.120503     -3276.0437      48009.121      5694.8503    
    978000   776.41851     -3330.9952      50.179984     -3280.8153      46527.086      5694.8503    
    979000   760.6682      -3330.0311      49.162041     -3280.869       47260.715      5694.8503    
    980000   799.40386     -3332.5882      51.66553      -3280.9227      44921.704      5694.8503    
    981000   803.14073     -3330.0152      51.907044     -3278.1081      43944.911      5694.8503    
    982000   819.10618     -3328.2755      52.938892     -3275.3366      49926.143      5694.8503    
    983000   793.34771     -3332.2188      51.27412      -3280.9447      44486.916      5694.8503    
    984000   803.08224     -3335.1481      51.903263     -3283.2448      44103.347      5694.8503    
    985000   817.22766     -3335.7538      52.817483     -3282.9363      39127.896      5694.8503    
    986000   811.82715     -3333.1547      52.468447     -3280.6863      47416.141      5694.8503    
    987000   802.68362     -3330.1147      51.877501     -3278.2372      47277.73       5694.8503    
    988000   829.54427     -3331.82        53.613506     -3278.2065      47230.27       5694.8503    
    989000   795.16325     -3332.1874      51.391458     -3280.796       43169.382      5694.8503    
    990000   821.34611     -3334.4727      53.083659     -3281.3891      43336.269      5694.8503    
    991000   834.77835     -3332.1577      53.951785     -3278.2059      44815.109      5694.8503    
    992000   829.63752     -3329.6999      53.619533     -3276.0804      47880.331      5694.8503    
    993000   805.94384     -3327.953       52.088208     -3275.8648      47066.284      5694.8503    
    994000   769.40348     -3331.0789      49.726602     -3281.3523      44785.598      5694.8503    
    995000   795.56088     -3331.8341      51.417157     -3280.4169      44643.276      5694.8503    
    996000   814.85112     -3331.1657      52.663887     -3278.5018      45055.218      5694.8503    
    997000   790.96413     -3335.1693      51.120069     -3284.0492      43548.433      5694.8503    
    998000   759.43784     -3332.3886      49.082523     -3283.3061      45547.166      5694.8503    
    999000   808.59623     -3332.3925      52.259633     -3280.1328      46113.263      5694.8503    
   1000000   800.83867     -3331.8321      51.758262     -3280.0739      43051.713      5694.8503    
   1001000   769.25275     -3331.9957      49.716861     -3282.2788      41573.364      5694.8503    
   1002000   713.02003     -3332.5083      46.082536     -3286.4258      43878.864      5694.8503    
   1003000   809.23163     -3330.3166      52.300699     -3278.0159      45226.399      5694.8503    
   1004000   823.68965     -3329.9084      53.235122     -3276.6733      49025.462      5694.8503    
   1005000   842.79813     -3335.2239      54.470104     -3280.7538      43328.511      5694.8503    
   1006000   793.78383     -3331.8684      51.302306     -3280.5661      43227.268      5694.8503    
   1007000   808.69489     -3329.7799      52.266009     -3277.5139      49720.089      5694.8503    
   1008000   824.80331     -3331.4354      53.307098     -3278.1283      44945.249      5694.8503    
   1009000   784.97845     -3331.5936      50.733214     -3280.8604      46590.033      5694.8503    
   1010000   809.3778      -3336.7165      52.310146     -3284.4063      41394.866      5694.8503    
   1011000   791.26514     -3330.7724      51.139524     -3279.6328      45785.59       5694.8503    
   1012000   813.24428     -3330.3726      52.560036     -3277.8125      48630.973      5694.8503    
   1013000   776.19788     -3328.7634      50.165725     -3278.5977      44950.73       5694.8503    
   1014000   803.12155     -3330.2765      51.905804     -3278.3707      44557.292      5694.8503    
   1015000   738.47465     -3329.6597      47.72767      -3281.932       50671.725      5694.8503    
   1016000   799.70363     -3330.905       51.684904     -3279.2201      46568.525      5694.8503    
   1017000   762.30884     -3325.5078      49.268075     -3276.2397      49012.716      5694.8503    
   1018000   782.1499      -3330.7223      50.550405     -3280.1719      45899.668      5694.8503    
   1019000   798.52232     -3332.2043      51.608555     -3280.5958      44720.274      5694.8503    
   1020000   808.43816     -3332.9595      52.249417     -3280.7101      46440.25       5694.8503    
   1021000   857.32222     -3328.2904      55.408797     -3272.8816      49295.679      5694.8503    
   1022000   788.72824     -3330.5965      50.975563     -3279.621       46823.236      5694.8503    
   1023000   765.90552     -3329.9436      49.500529     -3280.4431      49433.94       5694.8503    
   1024000   813.76967     -3336.235       52.593993     -3283.641       42138.237      5694.8503    
   1025000   778.14104     -3331.7692      50.291312     -3281.4779      46870.967      5694.8503    
   1026000   747.47602     -3329.6522      48.309429     -3281.3428      47502.079      5694.8503    
   1027000   820.03798     -3330.313       52.999114     -3277.3139      46776.309      5694.8503    
   1028000   856.48932     -3328.2848      55.354967     -3272.9299      47070.251      5694.8503    
   1029000   769.2369      -3330.8542      49.715837     -3281.1384      44354.631      5694.8503    
   1030000   757.2418      -3331.4886      48.940592     -3282.548       45397.068      5694.8503    
   1031000   788.5887      -3332.8152      50.966545     -3281.8487      44049.835      5694.8503    
   1032000   805.17616     -3331.6415      52.038594     -3279.6029      45931.246      5694.8503    
   1033000   769.7638      -3330.4401      49.749891     -3280.6902      47601.642      5694.8503    
   1034000   776.93053     -3334.5577      50.213076     -3284.3446      43762.752      5694.8503    
   1035000   778.93871     -3332.2152      50.342865     -3281.8724      45956.726      5694.8503    
   1036000   785.1991      -3328.8398      50.747475     -3278.0924      45874.273      5694.8503    
   1037000   853.86735     -3330.752       55.185508     -3275.5665      46163.518      5694.8503    
   1038000   807.1029      -3330.438       52.163119     -3278.2749      45853.351      5694.8503    
   1039000   784.91957     -3329.9024      50.729409     -3279.173       48139.192      5694.8503    
   1040000   791.84309     -3332.1571      51.176876     -3280.9802      44708.579      5694.8503    
   1041000   796.21984     -3331.8952      51.459746     -3280.4354      44638.393      5694.8503    
   1042000   784.19534     -3329.0781      50.682602     -3278.3955      46894.941      5694.8503    
   1043000   763.08845     -3329.8145      49.318462     -3280.4961      45506.376      5694.8503    
   1044000   780.47344     -3334.866       50.442055     -3284.4239      43264.798      5694.8503    
   1045000   777.14904     -3331.3043      50.227199     -3281.0771      46255.008      5694.8503    
   1046000   822.36111     -3331.8788      53.149258     -3278.7295      46511.537      5694.8503    
   1047000   793.15294     -3335.2514      51.261532     -3283.9899      43245.478      5694.8503    
   1048000   762.76684     -3332.372       49.297676     -3283.0743      46949.169      5694.8503    
   1049000   816.44991     -3333.2076      52.767217     -3280.4404      46082.465      5694.8503    
   1050000   816.98896     -3332.5219      52.802055     -3279.7199      46196.819      5694.8503    
   1051000   762.21037     -3331.8564      49.261711     -3282.5947      45021.688      5694.8503    
   1052000   743.04122     -3334.4348      48.022808     -3286.4119      41995.905      5694.8503    
   1053000   806.99052     -3331.6909      52.155856     -3279.535       47074.008      5694.8503    
   1054000   833.38839     -3332.778       53.861952     -3278.9161      47830.668      5694.8503    
   1055000   782.66068     -3330.9563      50.583417     -3280.3729      48234.231      5694.8503    
   1056000   767.8135      -3333.204       49.623842     -3283.5801      43062.028      5694.8503    
   1057000   751.63263     -3330.2053      48.578071     -3281.6272      44382.969      5694.8503    
   1058000   822.09754     -3331.6822      53.132223     -3278.55        46395.132      5694.8503    
   1059000   802.27062     -3330.886       51.850808     -3279.0352      45701.963      5694.8503    
   1060000   806.55105     -3335.1081      52.127453     -3282.9806      41101.285      5694.8503    
   1061000   766.75286     -3331.6528      49.555293     -3282.0975      45864.135      5694.8503    
   1062000   752.83785     -3331.5125      48.655965     -3282.8566      43585.537      5694.8503    
   1063000   779.183       -3330.356       50.358654     -3279.9974      43633.583      5694.8503    
   1064000   809.87247     -3331.6289      52.342117     -3279.2868      45855.266      5694.8503    
   1065000   814.52844     -3334.193       52.643032     -3281.55        42453.194      5694.8503    
   1066000   829.73776     -3331.6431      53.626011     -3278.0171      44642.49       5694.8503    
   1067000   774.11697     -3329.3696      50.031236     -3279.3384      48565.832      5694.8503    
   1068000   777.3044      -3331.2169      50.237239     -3280.9797      45840.734      5694.8503    
   1069000   742.17804     -3331.693       47.967021     -3283.726       45673.99       5694.8503    
   1070000   810.10061     -3329.2432      52.356861     -3276.8863      47149.896      5694.8503    
   1071000   829.85575     -3329.9201      53.633637     -3276.2864      50679.51       5694.8503    
   1072000   806.89515     -3331.2141      52.149692     -3279.0644      45450.155      5694.8503    
   1073000   792.48247     -3329.6965      51.218199     -3278.4783      47963.486      5694.8503    
   1074000   802.85225     -3332.4641      51.888399     -3280.5757      45585.779      5694.8503    
   1075000   784.6332      -3334.0209      50.710901     -3283.31        44711.273      5694.8503    
   1076000   787.80934     -3333.2884      50.916175     -3282.3722      41528.139      5694.8503    
   1077000   796.70924     -3329.2249      51.491376     -3277.7336      47281.534      5694.8503    
   1078000   810.90572     -3336.301       52.408895     -3283.8922      41370.897      5694.8503    
   1079000   757.68924     -3330.5392      48.969511     -3281.5697      42745.418      5694.8503    
   1080000   825.95969     -3333.0552      53.381834     -3279.6734      41838.075      5694.8503    
   1081000   822.98076     -3330.2927      53.189306     -3277.1034      47386.438      5694.8503    
   1082000   802.98061     -3332.6143      51.896695     -3280.7176      44670.338      5694.8503    
   1083000   749.57687     -3332.8256      48.445208     -3284.3804      44174.547      5694.8503    
   1084000   784.45342     -3330.8349      50.699281     -3280.1356      44897.232      5694.8503    
   1085000   808.59299     -3330.8235      52.259424     -3278.5641      47380.612      5694.8503    
   1086000   784.21611     -3331.9409      50.683944     -3281.257       48694.408      5694.8503    
   1087000   778.61637     -3329.9367      50.322033     -3279.6147      48564.076      5694.8503    
   1088000   831.26539     -3328.6421      53.724743     -3274.9173      50271.545      5694.8503    
   1089000   821.2186      -3329.5324      53.075418     -3276.457       49142.27       5694.8503    
   1090000   775.61451     -3330.3528      50.128022     -3280.2248      47216.661      5694.8503    
   1091000   751.04534     -3331.3331      48.540115     -3282.793       46674.162      5694.8503    
   1092000   807.29523     -3332.9289      52.175549     -3280.7534      44509.539      5694.8503    
   1093000   837.22081     -3328.4438      54.109642     -3274.3341      45538.627      5694.8503    
   1094000   835.83429     -3332.8396      54.020031     -3278.8196      42429.402      5694.8503    
   1095000   805.73267     -3333.6298      52.074561     -3281.5553      41881.643      5694.8503    
   1096000   794.94915     -3331.04        51.377621     -3279.6623      44086.877      5694.8503    
   1097000   819.01934     -3330.22        52.933279     -3277.2868      45366.987      5694.8503    
   1098000   766.10424     -3330.2125      49.513373     -3280.6991      43189.675      5694.8503    
   1099000   750.72799     -3333.7574      48.519604     -3285.2378      43586.576      5694.8503    
   1100000   767.96355     -3332.0287      49.63354      -3282.3952      45258.854      5694.8503    
   1101000   867.98982     -3333.0821      56.098245     -3276.9839      43643.11       5694.8503    
   1102000   785.50807     -3331.1631      50.767443     -3280.3956      43799.459      5694.8503    
   1103000   818.02796     -3332.2718      52.869206     -3279.4025      44138.063      5694.8503    
   1104000   812.25395     -3328.0895      52.496031     -3275.5935      46438.478      5694.8503    
   1105000   799.93136     -3330.3483      51.699622     -3278.6486      44754.647      5694.8503    
   1106000   789.00778     -3331.0665      50.99363      -3280.0728      46262.762      5694.8503    
   1107000   789.23626     -3333.865       51.008397     -3282.8566      42054.884      5694.8503    
   1108000   822.47707     -3331.5703      53.156753     -3278.4135      41650.448      5694.8503    
   1109000   800.84813     -3333.8734      51.758873     -3282.1146      41302.44       5694.8503    
   1110000   796.03802     -3332.8312      51.447995     -3281.3832      43602.844      5694.8503    
   1111000   869.22902     -3334.5279      56.178335     -3278.3496      42504.125      5694.8503    
   1112000   831.72173     -3329.8066      53.754236     -3276.0523      46058.784      5694.8503    
   1113000   786.02389     -3329.8785      50.800781     -3279.0778      43952.735      5694.8503    
   1114000   764.06547     -3331.3708      49.381606     -3281.9892      42508.884      5694.8503    
   1115000   773.35844     -3335.3485      49.982212     -3285.3662      38164.508      5694.8503    
   1116000   779.75025     -3330.6645      50.395315     -3280.2692      45438.019      5694.8503    
   1117000   764.31566     -3330.0959      49.397776     -3280.6981      46323.794      5694.8503    
   1118000   851.14061     -3330.8018      55.009279     -3275.7925      46499.087      5694.8503    
   1119000   792.98543     -3331.8886      51.250706     -3280.6379      44774.964      5694.8503    
   1120000   726.82849     -3328.3871      46.974978     -3281.4121      48251.509      5694.8503    
   1121000   773.30173     -3334.1484      49.978547     -3284.1699      40623.044      5694.8503    
   1122000   753.78588     -3334.75        48.717236     -3286.0328      40514.501      5694.8503    
   1123000   778.02199     -3329.8069      50.283618     -3279.5233      44146.836      5694.8503    
   1124000   787.07433     -3328.1944      50.868671     -3277.3258      44429.179      5694.8503    
   1125000   844.54685     -3331.3508      54.583124     -3276.7677      41697.932      5694.8503    
   1126000   824.68769     -3332.6113      53.299625     -3279.3116      41900.283      5694.8503    
   1127000   772.15419     -3331.8589      49.904381     -3281.9545      43003.594      5694.8503    
   1128000   782.70565     -3331.7595      50.586323     -3281.1732      41281.077      5694.8503    
   1129000   802.27402     -3330.6485      51.851028     -3278.7974      39603.499      5694.8503    
   1130000   767.31285     -3329.5717      49.591485     -3279.9802      44877.438      5694.8503    
   1131000   754.93172     -3333.9476      48.791292     -3285.1563      40860.422      5694.8503    
   1132000   806.18444     -3333.937       52.103759     -3281.8332      43269.579      5694.8503    
   1133000   803.04331     -3333.3588      51.900747     -3281.458       40186.108      5694.8503    
   1134000   862.88706     -3334.6401      55.768453     -3278.8716      42280.554      5694.8503    
   1135000   833.89201     -3332.7749      53.894501     -3278.8804      41587.239      5694.8503    
   1136000   797.24363     -3334.5656      51.525914     -3283.0396      39807.858      5694.8503    
   1137000   773.47606     -3333.787       49.989814     -3283.7972      42546.278      5694.8503    
   1138000   782.52396     -3329.6602      50.57458      -3279.0857      43919.165      5694.8503    
   1139000   793.21806     -3334.8107      51.265741     -3283.545       40785.956      5694.8503    
   1140000   787.65193     -3333.0456      50.906001     -3282.1396      41011.098      5694.8503    
   1141000   765.9932      -3330.2017      49.506196     -3280.6955      40723.462      5694.8503    
   1142000   840.18589     -3328.9914      54.301275     -3274.6901      46814.233      5694.8503    
   1143000   754.86334     -3332.0953      48.786872     -3283.3084      40794.52       5694.8503    
   1144000   805.4664      -3334.974       52.057352     -3282.9167      41248.814      5694.8503    
   1145000   806.70899     -3332.044       52.13766      -3279.9064      44370.759      5694.8503    
   1146000   809.51402     -3330.5972      52.31895      -3278.2783      46463.888      5694.8503    
   1147000   764.92197     -3329.9078      49.436963     -3280.4708      44992.118      5694.8503    
   1148000   739.50047     -3330.2829      47.793969     -3282.489       42306.232      5694.8503    
   1149000   792.73267     -3334.871       51.23437      -3283.6366      42050.73       5694.8503    
   1150000   799.22286     -3332.0078      51.653831     -3280.354       42617.181      5694.8503    
   1151000   795.09428     -3330.8557      51.387001     -3279.4687      44730.055      5694.8503    
   1152000   832.7424      -3331.444       53.820202     -3277.6238      42655.953      5694.8503    
   1153000   828.4608      -3326.4418      53.543482     -3272.8983      47246.12       5694.8503    
   1154000   852.19171     -3335.2942      55.077212     -3280.2169      39665.68       5694.8503    
   1155000   779.79875     -3331.3588      50.39845      -3280.9603      43427.871      5694.8503    
   1156000   766.87346     -3334.5155      49.563087     -3284.9524      39609.953      5694.8503    
   1157000   759.07817     -3331.4944      49.059277     -3282.4351      41922.568      5694.8503    
   1158000   803.63959     -3330.2854      51.939285     -3278.3461      46945.85       5694.8503    
   1159000   852.80358     -3329.1993      55.116757     -3274.0825      48343.355      5694.8503    
   1160000   784.55375     -3333.2657      50.705765     -3282.5599      44152.287      5694.8503    
   1161000   820.13278     -3331.5191      53.005241     -3278.5139      42624.494      5694.8503    
   1162000   856.5975      -3332.5371      55.361959     -3277.1751      43451.019      5694.8503    
   1163000   808.37653     -3329.8829      52.245433     -3277.6374      46399.93       5694.8503    
   1164000   807.48093     -3332.7716      52.187551     -3280.584       41146.327      5694.8503    
   1165000   806.04458     -3332.3429      52.094719     -3280.2481      40334.393      5694.8503    
   1166000   828.46213     -3332.7126      53.543568     -3279.169       43738.068      5694.8503    
   1167000   801.00257     -3329.4959      51.768854     -3277.7271      46273.273      5694.8503    
   1168000   794.11363     -3333.6606      51.323622     -3282.337       40036.963      5694.8503    
   1169000   819.01081     -3333.9215      52.932728     -3280.9888      41746.504      5694.8503    
   1170000   814.79719     -3332.2413      52.660401     -3279.5809      42435.46       5694.8503    
   1171000   844.14956     -3331.2054      54.557447     -3276.648       44810.478      5694.8503    
   1172000   763.04675     -3333.9469      49.315767     -3284.6311      40702.725      5694.8503    
   1173000   761.97557     -3332.7783      49.246536     -3283.5318      42852.111      5694.8503    
   1174000   834.67001     -3333.554       53.944783     -3279.6092      42338.412      5694.8503    
   1175000   812.27211     -3329.3405      52.497206     -3276.8433      48938.435      5694.8503    
   1176000   863.11272     -3331.3017      55.783038     -3275.5187      42293.695      5694.8503    
   1177000   767.21018     -3328.4382      49.584849     -3278.8534      44991.797      5694.8503    
   1178000   793.88668     -3332.5693      51.308953     -3281.2604      46460.924      5694.8503    
   1179000   789.9251      -3331.407       51.052916     -3280.3541      42595.018      5694.8503    
   1180000   867.77791     -3332.7728      56.084549     -3276.6883      43737.096      5694.8503    
   1181000   835.99191     -3331.4207      54.030218     -3277.3905      41214.863      5694.8503    
   1182000   780.08925     -3331.1869      50.417225     -3280.7697      42728.911      5694.8503    
   1183000   762.20416     -3332.2765      49.26131      -3283.0152      43218.788      5694.8503    
   1184000   802.59244     -3330.1422      51.871608     -3278.2706      42856.46       5694.8503    
   1185000   842.48154     -3330.0768      54.449643     -3275.6272      47822.844      5694.8503    
   1186000   862.46564     -3330.1394      55.741217     -3274.3982      46256.348      5694.8503    
   1187000   783.32999     -3331.8341      50.626674     -3281.2074      46241.627      5694.8503    
   1188000   792.73333     -3333.6281      51.234413     -3282.3937      44446.487      5694.8503    
   1189000   757.99529     -3328.7691      48.98929      -3279.7798      46506.832      5694.8503    
   1190000   804.28134     -3328.8679      51.980761     -3276.8871      47866.023      5694.8503    
   1191000   770.15156     -3330.1446      49.774951     -3280.3696      45957.866      5694.8503    
   1192000   828.21478     -3330.4843      53.527581     -3276.9567      44375.403      5694.8503    
   1193000   795.01921     -3331.6979      51.382149     -3280.3157      45608.736      5694.8503    
   1194000   832.58338     -3333.4156      53.809924     -3279.6057      42271.321      5694.8503    
   1195000   842.30049     -3331.4717      54.437942     -3277.0337      44105.236      5694.8503    
   1196000   828.84564     -3331.4798      53.568354     -3277.9115      46442.559      5694.8503    
   1197000   806.22666     -3330.7257      52.106488     -3278.6192      44826.504      5694.8503    
   1198000   773.34909     -3333.3132      49.981608     -3283.3316      43197.381      5694.8503    
   1199000   754.54868     -3334.0757      48.766536     -3285.3091      42954.205      5694.8503    
   1200000   808.46796     -3329.9797      52.251343     -3277.7284      45820.222      5694.8503    
   1201000   765.49557     -3329.6093      49.474034     -3280.1352      43607.975      5694.8503    
   1202000   798.57078     -3329.4407      51.611687     -3277.829       48365.289      5694.8503    
   1203000   896.38907     -3330.6266      57.933691     -3272.6929      48234.128      5694.8503    
   1204000   785.01611     -3333.1012      50.735648     -3282.3656      40061.997      5694.8503    
   1205000   757.98883     -3329.1495      48.988873     -3280.1606      46249.601      5694.8503    
   1206000   748.93334     -3333.2521      48.403616     -3284.8484      43162.445      5694.8503    
   1207000   789.01634     -3332.8724      50.994183     -3281.8782      43346.931      5694.8503    
   1208000   828.14043     -3330.9063      53.522776     -3277.3835      43683.546      5694.8503    
   1209000   760.89198     -3329.5364      49.176504     -3280.3599      46444.723      5694.8503    
   1210000   807.54623     -3335.4538      52.191772     -3283.262       43757.299      5694.8503    
   1211000   818.51446     -3334.1693      52.900649     -3281.2686      44479.353      5694.8503    
   1212000   793.96069     -3330.2666      51.313737     -3278.9529      48409.639      5694.8503    
   1213000   772.92238     -3329.9057      49.954029     -3279.9516      45048.318      5694.8503    
   1214000   766.84771     -3332.256       49.561423     -3282.6945      44025.496      5694.8503    
   1215000   769.4993      -3333.3935      49.732795     -3283.6607      40873.212      5694.8503    
   1216000   767.49758     -3330.5706      49.603424     -3280.9672      42242.757      5694.8503    
   1217000   842.86635     -3333.2059      54.474513     -3278.7314      43723.714      5694.8503    
   1218000   792.40778     -3330.6979      51.213372     -3279.4845      44806.755      5694.8503    
   1219000   793.79524     -3333.98        51.303044     -3282.677       45690.357      5694.8503    
   1220000   757.44357     -3335.4744      48.953633     -3286.5207      39407.43       5694.8503    
   1221000   817.41936     -3331.1901      52.829872     -3278.3602      44443.722      5694.8503    
   1222000   833.09082     -3333.0553      53.84272      -3279.2126      43226.941      5694.8503    
   1223000   799.99941     -3334.4726      51.70402      -3282.7686      41278.121      5694.8503    
   1224000   768.11597     -3335.5763      49.643391     -3285.9329      39632.383      5694.8503    
   1225000   775.55025     -3331.5787      50.123869     -3281.4548      43391.365      5694.8503    
   1226000   835.05544     -3331.7798      53.969694     -3277.8101      44644.535      5694.8503    
   1227000   823.19916     -3330.937       53.203421     -3277.7336      45156.834      5694.8503    
   1228000   775.58037     -3331.3163      50.125816     -3281.1905      43812.008      5694.8503    
   1229000   781.88636     -3331.1751      50.533372     -3280.6417      47642.624      5694.8503    
   1230000   803.59916     -3333.9515      51.936672     -3282.0148      42488.691      5694.8503    
   1231000   816.65069     -3331.514       52.780193     -3278.7338      45265.965      5694.8503    
   1232000   791.13479     -3327.3789      51.131099     -3276.2478      46729.474      5694.8503    
   1233000   820.34611     -3330.9199      53.019029     -3277.9008      46071.927      5694.8503    
   1234000   847.69457     -3334.2439      54.786561     -3279.4573      43462.829      5694.8503    
   1235000   775.77884     -3332.1153      50.138643     -3281.9767      44618.72       5694.8503    
   1236000   798.678       -3335.0238      51.618617     -3283.4052      41376.688      5694.8503    
   1237000   738.40063     -3332.3324      47.722886     -3284.6095      40193.051      5694.8503    
   1238000   777.84101     -3330.5952      50.271921     -3280.3233      42876.876      5694.8503    
   1239000   812.01997     -3333.2216      52.48091      -3280.7406      42408.863      5694.8503    
   1240000   831.61989     -3332.5484      53.747654     -3278.8007      47076.32       5694.8503    
   1241000   790.21469     -3331.6982      51.071632     -3280.6266      45410.434      5694.8503    
   1242000   778.65877     -3333.8647      50.324773     -3283.54        43145.498      5694.8503    
   1243000   817.15728     -3333.2325      52.812934     -3280.4196      43332.94       5694.8503    
   1244000   842.13173     -3333.5612      54.427035     -3279.1341      38427.893      5694.8503    
   1245000   780.7376      -3329.3678      50.459127     -3278.9086      42327.506      5694.8503    
   1246000   778.66616     -3331.1694      50.325251     -3280.8442      44938.165      5694.8503    
   1247000   831.06143     -3336.7895      53.711561     -3283.0779      39414.255      5694.8503    
   1248000   783.72666     -3332.6833      50.652311     -3282.031       43181.039      5694.8503    
   1249000   824.18838     -3332.5268      53.267355     -3279.2594      43092.724      5694.8503    
   1250000   797.10265     -3331.1105      51.516802     -3279.5937      42828.57       5694.8503    
   1251000   750.66386     -3330.8582      48.51546      -3282.3427      43718.763      5694.8503    
   1252000   776.25125     -3332.189       50.169175     -3282.0198      44516.88       5694.8503    
   1253000   790.52358     -3333.2592      51.091596     -3282.1676      43696.099      5694.8503    
   1254000   842.19597     -3333.4309      54.431187     -3278.9997      43292.66       5694.8503    
   1255000   848.25235     -3331.3697      54.822611     -3276.5471      45704.85       5694.8503    
   1256000   818.09449     -3332.7906      52.873506     -3279.9171      44202.057      5694.8503    
   1257000   840.55311     -3333.6425      54.325008     -3279.3175      42428.279      5694.8503    
   1258000   823.03031     -3329.6076      53.192509     -3276.4151      46901.399      5694.8503    
   1259000   801.68207     -3331.1607      51.812771     -3279.3479      44156.689      5694.8503    
   1260000   740.40998     -3332.015       47.852751     -3284.1623      43831.717      5694.8503    
   1261000   827.10195     -3334.7198      53.455659     -3281.2641      42751.64       5694.8503    
   1262000   805.52194     -3330.31        52.060941     -3278.2491      46118.375      5694.8503    
   1263000   796.23242     -3333.0825      51.460559     -3281.622       41526.906      5694.8503    
   1264000   773.7698      -3332.9685      50.008799     -3282.9597      43669.759      5694.8503    
   1265000   744.31744     -3331.568       48.10529      -3283.4627      44069.449      5694.8503    
   1266000   794.89603     -3330.7534      51.374188     -3279.3792      47159.427      5694.8503    
   1267000   823.61392     -3329.8645      53.230228     -3276.6343      48995.763      5694.8503    
   1268000   827.59574     -3333.7289      53.487573     -3280.2413      44662.118      5694.8503    
   1269000   771.00994     -3331.3305      49.830428     -3281.5001      44604.147      5694.8503    
   1270000   768.44647     -3333.3367      49.664751     -3283.6719      44156.54       5694.8503    
   1271000   748.27965     -3328.1413      48.361368     -3279.7799      48352.748      5694.8503    
   1272000   822.84312     -3332.5158      53.18041      -3279.3354      44305.828      5694.8503    
   1273000   782.19549     -3334.9806      50.553351     -3284.4272      40615.514      5694.8503    
   1274000   756.64954     -3332.1604      48.902315     -3283.2581      44479.218      5694.8503    
   1275000   792.97837     -3331.4638      51.25025      -3280.2135      43636.792      5694.8503    
   1276000   810.94893     -3333.9769      52.411688     -3281.5652      39294.449      5694.8503    
   1277000   831.15059     -3333.3049      53.717323     -3279.5876      45495.885      5694.8503    
   1278000   837.32751     -3328.6498      54.116537     -3274.5332      48246.795      5694.8503    
   1279000   761.2021      -3330.3846      49.196547     -3281.1881      43186.747      5694.8503    
   1280000   764.94054     -3333.59        49.438162     -3284.1518      43040.557      5694.8503    
   1281000   837.33147     -3331.0363      54.116794     -3276.9195      48482.773      5694.8503    
   1282000   779.30251     -3332.3197      50.366377     -3281.9534      40207.621      5694.8503    
   1283000   746.46867     -3332.3733      48.244324     -3284.129       40417.368      5694.8503    
   1284000   787.81041     -3336.6615      50.916244     -3285.7453      39786.23       5694.8503    
   1285000   778.96212     -3330.6363      50.344379     -3280.2919      43061.288      5694.8503    
   1286000   782.78759     -3329.4965      50.591619     -3278.9049      45272.458      5694.8503    
   1287000   720.73819     -3330.6828      46.581361     -3284.1014      43729.597      5694.8503    
   1288000   752.76648     -3334.1878      48.651352     -3285.5364      41608.423      5694.8503    
   1289000   739.90137     -3329.3929      47.819879     -3281.5731      46708.378      5694.8503    
   1290000   787.15766     -3330.0209      50.874056     -3279.1468      46917.316      5694.8503    
   1291000   824.63815     -3332.483       53.296423     -3279.1866      43637.569      5694.8503    
   1292000   783.1112      -3329.4286      50.612533     -3278.8161      42765.882      5694.8503    
   1293000   813.44527     -3335.7949      52.573027     -3283.2219      41817.238      5694.8503    
   1294000   748.66001     -3334.2725      48.385951     -3285.8865      38430.203      5694.8503    
   1295000   765.37753     -3330.1101      49.466405     -3280.6437      42217.698      5694.8503    
   1296000   848.51265     -3330.6968      54.839434     -3275.8573      44735.026      5694.8503    
   1297000   794.2296      -3331.0007      51.331117     -3279.6696      45950.038      5694.8503    
   1298000   744.58321     -3331.487       48.122467     -3283.3645      44472.934      5694.8503    
   1299000   771.66062     -3332.6376      49.872482     -3282.7651      45024.991      5694.8503    
   1300000   812.7074      -3332.0767      52.525338     -3279.5513      42833.007      5694.8503    
   1301000   799.02077     -3331.8366      51.64077      -3280.1959      42278.814      5694.8503    
   1302000   803.03711     -3331.9282      51.900347     -3280.0279      41730.258      5694.8503    
   1303000   833.61705     -3331.9832      53.876731     -3278.1065      44109.935      5694.8503    
   1304000   857.27696     -3329.6355      55.405872     -3274.2296      44879.165      5694.8503    
   1305000   817.92389     -3331.3451      52.86248      -3278.4826      43891.066      5694.8503    
   1306000   768.06278     -3332.1682      49.639953     -3282.5282      43713.654      5694.8503    
   1307000   764.16117     -3331.2885      49.387792     -3281.9007      44719.893      5694.8503    
   1308000   783.14415     -3329.3216      50.614663     -3278.707       46969.745      5694.8503    
   1309000   799.51288     -3332.348       51.672576     -3280.6755      40728.607      5694.8503    
   1310000   732.42172     -3331.8233      47.336469     -3284.4868      42460.677      5694.8503    
   1311000   852.86566     -3334.74        55.120769     -3279.6193      41373.04       5694.8503    
   1312000   773.18553     -3327.1956      49.971037     -3277.2246      45954.039      5694.8503    
   1313000   827.59677     -3333.651       53.487639     -3280.1633      45291.957      5694.8503    
   1314000   826.8173      -3331.815       53.437262     -3278.3777      43836.396      5694.8503    
   1315000   828.48642     -3333.6973      53.545137     -3280.1522      42132.51       5694.8503    
   1316000   824.46823     -3331.0068      53.285442     -3277.7214      42925.761      5694.8503    
   1317000   830.26147     -3329.8924      53.659859     -3276.2325      45483.517      5694.8503    
   1318000   758.20182     -3329.5206      49.002638     -3280.5179      44075.858      5694.8503    
   1319000   794.02283     -3332.2745      51.317753     -3280.9568      45374.734      5694.8503    
   1320000   788.09396     -3330.2599      50.93457      -3279.3253      47051.864      5694.8503    
   1321000   879.29437     -3332.858       56.828859     -3276.0292      43641.252      5694.8503    
   1322000   816.23398     -3332.169       52.753261     -3279.4157      44433.232      5694.8503    
   1323000   802.42869     -3332.0991      51.861024     -3280.238       44560.209      5694.8503    
   1324000   779.45448     -3332.0009      50.376199     -3281.6247      43285.407      5694.8503    
   1325000   802.10673     -3333.4408      51.840216     -3281.6006      42005.049      5694.8503    
   1326000   817.84093     -3333.4438      52.857119     -3280.5867      42140.738      5694.8503    
   1327000   796.43001     -3333.7524      51.473329     -3282.2791      39822.858      5694.8503    
   1328000   829.68702     -3332.4527      53.622732     -3278.83        41319.992      5694.8503    
   1329000   825.02813     -3332.068       53.321628     -3278.7463      46844.898      5694.8503    
   1330000   826.72159     -3331.9106      53.431076     -3278.4795      41225.098      5694.8503    
   1331000   836.41656     -3336.5664      54.057663     -3282.5088      40741.219      5694.8503    
   1332000   831.17221     -3330.9213      53.71872      -3277.2026      46172.582      5694.8503    
   1333000   817.90701     -3328.687       52.86139      -3275.8256      46943.643      5694.8503    
   1334000   810.79058     -3330.0622      52.401454     -3277.6607      46072.907      5694.8503    
   1335000   795.83604     -3332.5717      51.434941     -3281.1368      44067.067      5694.8503    
   1336000   789.94448     -3330.2285      51.054169     -3279.1743      45572.597      5694.8503    
   1337000   822.11511     -3327.4785      53.133359     -3274.3451      47927.517      5694.8503    
   1338000   827.56315     -3331.5951      53.485466     -3278.1096      44346.007      5694.8503    
   1339000   795.35048     -3333.4085      51.403559     -3282.005       41940.037      5694.8503    
   1340000   761.48834     -3331.6587      49.215047     -3282.4437      44535.084      5694.8503    
   1341000   845.39493     -3330.9809      54.637936     -3276.343       46836.554      5694.8503    
   1342000   845.28952     -3330.9017      54.631123     -3276.2706      44610.903      5694.8503    
   1343000   843.54151     -3333.3136      54.518149     -3278.7955      41375.453      5694.8503    
   1344000   810.5442      -3333.6419      52.385531     -3281.2564      39078.868      5694.8503    
   1345000   797.73707     -3333.7637      51.557805     -3282.2059      42324.844      5694.8503    
   1346000   755.01349     -3329.6084      48.796576     -3280.8119      43887.708      5694.8503    
   1347000   850.70868     -3329.4711      54.981364     -3274.4897      47255.593      5694.8503    
   1348000   811.04682     -3333.4948      52.418015     -3281.0767      41248.344      5694.8503    
   1349000   827.55292     -3332.2754      53.484806     -3278.7906      44358.265      5694.8503    
   1350000   797.26064     -3330.8427      51.527013     -3279.3157      44883.578      5694.8503    
   1351000   788.29722     -3327.3998      50.947707     -3276.4521      46889.124      5694.8503    
   1352000   820.21814     -3332.483       53.010758     -3279.4722      45008.307      5694.8503    
   1353000   816.53921     -3334.4315      52.772988     -3281.6585      42062.407      5694.8503    
   1354000   747.39844     -3335.4858      48.304415     -3287.1814      40614.697      5694.8503    
   1355000   793.28203     -3330.7012      51.269875     -3279.4314      42616.722      5694.8503    
   1356000   840.03359     -3332.8927      54.291432     -3278.6013      44224.608      5694.8503    
   1357000   794.14313     -3330.8654      51.325528     -3279.5399      44571.139      5694.8503    
   1358000   827.81451     -3331.6656      53.501712     -3278.1639      45465.916      5694.8503    
   1359000   812.93489     -3333.6132      52.540041     -3281.0732      40979.318      5694.8503    
   1360000   768.46005     -3333.3757      49.665629     -3283.71        40919.858      5694.8503    
   1361000   770.40927     -3332.9344      49.791607     -3283.1428      40653.627      5694.8503    
   1362000   859.23318     -3333.4487      55.532303     -3277.9164      44391.346      5694.8503    
   1363000   793.67234     -3331.5228      51.295101     -3280.2277      45623.361      5694.8503    
   1364000   804.29227     -3330.4732      51.981468     -3278.4917      47261.779      5694.8503    
   1365000   793.9079      -3331.4245      51.310325     -3280.1141      43739.542      5694.8503    
   1366000   829.46388     -3331.5942      53.608311     -3277.9859      44266.097      5694.8503    
   1367000   760.72828     -3327.9879      49.165924     -3278.822       47639.699      5694.8503    
   1368000   762.91592     -3333.5253      49.307311     -3284.218       40974.866      5694.8503    
   1369000   773.4415      -3333.5559      49.98758      -3283.5683      44997.115      5694.8503    
   1370000   745.55245     -3330.1793      48.185109     -3281.9942      47001.204      5694.8503    
   1371000   812.25428     -3331.1917      52.496053     -3278.6956      44677.676      5694.8503    
   1372000   802.05177     -3330.7256      51.836664     -3278.8889      47011.752      5694.8503    
   1373000   835.60192     -3332.918       54.005013     -3278.913       41841.567      5694.8503    
   1374000   784.79205     -3332.8212      50.721167     -3282.1001      43684.429      5694.8503    
   1375000   754.21271     -3331.8123      48.744822     -3283.0675      44861.068      5694.8503    
   1376000   819.80682     -3332.322       52.984174     -3279.3378      46730.944      5694.8503    
   1377000   801.47398     -3331.5325      51.799321     -3279.7332      46423.161      5694.8503    
   1378000   767.97307     -3331.3182      49.634155     -3281.684       41368.157      5694.8503    
   1379000   781.57025     -3334.0031      50.512942     -3283.4902      41894.626      5694.8503    
   1380000   775.98373     -3332.7973      50.151885     -3282.6454      43380.922      5694.8503    
   1381000   799.37477     -3330.9119      51.663649     -3279.2482      45348.996      5694.8503    
   1382000   848.20125     -3334.47        54.819308     -3279.6507      44441.357      5694.8503    
   1383000   806.46899     -3336.1717      52.122149     -3284.0495      40076.012      5694.8503    
   1384000   761.03718     -3334.196       49.185888     -3285.0101      43111.745      5694.8503    
   1385000   811.97636     -3332.302       52.478091     -3279.8239      44855.116      5694.8503    
   1386000   843.59663     -3332.2692      54.521711     -3277.7475      44581.002      5694.8503    
   1387000   832.62898     -3329.5946      53.812871     -3275.7818      46335.24       5694.8503    
   1388000   824.1681      -3329.6821      53.266044     -3276.4161      44376.879      5694.8503    
   1389000   765.79309     -3331.1695      49.493263     -3281.6763      43456.505      5694.8503    
   1390000   798.38519     -3332.8096      51.599693     -3281.2099      43016.347      5694.8503    
   1391000   808.42016     -3327.5043      52.248254     -3275.2561      50120.354      5694.8503    
   1392000   770.01472     -3329.0917      49.766107     -3279.3256      45117.154      5694.8503    
   1393000   759.84067     -3332.0629      49.108557     -3282.9544      41845.189      5694.8503    
   1394000   806.71689     -3332.0935      52.138171     -3279.9554      44600.553      5694.8503    
   1395000   863.22305     -3329.9208      55.790169     -3274.1306      50288.502      5694.8503    
   1396000   804.40645     -3330.6383      51.988847     -3278.6494      44819.578      5694.8503    
   1397000   784.16854     -3330.8304      50.68087      -3280.1496      43907.345      5694.8503    
   1398000   795.7633      -3334.2696      51.43024      -3282.8393      42376.215      5694.8503    
   1399000   793.36841     -3331.5715      51.275458     -3280.296       46891.806      5694.8503    
   1400000   820.45736     -3330.2532      53.026219     -3277.2269      44738.268      5694.8503    
   1401000   809.36482     -3331.6716      52.309307     -3279.3623      46373.767      5694.8503    
   1402000   821.06853     -3335.1842      53.065718     -3282.1184      42456.319      5694.8503    
   1403000   811.68139     -3332.2173      52.459027     -3279.7582      43700.904      5694.8503    
   1404000   837.3379      -3330.7837      54.117209     -3276.6665      46395.984      5694.8503    
   1405000   869.74946     -3332.7464      56.211971     -3276.5344      45282.177      5694.8503    
   1406000   806.75853     -3333.3149      52.140862     -3281.174       42224.281      5694.8503    
   1407000   762.00735     -3331.4977      49.24859      -3282.2491      47631.727      5694.8503    
   1408000   800.89758     -3332.2134      51.762069     -3280.4513      42892.224      5694.8503    
   1409000   828.89983     -3329.6993      53.571856     -3276.1275      46058.593      5694.8503    
   1410000   831.27636     -3329.5208      53.725451     -3275.7954      45609.681      5694.8503    
   1411000   805.5536      -3332.5035      52.062987     -3280.4405      44118.042      5694.8503    
   1412000   785.49234     -3333.7765      50.766427     -3283.0101      42837.406      5694.8503    
   1413000   789.24189     -3332.3215      51.008761     -3281.3128      44384.293      5694.8503    
   1414000   802.22412     -3329.537       51.847803     -3277.6892      44278.451      5694.8503    
   1415000   809.93415     -3331.903       52.346103     -3279.5569      44007.764      5694.8503    
   1416000   782.27048     -3335.1402      50.558198     -3284.582       42695.565      5694.8503    
   1417000   788.94309     -3333.6444      50.989449     -3282.6549      42011.832      5694.8503    
   1418000   777.45125     -3330.2165      50.24673      -3279.9698      42516.289      5694.8503    
   1419000   820.99577     -3332.809       53.061016     -3279.748       42159.303      5694.8503    
   1420000   758.07619     -3332.2392      48.994519     -3283.2447      43136.864      5694.8503    
   1421000   834.56972     -3333.3572      53.938302     -3279.4188      42878.555      5694.8503    
   1422000   829.17402     -3333.9322      53.589577     -3280.3426      40464.813      5694.8503    
   1423000   803.91315     -3334.0471      51.956965     -3282.0901      43239.724      5694.8503    
   1424000   793.7677      -3330.2554      51.301264     -3278.9541      44151.118      5694.8503    
   1425000   853.93789     -3333.0081      55.190068     -3277.8181      44708.356      5694.8503    
   1426000   800.00473     -3328.4961      51.704364     -3276.7917      46582.092      5694.8503    
   1427000   768.02371     -3334.62        49.637428     -3284.9826      41351.577      5694.8503    
   1428000   742.70633     -3333.5236      48.001164     -3285.5225      39349.129      5694.8503    
   1429000   777.54113     -3330.0587      50.25254      -3279.8061      45736.5        5694.8503    
   1430000   792.44096     -3330.5692      51.215517     -3279.3537      44215.367      5694.8503    
   1431000   789.39781     -3332.5233      51.018838     -3281.5045      41795.89       5694.8503    
   1432000   817.53036     -3335.4823      52.837047     -3282.6453      42940.211      5694.8503    
   1433000   755.19829     -3331.4808      48.808521     -3282.6723      45913.06       5694.8503    
   1434000   779.21954     -3335.0901      50.361015     -3284.7291      39641.992      5694.8503    
   1435000   840.4383      -3331.5472      54.317588     -3277.2296      42894.928      5694.8503    
   1436000   802.578       -3334.3264      51.870674     -3282.4557      41301.652      5694.8503    
   1437000   780.2289      -3329.8093      50.42625      -3279.383       44117.883      5694.8503    
   1438000   836.51382     -3333.8889      54.063949     -3279.8249      42941.866      5694.8503    
   1439000   825.62538     -3329.9412      53.360228     -3276.5809      46402.592      5694.8503    
   1440000   837.10658     -3329.4446      54.102259     -3275.3424      49289.104      5694.8503    
   1441000   809.02256     -3335.2641      52.287186     -3282.9769      40774.747      5694.8503    
   1442000   830.17592     -3333.1973      53.65433      -3279.543       45090.948      5694.8503    
   1443000   796.50456     -3329.8299      51.478147     -3278.3518      44086.449      5694.8503    
   1444000   860.30645     -3331.1652      55.601668     -3275.5635      47565.766      5694.8503    
   1445000   802.93624     -3332.2105      51.893827     -3280.3167      43114.185      5694.8503    
   1446000   786.8061      -3331.8802      50.851335     -3281.0288      43086.289      5694.8503    
   1447000   822.78127     -3330.8392      53.176413     -3277.6628      43832.732      5694.8503    
   1448000   797.84243     -3329.9056      51.564614     -3278.341       47541.828      5694.8503    
   1449000   802.02221     -3333.4347      51.834754     -3281.5999      43682.221      5694.8503    
   1450000   798.73755     -3333.8371      51.622466     -3282.2146      44125.538      5694.8503    
   1451000   802.29475     -3331.193       51.852368     -3279.3406      43397.895      5694.8503    
   1452000   818.3         -3330.5877      52.886788     -3277.7009      44663.93       5694.8503    
   1453000   788.05524     -3331.7268      50.932067     -3280.7947      42856.534      5694.8503    
   1454000   798.15566     -3331.9567      51.584858     -3280.3718      42970.082      5694.8503    
   1455000   827.61637     -3330.8759      53.488906     -3277.3869      44224.703      5694.8503    
   1456000   818.94682     -3331.6162      52.928593     -3278.6876      46191.29       5694.8503    
   1457000   794.25144     -3331.027       51.332528     -3279.6945      41869.592      5694.8503    
   1458000   780.97182     -3336.2845      50.474266     -3285.8103      40256.305      5694.8503    
   1459000   804.02568     -3332.5776      51.964238     -3280.6134      45138.164      5694.8503    
   1460000   791.83764     -3330.8511      51.176524     -3279.6746      45054.622      5694.8503    
   1461000   812.36267     -3329.1066      52.503058     -3276.6035      46183.851      5694.8503    
   1462000   850.88017     -3333.7357      54.992447     -3278.7433      40123.535      5694.8503    
   1463000   801.11325     -3329.963       51.776008     -3278.1869      47206.571      5694.8503    
   1464000   813.3761      -3333.4487      52.568556     -3280.8801      42649.382      5694.8503    
   1465000   765.70268     -3330.9002      49.487419     -3281.4128      45799.083      5694.8503    
   1466000   830.37357     -3329.4501      53.667104     -3275.783       48864.179      5694.8503    
   1467000   778.09381     -3328.8868      50.288259     -3278.5985      48750.24       5694.8503    
   1468000   812.08906     -3332.6964      52.485375     -3280.211       45268.005      5694.8503    
   1469000   771.16211     -3330.8259      49.840263     -3280.9856      44177.278      5694.8503    
   1470000   766.77614     -3332.8134      49.556798     -3283.2566      41816.553      5694.8503    
   1471000   770.51053     -3330.7337      49.798151     -3280.9356      46698.018      5694.8503    
   1472000   829.3498      -3333.0921      53.600938     -3279.4912      43054.477      5694.8503    
   1473000   769.91935     -3333.7309      49.759944     -3283.9709      43870.584      5694.8503    
   1474000   772.81507     -3335.1349      49.947094     -3285.1878      40300.371      5694.8503    
   1475000   828.75473     -3334.1735      53.562478     -3280.6111      43080.305      5694.8503    
   1476000   846.71        -3332.4079      54.722928     -3277.6849      45576.012      5694.8503    
   1477000   804.638       -3332.7142      52.003812     -3280.7104      43889.265      5694.8503    
   1478000   785.5373      -3336.3771      50.769333     -3285.6078      41065.065      5694.8503    
   1479000   769.01116     -3333.886       49.701247     -3284.1847      41967.327      5694.8503    
   1480000   806.89649     -3333.4737      52.149778     -3281.3239      44606.813      5694.8503    
   1481000   847.24941     -3332.0594      54.757791     -3277.3016      45010.83       5694.8503    
   1482000   851.12338     -3329.9292      55.008166     -3274.921       46667.217      5694.8503    
   1483000   805.08174     -3331.7042      52.032491     -3279.6717      45106.577      5694.8503    
   1484000   745.38338     -3331.8598      48.174182     -3283.6856      37415.519      5694.8503    
   1485000   794.10794     -3332.8851      51.323254     -3281.5619      43727.458      5694.8503    
   1486000   818.28309     -3329.275       52.885696     -3276.3893      46771.916      5694.8503    
   1487000   785.92929     -3332.0427      50.794667     -3281.2481      43630.358      5694.8503    
   1488000   763.16297     -3332.7806      49.323278     -3283.4573      43671.335      5694.8503    
   1489000   794.96557     -3333.2649      51.378683     -3281.8863      40035.247      5694.8503    
   1490000   828.65106     -3333.5724      53.555778     -3280.0166      40869.27       5694.8503    
   1491000   786.22793     -3329.8392      50.813968     -3279.0252      47333.046      5694.8503    
   1492000   732.52438     -3331.4066      47.343104     -3284.0635      42292.607      5694.8503    
   1493000   771.47807     -3331.6655      49.860683     -3281.8048      44763.703      5694.8503    
   1494000   843.58093     -3329.5509      54.520697     -3275.0303      45228.451      5694.8503    
   1495000   799.43712     -3329.4449      51.667679     -3277.7772      44208.637      5694.8503    
   1496000   780.82983     -3329.7208      50.465089     -3279.2558      43336.274      5694.8503    
   1497000   775.26772     -3332.1578      50.105609     -3282.0522      44421.551      5694.8503    
   1498000   812.74917     -3335.46        52.528038     -3282.932       42503.514      5694.8503    
   1499000   821.73126     -3331.6204      53.108551     -3278.5119      43051.864      5694.8503    
   1500000   847.78515     -3334.0617      54.792416     -3279.2693      42966.263      5694.8503    
   1501000   775.52116     -3335.5659      50.121989     -3285.4439      41285.322      5694.8503    
   1502000   844.28705     -3333.1784      54.566333     -3278.6121      43042.593      5694.8503    
   1503000   804.48592     -3328.9849      51.993983     -3276.9909      47262.458      5694.8503    
   1504000   797.48915     -3329.9971      51.541782     -3278.4553      46449.273      5694.8503    
   1505000   802.96635     -3332.8664      51.895774     -3280.9707      43923.485      5694.8503    
   1506000   757.7253      -3333.0951      48.971841     -3284.1233      44766.24       5694.8503    
   1507000   782.98561     -3331.7507      50.604417     -3281.1463      43437.487      5694.8503    
   1508000   811.27679     -3332.092       52.432878     -3279.6591      42405.181      5694.8503    
   1509000   794.04944     -3333.1917      51.319473     -3281.8723      44901.725      5694.8503    
   1510000   795.77335     -3333.5531      51.430889     -3282.1222      40050.282      5694.8503    
   1511000   771.7386      -3332.4606      49.877521     -3282.5831      41897.706      5694.8503    
   1512000   833.61        -3331.1685      53.876275     -3277.2922      47143.681      5694.8503    
   1513000   814.11894     -3329.2893      52.616566     -3276.6727      43990.868      5694.8503    
   1514000   806.68218     -3333.1451      52.135928     -3281.0091      43769.813      5694.8503    
   1515000   786.09579     -3331.9538      50.805428     -3281.1483      44974.938      5694.8503    
   1516000   810.52545     -3329.9512      52.384319     -3277.5669      45397.379      5694.8503    
   1517000   844.63183     -3332.8834      54.588617     -3278.2948      42949.403      5694.8503    
   1518000   770.52084     -3332.1639      49.798818     -3282.3651      44378.153      5694.8503    
   1519000   762.51835     -3329.475       49.281616     -3280.1934      44173.365      5694.8503    
   1520000   784.35581     -3331.9808      50.692973     -3281.2879      45655.105      5694.8503    
   1521000   798.04809     -3334.6836      51.577906     -3283.1057      37760.587      5694.8503    
   1522000   779.0482      -3332.3627      50.349941     -3282.0127      42358.104      5694.8503    
   1523000   802.19173     -3332.2033      51.84571      -3280.3575      42760.104      5694.8503    
   1524000   846.44585     -3328.3048      54.705856     -3273.599       48121.342      5694.8503    
   1525000   797.7385      -3330.9031      51.557897     -3279.3452      43092.911      5694.8503    
   1526000   796.19937     -3331.9545      51.458423     -3280.4961      44726.475      5694.8503    
   1527000   813.98469     -3331.0112      52.607889     -3278.4033      45713.378      5694.8503    
   1528000   738.44376     -3335.9952      47.725674     -3288.2696      41960.017      5694.8503    
   1529000   778.68393     -3331.2633      50.326399     -3280.9369      44586.979      5694.8503    
   1530000   833.34141     -3331.9889      53.858916     -3278.13        45026.999      5694.8503    
   1531000   853.31389     -3330.284       55.149739     -3275.1343      44390.199      5694.8503    
   1532000   848.18064     -3332.9292      54.817976     -3278.1112      43079.57       5694.8503    
   1533000   772.59045     -3331.5856      49.932577     -3281.653       41860.742      5694.8503    
   1534000   832.29378     -3331.6763      53.791208     -3277.8851      39226.358      5694.8503    
   1535000   837.09559     -3332.101       54.101549     -3277.9995      44816.799      5694.8503    
   1536000   841.23067     -3337.3255      54.368799     -3282.9567      34557.721      5694.8503    
   1537000   778.20951     -3332.227       50.295737     -3281.9313      43239.128      5694.8503    
   1538000   802.59809     -3332.1251      51.871973     -3280.2531      46653.398      5694.8503    
   1539000   854.30536     -3330.4009      55.213817     -3275.1871      43228.909      5694.8503    
   1540000   789.59744     -3334.0626      51.03174      -3283.0308      41009.873      5694.8503    
   1541000   812.99142     -3331.3993      52.543695     -3278.8556      42865.297      5694.8503    
   1542000   791.30297     -3330.9056      51.141969     -3279.7636      43468.799      5694.8503    
   1543000   791.75929     -3332.9351      51.171461     -3281.7636      42695.084      5694.8503    
   1544000   767.21819     -3328.5521      49.585367     -3278.9667      45620.437      5694.8503    
   1545000   751.32841     -3330.2412      48.55841      -3281.6828      43663.255      5694.8503    
   1546000   771.631       -3335.743       49.870568     -3285.8724      38222.397      5694.8503    
   1547000   795.49056     -3335.4896      51.412613     -3284.077       37510.738      5694.8503    
   1548000   812.87233     -3334.2986      52.535998     -3281.7627      39996.371      5694.8503    
   1549000   815.85066     -3330.4705      52.728487     -3277.742       44362.505      5694.8503    
   1550000   849.99863     -3335.807       54.935473     -3280.8715      40774.203      5694.8503    
   1551000   762.22408     -3333.2539      49.262598     -3283.9913      39255.039      5694.8503    
   1552000   775.89376     -3337.2245      50.14607      -3287.0785      35501.333      5694.8503    
   1553000   826.74459     -3332.1224      53.432562     -3278.6898      44240.334      5694.8503    
   1554000   795.24404     -3330.7805      51.39668      -3279.3838      41354.638      5694.8503    
   1555000   781.82594     -3334.5538      50.529467     -3284.0244      39025.004      5694.8503    
   1556000   743.6123      -3331.7299      48.059717     -3283.6702      44183.064      5694.8503    
   1557000   760.68985     -3332.0472      49.16344      -3282.8838      42706.352      5694.8503    
   1558000   834.20403     -3329.0865      53.914667     -3275.1719      44841.023      5694.8503    
   1559000   840.36457     -3330.9002      54.312823     -3276.5874      46850.527      5694.8503    
   1560000   782.29794     -3331.5661      50.559972     -3281.0061      40923.752      5694.8503    
   1561000   751.89303     -3331.91        48.594901     -3283.3151      42954.08       5694.8503    
   1562000   781.01273     -3331.2207      50.476909     -3280.7438      41725.312      5694.8503    
   1563000   811.8011      -3331.0118      52.466764     -3278.5451      42730.057      5694.8503    
   1564000   822.86377     -3334.1147      53.181745     -3280.9329      40296.617      5694.8503    
   1565000   845.17205     -3333.8689      54.623531     -3279.2453      42498.623      5694.8503    
   1566000   787.5109      -3333.3634      50.896886     -3282.4665      40838.023      5694.8503    
   1567000   766.55415     -3335.2654      49.54245      -3285.723       40629.05       5694.8503    
   1568000   780.12155     -3333.5048      50.419313     -3283.0855      46419.023      5694.8503    
   1569000   845.68852     -3333.7827      54.656911     -3279.1258      41071.611      5694.8503    
   1570000   806.24022     -3333.8832      52.107364     -3281.7759      42329.341      5694.8503    
   1571000   730.16188     -3334.5392      47.190415     -3287.3488      39128.598      5694.8503    
   1572000   816.94078     -3330.3987      52.798942     -3277.5998      43584.736      5694.8503    
   1573000   812.09256     -3332.6028      52.485601     -3280.1172      42259.746      5694.8503    
   1574000   776.70266     -3332.6462      50.198349     -3282.4478      39062.909      5694.8503    
   1575000   799.69823     -3333.015       51.684555     -3281.3305      41813.779      5694.8503    
   1576000   760.28712     -3331.7636      49.137412     -3282.6262      43839.006      5694.8503    
   1577000   741.50429     -3329.6899      47.923476     -3281.7665      42004.159      5694.8503    
   1578000   851.95729     -3330.4417      55.062061     -3275.3797      44820.789      5694.8503    
   1579000   828.37145     -3333.2253      53.537707     -3279.6876      41518.701      5694.8503    
   1580000   790.40702     -3333.5616      51.084063     -3282.4775      38509.643      5694.8503    
   1581000   827.63827     -3333.5824      53.490321     -3280.0921      41424.776      5694.8503    
   1582000   763.88671     -3331.6406      49.370054     -3282.2706      42192.288      5694.8503    
   1583000   755.97981     -3333.9897      48.85903      -3285.1307      42488.603      5694.8503    
   1584000   813.78148     -3336.7198      52.594756     -3284.1251      39570.942      5694.8503    
   1585000   784.6389      -3332.3211      50.711269     -3281.6099      42595.114      5694.8503    
   1586000   825.73622     -3332.1193      53.367392     -3278.7519      44565.571      5694.8503    
   1587000   853.52659     -3330.3783      55.163486     -3275.2149      43977.214      5694.8503    
   1588000   813.50747     -3333.9847      52.577047     -3281.4077      39610.417      5694.8503    
   1589000   830.69471     -3335.8585      53.687859     -3282.1707      40615.391      5694.8503    
   1590000   804.18808     -3330.0858      51.974734     -3278.1111      42002.861      5694.8503    
   1591000   782.70978     -3335.7071      50.58659      -3285.1205      39495.825      5694.8503    
   1592000   758.44326     -3333.9433      49.018243     -3284.9251      42668.189      5694.8503    
   1593000   821.6308      -3332.4484      53.102058     -3279.3464      44342.403      5694.8503    
   1594000   813.7972      -3330.7848      52.595772     -3278.189       43915.903      5694.8503    
   1595000   769.06623     -3334.8488      49.704806     -3285.1439      40862.425      5694.8503    
   1596000   778.73147     -3333.3923      50.329471     -3283.0629      41798.551      5694.8503    
   1597000   761.81259     -3329.4258      49.236003     -3280.1898      42081.713      5694.8503    
   1598000   841.37979     -3331.5069      54.378437     -3277.1284      44283.234      5694.8503    
   1599000   747.05129     -3329.7527      48.281979     -3281.4708      42554.642      5694.8503    
   1600000   765.76679     -3332.0099      49.491563     -3282.5184      42039.91       5694.8503    
   1601000   802.73355     -3330.2534      51.880728     -3278.3727      44023.414      5694.8503    
   1602000   812.05583     -3334.4376      52.483227     -3281.9544      41510.606      5694.8503    
   1603000   793.50894     -3333.6179      51.28454      -3282.3333      41053.879      5694.8503    
   1604000   769.58243     -3331.0701      49.738168     -3281.332       40931.968      5694.8503    
   1605000   846.46296     -3331.436       54.706963     -3276.7291      43779.919      5694.8503    
   1606000   777.98582     -3331.4469      50.28128      -3281.1656      45442.543      5694.8503    
   1607000   809.3241      -3334.4505      52.306675     -3282.1439      44710.211      5694.8503    
   1608000   752.39502     -3331.4369      48.627345     -3282.8095      42734.907      5694.8503    
   1609000   790.10207     -3331.6337      51.064354     -3280.5693      42686.271      5694.8503    
   1610000   845.72749     -3331.6835      54.659429     -3277.0241      44127.847      5694.8503    
   1611000   813.78093     -3330.2226      52.59472      -3277.6279      42590          5694.8503    
   1612000   772.12786     -3329.9101      49.902679     -3280.0074      45300.015      5694.8503    
   1613000   828.50752     -3335.203       53.546501     -3281.6565      42769.933      5694.8503    
   1614000   830.75497     -3330.9688      53.691754     -3277.277       41090.253      5694.8503    
   1615000   769.97102     -3328.9073      49.763283     -3279.1441      46783.186      5694.8503    
   1616000   795.12562     -3331.8057      51.389027     -3280.4167      43424.143      5694.8503    
   1617000   759.06399     -3330.1567      49.058361     -3281.0983      44957.99       5694.8503    
   1618000   798.34235     -3333.385       51.596924     -3281.788       39347.8        5694.8503    
   1619000   790.01981     -3332.8543      51.059038     -3281.7952      40586.478      5694.8503    
   1620000   786.47382     -3328.9436      50.82986      -3278.1137      46608.069      5694.8503    
   1621000   830.70106     -3331.0442      53.68827      -3277.356       46352.719      5694.8503    
   1622000   801.54736     -3331.708       51.804064     -3279.9039      43315.804      5694.8503    
   1623000   800.90857     -3334.5071      51.762779     -3282.7443      40548.625      5694.8503    
   1624000   775.50545     -3333.0486      50.120973     -3282.9277      40580.187      5694.8503    
   1625000   751.86514     -3333.214       48.593098     -3284.6209      43869.679      5694.8503    
   1626000   755.3037      -3329.6179      48.815333     -3280.8026      46109.806      5694.8503    
   1627000   840.7677      -3332.6416      54.338878     -3278.3027      43445.632      5694.8503    
   1628000   838.72362     -3329.6161      54.206768     -3275.4094      46317.779      5694.8503    
   1629000   791.48182     -3327.9541      51.153528     -3276.8006      42286.8        5694.8503    
   1630000   810.45321     -3334.506       52.37965      -3282.1264      40297.836      5694.8503    
   1631000   772.47059     -3334.1964      49.92483      -3284.2716      40296.315      5694.8503    
   1632000   842.12066     -3335.5977      54.426319     -3281.1714      39313.78       5694.8503    
   1633000   791.96328     -3332.2675      51.184644     -3281.0829      44411.444      5694.8503    
   1634000   737.39761     -3332.6898      47.658061     -3285.0317      39180.429      5694.8503    
   1635000   784.44186     -3332.4248      50.698535     -3281.7263      42453.781      5694.8503    
   1636000   823.35094     -3331.9887      53.213231     -3278.7754      42478.836      5694.8503    
   1637000   835.34419     -3331.4974      53.988355     -3277.5091      41194.684      5694.8503    
   1638000   824.50485     -3331.9809      53.287808     -3278.6931      44605.727      5694.8503    
   1639000   810.47407     -3333.8259      52.380998     -3281.4449      40982.536      5694.8503    
   1640000   782.29014     -3332.187       50.559469     -3281.6275      41896.734      5694.8503    
   1641000   807.95283     -3332.1144      52.21805      -3279.8964      42100.054      5694.8503    
   1642000   836.2645      -3333.6992      54.047835     -3279.6513      42731.354      5694.8503    
   1643000   741.58526     -3331.7327      47.928709     -3283.804       41687.728      5694.8503    
   1644000   752.00743     -3333.5613      48.602295     -3284.959       41182.947      5694.8503    
   1645000   797.64149     -3332.376       51.551627     -3280.8243      40641.909      5694.8503    
   1646000   837.31        -3332.2529      54.115406     -3278.1375      44328.566      5694.8503    
   1647000   835.60576     -3332.1817      54.005261     -3278.1764      47021.684      5694.8503    
   1648000   790.24381     -3332.2405      51.073515     -3281.167       42533.748      5694.8503    
   1649000   829.3033      -3334.0315      53.597932     -3280.4336      40703.313      5694.8503    
   1650000   851.56446     -3332.7138      55.036673     -3277.6771      42992.565      5694.8503    
   1651000   771.31179     -3332.5995      49.849937     -3282.7496      40309.318      5694.8503    
   1652000   812.18168     -3328.0833      52.491361     -3275.5919      48600.728      5694.8503    
   1653000   789.26477     -3326.7457      51.01024      -3275.7354      45928.483      5694.8503    
   1654000   822.55657     -3333.8411      53.161891     -3280.6792      40972.336      5694.8503    
   1655000   779.08649     -3331.3354      50.352417     -3280.983       46413.332      5694.8503    
   1656000   794.97808     -3335.3103      51.379491     -3283.9308      40394.458      5694.8503    
   1657000   790.64542     -3332.815       51.099471     -3281.7155      42559.422      5694.8503    
   1658000   821.88978     -3330.8038      53.118796     -3277.685       44239.775      5694.8503    
   1659000   818.17688     -3328.3752      52.878831     -3275.4964      47169.427      5694.8503    
   1660000   849.26352     -3330.7625      54.887963     -3275.8745      42429.174      5694.8503    
   1661000   796.19906     -3332.2671      51.458403     -3280.8087      44137.924      5694.8503    
   1662000   795.50976     -3334.1941      51.413854     -3282.7802      42000.004      5694.8503    
   1663000   808.98641     -3332.715       52.28485      -3280.4302      41415.522      5694.8503    
   1664000   797.98221     -3331.4173      51.573648     -3279.8436      44001.646      5694.8503    
   1665000   809.84051     -3327.7483      52.340051     -3275.4082      46609.462      5694.8503    
   1666000   803.70089     -3334.5458      51.943247     -3282.6025      43059.044      5694.8503    
   1667000   794.75216     -3332.9124      51.36489      -3281.5475      41938.332      5694.8503    
   1668000   774.6762      -3328.124       50.067379     -3278.0566      46655.946      5694.8503    
   1669000   787.38215     -3332.4757      50.888565     -3281.5871      44616.048      5694.8503    
   1670000   810.34071     -3334.1313      52.372379     -3281.759       40973.044      5694.8503    
   1671000   783.6773      -3333.5719      50.649121     -3282.9227      39202.409      5694.8503    
   1672000   798.61578     -3330.5009      51.614596     -3278.8863      44980.208      5694.8503    
   1673000   780.9395      -3333.784       50.472177     -3283.3118      44410.407      5694.8503    
   1674000   777.75691     -3330.3151      50.266486     -3280.0486      44541.716      5694.8503    
   1675000   816.25015     -3331.924       52.754306     -3279.1697      44425.557      5694.8503    
   1676000   811.22098     -3332.6554      52.429271     -3280.2261      40532.426      5694.8503    
   1677000   783.40602     -3330.3582      50.631588     -3279.7266      42752.196      5694.8503    
   1678000   838.81717     -3332.0643      54.212815     -3277.8515      40797.241      5694.8503    
   1679000   854.73778     -3328.6381      55.241764     -3273.3963      46617.724      5694.8503    
   1680000   775.58146     -3329.8291      50.125886     -3279.7032      44330.355      5694.8503    
   1681000   761.88948     -3332.3422      49.240972     -3283.1012      41896.989      5694.8503    
   1682000   787.5887      -3333.4382      50.901914     -3282.5363      37372.595      5694.8503    
   1683000   801.62935     -3331.3447      51.809363     -3279.5354      44638.877      5694.8503    
   1684000   763.91474     -3334.4345      49.371865     -3285.0626      41346.89       5694.8503    
   1685000   749.44766     -3333.7075      48.436856     -3285.2707      41282.223      5694.8503    
   1686000   826.19746     -3332.4643      53.397202     -3279.0671      43910.577      5694.8503    
   1687000   822.23054     -3332.3482      53.140819     -3279.2074      43670.598      5694.8503    
   1688000   792.81607     -3332.9151      51.23976      -3281.6753      43636.448      5694.8503    
   1689000   777.19818     -3331.3633      50.230375     -3281.1329      44884.361      5694.8503    
   1690000   814.76287     -3332.5728      52.658184     -3279.9146      43365.106      5694.8503    
   1691000   825.88163     -3332.4259      53.37679      -3279.0491      42833.437      5694.8503    
   1692000   796.08887     -3328.6164      51.451281     -3277.1651      45807          5694.8503    
   1693000   776.61161     -3330.6565      50.192465     -3280.464       44593.871      5694.8503    
   1694000   800.76801     -3335.7538      51.753695     -3284.0001      38132.422      5694.8503    
   1695000   834.53363     -3335.0456      53.935969     -3281.1096      40331.169      5694.8503    
   1696000   760.37089     -3329.8369      49.142826     -3280.694       45219.8        5694.8503    
   1697000   804.25468     -3331.3944      51.979039     -3279.4154      44876.69       5694.8503    
   1698000   817.95389     -3331.3839      52.864419     -3278.5195      43725.738      5694.8503    
   1699000   765.27478     -3328.8939      49.459765     -3279.4342      44090.532      5694.8503    
   1700000   794.00948     -3332.5522      51.31689      -3281.2353      41845.504      5694.8503    
   1701000   828.06059     -3336.3803      53.517616     -3282.8627      39847.144      5694.8503    
   1702000   827.39077     -3333.2608      53.474325     -3279.7864      44604.807      5694.8503    
   1703000   816.0918      -3330.7242      52.744072     -3277.9801      43896.854      5694.8503    
   1704000   838.83679     -3328.615       54.214083     -3274.4009      45887.657      5694.8503    
   1705000   821.01819     -3332.504       53.062465     -3279.4415      42124.622      5694.8503    
   1706000   764.57997     -3330.2228      49.414859     -3280.8079      40659.198      5694.8503    
   1707000   812.9263      -3331.6387      52.539486     -3279.0992      43874.412      5694.8503    
   1708000   835.37564     -3330.5692      53.990388     -3276.5788      46794.582      5694.8503    
   1709000   826.43092     -3333.3434      53.412291     -3279.9312      41321.161      5694.8503    
   1710000   836.41067     -3336.1803      54.057282     -3282.123       39035.359      5694.8503    
   1711000   767.86383     -3333.6446      49.627095     -3284.0175      42288.665      5694.8503    
   1712000   816.42734     -3334.9631      52.765758     -3282.1973      40677.951      5694.8503    
   1713000   816.54757     -3331.9478      52.773529     -3279.1742      41831.875      5694.8503    
   1714000   800.64207     -3334.3122      51.745555     -3282.5667      41978.65       5694.8503    
   1715000   794.19413     -3330.6493      51.328824     -3279.3204      46052.55       5694.8503    
   1716000   774.1196      -3332.1234      50.031406     -3282.092       39154.983      5694.8503    
   1717000   802.7503      -3334.8015      51.88181      -3282.9197      42623.541      5694.8503    
   1718000   758.40179     -3334.1514      49.015563     -3285.1358      39783.773      5694.8503    
   1719000   812.85284     -3334.3595      52.534738     -3281.8247      40675.992      5694.8503    
   1720000   827.67419     -3331.5591      53.492643     -3278.0664      43768.717      5694.8503    
   1721000   786.58606     -3330.8895      50.837114     -3280.0524      44080.714      5694.8503    
   1722000   828.72476     -3334.6614      53.560541     -3281.1008      41360.213      5694.8503    
   1723000   816.42635     -3327.6548      52.765694     -3274.8891      49553.928      5694.8503    
   1724000   831.90205     -3332.6694      53.76589      -3278.9035      44151.315      5694.8503    
   1725000   777.36187     -3332.731       50.240954     -3282.49        44483.947      5694.8503    
   1726000   787.73031     -3334.5984      50.911067     -3283.6873      40798.399      5694.8503    
   1727000   803.68183     -3328.5865      51.942015     -3276.6445      44064.702      5694.8503    
   1728000   805.84365     -3329.5873      52.081733     -3277.5056      44988.568      5694.8503    
   1729000   838.38281     -3334.3567      54.184742     -3280.1719      41981.404      5694.8503    
   1730000   820.90284     -3329.8549      53.05501      -3276.7999      47978.499      5694.8503    
   1731000   726.74464     -3330.6537      46.969559     -3283.6841      45805.435      5694.8503    
   1732000   786.14391     -3334.5859      50.808538     -3283.7774      41928.805      5694.8503    
   1733000   765.95939     -3328.07        49.504011     -3278.566       44255.923      5694.8503    
   1734000   768.82783     -3331.0913      49.689399     -3281.4019      47718.763      5694.8503    
   1735000   813.49364     -3330.0441      52.576153     -3277.4679      43805.153      5694.8503    
   1736000   820.11321     -3332.4862      53.003976     -3279.4823      41944.875      5694.8503    
   1737000   772.34535     -3335.9144      49.916736     -3285.9977      36927.383      5694.8503    
   1738000   787.27376     -3331.8873      50.88156      -3281.0057      45454.165      5694.8503    
   1739000   826.20369     -3331.7011      53.397605     -3278.3035      43130.109      5694.8503    
   1740000   807.0064      -3329.7431      52.156882     -3277.5862      45294.475      5694.8503    
   1741000   817.00897     -3333.9893      52.803349     -3281.186       42833.734      5694.8503    
   1742000   823.97208     -3335.2013      53.253376     -3281.9479      43068.498      5694.8503    
   1743000   817.92542     -3330.5897      52.862579     -3277.7271      46495.639      5694.8503    
   1744000   850.42854     -3332.003       54.963258     -3277.0397      43083.546      5694.8503    
   1745000   803.95211     -3331.7233      51.959483     -3279.7638      44735.397      5694.8503    
   1746000   800.19854     -3334.7994      51.716889     -3283.0825      38091.8        5694.8503    
   1747000   775.39933     -3334.8906      50.114115     -3284.7765      39840.375      5694.8503    
   1748000   797.60051     -3331.6374      51.548979     -3280.0885      42786.647      5694.8503    
   1749000   775.45477     -3331.5581      50.117698     -3281.4404      40812.499      5694.8503    
   1750000   836.49301     -3334.8544      54.062604     -3280.7918      38182.508      5694.8503    
   1751000   785.67751     -3333.8502      50.778394     -3283.0718      40866.581      5694.8503    
   1752000   810.05798     -3330.9311      52.354106     -3278.577       45639.974      5694.8503    
   1753000   808.51553     -3328.5149      52.254417     -3276.2605      44715.846      5694.8503    
   1754000   851.4944      -3331.0359      55.032145     -3276.0038      43471.088      5694.8503    
   1755000   824.43786     -3335.3979      53.283479     -3282.1144      40946.762      5694.8503    
   1756000   808.90981     -3332.5419      52.2799       -3280.262       43098.919      5694.8503    
   1757000   814.37631     -3330.8975      52.6332       -3278.2643      45046.698      5694.8503    
   1758000   822.2707      -3329.2287      53.143415     -3276.0853      48002.22       5694.8503    
   1759000   846.28637     -3328.4605      54.69555      -3273.7649      48949.274      5694.8503    
   1760000   763.78139     -3331.4444      49.363247     -3282.0812      43325.288      5694.8503    
   1761000   787.86046     -3331.0262      50.919479     -3280.1067      46358.515      5694.8503    
   1762000   756.05333     -3329.5927      48.863782     -3280.7289      43017.949      5694.8503    
   1763000   830.65454     -3332.5313      53.685263     -3278.846       41965.335      5694.8503    
   1764000   800.70161     -3329.0824      51.749403     -3277.333       45643.955      5694.8503    
   1765000   803.99557     -3331.6335      51.962292     -3279.6712      44589.044      5694.8503    
   1766000   815.05432     -3333.5493      52.67702      -3280.8723      41076.595      5694.8503    
   1767000   814.67609     -3333.0251      52.652575     -3280.3725      43828.474      5694.8503    
   1768000   825.00631     -3332.7169      53.320218     -3279.3966      42757.889      5694.8503    
   1769000   758.04647     -3333.0194      48.992598     -3284.0268      42944.866      5694.8503    
   1770000   784.8474      -3336.7877      50.724745     -3286.063       39181.403      5694.8503    
   1771000   806.04833     -3331.7699      52.094962     -3279.6749      45172.084      5694.8503    
   1772000   841.96482     -3332.804       54.416247     -3278.3878      42231.248      5694.8503    
   1773000   799.80307     -3329.2579      51.69133      -3277.5666      43011.837      5694.8503    
   1774000   777.23529     -3331.1383      50.232773     -3280.9056      40660.978      5694.8503    
   1775000   807.20651     -3334.6447      52.169815     -3282.4749      39011.247      5694.8503    
   1776000   774.20069     -3332.1453      50.036647     -3282.1087      39024.889      5694.8503    
   1777000   787.86613     -3331.8186      50.919845     -3280.8988      38610.645      5694.8503    
   1778000   785.59576     -3328.7565      50.773111     -3277.9834      43149.356      5694.8503    
   1779000   823.13591     -3330.3419      53.199333     -3277.1426      43422.674      5694.8503    
   1780000   810.59231     -3333.575       52.388639     -3281.1863      37435.925      5694.8503    
   1781000   817.32346     -3333.9588      52.823674     -3281.1351      41590.7        5694.8503    
   1782000   777.51944     -3332.5177      50.251138     -3282.2666      42159.762      5694.8503    
   1783000   791.57443     -3329.5743      51.159513     -3278.4148      42012.804      5694.8503    
   1784000   845.22765     -3332.4814      54.627124     -3277.8543      38963.564      5694.8503    
   1785000   778.09256     -3332.0678      50.288178     -3281.7796      40310.879      5694.8503    
   1786000   771.92307     -3336.9202      49.889444     -3287.0307      34996.781      5694.8503    
   1787000   754.31391     -3330.7532      48.751363     -3282.0018      42196.948      5694.8503    
   1788000   786.47304     -3329.6839      50.829809     -3278.8541      45849.077      5694.8503    
   1789000   773.17264     -3331.6218      49.970204     -3281.6516      40424.6        5694.8503    
   1790000   749.69515     -3333.126       48.452852     -3284.6732      42052.009      5694.8503    
   1791000   836.38752     -3334.5507      54.055786     -3280.4949      41439.248      5694.8503    
   1792000   828.51052     -3327.2957      53.546695     -3273.749       44154.265      5694.8503    
   1793000   813.91442     -3330.1483      52.603348     -3277.5449      44793.583      5694.8503    
   1794000   803.33682     -3332.2085      51.919717     -3280.2888      43135.843      5694.8503    
   1795000   815.62191     -3333.6591      52.713703     -3280.9454      43174.602      5694.8503    
   1796000   762.54283     -3333.3786      49.283198     -3284.0954      42572.057      5694.8503    
   1797000   779.49628     -3331.1228      50.378901     -3280.7439      44465.135      5694.8503    
   1798000   824.86306     -3329.5306      53.31096      -3276.2197      45607.509      5694.8503    
   1799000   787.33111     -3329.5561      50.885267     -3278.6708      45169.284      5694.8503    
   1800000   762.78392     -3332.4167      49.29878      -3283.1179      42540.21       5694.8503    
   1801000   786.39768     -3334.8823      50.824939     -3284.0573      42853.112      5694.8503    
   1802000   803.09908     -3332.8889      51.904352     -3280.9845      41626.916      5694.8503    
   1803000   845.13158     -3333.9563      54.620915     -3279.3354      40711.997      5694.8503    
   1804000   825.92015     -3333.9439      53.379279     -3280.5646      43513.656      5694.8503    
   1805000   764.19209     -3333.6032      49.38979      -3284.2135      41371.585      5694.8503    
   1806000   756.96114     -3333.987       48.922453     -3285.0646      40787.725      5694.8503    
   1807000   823.35676     -3335.379       53.213607     -3282.1654      42402.458      5694.8503    
   1808000   806.26181     -3332.1981      52.108759     -3280.0893      42892.592      5694.8503    
   1809000   822.02628     -3330.2012      53.127618     -3277.0736      44963.179      5694.8503    
   1810000   783.33902     -3331.5236      50.627258     -3280.8964      46140.135      5694.8503    
   1811000   789.73601     -3330.2607      51.040696     -3279.22        45276.712      5694.8503    
   1812000   844.9168      -3330.8947      54.607034     -3276.2876      44982.039      5694.8503    
   1813000   789.45783     -3327.3219      51.022717     -3276.2992      49105.728      5694.8503    
   1814000   796.6799      -3333.6842      51.48948      -3282.1947      42406.086      5694.8503    
   1815000   767.13872     -3333.5835      49.580231     -3284.0033      42365.164      5694.8503    
   1816000   763.42986     -3334.8244      49.340527     -3285.4839      40747.912      5694.8503    
   1817000   779.58313     -3329.7746      50.384514     -3279.39        46023.038      5694.8503    
   1818000   801.3837      -3333.9295      51.793487     -3282.136       40346.143      5694.8503    
   1819000   809.11366     -3332.0148      52.293075     -3279.7218      44072.209      5694.8503    
   1820000   835.91702     -3331.7451      54.025377     -3277.7198      43060.125      5694.8503    
   1821000   793.59915     -3330.2653      51.290371     -3278.9749      43202.399      5694.8503    
   1822000   831.25607     -3335.4053      53.72414      -3281.6811      39936.584      5694.8503    
   1823000   754.36138     -3333.2601      48.754431     -3284.5056      42241.921      5694.8503    
   1824000   800.65878     -3332.2133      51.746635     -3280.4666      45204.444      5694.8503    
   1825000   817.94717     -3329.4935      52.863985     -3276.6295      46448.8        5694.8503    
   1826000   860.83966     -3329.9128      55.63613      -3274.2767      45422.556      5694.8503    
   1827000   803.00253     -3334.2407      51.898112     -3282.3425      41714.762      5694.8503    
   1828000   756.26125     -3330.6981      48.877219     -3281.8208      48116.418      5694.8503    
   1829000   812.5152      -3327.9827      52.512916     -3275.4698      46445.553      5694.8503    
   1830000   814.92293     -3330.3372      52.668528     -3277.6686      47525.985      5694.8503    
   1831000   777.88826     -3331.5349      50.274974     -3281.2599      46334.898      5694.8503    
   1832000   854.20985     -3336.5051      55.207644     -3281.2975      41853.243      5694.8503    
   1833000   801.63027     -3331.4391      51.809422     -3279.6297      44608.728      5694.8503    
   1834000   834.2319      -3330.9491      53.916468     -3277.0326      43862.042      5694.8503    
   1835000   815.97446     -3332.4544      52.736489     -3279.7179      44052.908      5694.8503    
   1836000   812.55966     -3333.3203      52.51579      -3280.8045      41195          5694.8503    
   1837000   795.11366     -3328.2364      51.388254     -3276.8482      47748.725      5694.8503    
   1838000   813.53384     -3330.9884      52.578751     -3278.4097      43921.453      5694.8503    
   1839000   777.14644     -3331.8673      50.227031     -3281.6403      44342.787      5694.8503    
   1840000   766.84646     -3333.5989      49.561342     -3284.0375      42112.466      5694.8503    
   1841000   809.06779     -3333.6494      52.29011      -3281.3593      44477.649      5694.8503    
   1842000   831.6225      -3332.4814      53.747822     -3278.7335      45318.436      5694.8503    
   1843000   785.6246      -3329.4798      50.774975     -3278.7048      46904.392      5694.8503    
   1844000   776.36453     -3334.7964      50.176496     -3284.6199      42224.286      5694.8503    
   1845000   780.55979     -3334.7492      50.447636     -3284.3016      40936.677      5694.8503    
   1846000   801.01674     -3330.1999      51.76977      -3278.4301      46173.23       5694.8503    
   1847000   842.54849     -3333.3066      54.45397      -3278.8526      43403.817      5694.8503    
   1848000   792.14628     -3329.5472      51.196471     -3278.3508      45213.243      5694.8503    
   1849000   809.41158     -3334.2854      52.312329     -3281.9731      42665.871      5694.8503    
   1850000   796.48355     -3334.8649      51.476789     -3283.3881      40054.361      5694.8503    
   1851000   778.07228     -3332.1023      50.286868     -3281.8154      42467.467      5694.8503    
   1852000   793.68673     -3333.138       51.296031     -3281.842       44406.566      5694.8503    
   1853000   781.72915     -3330.2896      50.523211     -3279.7664      46430.149      5694.8503    
   1854000   821.58772     -3332.4175      53.099274     -3279.3183      44385.483      5694.8503    
   1855000   791.0026      -3333.4714      51.122556     -3282.3489      41260.026      5694.8503    
   1856000   739.91594     -3332.6607      47.820821     -3284.8399      42629.634      5694.8503    
   1857000   756.04145     -3331.177       48.863014     -3282.314       44561.374      5694.8503    
   1858000   817.02041     -3332.5861      52.804088     -3279.782       43459.387      5694.8503    
   1859000   830.97252     -3329.6649      53.705814     -3275.9591      44727.297      5694.8503    
   1860000   773.28371     -3329.7003      49.977382     -3279.7229      44885.466      5694.8503    
   1861000   764.03844     -3331.9535      49.37986      -3282.5736      43056.127      5694.8503    
   1862000   787.23861     -3330.9826      50.879288     -3280.1033      44191.265      5694.8503    
   1863000   800.29692     -3326.5461      51.723248     -3274.8229      47083.889      5694.8503    
   1864000   805.15833     -3329.9671      52.037441     -3277.9297      42669.737      5694.8503    
   1865000   744.37723     -3331.6024      48.109155     -3283.4933      44010.47       5694.8503    
   1866000   791.55682     -3331.5017      51.158375     -3280.3434      45883.735      5694.8503    
   1867000   815.21351     -3331.2599      52.687308     -3278.5726      42451.911      5694.8503    
   1868000   767.847       -3329.9781      49.626007     -3280.3521      45411.509      5694.8503    
   1869000   778.3819      -3332.88        50.306879     -3282.5732      42297.594      5694.8503    
   1870000   804.93214     -3335.3572      52.022823     -3283.3344      40771.145      5694.8503    
   1871000   810.67367     -3328.0721      52.393898     -3275.6782      47990.449      5694.8503    
   1872000   796.32207     -3328.4887      51.466353     -3277.0224      45868.546      5694.8503    
   1873000   815.35024     -3331.9858      52.696145     -3279.2897      44142.528      5694.8503    
   1874000   794.33868     -3334.143       51.338167     -3282.8048      39049.019      5694.8503    
   1875000   787.5968      -3331.8757      50.902438     -3280.9732      41892.591      5694.8503    
   1876000   820.61509     -3331.0173      53.036413     -3277.9809      45721.028      5694.8503    
   1877000   851.84301     -3328.4871      55.054676     -3273.4324      49250.88       5694.8503    
   1878000   792.02153     -3334.454       51.188409     -3283.2656      40686.133      5694.8503    
   1879000   776.93013     -3331.8687      50.213051     -3281.6556      44499.457      5694.8503    
   1880000   863.49076     -3328.3513      55.807471     -3272.5438      46438.3        5694.8503    
   1881000   774.20122     -3332.2409      50.036681     -3282.2042      43661.113      5694.8503    
   1882000   793.01609     -3334.0314      51.252687     -3282.7787      40283.905      5694.8503    
   1883000   763.39747     -3333.5456      49.338434     -3284.2072      42875.394      5694.8503    
   1884000   736.34965     -3332.7314      47.590331     -3285.141       42677.414      5694.8503    
   1885000   764.93454     -3330.4618      49.437775     -3281.024       48526.494      5694.8503    
   1886000   796.2379      -3329.52        51.460913     -3278.0591      48491.758      5694.8503    
   1887000   805.17747     -3331.8819      52.038678     -3279.8432      43921.859      5694.8503    
   1888000   745.8074      -3334.3543      48.201586     -3286.1527      40521.925      5694.8503    
   1889000   792.98395     -3333.6882      51.25061      -3282.4376      42038.3        5694.8503    
   1890000   826.45594     -3334.0555      53.413907     -3280.6416      40511.078      5694.8503    
   1891000   801.22801     -3329.0287      51.783425     -3277.2453      48096.877      5694.8503    
   1892000   815.02666     -3332.2049      52.675232     -3279.5297      43293.088      5694.8503    
   1893000   800.8539      -3333.6033      51.759246     -3281.844       41298.484      5694.8503    
   1894000   794.58505     -3333.8609      51.354089     -3282.5068      43779.324      5694.8503    
   1895000   856.69802     -3330.2382      55.368455     -3274.8698      47146.735      5694.8503    
   1896000   810.38868     -3329.8797      52.375479     -3277.5042      44501.968      5694.8503    
   1897000   798.47306     -3331.2119      51.605372     -3279.6065      44834.315      5694.8503    
   1898000   758.97055     -3331.5004      49.052322     -3282.448       42988.345      5694.8503    
   1899000   768.80344     -3332.1545      49.687822     -3282.4666      39757.211      5694.8503    
   1900000   825.5963      -3335.1299      53.358349     -3281.7716      41654.576      5694.8503    
   1901000   793.51254     -3329.6544      51.284773     -3278.3696      45539.317      5694.8503    
   1902000   781.85206     -3333.1565      50.531155     -3282.6254      40840.212      5694.8503    
   1903000   836.06799     -3332.9764      54.035135     -3278.9412      45325.529      5694.8503    
   1904000   837.63498     -3330.4404      54.13641      -3276.304       46391.373      5694.8503    
   1905000   797.94526     -3333.3325      51.57126      -3281.7612      40285.859      5694.8503    
   1906000   792.61885     -3331.3529      51.227014     -3280.1259      43855.385      5694.8503    
   1907000   837.46831     -3332.0436      54.125638     -3277.9179      46475.225      5694.8503    
   1908000   804.56238     -3331.4924      51.998925     -3279.4935      44391.268      5694.8503    
   1909000   787.98917     -3334.7311      50.927797     -3283.8033      41147.295      5694.8503    
   1910000   804.96409     -3331.5586      52.024887     -3279.5337      45919.367      5694.8503    
   1911000   854.95735     -3332.0411      55.255955     -3276.7851      44437.947      5694.8503    
   1912000   771.49659     -3332.5297      49.861881     -3282.6678      41135.701      5694.8503    
   1913000   814.39886     -3333.2826      52.634658     -3280.6479      42882.168      5694.8503    
   1914000   816.18005     -3327.3915      52.749776     -3274.6417      45943.153      5694.8503    
   1915000   761.37157     -3331.5481      49.207499     -3282.3406      43672.336      5694.8503    
   1916000   776.58454     -3332.6363      50.190715     -3282.4456      40942.114      5694.8503    
   1917000   864.41775     -3331.4434      55.867382     -3275.576       45666.987      5694.8503    
   1918000   840.3252      -3330.0107      54.310279     -3275.7004      46063.221      5694.8503    
   1919000   841.66397     -3331.9998      54.396804     -3277.603       42499.996      5694.8503    
   1920000   820.01683     -3334.2149      52.997747     -3281.2171      41976.618      5694.8503    
   1921000   774.01172     -3333.3674      50.024433     -3283.3429      42624.755      5694.8503    
   1922000   788.23885     -3332.4417      50.943934     -3281.4977      41405.294      5694.8503    
   1923000   812.66091     -3331.1326      52.522333     -3278.6103      42335.76       5694.8503    
   1924000   805.46824     -3333.282       52.057471     -3281.2246      45774.29       5694.8503    
   1925000   776.14355     -3335.5781      50.162214     -3285.4159      42199.629      5694.8503    
   1926000   798.27711     -3330.5137      51.592707     -3278.9209      44026.224      5694.8503    
   1927000   777.65569     -3329.1182      50.259944     -3278.8583      45568.758      5694.8503    
   1928000   810.5066      -3332.9703      52.3831       -3280.5872      45056.332      5694.8503    
   1929000   758.3201      -3330.8078      49.010283     -3281.7975      48088.174      5694.8503    
   1930000   804.85315     -3329.4428      52.017717     -3277.4251      46138.918      5694.8503    
   1931000   803.00409     -3336.0841      51.898212     -3284.1859      38681.009      5694.8503    
   1932000   772.53766     -3333.361       49.929165     -3283.4319      42513.328      5694.8503    
   1933000   816.22803     -3330.5258      52.752876     -3277.7729      45963.428      5694.8503    
   1934000   797.55486     -3331.6809      51.546028     -3280.1349      44602.116      5694.8503    
   1935000   826.67307     -3336.8268      53.42794      -3283.3988      36449.974      5694.8503    
   1936000   807.08652     -3334.9698      52.16206      -3282.8078      39947.737      5694.8503    
   1937000   790.01236     -3330.4257      51.058556     -3279.3672      44427.686      5694.8503    
   1938000   844.82853     -3332.2647      54.601329     -3277.6634      41689.278      5694.8503    
   1939000   751.72962     -3329.3118      48.58434      -3280.7275      45502.066      5694.8503    
   1940000   749.96353     -3330.3272      48.470197     -3281.857       42124.296      5694.8503    
   1941000   857.78186     -3333.1855      55.438504     -3277.747       40553.787      5694.8503    
   1942000   812.13156     -3331.7236      52.488122     -3279.2355      44400.862      5694.8503    
   1943000   780.59203     -3332.171       50.44972      -3281.7212      39314.75       5694.8503    
   1944000   803.28553     -3330.7984      51.916402     -3278.882       41001.257      5694.8503    
   1945000   831.46401     -3334.0804      53.737579     -3280.3428      41390.326      5694.8503    
   1946000   798.75377     -3337.1955      51.623514     -3285.572       39611.394      5694.8503    
   1947000   782.71798     -3331.6007      50.58712      -3281.0135      43470.266      5694.8503    
   1948000   797.35295     -3331.4449      51.532979     -3279.912       44968.123      5694.8503    
   1949000   775.08665     -3334.1013      50.093906     -3284.0074      41447.718      5694.8503    
   1950000   772.81071     -3332.0509      49.946812     -3282.1041      43330.663      5694.8503    
   1951000   792.60144     -3332.2668      51.225888     -3281.0409      43040.279      5694.8503    
   1952000   863.74357     -3327.3312      55.823809     -3271.5074      50125.888      5694.8503    
   1953000   790.34966     -3334.3307      51.080356     -3283.2503      42444.431      5694.8503    
   1954000   753.94723     -3329.8175      48.727664     -3281.0898      45020.503      5694.8503    
   1955000   843.1579      -3327.5672      54.493356     -3273.0738      44450.657      5694.8503    
   1956000   787.12466     -3333.0385      50.871924     -3282.1665      42859.04       5694.8503    
   1957000   789.27428     -3332.4246      51.010854     -3281.4138      41709.278      5694.8503    
   1958000   809.48169     -3331.2827      52.316861     -3278.9659      45037.961      5694.8503    
   1959000   809.93644     -3329.2549      52.346251     -3276.9086      43705.405      5694.8503    
   1960000   738.93217     -3329.6345      47.75724      -3281.8772      44301.8        5694.8503    
   1961000   755.9043      -3331.083       48.854149     -3282.2288      43571.416      5694.8503    
   1962000   790.36397     -3330.0175      51.081281     -3278.9362      45573.131      5694.8503    
   1963000   763.69266     -3333.6014      49.357512     -3284.2439      42944.965      5694.8503    
   1964000   787.53723     -3331.9541      50.898588     -3281.0555      42228.021      5694.8503    
   1965000   767.71776     -3332.515       49.617655     -3282.8974      44475.63       5694.8503    
   1966000   796.71253     -3335.3909      51.491589     -3283.8993      41974.514      5694.8503    
   1967000   791.54156     -3332.8471      51.157388     -3281.6897      42230.058      5694.8503    
   1968000   785.67059     -3334.8536      50.777948     -3284.0757      38861.411      5694.8503    
   1969000   769.1697      -3332.5077      49.711493     -3282.7962      43178.917      5694.8503    
   1970000   803.83528     -3330.9476      51.951933     -3278.9956      43196.23       5694.8503    
   1971000   779.19232     -3330.4833      50.359256     -3280.124       47192.098      5694.8503    
   1972000   754.1715      -3332.9605      48.742159     -3284.2184      42210.643      5694.8503    
   1973000   807.33382     -3333.5142      52.178043     -3281.3361      43929.503      5694.8503    
   1974000   754.70761     -3328.1887      48.776808     -3279.4119      44406.736      5694.8503    
   1975000   822.81299     -3330.8518      53.178463     -3277.6733      43567.65       5694.8503    
   1976000   792.45855     -3334.0079      51.216654     -3282.7912      39746.155      5694.8503    
   1977000   756.99989     -3332.9943      48.924958     -3284.0694      44939.889      5694.8503    
   1978000   774.61886     -3330.0009      50.063673     -3279.9372      45828.421      5694.8503    
   1979000   742.3407      -3326.8782      47.977533     -3278.9007      46027.235      5694.8503    
   1980000   816.59023     -3332.6314      52.776286     -3279.8551      40814.301      5694.8503    
   1981000   797.81672     -3330.2336      51.562953     -3278.6706      45252.879      5694.8503    
   1982000   783.83244     -3329.1694      50.659148     -3278.5102      46448.304      5694.8503    
   1983000   798.84428     -3331.4897      51.629364     -3279.8603      46087.694      5694.8503    
   1984000   800.58837     -3329.9209      51.742084     -3278.1788      43373.134      5694.8503    
   1985000   804.85335     -3331.5781      52.01773      -3279.5604      45653.312      5694.8503    
   1986000   761.40285     -3333.5514      49.209522     -3284.3419      41445.559      5694.8503    
   1987000   756.92149     -3330.7156      48.919891     -3281.7957      45086.739      5694.8503    
   1988000   801.11367     -3331.7937      51.776035     -3280.0177      42485.967      5694.8503    
   1989000   804.16637     -3328.4246      51.973331     -3276.4512      45920.999      5694.8503    
   1990000   775.39745     -3330.9171      50.113994     -3280.8031      44859.235      5694.8503    
   1991000   766.9857      -3330.9759      49.570341     -3281.4056      43283.25       5694.8503    
   1992000   833.55414     -3330.9243      53.872665     -3277.0516      44751.943      5694.8503    
   1993000   783.12364     -3335.7516      50.613338     -3285.1383      40414.432      5694.8503    
   1994000   809.67912     -3333.082       52.32962      -3280.7524      40872.402      5694.8503    
   1995000   836.75586     -3330.2952      54.079592     -3276.2156      45884.369      5694.8503    
   1996000   805.84572     -3329.2467      52.081867     -3277.1648      44728.39       5694.8503    
   1997000   812.54596     -3331.2532      52.514905     -3278.7383      45716.612      5694.8503    
   1998000   794.15679     -3334.2078      51.326411     -3282.8814      41967.528      5694.8503    
   1999000   814.97219     -3333.3376      52.671712     -3280.6659      42370.123      5694.8503    
   2000000   807.20184     -3330.4371      52.169513     -3278.2676      44254.292      5694.8503    
Loop time of 46008.9 on 1 procs for 1500000 steps with 501 atoms

Performance: 1.408 ns/day, 17.040 hours/ns, 32.602 timesteps/s, 16.334 katom-step/s
99.1% CPU use with 1 MPI tasks x 1 OpenMP threads

MPI task timing breakdown:
Section |  min time  |  avg time  |  max time  |%varavg| %total
---------------------------------------------------------------
Pair    | 45100      | 45100      | 45100      |   0.0 | 98.02
Neigh   | 3.8591     | 3.8591     | 3.8591     |   0.0 |  0.01
Comm    | 52.806     | 52.806     | 52.806     |   0.0 |  0.11
Output  | 3.7119     | 3.7119     | 3.7119     |   0.0 |  0.01
Modify  | 795.33     | 795.33     | 795.33     |   0.0 |  1.73
Other   |            | 53.64      |            |       |  0.12

Nlocal:            501 ave         501 max         501 min
Histogram: 1 0 0 0 0 0 0 0 0 0
Nghost:           2191 ave        2191 max        2191 min
Histogram: 1 0 0 0 0 0 0 0 0 0
Neighs:              0 ave           0 max           0 min
Histogram: 1 0 0 0 0 0 0 0 0 0
FullNghs:        65756 ave       65756 max       65756 min
Histogram: 1 0 0 0 0 0 0 0 0 0

Total # of neighbors = 65756
Ave neighs/atom = 131.2495
Neighbor list builds = 7516
Dangerous builds = 0
EQUIL_RESULTS_START
  T_K          : 800
  pe_final_eV  : -3330.43709201326
  temp_final_K : 807.201835421741
  press_final  : 44254.2918567423
EQUIL_RESULTS_END
System init for write_restart ...
System init for write_data ...
Total wall time: 16:59:25
/home/akinyemi.az/miniforge3/envs/mace-lammps/lib/python3.11/tempfile.py:934: ResourceWarning: Implicitly cleaning up <TemporaryDirectory '/tmp/tmpzw68s7y3'>
  _warnings.warn(warn_message, ResourceWarning)
T=800K End: Sat Apr 25 07:26:57 PM EDT 2026
