LAMMPS (11 Feb 2026 - Development - patch_11Feb2026-99-gb75dfcc930-modified)
KOKKOS mode with Kokkos version 5.0.2 is enabled
  using double precision
  using view layout = legacy
  will use up to 1 GPU(s) per node
  using 1 OpenMP thread(s) per MPI task
package kokkos
package kokkos newton on neigh half
# LAMMPS NVT bulk equilibration — Hastelloy N + 1H
# T = 300 K | Notebook 10
# Phase 1: 250 ps equilibration
# Phase 2: 750 ps production (trajectory for NB11 MSD)
# Refs: NVT [6]; H diffusion [1,2]

units          metal
atom_style     atomic
newton         on
boundary       p p p

read_data      structures/notebook10-bulk-equilibration/N_1234/Hastelloy_N_1234_H_initial.lammps
Reading data file ...
  orthogonal box = (0 0 0) to (17.857779 17.857779 17.857779)
  1 by 1 by 1 MPI processor grid
  reading atoms ...
  501 atoms
  read_data CPU = 0.019 seconds

# ── Restart Settings ─────────────────────────────────────────
# Automatically save every 10,000 steps.
# Using % ensures parallel I/O efficiency for GPU/MPI runs.
restart        10000 results/notebook10-bulk-equilibration/N_1234/Hastelloy_N_1234_300K.%.restart

pair_style     mliap unified /projects/westgroup/akinyemi.az/mace_lammps/models/mace-mp-0b2-medium.model-mliap_lammps.pt 0
pair_coeff     * * Al B C Cr Fe Mo Ni O H

neighbor       2.0 bin
neigh_modify   every 1 delay 0 check yes

# ── Identify H atom for tracking ─────────────────────────────
group          H_atom   type 9
1 atoms in group H_atom
group          metal    subtract all H_atom
500 atoms in group metal

# ── Thermo ───────────────────────────────────────────────────
thermo         1000
thermo_style   custom step temp pe ke etotal press vol

# ── Timestep ─────────────────────────────────────────────────
timestep       0.0005

# ── Initialize velocities ────────────────────────────────────
velocity       all create 300.0 42 mom yes rot yes dist gaussian

# ── Phase 1: Equilibration ───────────────────────────────────
fix            nvt_equil  all  nvt  temp  300.0  300.0  0.1
print "### Phase 1: Equilibration 250 ps at 300 K ###"
### Phase 1: Equilibration 250 ps at 300 K ###
run            500000

CITE-CITE-CITE-CITE-CITE-CITE-CITE-CITE-CITE-CITE-CITE-CITE-CITE

Your simulation uses code contributions which should be cited:

- KOKKOS package: https://doi.org/10.1145/3731599.3767498

@inproceedings{Johansson25,
 author = {A. Johansson and E. Weinberg and C. Trott and M. McCarthy and S. Moore},
 title = {{LAMMPS-KOKKOS}: {P}erformance Portable Molecular Dynamics Across Exascale Architectures},
 year = 2025,
 booktitle = {Proceedings of the SC '25 Workshops of the International Conference for High Performance Computing,
  Networking, Storage and Analysis},
 pages = {1217–1232},
}

CITE-CITE-CITE-CITE-CITE-CITE-CITE-CITE-CITE-CITE-CITE-CITE-CITE

Neighbor list info ...
  update: every = 1 steps, delay = 0 steps, check = yes
  max neighbors/atom: 2000, page size: 100000
  master list distance cutoff = 7
  ghost atom cutoff = 7
  binsize = 7, bins = 3 3 3
  1 neighbor lists, perpetual/occasional/extra = 1 0 0
  (1) pair mliap/kk, perpetual
      attributes: full, newton on, kokkos_device
      pair build: full/bin/kk/device
      stencil: full/bin/3d
      bin: kk/device
Per MPI rank memory allocation (min/avg/max) = 80.93 | 80.93 | 80.93 Mbytes
   Step          Temp          PotEng         KinEng         TotEng         Press          Volume    
         0   300           -3371.6067      19.389022     -3352.2177      4483.6309      5694.8503    
      1000   292.05284     -3353.0452      18.875396     -3334.1698      20373.731      5694.8503    
      2000   288.56895     -3353.3997      18.650232     -3334.7495      20904.813      5694.8503    
      3000   306.01308     -3352.5301      19.777648     -3332.7525      21988.292      5694.8503    
      4000   308.27476     -3351.6416      19.92382      -3331.7178      21687.005      5694.8503    
      5000   292.51627     -3351.052       18.905348     -3332.1466      21099.321      5694.8503    
      6000   305.77818     -3352.8884      19.762466     -3333.126       21095.065      5694.8503    
      7000   306.50353     -3352.9784      19.809345     -3333.169       20402.634      5694.8503    
      8000   307.96588     -3351.9573      19.903857     -3332.0534      20804.389      5694.8503    
      9000   316.46044     -3353.2536      20.452861     -3332.8007      20578.637      5694.8503    
     10000   304.11746     -3353.4425      19.655133     -3333.7874      19883.562      5694.8503    
     11000   287.51733     -3351.5728      18.582266     -3332.9906      19496.114      5694.8503    
     12000   308.48231     -3352.0265      19.937234     -3332.0892      18120.218      5694.8503    
     13000   304.05832     -3352.7005      19.651311     -3333.0492      20153.611      5694.8503    
     14000   284.49415     -3352.8767      18.386877     -3334.4898      19226.854      5694.8503    
     15000   295.82744     -3352.8041      19.119349     -3333.6847      17419.217      5694.8503    
     16000   305.73897     -3352.52        19.759932     -3332.7601      21600.605      5694.8503    
     17000   286.32387     -3352.4077      18.505133     -3333.9026      19825.688      5694.8503    
     18000   286.51927     -3353.0464      18.517761     -3334.5287      20165.078      5694.8503    
     19000   287.10818     -3352.8229      18.555822     -3334.267       20790.811      5694.8503    
     20000   293.28549     -3352.1197      18.955062     -3333.1646      21250.291      5694.8503    
     21000   307.68697     -3352.439       19.885831     -3332.5532      20210.656      5694.8503    
     22000   306.25216     -3352.0986      19.7931       -3332.3055      21263.101      5694.8503    
     23000   311.78695     -3351.9724      20.150813     -3331.8216      21344.847      5694.8503    
     24000   307.50999     -3353.0989      19.874393     -3333.2245      18686.478      5694.8503    
     25000   292.92641     -3352.6892      18.931855     -3333.7573      19084.644      5694.8503    
     26000   302.73826     -3350.1642      19.565996     -3330.5982      23007.309      5694.8503    
     27000   310.27693     -3352.1161      20.05322      -3332.0628      21254.666      5694.8503    
     28000   305.01095     -3352.5713      19.71288      -3332.8584      20404.77       5694.8503    
     29000   303.39452     -3353.0815      19.60841      -3333.4731      19406.545      5694.8503    
     30000   311.20583     -3352.177       20.113255     -3332.0637      17745.997      5694.8503    
     31000   315.18652     -3353.2547      20.370528     -3332.8842      21437.88       5694.8503    
     32000   296.02763     -3353.1695      19.132287     -3334.0372      20146.333      5694.8503    
     33000   298.76346     -3352.6746      19.309104     -3333.3655      19577.644      5694.8503    
     34000   303.75316     -3352.0983      19.631589     -3332.4667      21398.486      5694.8503    
     35000   303.56352     -3351.4829      19.619332     -3331.8635      19995.409      5694.8503    
     36000   286.3527      -3351.0762      18.506996     -3332.5692      21485.205      5694.8503    
     37000   303.46114     -3352.5934      19.612715     -3332.9806      19636.216      5694.8503    
     38000   287.19896     -3352.7761      18.561689     -3334.2144      18368.207      5694.8503    
     39000   272.045       -3351.8814      17.582288     -3334.2991      20182.854      5694.8503    
     40000   311.3488      -3351.1504      20.122496     -3331.0279      19557.285      5694.8503    
     41000   299.26426     -3351.8917      19.341471     -3332.5502      20641.774      5694.8503    
     42000   300.34425     -3352.8363      19.411271     -3333.4251      18262.599      5694.8503    
     43000   298.40859     -3352.6468      19.286169     -3333.3606      19227.262      5694.8503    
     44000   302.35091     -3352.2394      19.540961     -3332.6985      20138.346      5694.8503    
     45000   323.63358     -3352.1976      20.916462     -3331.2812      18324.249      5694.8503    
     46000   296.76558     -3352.0393      19.179981     -3332.8593      20310.234      5694.8503    
     47000   298.71948     -3352.8686      19.306262     -3333.5624      21028.146      5694.8503    
     48000   294.97388     -3352.7672      19.064184     -3333.7031      19469.535      5694.8503    
     49000   302.10938     -3352.4668      19.525351     -3332.9414      20269.478      5694.8503    
     50000   318.39502     -3352.8481      20.577893     -3332.2702      20134.091      5694.8503    
     51000   311.73846     -3352.5973      20.147679     -3332.4496      18827.266      5694.8503    
     52000   292.90218     -3352.9852      18.930289     -3334.0549      19249.102      5694.8503    
     53000   284.78417     -3352.6993      18.405621     -3334.2936      18796.097      5694.8503    
     54000   281.34873     -3351.5592      18.183589     -3333.3756      19700.674      5694.8503    
     55000   305.20802     -3352.0677      19.725616     -3332.3421      21290.913      5694.8503    
     56000   299.69887     -3351.4027      19.36956      -3332.0332      22196.487      5694.8503    
     57000   298.72159     -3352.2371      19.306398     -3332.9307      20831.552      5694.8503    
     58000   292.66695     -3352.7801      18.915086     -3333.865       20001.04       5694.8503    
     59000   303.87073     -3354.3143      19.639187     -3334.6751      17040.436      5694.8503    
     60000   284.0814      -3353.8302      18.360201     -3335.47        18432.338      5694.8503    
     61000   311.26508     -3353.1645      20.117085     -3333.0474      18960.648      5694.8503    
     62000   310.43063     -3353.1172      20.063154     -3333.0541      19835.898      5694.8503    
     63000   274.50985     -3351.6094      17.741591     -3333.8678      18726.038      5694.8503    
     64000   286.03432     -3353.762       18.486419     -3335.2756      18712.86       5694.8503    
     65000   288.77154     -3353.4887      18.663326     -3334.8253      19061.303      5694.8503    
     66000   296.9551      -3353.0743      19.192229     -3333.8821      15888.131      5694.8503    
     67000   321.90167     -3353.4786      20.804529     -3332.6741      19767.323      5694.8503    
     68000   302.50085     -3351.5476      19.550652     -3331.9969      19553.324      5694.8503    
     69000   303.11421     -3353.0797      19.590293     -3333.4894      19822.099      5694.8503    
     70000   294.08416     -3353.3028      19.006681     -3334.2961      18993.94       5694.8503    
     71000   292.40071     -3351.9374      18.897879     -3333.0395      19586.42       5694.8503    
     72000   293.45838     -3354.2152      18.966237     -3335.249       17188.456      5694.8503    
     73000   299.34728     -3354.5962      19.346837     -3335.2494      16988.125      5694.8503    
     74000   295.40382     -3353.3439      19.09197      -3334.252       18639.535      5694.8503    
     75000   307.40224     -3353.3001      19.867429     -3333.4327      19668.289      5694.8503    
     76000   308.94605     -3351.9291      19.967206     -3331.9619      20804.866      5694.8503    
     77000   301.71498     -3352.9944      19.499861     -3333.4946      19736.326      5694.8503    
     78000   292.16795     -3353.3094      18.882836     -3334.4266      18850.394      5694.8503    
     79000   286.46352     -3353.2595      18.514158     -3334.7453      17943.955      5694.8503    
     80000   301.26175     -3354.481       19.470569     -3335.0104      18350.1        5694.8503    
     81000   293.65592     -3352.6015      18.979003     -3333.6225      19734.981      5694.8503    
     82000   297.09998     -3353.1794      19.201593     -3333.9778      18640.396      5694.8503    
     83000   290.18314     -3353.9582      18.754557     -3335.2036      19833.432      5694.8503    
     84000   310.38409     -3353.4122      20.060146     -3333.3521      16933.085      5694.8503    
     85000   306.74111     -3352.9881      19.8247       -3333.1634      19328.315      5694.8503    
     86000   292.51704     -3352.7624      18.905397     -3333.857       18041.192      5694.8503    
     87000   305.16767     -3353.8663      19.723009     -3334.1433      18248.157      5694.8503    
     88000   288.33962     -3353.3508      18.635411     -3334.7154      18014.346      5694.8503    
     89000   315.43581     -3351.3886      20.386639     -3331.0019      18872.843      5694.8503    
     90000   296.47025     -3353.301       19.160894     -3334.1401      18429.081      5694.8503    
     91000   288.44598     -3353.0371      18.642285     -3334.3949      18850.252      5694.8503    
     92000   286.19855     -3353.225       18.497033     -3334.7279      15780.004      5694.8503    
     93000   297.53334     -3352.3696      19.229602     -3333.14        19815.366      5694.8503    
     94000   296.91874     -3353.7011      19.189879     -3334.5112      18642.607      5694.8503    
     95000   294.8968      -3353.0183      19.059201     -3333.9591      19494.782      5694.8503    
     96000   307.47519     -3353.2661      19.872144     -3333.394       19667.964      5694.8503    
     97000   312.74668     -3353.4517      20.21284      -3333.2389      17792.675      5694.8503    
     98000   294.75589     -3353.9904      19.050094     -3334.9403      16795.871      5694.8503    
     99000   279.53881     -3353.5213      18.066613     -3335.4547      17903.789      5694.8503    
    100000   303.12907     -3353.0781      19.591253     -3333.4869      18363.341      5694.8503    
    101000   308.52889     -3353.325       19.940245     -3333.3847      17374.907      5694.8503    
    102000   313.81932     -3354.1921      20.282165     -3333.91        17758.732      5694.8503    
    103000   297.59712     -3353.4003      19.233723     -3334.1666      15975.257      5694.8503    
    104000   302.25803     -3351.5681      19.534958     -3332.0332      19348.157      5694.8503    
    105000   311.25992     -3352.7493      20.116751     -3332.6326      18379.373      5694.8503    
    106000   285.11207     -3351.6896      18.426813     -3333.2628      18487.348      5694.8503    
    107000   307.43972     -3354.1375      19.869851     -3334.2677      17888.521      5694.8503    
    108000   289.34687     -3353.9691      18.700509     -3335.2686      18322.78       5694.8503    
    109000   278.70963     -3354.8481      18.013024     -3336.8351      16349.613      5694.8503    
    110000   312.68589     -3354.2002      20.208912     -3333.9913      18401.894      5694.8503    
    111000   316.14037     -3354.5441      20.432175     -3334.1119      15242.678      5694.8503    
    112000   289.22608     -3354.5637      18.692703     -3335.871       15609.438      5694.8503    
    113000   286.2212      -3354.7045      18.498497     -3336.206       18368.077      5694.8503    
    114000   294.13648     -3354.8749      19.010062     -3335.8648      16313.007      5694.8503    
    115000   309.46554     -3354.4199      20.00078      -3334.4191      16837.999      5694.8503    
    116000   297.38395     -3355.0384      19.219946     -3335.8184      16628.265      5694.8503    
    117000   295.78646     -3355.0443      19.1167       -3335.9276      17116.722      5694.8503    
    118000   287.69336     -3353.2379      18.593643     -3334.6443      17332.198      5694.8503    
    119000   299.55031     -3353.6305      19.359958     -3334.2706      19145.938      5694.8503    
    120000   309.01497     -3353.6502      19.97166      -3333.6785      20304.656      5694.8503    
    121000   291.3521      -3354.0359      18.830107     -3335.2058      17957.029      5694.8503    
    122000   308.65471     -3353.7644      19.948377     -3333.8161      16889.224      5694.8503    
    123000   331.25876     -3353.9014      21.409277     -3332.4922      17519.882      5694.8503    
    124000   288.58408     -3354.0986      18.65121      -3335.4474      16955.764      5694.8503    
    125000   304.61932     -3354.8138      19.687568     -3335.1262      15898.431      5694.8503    
    126000   305.4499      -3354.0881      19.741249     -3334.3468      17322.492      5694.8503    
    127000   312.82671     -3354.6701      20.218013     -3334.4521      17779.481      5694.8503    
    128000   313.0983      -3355.312       20.235566     -3335.0764      15390.888      5694.8503    
    129000   280.90359     -3354.8272      18.154819     -3336.6724      16691.819      5694.8503    
    130000   292.61499     -3354.3721      18.911728     -3335.4604      17199.308      5694.8503    
    131000   314.75856     -3354.6504      20.342869     -3334.3076      17420.684      5694.8503    
    132000   293.45419     -3353.9425      18.965965     -3334.9765      17031.337      5694.8503    
    133000   302.29257     -3355.7921      19.537191     -3336.2549      15387.39       5694.8503    
    134000   300.16843     -3354.9672      19.399907     -3335.5673      18258.871      5694.8503    
    135000   316.79987     -3354.6824      20.474799     -3334.2076      17474.672      5694.8503    
    136000   306.14701     -3354.012       19.786304     -3334.2257      17500.489      5694.8503    
    137000   301.63436     -3355.2738      19.494651     -3335.7791      17318.189      5694.8503    
    138000   298.90758     -3355.025       19.318419     -3335.7066      16850.648      5694.8503    
    139000   310.58193     -3354.1983      20.072933     -3334.1253      17247.65       5694.8503    
    140000   294.52664     -3353.2351      19.035278     -3334.1998      17256.836      5694.8503    
    141000   299.24481     -3353.3091      19.340213     -3333.9689      19962.922      5694.8503    
    142000   288.92875     -3354.1017      18.673486     -3335.4282      17280.279      5694.8503    
    143000   307.05765     -3354.5076      19.845158     -3334.6624      15550.6        5694.8503    
    144000   322.12586     -3353.064       20.819018     -3332.245       18625.69       5694.8503    
    145000   299.44792     -3353.5577      19.353341     -3334.2044      15519.206      5694.8503    
    146000   285.03002     -3353.9314      18.421511     -3335.5099      18414.23       5694.8503    
    147000   301.0012      -3353.4546      19.45373      -3334.0009      16762.019      5694.8503    
    148000   295.85777     -3354.1156      19.121309     -3334.9943      16405.591      5694.8503    
    149000   318.04006     -3354.1334      20.554952     -3333.5785      16452.304      5694.8503    
    150000   305.61497     -3353.1697      19.751918     -3333.4178      18450.297      5694.8503    
    151000   293.9357      -3353.8805      18.997086     -3334.8834      15457.298      5694.8503    
    152000   288.13341     -3353.1319      18.622083     -3334.5098      18319.031      5694.8503    
    153000   326.54365     -3354.3784      21.10454      -3333.2739      16287.812      5694.8503    
    154000   293.44636     -3353.4096      18.96546      -3334.4441      18997.695      5694.8503    
    155000   290.45399     -3353.7886      18.772063     -3335.0166      16989.581      5694.8503    
    156000   293.93597     -3354.4243      18.997103     -3335.4272      16261.211      5694.8503    
    157000   301.07654     -3354.1233      19.458599     -3334.6647      19307.224      5694.8503    
    158000   295.0775      -3352.631       19.07088      -3333.5601      19655.871      5694.8503    
    159000   326.10833     -3353.9936      21.076405     -3332.9172      19175.876      5694.8503    
    160000   308.33438     -3354.8377      19.927673     -3334.91        17101.019      5694.8503    
    161000   307.21854     -3354.9429      19.855556     -3335.0873      17144.077      5694.8503    
    162000   314.40205     -3354.8726      20.319827     -3334.5528      17088.512      5694.8503    
    163000   318.53444     -3354.822       20.586904     -3334.2351      14324.033      5694.8503    
    164000   311.08758     -3353.9642      20.105613     -3333.8586      17717.367      5694.8503    
    165000   302.20389     -3354.4543      19.53146      -3334.9228      18555.492      5694.8503    
    166000   300.07747     -3354.6277      19.394028     -3335.2337      18852.665      5694.8503    
    167000   298.29443     -3353.5595      19.278791     -3334.2807      17893.097      5694.8503    
    168000   311.13565     -3353.3757      20.10872      -3333.267       18055.067      5694.8503    
    169000   304.98779     -3353.7988      19.711383     -3334.0874      17040.264      5694.8503    
    170000   317.47717     -3355.2577      20.518572     -3334.7392      15586.617      5694.8503    
    171000   320.36316     -3355.7139      20.705094     -3335.0088      16952.918      5694.8503    
    172000   301.29436     -3354.5158      19.472676     -3335.0431      17804.176      5694.8503    
    173000   328.85676     -3353.4326      21.254036     -3332.1786      16856.175      5694.8503    
    174000   311.16658     -3354.5175      20.110718     -3334.4068      14936.865      5694.8503    
    175000   304.66696     -3354.832       19.690648     -3335.1414      16862.582      5694.8503    
    176000   306.72105     -3354.852       19.823404     -3335.0286      17251.745      5694.8503    
    177000   310.19438     -3355.2144      20.047885     -3335.1665      16977.651      5694.8503    
    178000   309.45471     -3354.2343      20.000081     -3334.2342      18134.163      5694.8503    
    179000   304.09116     -3354.2073      19.653434     -3334.5539      15762.426      5694.8503    
    180000   294.75078     -3354.7856      19.049764     -3335.7358      15692.916      5694.8503    
    181000   284.08203     -3354.0783      18.360242     -3335.7181      18848.484      5694.8503    
    182000   294.42082     -3353.1293      19.028439     -3334.1009      18007.996      5694.8503    
    183000   310.29109     -3353.5986      20.054136     -3333.5445      17198.051      5694.8503    
    184000   313.9197      -3354.9626      20.288653     -3334.6739      19481.048      5694.8503    
    185000   307.38383     -3354.8738      19.866239     -3335.0075      17802.759      5694.8503    
    186000   314.22035     -3353.9264      20.308084     -3333.6183      18566.334      5694.8503    
    187000   306.80053     -3353.5389      19.82854      -3333.7104      18496.243      5694.8503    
    188000   296.65044     -3354.7077      19.172539     -3335.5352      16087.066      5694.8503    
    189000   305.77151     -3354.9265      19.762035     -3335.1645      14877.817      5694.8503    
    190000   297.85285     -3353.6996      19.250251     -3334.4493      17449.879      5694.8503    
    191000   299.84454     -3353.3888      19.378974     -3334.0099      17334.148      5694.8503    
    192000   314.09375     -3354.9201      20.299902     -3334.6202      16434.111      5694.8503    
    193000   300.25116     -3354.5537      19.405254     -3335.1484      16985.01       5694.8503    
    194000   310.76908     -3353.5847      20.085028     -3333.4997      16384.293      5694.8503    
    195000   308.09176     -3354.1648      19.911993     -3334.2528      18158.453      5694.8503    
    196000   291.46339     -3354.8092      18.8373       -3335.9719      16764.447      5694.8503    
    197000   304.05141     -3354.6857      19.650865     -3335.0348      17760.516      5694.8503    
    198000   302.14377     -3354.4499      19.527574     -3334.9224      18662.211      5694.8503    
    199000   308.93979     -3353.1065      19.966801     -3333.1397      19539.057      5694.8503    
    200000   300.61557     -3354.6176      19.428806     -3335.1888      17982.126      5694.8503    
    201000   275.36643     -3354.0598      17.796952     -3336.2629      17487.971      5694.8503    
    202000   300.90686     -3354.1702      19.447632     -3334.7226      15774.57       5694.8503    
    203000   302.84237     -3354.2266      19.572724     -3334.6538      16532.155      5694.8503    
    204000   293.1961      -3355.0663      18.949285     -3336.117       16974.198      5694.8503    
    205000   293.20177     -3355.3746      18.949651     -3336.4249      16832.658      5694.8503    
    206000   302.8409      -3354.8117      19.572629     -3335.2391      17177.211      5694.8503    
    207000   298.8546      -3353.4408      19.314994     -3334.1258      20007.577      5694.8503    
    208000   295.77018     -3353.2163      19.115648     -3334.1006      17737.639      5694.8503    
    209000   272.47632     -3354.2423      17.610164     -3336.6322      14280.897      5694.8503    
    210000   289.28613     -3355.2375      18.696583     -3336.5409      17510.241      5694.8503    
    211000   298.95548     -3354.5799      19.321514     -3335.2584      17594.766      5694.8503    
    212000   301.26794     -3353.7084      19.470969     -3334.2375      17221.967      5694.8503    
    213000   295.14939     -3355.169       19.075527     -3336.0935      15245.682      5694.8503    
    214000   280.21096     -3354.9276      18.110055     -3336.8175      17890.164      5694.8503    
    215000   308.70176     -3355.3669      19.951417     -3335.4155      17138.567      5694.8503    
    216000   300.10449     -3354.1464      19.395775     -3334.7506      16332.102      5694.8503    
    217000   305.85666     -3354.7985      19.767538     -3335.031       17566.505      5694.8503    
    218000   280.12295     -3354.3561      18.104366     -3336.2517      17411.362      5694.8503    
    219000   303.25451     -3354.8751      19.599361     -3335.2757      16302.927      5694.8503    
    220000   292.70828     -3352.9551      18.917757     -3334.0374      20584.657      5694.8503    
    221000   326.93923     -3353.9581      21.130106     -3332.828       17049.863      5694.8503    
    222000   306.63856     -3353.2315      19.818072     -3333.4135      17923.632      5694.8503    
    223000   305.48039     -3354.3795      19.74322      -3334.6362      17722.403      5694.8503    
    224000   296.42955     -3354.7093      19.158263     -3335.5511      17146.36       5694.8503    
    225000   289.24663     -3353.697       18.694031     -3335.003       19736.341      5694.8503    
    226000   320.86416     -3354.5882      20.737474     -3333.8507      17481.688      5694.8503    
    227000   300.78046     -3354.6853      19.439463     -3335.2458      17156.817      5694.8503    
    228000   308.87513     -3354.6413      19.962622     -3334.6786      17296.319      5694.8503    
    229000   304.85868     -3353.6769      19.703039     -3333.9738      17822.078      5694.8503    
    230000   307.54119     -3353.0445      19.876409     -3333.168       16908.894      5694.8503    
    231000   300.52506     -3353.8398      19.422956     -3334.4169      18063.669      5694.8503    
    232000   291.53053     -3354.0257      18.84164      -3335.1841      17157.096      5694.8503    
    233000   296.64441     -3353.7506      19.17215      -3334.5785      18720.471      5694.8503    
    234000   323.05662     -3354.1025      20.879173     -3333.2234      17544.889      5694.8503    
    235000   305.57991     -3354.1908      19.749652     -3334.4412      17354.094      5694.8503    
    236000   300.6837      -3353.6832      19.433209     -3334.25        20442.912      5694.8503    
    237000   302.77325     -3353.0594      19.568257     -3333.4911      18982.382      5694.8503    
    238000   297.97855     -3354.2058      19.258375     -3334.9474      18205.676      5694.8503    
    239000   293.90943     -3354.9302      18.995387     -3335.9348      17164.295      5694.8503    
    240000   310.03165     -3354.9772      20.037368     -3334.9398      15489.511      5694.8503    
    241000   293.88972     -3354.3037      18.994114     -3335.3096      18040.484      5694.8503    
    242000   295.8442      -3353.3593      19.120432     -3334.2388      16820.66       5694.8503    
    243000   299.47275     -3354.4771      19.354945     -3335.1222      16277.454      5694.8503    
    244000   292.04607     -3355.1924      18.874959     -3336.3174      15353.798      5694.8503    
    245000   296.32612     -3354.7872      19.151579     -3335.6357      15880.566      5694.8503    
    246000   295.77343     -3354.3082      19.115858     -3335.1924      17490.784      5694.8503    
    247000   321.30807     -3352.7043      20.766164     -3331.9382      18253.568      5694.8503    
    248000   299.81151     -3354.1597      19.37684      -3334.7829      16613.418      5694.8503    
    249000   293.34761     -3354.2322      18.959077     -3335.2731      16566.046      5694.8503    
    250000   287.47391     -3353.8987      18.579459     -3335.3192      17504.766      5694.8503    
    251000   303.21861     -3353.3283      19.597041     -3333.7312      18447.609      5694.8503    
    252000   327.31285     -3354.5868      21.154253     -3333.4326      18188.049      5694.8503    
    253000   325.10817     -3354.7168      21.011765     -3333.7051      16583.16       5694.8503    
    254000   295.42727     -3354.2188      19.093486     -3335.1254      16457.222      5694.8503    
    255000   290.5196      -3353.4988      18.776303     -3334.7225      19400.975      5694.8503    
    256000   327.33784     -3354.4064      21.155868     -3333.2506      18790.235      5694.8503    
    257000   305.26546     -3354.3283      19.729329     -3334.599       16084.543      5694.8503    
    258000   285.34912     -3353.7354      18.442134     -3335.2933      18329.835      5694.8503    
    259000   296.36275     -3354.313       19.153946     -3335.1591      16367.059      5694.8503    
    260000   317.60659     -3353.5359      20.526937     -3333.009       17356.841      5694.8503    
    261000   315.74541     -3354.5865      20.406649     -3334.1799      16466.82       5694.8503    
    262000   288.13618     -3354.2598      18.622262     -3335.6376      17387.729      5694.8503    
    263000   298.01722     -3355.1468      19.260875     -3335.886       16638.226      5694.8503    
    264000   321.5558      -3353.7462      20.782175     -3332.964       19605.048      5694.8503    
    265000   306.54905     -3354.5635      19.812287     -3334.7513      16273.63       5694.8503    
    266000   289.59774     -3354.2618      18.716723     -3335.5451      18640.513      5694.8503    
    267000   310.19469     -3354.1037      20.047905     -3334.0558      18548.643      5694.8503    
    268000   309.07311     -3353.7006      19.975418     -3333.7251      18878.75       5694.8503    
    269000   311.76692     -3353.5146      20.149519     -3333.3651      18228.617      5694.8503    
    270000   307.12187     -3354.5044      19.849309     -3334.6551      16542.814      5694.8503    
    271000   295.4966      -3354.6059      19.097966     -3335.5079      17639.781      5694.8503    
    272000   317.16726     -3354.8428      20.498543     -3334.3443      18325.992      5694.8503    
    273000   305.48053     -3352.8931      19.743229     -3333.1499      18797.298      5694.8503    
    274000   307.6214      -3353.8006      19.881593     -3333.919       17784.12       5694.8503    
    275000   303.19456     -3355.3867      19.595486     -3335.7913      15895.079      5694.8503    
    276000   308.30896     -3354.514       19.92603      -3334.5879      19264.377      5694.8503    
    277000   298.33778     -3353.9768      19.281593     -3334.6952      15992.858      5694.8503    
    278000   289.4242      -3355.2635      18.705507     -3336.558       14342.129      5694.8503    
    279000   275.08676     -3354.4312      17.778877     -3336.6524      18253.812      5694.8503    
    280000   295.77961     -3354.9965      19.116258     -3335.8802      16084.469      5694.8503    
    281000   291.95421     -3353.9533      18.869022     -3335.0842      17933.38       5694.8503    
    282000   305.87024     -3352.0137      19.768416     -3332.2453      18873.06       5694.8503    
    283000   300.4635      -3354.8361      19.418978     -3335.4171      17814.43       5694.8503    
    284000   285.66546     -3353.8794      18.462579     -3335.4168      16308.67       5694.8503    
    285000   308.91118     -3353.7352      19.964952     -3333.7703      19062.321      5694.8503    
    286000   302.02559     -3353.718       19.519936     -3334.1981      18059.443      5694.8503    
    287000   275.76812     -3353.0438      17.822914     -3335.2209      18228.703      5694.8503    
    288000   285.80606     -3354.3174      18.471666     -3335.8457      16613.505      5694.8503    
    289000   292.52001     -3355.8618      18.905589     -3336.9562      15476.146      5694.8503    
    290000   305.44645     -3354.2659      19.741026     -3334.5248      16591.427      5694.8503    
    291000   315.13595     -3354.1756      20.367259     -3333.8084      17169.628      5694.8503    
    292000   298.21278     -3354.464       19.273514     -3335.1905      17316.183      5694.8503    
    293000   302.71653     -3354.9964      19.564591     -3335.4318      17896.864      5694.8503    
    294000   311.82008     -3354.7879      20.152954     -3334.635       17459.626      5694.8503    
    295000   308.55908     -3353.7067      19.942195     -3333.7645      17102.393      5694.8503    
    296000   305.43382     -3354.4501      19.74021      -3334.7099      16720.631      5694.8503    
    297000   286.6748      -3355.4249      18.527813     -3336.8971      15108.093      5694.8503    
    298000   288.72869     -3355.0044      18.660556     -3336.3438      16934.798      5694.8503    
    299000   291.10158     -3354.1423      18.813916     -3335.3283      16424.443      5694.8503    
    300000   295.95294     -3353.5249      19.12746      -3334.3975      18549.59       5694.8503    
    301000   330.90217     -3354.1459      21.386231     -3332.7596      17062.434      5694.8503    
    302000   284.55354     -3354.1287      18.390716     -3335.7379      16748.803      5694.8503    
    303000   298.97004     -3354.234       19.322455     -3334.9116      17288.249      5694.8503    
    304000   313.82985     -3353.3977      20.282846     -3333.1149      17796.691      5694.8503    
    305000   299.77143     -3353.8722      19.374249     -3334.4979      16710.394      5694.8503    
    306000   292.39817     -3354.0155      18.897715     -3335.1178      18483.759      5694.8503    
    307000   310.62566     -3353.947       20.075759     -3333.8712      17632.155      5694.8503    
    308000   303.94827     -3354.3002      19.644199     -3334.656       16330.195      5694.8503    
    309000   294.47064     -3356.0367      19.031659     -3337.0051      13648.555      5694.8503    
    310000   295.84058     -3354.5724      19.120198     -3335.4522      16612.019      5694.8503    
    311000   284.15547     -3353.0178      18.364989     -3334.6528      16622.49       5694.8503    
    312000   313.33911     -3353.5747      20.251129     -3333.3235      15718.44       5694.8503    
    313000   317.64522     -3354.017       20.529433     -3333.4875      19314.906      5694.8503    
    314000   291.76007     -3354.2904      18.856474     -3335.4339      17050.714      5694.8503    
    315000   304.47385     -3355.487       19.678167     -3335.8089      17370.39       5694.8503    
    316000   315.74784     -3355.1761      20.406806     -3334.7693      17293.068      5694.8503    
    317000   299.32432     -3354.3427      19.345353     -3334.9973      18324.668      5694.8503    
    318000   299.13865     -3353.5089      19.333353     -3334.1756      19078.604      5694.8503    
    319000   287.505       -3355.0949      18.581469     -3336.5134      14696.452      5694.8503    
    320000   284.41921     -3355.1047      18.382034     -3336.7227      16964.839      5694.8503    
    321000   292.83337     -3354.4852      18.925842     -3335.5594      16155.989      5694.8503    
    322000   302.69774     -3353.7002      19.563377     -3334.1368      16461.839      5694.8503    
    323000   317.77906     -3355.0924      20.538084     -3334.5543      18068.502      5694.8503    
    324000   286.98089     -3354.1568      18.547596     -3335.6092      16827.775      5694.8503    
    325000   302.70185     -3355.5094      19.563643     -3335.9458      17879.576      5694.8503    
    326000   303.11276     -3353.6462      19.590199     -3334.056       16982.115      5694.8503    
    327000   310.58275     -3353.3492      20.072986     -3333.2762      19416.722      5694.8503    
    328000   290.56259     -3353.0306      18.779081     -3334.2515      19295.835      5694.8503    
    329000   310.37247     -3354.9149      20.059395     -3334.8555      17480.288      5694.8503    
    330000   302.47796     -3355.055       19.549173     -3335.5058      18177.863      5694.8503    
    331000   311.62311     -3354.4873      20.140224     -3334.3471      16991.442      5694.8503    
    332000   282.48068     -3354.7641      18.256747     -3336.5073      17153.363      5694.8503    
    333000   303.9338      -3355.1707      19.643264     -3335.5274      16144.444      5694.8503    
    334000   301.60144     -3354.0307      19.492523     -3334.5382      17323.346      5694.8503    
    335000   308.23625     -3353.458       19.921331     -3333.5367      19409.557      5694.8503    
    336000   309.19194     -3354.9509      19.983097     -3334.9678      17018.33       5694.8503    
    337000   289.70844     -3354.7665      18.723878     -3336.0427      17392.422      5694.8503    
    338000   288.08773     -3355.2698      18.619131     -3336.6507      16489.293      5694.8503    
    339000   299.14451     -3354.2822      19.333732     -3334.9484      18234.448      5694.8503    
    340000   301.29275     -3353.7086      19.472573     -3334.236       16131.405      5694.8503    
    341000   308.08276     -3355.5748      19.911411     -3335.6633      16726.455      5694.8503    
    342000   284.9894      -3354.722       18.418885     -3336.3031      17964.449      5694.8503    
    343000   316.40089     -3354.263       20.449012     -3333.814       16840.42       5694.8503    
    344000   290.91172     -3352.6056      18.801645     -3333.804       19674.807      5694.8503    
    345000   288.53642     -3354.9331      18.64813      -3336.285       15747.666      5694.8503    
    346000   302.77752     -3354.352       19.568533     -3334.7834      16684.596      5694.8503    
    347000   321.45816     -3354.6727      20.775864     -3333.8968      17064.654      5694.8503    
    348000   306.04998     -3352.8233      19.780032     -3333.0433      19727.138      5694.8503    
    349000   297.82593     -3354.5242      19.248511     -3335.2757      18124.474      5694.8503    
    350000   287.20989     -3354.2263      18.562396     -3335.6639      16865.415      5694.8503    
    351000   306.28564     -3353.6031      19.795263     -3333.8078      19079.097      5694.8503    
    352000   305.43084     -3353.4407      19.740018     -3333.7007      18741.464      5694.8503    
    353000   323.85353     -3354.7424      20.930677     -3333.8117      17241.538      5694.8503    
    354000   301.49449     -3354.8239      19.485611     -3335.3383      17425.538      5694.8503    
    355000   301.46457     -3354.6485      19.483677     -3335.1649      15809.973      5694.8503    
    356000   301.7805      -3353.9068      19.504096     -3334.4027      18296.022      5694.8503    
    357000   321.64565     -3353.8265      20.787982     -3333.0385      17265.837      5694.8503    
    358000   302.16991     -3353.5953      19.529263     -3334.066       17432.407      5694.8503    
    359000   297.38624     -3354.7815      19.220094     -3335.5614      16588.817      5694.8503    
    360000   302.44651     -3354.9091      19.54714      -3335.362       17162.008      5694.8503    
    361000   297.77923     -3353.5373      19.245493     -3334.2918      19125.98       5694.8503    
    362000   307.94228     -3352.971       19.902332     -3333.0687      19615.351      5694.8503    
    363000   291.65221     -3354.5552      18.849503     -3335.7057      18084.88       5694.8503    
    364000   295.12505     -3355.2993      19.073953     -3336.2253      16631.862      5694.8503    
    365000   316.35064     -3355.0862      20.445765     -3334.6404      18096.346      5694.8503    
    366000   307.45324     -3353.2568      19.870725     -3333.386       17739.316      5694.8503    
    367000   310.28236     -3355.5938      20.053572     -3335.5402      17944.282      5694.8503    
    368000   301.34369     -3355.8201      19.475864     -3336.3442      18706.631      5694.8503    
    369000   276.89202     -3355.6068      17.895551     -3337.7113      15625.371      5694.8503    
    370000   304.55113     -3355.4099      19.683161     -3335.7267      16711.409      5694.8503    
    371000   298.50142     -3354.3206      19.292168     -3335.0284      18678.582      5694.8503    
    372000   307.09041     -3355.837       19.847276     -3335.9897      18437.075      5694.8503    
    373000   296.87468     -3356.1086      19.187032     -3336.9216      15494.144      5694.8503    
    374000   302.47516     -3355.3851      19.548991     -3335.8361      17264.738      5694.8503    
    375000   302.75331     -3354.1343      19.566968     -3334.5673      17301.901      5694.8503    
    376000   311.65063     -3355.221       20.142003     -3335.079       19106.597      5694.8503    
    377000   282.45873     -3354.6449      18.255328     -3336.3895      18111.21       5694.8503    
    378000   289.28091     -3354.9578      18.696246     -3336.2615      17007.956      5694.8503    
    379000   323.35594     -3353.8543      20.898518     -3332.9558      18441.651      5694.8503    
    380000   303.95877     -3355.48        19.644878     -3335.8351      16134.33       5694.8503    
    381000   287.63259     -3354.956       18.589715     -3336.3663      18192.707      5694.8503    
    382000   318.20689     -3353.8963      20.565734     -3333.3306      18300.476      5694.8503    
    383000   320.15027     -3354.8445      20.691335     -3334.1532      17121.9        5694.8503    
    384000   311.94462     -3355.5193      20.161003     -3335.3583      17319.6        5694.8503    
    385000   300.62849     -3355.671       19.429641     -3336.2414      16676.907      5694.8503    
    386000   293.37334     -3355.054       18.96074      -3336.0933      16157.913      5694.8503    
    387000   305.0673      -3355.0112      19.716522     -3335.2947      17415.354      5694.8503    
    388000   302.7347      -3354.5621      19.565765     -3334.9963      19712.655      5694.8503    
    389000   286.43555     -3355.8063      18.512351     -3337.2939      15957.909      5694.8503    
    390000   293.70237     -3355.7872      18.982006     -3336.8052      14972.784      5694.8503    
    391000   304.17624     -3355.5067      19.658933     -3335.8477      16285.827      5694.8503    
    392000   288.02391     -3354.0844      18.615006     -3335.4694      18259.857      5694.8503    
    393000   308.51687     -3354.2027      19.939468     -3334.2632      18271.64       5694.8503    
    394000   304.95326     -3354.7015      19.709152     -3334.9923      18130.505      5694.8503    
    395000   290.62697     -3355.0969      18.783242     -3336.3137      17230.819      5694.8503    
    396000   292.02804     -3355.7383      18.873793     -3336.8645      17547.255      5694.8503    
    397000   298.15337     -3355.6884      19.269674     -3336.4187      17194.175      5694.8503    
    398000   285.88371     -3353.8389      18.476685     -3335.3622      17054.972      5694.8503    
    399000   309.04861     -3354.7856      19.973834     -3334.8118      17268.17       5694.8503    
    400000   285.46928     -3354.586       18.4499       -3336.1361      16978.632      5694.8503    
    401000   281.44196     -3355.1206      18.189614     -3336.931       17930.244      5694.8503    
    402000   306.72075     -3355.0795      19.823384     -3335.2561      17522.419      5694.8503    
    403000   279.95247     -3353.4879      18.093349     -3335.3945      17917.024      5694.8503    
    404000   278.63011     -3354.7052      18.007884     -3336.6973      17228.61       5694.8503    
    405000   283.76678     -3355.4523      18.339867     -3337.1124      15841.046      5694.8503    
    406000   306.05437     -3355.308       19.780316     -3335.5277      16470.998      5694.8503    
    407000   298.46267     -3353.8143      19.289664     -3334.5246      17295.182      5694.8503    
    408000   311.26672     -3354.235       20.117191     -3334.1178      18764.171      5694.8503    
    409000   313.7128      -3353.966       20.275281     -3333.6908      18641.036      5694.8503    
    410000   288.07483     -3354.1381      18.618297     -3335.5198      17812.039      5694.8503    
    411000   286.32311     -3354.5532      18.505084     -3336.0481      16712.322      5694.8503    
    412000   295.02785     -3355.0947      19.067671     -3336.027       18721.381      5694.8503    
    413000   301.95664     -3354.1322      19.515479     -3334.6167      16470.199      5694.8503    
    414000   297.65895     -3352.8029      19.23772      -3333.5652      18935.941      5694.8503    
    415000   294.71014     -3353.6908      19.047138     -3334.6436      19311.632      5694.8503    
    416000   294.01933     -3355.7052      19.00249      -3336.7027      17441.046      5694.8503    
    417000   293.27625     -3355.8569      18.954465     -3336.9024      17209.553      5694.8503    
    418000   306.01084     -3355.8827      19.777503     -3336.1052      17189.269      5694.8503    
    419000   283.87261     -3353.6704      18.346708     -3335.3237      18942.635      5694.8503    
    420000   286.63564     -3355.2322      18.525282     -3336.7069      17807.012      5694.8503    
    421000   286.14393     -3354.6484      18.493503     -3336.1549      19773.791      5694.8503    
    422000   304.94276     -3354.7838      19.708473     -3335.0753      17991.898      5694.8503    
    423000   301.07442     -3354.3816      19.458461     -3334.9232      19217.76       5694.8503    
    424000   293.75315     -3355.3698      18.985287     -3336.3845      18862.317      5694.8503    
    425000   284.23772     -3354.6686      18.370305     -3336.2983      18547.313      5694.8503    
    426000   307.54131     -3355.3848      19.876417     -3335.5084      18606.459      5694.8503    
    427000   311.41355     -3354.4655      20.12668      -3334.3389      17978.502      5694.8503    
    428000   282.39637     -3353.8008      18.251298     -3335.5495      18721.104      5694.8503    
    429000   286.75612     -3356.0135      18.533069     -3337.4805      17310.003      5694.8503    
    430000   298.28862     -3355.7198      19.278415     -3336.4414      18190.369      5694.8503    
    431000   302.60063     -3355.164       19.557101     -3335.6069      17421.013      5694.8503    
    432000   311.19284     -3353.9251      20.112416     -3333.8127      18684.06       5694.8503    
    433000   279.39465     -3354.0616      18.057297     -3336.0043      19578.639      5694.8503    
    434000   294.14703     -3355.5084      19.010744     -3336.4976      18417.611      5694.8503    
    435000   302.87858     -3354.9001      19.575064     -3335.325       17331.366      5694.8503    
    436000   294.21027     -3353.8196      19.014831     -3334.8048      17639.912      5694.8503    
    437000   297.28918     -3354.5039      19.213821     -3335.2901      18686.927      5694.8503    
    438000   298.38655     -3355.1926      19.284744     -3335.9078      16431.002      5694.8503    
    439000   295.18498     -3354.532       19.077827     -3335.4542      17799.972      5694.8503    
    440000   312.80837     -3353.1431      20.216828     -3332.9263      19160.886      5694.8503    
    441000   291.09595     -3353.3194      18.813552     -3334.5058      19582.775      5694.8503    
    442000   313.89812     -3355.1079      20.287258     -3334.8207      18919.42       5694.8503    
    443000   290.93851     -3354.5441      18.803377     -3335.7407      19419.957      5694.8503    
    444000   307.70936     -3354.6735      19.887279     -3334.7862      18851.528      5694.8503    
    445000   323.83182     -3354.717       20.929274     -3333.7877      18080.069      5694.8503    
    446000   319.73983     -3354.4239      20.664808     -3333.7591      18408.676      5694.8503    
    447000   297.70737     -3355.0907      19.240849     -3335.8499      15858.447      5694.8503    
    448000   293.14734     -3354.8326      18.946134     -3335.8865      17627.62       5694.8503    
    449000   293.35443     -3354.155       18.959518     -3335.1954      18975.615      5694.8503    
    450000   311.15778     -3355.268       20.11015      -3335.1579      20581.735      5694.8503    
    451000   305.83476     -3354.6099      19.766123     -3334.8438      20567.744      5694.8503    
    452000   293.62471     -3355.241       18.976986     -3336.264       17999.528      5694.8503    
    453000   300.79371     -3355.2694      19.440319     -3335.8291      20129.678      5694.8503    
    454000   312.51006     -3354.8001      20.197548     -3334.6026      20570.51       5694.8503    
    455000   298.12837     -3354.3617      19.268058     -3335.0937      18652.539      5694.8503    
    456000   278.39303     -3354.817       17.992562     -3336.8244      19482.733      5694.8503    
    457000   308.75233     -3356.355       19.954686     -3336.4003      17564.61       5694.8503    
    458000   304.59117     -3354.8978      19.685749     -3335.212       17886.307      5694.8503    
    459000   319.41022     -3354.951       20.643505     -3334.3075      19642.579      5694.8503    
    460000   302.15045     -3355.1062      19.528005     -3335.5782      19593.075      5694.8503    
    461000   299.90528     -3356.5959      19.3829       -3337.213       14755.633      5694.8503    
    462000   288.86275     -3355.862       18.66922      -3337.1928      18292.458      5694.8503    
    463000   291.25254     -3355.2264      18.823673     -3336.4027      19104.166      5694.8503    
    464000   317.6857      -3355.6751      20.53205      -3335.1431      17551.155      5694.8503    
    465000   309.71256     -3355.0547      20.016745     -3335.038       18329.971      5694.8503    
    466000   295.19704     -3354.7275      19.078606     -3335.6489      19238.032      5694.8503    
    467000   305.57179     -3355.5527      19.749127     -3335.8036      17950.034      5694.8503    
    468000   300.92737     -3353.4416      19.448958     -3333.9926      17293.765      5694.8503    
    469000   304.07729     -3354.1854      19.652537     -3334.5329      18256.415      5694.8503    
    470000   297.24965     -3354.5507      19.211267     -3335.3394      19908.662      5694.8503    
    471000   302.18127     -3355.1915      19.529997     -3335.6615      17627.323      5694.8503    
    472000   304.05754     -3356.9006      19.651261     -3337.2494      16825.659      5694.8503    
    473000   299.01845     -3355.2489      19.325584     -3335.9233      16343.19       5694.8503    
    474000   304.75835     -3355.0198      19.696554     -3335.3232      17547.236      5694.8503    
    475000   317.63039     -3355.5115      20.528475     -3334.983       18216.516      5694.8503    
    476000   294.17785     -3355.6851      19.012736     -3336.6724      17378.169      5694.8503    
    477000   316.17694     -3354.3875      20.434538     -3333.953       16693.617      5694.8503    
    478000   317.83399     -3354.3362      20.541634     -3333.7946      19306.393      5694.8503    
    479000   295.6168      -3355.4476      19.105735     -3336.3419      19353.763      5694.8503    
    480000   280.63247     -3353.9441      18.137297     -3335.8068      18424.661      5694.8503    
    481000   301.23167     -3353.6622      19.468625     -3334.1936      20077.797      5694.8503    
    482000   310.48052     -3354.4061      20.066379     -3334.3397      19629.749      5694.8503    
    483000   290.63916     -3355.1253      18.78403      -3336.3412      17716.729      5694.8503    
    484000   299.74653     -3355.0911      19.37264      -3335.7185      16315.093      5694.8503    
    485000   312.5761      -3355.1622      20.201816     -3334.9604      18245.067      5694.8503    
    486000   316.57648     -3355.2584      20.460361     -3334.798       16845.597      5694.8503    
    487000   301.0796      -3355.2         19.458796     -3335.7412      18154.858      5694.8503    
    488000   296.68699     -3356.1788      19.174902     -3337.0039      16954.746      5694.8503    
    489000   296.18034     -3354.9913      19.142157     -3335.8492      18122.4        5694.8503    
    490000   302.26713     -3354.0256      19.535547     -3334.4901      18769.053      5694.8503    
    491000   311.14728     -3353.9962      20.109471     -3333.8868      18988.172      5694.8503    
    492000   303.15425     -3354.5944      19.592881     -3335.0015      18579.963      5694.8503    
    493000   297.44998     -3355.3678      19.224214     -3336.1435      17900.384      5694.8503    
    494000   287.35945     -3355.6383      18.572062     -3337.0662      18315.103      5694.8503    
    495000   291.25854     -3355.9585      18.82406      -3337.1344      14343.028      5694.8503    
    496000   299.63277     -3354.9096      19.365287     -3335.5444      18515.603      5694.8503    
    497000   316.23515     -3354.82        20.4383       -3334.3817      18399.938      5694.8503    
    498000   303.46475     -3355.1468      19.612948     -3335.5338      17210.662      5694.8503    
    499000   296.54461     -3355.5954      19.1657       -3336.4297      18065.508      5694.8503    
    500000   305.48592     -3354.7192      19.743577     -3334.9756      19624.309      5694.8503    
Loop time of 15174.4 on 1 procs for 500000 steps with 501 atoms

Performance: 1.423 ns/day, 16.860 hours/ns, 32.950 timesteps/s, 16.508 katom-step/s
99.2% CPU use with 1 MPI tasks x 1 OpenMP threads

MPI task timing breakdown:
Section |  min time  |  avg time  |  max time  |%varavg| %total
---------------------------------------------------------------
Pair    | 15108      | 15108      | 15108      |   0.0 | 99.56
Neigh   | 0.050615   | 0.050615   | 0.050615   |   0.0 |  0.00
Comm    | 19.641     | 19.641     | 19.641     |   0.0 |  0.13
Output  | 0.8231     | 0.8231     | 0.8231     |   0.0 |  0.01
Modify  | 25.785     | 25.785     | 25.785     |   0.0 |  0.17
Other   |            | 20.36      |            |       |  0.13

Nlocal:            501 ave         501 max         501 min
Histogram: 1 0 0 0 0 0 0 0 0 0
Nghost:           2073 ave        2073 max        2073 min
Histogram: 1 0 0 0 0 0 0 0 0 0
Neighs:              0 ave           0 max           0 min
Histogram: 1 0 0 0 0 0 0 0 0 0
FullNghs:        66522 ave       66522 max       66522 min
Histogram: 1 0 0 0 0 0 0 0 0 0

Total # of neighbors = 66522
Ave neighs/atom = 132.77844
Neighbor list builds = 121
Dangerous builds = 0
unfix          nvt_equil

# ── Phase 2: Production ──────────────────────────────────────
# Dump trajectory for NB11 MSD calculation
# Dump every 1000 steps = 500 fs
dump           prod_dump  all  custom  1000  results/notebook10-bulk-equilibration/N_1234/Hastelloy_N_1234_H_300K_prod.lammpstrj                id type x y z
dump_modify    prod_dump  sort id

fix            nvt_prod  all  nvt  temp  300.0  300.0  0.1

# Compute MSD for H atom
compute        msd_H  H_atom  msd
fix            msd_out  all  ave/time  1  1  1000                c_msd_H[4]  file  results/notebook10-bulk-equilibration/N_1234/Hastelloy_N_1234_msd_H_300K.txt  mode scalar

print "### Phase 2: Production 750 ps at 300 K ###"
### Phase 2: Production 750 ps at 300 K ###
run            1500000
WARNING: Fix STORE/ATOM not compatible with sending data in Kokkos communication (src/KOKKOS/comm_kokkos.cpp:842)
WARNING: Fix with atom-based arrays not compatible with sending data in Kokkos communication, switching to legacy exchange/border communication (src/KOKKOS/comm_kokkos.cpp:849)
WARNING: Fix STORE/ATOM not (yet) compatible with Kokkos sorting on device (src/KOKKOS/atom_kokkos.cpp:219)
WARNING: Fix with atom-based arrays not (yet) compatible with Kokkos sorting on device, switching to legacy host sorting (src/KOKKOS/atom_kokkos.cpp:225)
Per MPI rank memory allocation (min/avg/max) = 88.82 | 88.82 | 88.82 Mbytes
   Step          Temp          PotEng         KinEng         TotEng         Press          Volume    
    500000   305.48592     -3354.7192      19.743577     -3334.9756      19624.309      5694.8503    
    501000   305.36988     -3355.6089      19.736078     -3335.8728      18211.879      5694.8503    
    502000   281.66273     -3355.849       18.203883     -3337.6451      17219.029      5694.8503    
    503000   304.00667     -3356.3579      19.647973     -3336.71        16679.411      5694.8503    
    504000   301.88962     -3354.1659      19.511148     -3334.6548      18406.984      5694.8503    
    505000   293.60799     -3354.7166      18.975905     -3335.7407      16711.002      5694.8503    
    506000   292.31003     -3355.3683      18.892018     -3336.4763      18499.616      5694.8503    
    507000   305.83327     -3355.0571      19.766026     -3335.2911      17052.847      5694.8503    
    508000   304.7193      -3355.2272      19.694031     -3335.5332      18704.078      5694.8503    
    509000   315.17514     -3354.7389      20.369792     -3334.3692      18014.115      5694.8503    
    510000   302.23789     -3354.705       19.533657     -3335.1713      17634.187      5694.8503    
    511000   307.47243     -3356.051       19.871965     -3336.1791      17057.632      5694.8503    
    512000   285.47186     -3356.485       18.450067     -3338.0349      18169.24       5694.8503    
    513000   296.65855     -3354.4215      19.173064     -3335.2484      17337.922      5694.8503    
    514000   295.32765     -3354.6136      19.087047     -3335.5265      20336.91       5694.8503    
    515000   287.01954     -3355.1846      18.550094     -3336.6346      19963.154      5694.8503    
    516000   307.12591     -3355.6189      19.84957      -3335.7693      18820.51       5694.8503    
    517000   312.75146     -3354.2175      20.21315      -3334.0043      18869.51       5694.8503    
    518000   283.0747      -3352.2745      18.295138     -3333.9793      20154.626      5694.8503    
    519000   300.39617     -3355.3685      19.414627     -3335.9538      17150.587      5694.8503    
    520000   307.5065      -3356.3232      19.874167     -3336.449       17072.626      5694.8503    
    521000   291.86989     -3356.2132      18.863572     -3337.3496      16871.909      5694.8503    
    522000   298.59888     -3355.136       19.298467     -3335.8375      18124.408      5694.8503    
    523000   305.99938     -3354.9936      19.776762     -3335.2168      18965.898      5694.8503    
    524000   301.17775     -3354.8349      19.465139     -3335.3697      18674.13       5694.8503    
    525000   300.73054     -3356.1342      19.436236     -3336.698       15252.334      5694.8503    
    526000   315.77561     -3355.949       20.408601     -3335.5404      18670.303      5694.8503    
    527000   283.70096     -3355.0464      18.335614     -3336.7107      19044.19       5694.8503    
    528000   311.89668     -3355.6043      20.157905     -3335.4464      19170.947      5694.8503    
    529000   316.38146     -3353.353       20.447756     -3332.9053      20305.831      5694.8503    
    530000   295.378       -3354.8359      19.090302     -3335.7456      19938.875      5694.8503    
    531000   295.14135     -3355.0894      19.075007     -3336.0144      20995.044      5694.8503    
    532000   292.7787      -3355.4787      18.922309     -3336.5564      16398.001      5694.8503    
    533000   329.66919     -3353.691       21.306543     -3332.3844      20212.867      5694.8503    
    534000   298.56607     -3354.1158      19.296347     -3334.8194      17817.82       5694.8503    
    535000   306.47584     -3355.7519      19.807556     -3335.9443      17557.982      5694.8503    
    536000   290.7314      -3354.8254      18.789992     -3336.0354      19022.894      5694.8503    
    537000   315.2379      -3354.0592      20.373848     -3333.6854      18494.816      5694.8503    
    538000   315.16272     -3354.3287      20.368989     -3333.9597      18053.868      5694.8503    
    539000   302.92945     -3355.0753      19.578353     -3335.4969      19645.069      5694.8503    
    540000   291.9552      -3355.3206      18.869086     -3336.4515      18030.956      5694.8503    
    541000   296.17931     -3356.3216      19.14209      -3337.1795      15904.384      5694.8503    
    542000   286.66        -3354.228       18.526856     -3335.7011      18266.887      5694.8503    
    543000   298.27609     -3353.924       19.277606     -3334.6464      18440.07       5694.8503    
    544000   300.95912     -3354.7411      19.45101      -3335.2901      18853.473      5694.8503    
    545000   277.70651     -3355.6882      17.948192     -3337.74        18210.376      5694.8503    
    546000   288.30925     -3354.8999      18.633448     -3336.2664      16351.669      5694.8503    
    547000   299.50324     -3354.9304      19.356916     -3335.5735      18149.994      5694.8503    
    548000   320.14313     -3355.1335      20.690874     -3334.4426      20036.37       5694.8503    
    549000   311.17629     -3354.1776      20.111346     -3334.0662      19071.733      5694.8503    
    550000   303.35687     -3355.9334      19.605977     -3336.3274      16311.678      5694.8503    
    551000   288.26934     -3354.3584      18.630868     -3335.7275      19190.619      5694.8503    
    552000   332.89169     -3354.1423      21.514814     -3332.6275      18191.761      5694.8503    
    553000   323.20322     -3355.7234      20.888647     -3334.8348      15767.727      5694.8503    
    554000   297.70888     -3355.1916      19.240947     -3335.9506      16603.594      5694.8503    
    555000   305.686       -3354.2689      19.756508     -3334.5124      20109.738      5694.8503    
    556000   293.83914     -3354.5051      18.990845     -3335.5143      17324.533      5694.8503    
    557000   284.86112     -3354.8855      18.410595     -3336.4749      18384.611      5694.8503    
    558000   286.99731     -3356.3024      18.548657     -3337.7538      15422.252      5694.8503    
    559000   298.81776     -3355.548       19.312614     -3336.2354      18697.498      5694.8503    
    560000   312.9752      -3355.3998      20.22761      -3335.1722      19825.656      5694.8503    
    561000   315.38206     -3354.8176      20.383165     -3334.4345      19349.979      5694.8503    
    562000   291.68943     -3354.6063      18.851909     -3335.7544      18192.489      5694.8503    
    563000   296.1083      -3355.9702      19.137501     -3336.8327      17643.409      5694.8503    
    564000   307.95415     -3354.7392      19.903099     -3334.8361      19095.727      5694.8503    
    565000   317.80089     -3354.5793      20.539494     -3334.0398      19621.376      5694.8503    
    566000   306.56603     -3355.3793      19.813385     -3335.5659      17225.612      5694.8503    
    567000   294.73463     -3355.8436      19.048721     -3336.7949      17779.775      5694.8503    
    568000   299.13299     -3355.4236      19.332987     -3336.0906      18210.246      5694.8503    
    569000   319.63499     -3354.2786      20.658033     -3333.6205      18333.341      5694.8503    
    570000   309.87982     -3355.0383      20.027555     -3335.0107      19223.599      5694.8503    
    571000   299.57604     -3355.3311      19.361621     -3335.9695      16995.948      5694.8503    
    572000   280.11751     -3354.3339      18.104015     -3336.2299      18855.608      5694.8503    
    573000   289.40027     -3354.3226      18.70396      -3335.6187      17818.397      5694.8503    
    574000   319.71699     -3355.4398      20.663332     -3334.7765      18389.423      5694.8503    
    575000   296.53675     -3356.2063      19.165191     -3337.0411      17774.923      5694.8503    
    576000   290.53128     -3355.9837      18.777058     -3337.2066      15686.004      5694.8503    
    577000   301.02879     -3354.6763      19.455513     -3335.2208      17964.526      5694.8503    
    578000   302.41783     -3354.5621      19.545286     -3335.0168      18918.525      5694.8503    
    579000   288.45374     -3354.646       18.642786     -3336.0033      20271.32       5694.8503    
    580000   313.37063     -3355.0191      20.253166     -3334.7659      17262.006      5694.8503    
    581000   307.0162      -3352.9971      19.842479     -3333.1546      21470.139      5694.8503    
    582000   289.26526     -3355.3413      18.695235     -3336.6461      18791.136      5694.8503    
    583000   287.15406     -3355.4659      18.558788     -3336.9071      18065.623      5694.8503    
    584000   289.35509     -3355.208       18.701041     -3336.5069      18308.457      5694.8503    
    585000   307.32741     -3355.1261      19.862593     -3335.2635      18775.632      5694.8503    
    586000   310.36453     -3355.165       20.058882     -3335.1062      18841.923      5694.8503    
    587000   301.72905     -3356.3105      19.500771     -3336.8097      16419.558      5694.8503    
    588000   282.79069     -3354.8007      18.276783     -3336.5239      17825.406      5694.8503    
    589000   291.16107     -3354.7568      18.817761     -3335.9391      18206.558      5694.8503    
    590000   310.24508     -3354.6825      20.051162     -3334.6314      16033.276      5694.8503    
    591000   312.86713     -3355.2899      20.220626     -3335.0692      18056.05       5694.8503    
    592000   289.3992      -3354.8205      18.703891     -3336.1166      20579.619      5694.8503    
    593000   287.62025     -3354.8259      18.588917     -3336.237       18868.835      5694.8503    
    594000   296.52774     -3353.1003      19.164609     -3333.9357      20913.657      5694.8503    
    595000   309.19        -3354.3045      19.982972     -3334.3216      21889.108      5694.8503    
    596000   313.55353     -3354.7678      20.264987     -3334.5029      19596.405      5694.8503    
    597000   302.25307     -3355.1595      19.534638     -3335.6248      16777.779      5694.8503    
    598000   298.31665     -3355.729       19.280227     -3336.4487      18317.639      5694.8503    
    599000   306.13033     -3355.3012      19.785225     -3335.516       19731.314      5694.8503    
    600000   305.8962      -3355.3766      19.770094     -3335.6065      17990.382      5694.8503    
    601000   291.32367     -3355.6126      18.82827      -3336.7844      18868.109      5694.8503    
    602000   301.53476     -3355.0876      19.488214     -3335.5993      19730.725      5694.8503    
    603000   294.87594     -3353.7478      19.057853     -3334.69        19793.824      5694.8503    
    604000   302.7309      -3354.7743      19.56552      -3335.2088      16934.261      5694.8503    
    605000   299.23793     -3355.4161      19.339769     -3336.0763      19240.836      5694.8503    
    606000   305.08578     -3354.8396      19.717716     -3335.1219      18197.107      5694.8503    
    607000   319.89668     -3354.8731      20.674946     -3334.1982      19364.123      5694.8503    
    608000   303.79989     -3355.4232      19.634609     -3335.7885      17428.728      5694.8503    
    609000   297.95979     -3354.8797      19.257163     -3335.6226      18938.082      5694.8503    
    610000   304.25325     -3354.1923      19.66391      -3334.5284      20037.88       5694.8503    
    611000   301.43577     -3355.0006      19.481816     -3335.5188      20034.035      5694.8503    
    612000   303.53367     -3355.6611      19.617403     -3336.0437      17680.6        5694.8503    
    613000   308.49196     -3354.4721      19.937858     -3334.5342      20004.023      5694.8503    
    614000   300.37039     -3354.4285      19.41296      -3335.0156      17634.519      5694.8503    
    615000   284.25483     -3356.0978      18.37141      -3337.7264      17716.78       5694.8503    
    616000   294.58942     -3355.0931      19.039336     -3336.0537      19577.229      5694.8503    
    617000   306.91974     -3355.1367      19.836245     -3335.3005      18951.681      5694.8503    
    618000   306.02355     -3354.5006      19.778324     -3334.7223      18979.405      5694.8503    
    619000   316.78167     -3355.1535      20.473622     -3334.6799      19012.679      5694.8503    
    620000   286.19956     -3354.6875      18.497098     -3336.1904      18818.112      5694.8503    
    621000   286.52247     -3354.7967      18.517968     -3336.2787      16156.504      5694.8503    
    622000   311.74735     -3355.0372      20.148254     -3334.8889      18987.206      5694.8503    
    623000   282.78323     -3355.9706      18.2763       -3337.6943      15922.626      5694.8503    
    624000   311.55508     -3355.2382      20.135827     -3335.1024      16457.205      5694.8503    
    625000   312.04571     -3353.9899      20.167537     -3333.8224      18964.18       5694.8503    
    626000   309.84525     -3354.7992      20.025321     -3334.7739      17342.176      5694.8503    
    627000   301.00888     -3354.8979      19.454226     -3335.4436      18599.656      5694.8503    
    628000   285.31663     -3356.6203      18.440034     -3338.1803      17380.985      5694.8503    
    629000   287.8908      -3354.9897      18.606403     -3336.3833      17477.908      5694.8503    
    630000   293.12482     -3354.3933      18.944678     -3335.4486      19555.798      5694.8503    
    631000   304.83027     -3354.3946      19.701203     -3334.6934      19221.255      5694.8503    
    632000   298.25036     -3354.3767      19.275943     -3335.1008      20007.677      5694.8503    
    633000   296.71        -3355.6522      19.176389     -3336.4758      17699.27       5694.8503    
    634000   288.08562     -3355.1203      18.618994     -3336.5013      17043.565      5694.8503    
    635000   313.86096     -3355.584       20.284857     -3335.2991      17967.955      5694.8503    
    636000   305.03871     -3354.3448      19.714674     -3334.6302      20000.417      5694.8503    
    637000   300.79799     -3355.2654      19.440596     -3335.8248      17438.387      5694.8503    
    638000   275.54532     -3355.6506      17.808514     -3337.842       17367.979      5694.8503    
    639000   299.52581     -3355.1534      19.358375     -3335.795       18530.177      5694.8503    
    640000   294.20336     -3354.7097      19.014384     -3335.6953      19387.157      5694.8503    
    641000   307.05525     -3354.7989      19.845003     -3334.9539      17032.626      5694.8503    
    642000   300.67578     -3355.3769      19.432697     -3335.9442      17191.672      5694.8503    
    643000   285.77145     -3354.2426      18.469429     -3335.7732      20331.032      5694.8503    
    644000   307.04707     -3354.7497      19.844475     -3334.9052      18556.984      5694.8503    
    645000   323.68297     -3354.984       20.919654     -3334.0643      19320.639      5694.8503    
    646000   294.72107     -3354.5055      19.047844     -3335.4576      20608.585      5694.8503    
    647000   291.8478      -3354.9048      18.862144     -3336.0427      18563.15       5694.8503    
    648000   320.06007     -3355.6696      20.685506     -3334.9841      17442.66       5694.8503    
    649000   303.39821     -3355.0712      19.608648     -3335.4626      19011.349      5694.8503    
    650000   299.07328     -3354.892       19.329128     -3335.5628      16660.747      5694.8503    
    651000   289.04031     -3355.0424      18.680696     -3336.3617      19009.576      5694.8503    
    652000   305.56592     -3355.3283      19.748748     -3335.5795      17249.148      5694.8503    
    653000   307.11139     -3354.2736      19.848631     -3334.425       18701.566      5694.8503    
    654000   285.85743     -3353.2724      18.474987     -3334.7974      17293.057      5694.8503    
    655000   308.7449      -3355.6784      19.954205     -3335.7242      18686.072      5694.8503    
    656000   291.10591     -3354.1827      18.814196     -3335.3685      18309.885      5694.8503    
    657000   301.49671     -3354.1366      19.485754     -3334.6508      19850.732      5694.8503    
    658000   278.67084     -3355.3346      18.010517     -3337.3241      18885.718      5694.8503    
    659000   298.49221     -3355.5446      19.291573     -3336.253       18252.026      5694.8503    
    660000   308.63138     -3354.8156      19.946869     -3334.8687      19278.338      5694.8503    
    661000   301.74023     -3353.8386      19.501493     -3334.3371      19838.982      5694.8503    
    662000   315.98114     -3355.8103      20.421884     -3335.3885      18275.419      5694.8503    
    663000   287.00139     -3355.1977      18.548921     -3336.6488      19556.941      5694.8503    
    664000   299.51036     -3355.9385      19.357376     -3336.5811      18093.971      5694.8503    
    665000   308.91763     -3354.7175      19.965369     -3334.7521      19145.623      5694.8503    
    666000   300.23814     -3354.7931      19.404413     -3335.3887      16384.569      5694.8503    
    667000   297.00736     -3356.1298      19.195607     -3336.9341      16575.464      5694.8503    
    668000   298.64257     -3356.7373      19.301291     -3337.436       17576.756      5694.8503    
    669000   310.56826     -3355.3296      20.072049     -3335.2575      17473.187      5694.8503    
    670000   302.98567     -3354.5993      19.581986     -3335.0173      19848.092      5694.8503    
    671000   295.45089     -3354.9883      19.095013     -3335.8932      18735.531      5694.8503    
    672000   281.26497     -3355.2432      18.178176     -3337.065       17935.638      5694.8503    
    673000   289.98834     -3355.335       18.741967     -3336.593       17200.174      5694.8503    
    674000   320.53788     -3354.9295      20.716386     -3334.2131      20299.235      5694.8503    
    675000   310.38911     -3355.03        20.060471     -3334.9695      19527.218      5694.8503    
    676000   287.63429     -3355.1826      18.589825     -3336.5928      17525.341      5694.8503    
    677000   311.79928     -3355.2459      20.15161      -3335.0943      16518.457      5694.8503    
    678000   312.13326     -3355.2871      20.173195     -3335.1139      18208.572      5694.8503    
    679000   279.80644     -3355.5423      18.08391      -3337.4584      18420.369      5694.8503    
    680000   311.15498     -3354.9896      20.109969     -3334.8797      19120.257      5694.8503    
    681000   296.78479     -3353.9828      19.181223     -3334.8016      20269.216      5694.8503    
    682000   297.93987     -3354.0803      19.255875     -3334.8244      18816.31       5694.8503    
    683000   291.85026     -3355.1727      18.862304     -3336.3104      19383.708      5694.8503    
    684000   286.94208     -3353.4309      18.545087     -3334.8858      20941.536      5694.8503    
    685000   312.13741     -3353.8584      20.173464     -3333.6849      20995.706      5694.8503    
    686000   294.87829     -3355.616       19.058006     -3336.558       17450.358      5694.8503    
    687000   293.36282     -3354.354       18.96006      -3335.3939      20851.239      5694.8503    
    688000   291.46585     -3355.2746      18.837459     -3336.4371      19821.886      5694.8503    
    689000   287.19531     -3355.955       18.561454     -3337.3935      17909.862      5694.8503    
    690000   288.42534     -3354.6539      18.640951     -3336.0129      18785.125      5694.8503    
    691000   310.66603     -3355.3014      20.078368     -3335.223       17387.105      5694.8503    
    692000   311.16728     -3354.3781      20.110764     -3334.2673      20355.994      5694.8503    
    693000   303.62808     -3355.218       19.623505     -3335.5945      16790.5        5694.8503    
    694000   298.77152     -3355.0727      19.309625     -3335.7631      18937.429      5694.8503    
    695000   293.56021     -3355.2583      18.972817     -3336.2855      18084.251      5694.8503    
    696000   297.49801     -3355.5012      19.227318     -3336.2738      18320.325      5694.8503    
    697000   299.80153     -3352.6907      19.376195     -3333.3145      19706.669      5694.8503    
    698000   285.44109     -3353.1758      18.448078     -3334.7277      21941.123      5694.8503    
    699000   307.26239     -3355.0825      19.85839      -3335.2242      17817.908      5694.8503    
    700000   315.10286     -3356.878       20.365121     -3336.5129      16365.355      5694.8503    
    701000   302.06827     -3355.8771      19.522694     -3336.3544      17183.269      5694.8503    
    702000   286.17346     -3354.1724      18.495411     -3335.677       19036.639      5694.8503    
    703000   306.58347     -3355.2843      19.814512     -3335.4698      18564.278      5694.8503    
    704000   289.82935     -3355.3218      18.731692     -3336.5901      18415.865      5694.8503    
    705000   276.25502     -3354.0548      17.854382     -3336.2004      19015.193      5694.8503    
    706000   299.14487     -3354.6277      19.333754     -3335.2939      18732.886      5694.8503    
    707000   300.74055     -3355.4581      19.436883     -3336.0212      17999.936      5694.8503    
    708000   306.1536      -3356.128       19.78673      -3336.3412      18167.287      5694.8503    
    709000   298.85278     -3355.6769      19.314877     -3336.362       19040.433      5694.8503    
    710000   282.22272     -3355.7193      18.240075     -3337.4793      17801.284      5694.8503    
    711000   287.91402     -3355.5362      18.607904     -3336.9283      16462.502      5694.8503    
    712000   310.92576     -3356.05        20.095154     -3335.9549      17100.623      5694.8503    
    713000   314.68227     -3355.1582      20.337938     -3334.8203      17057.226      5694.8503    
    714000   301.68184     -3353.7357      19.497719     -3334.238       20209.491      5694.8503    
    715000   293.17614     -3354.8216      18.947995     -3335.8736      18864.34       5694.8503    
    716000   318.51782     -3354.468       20.58583      -3333.8822      19396.368      5694.8503    
    717000   304.54498     -3354.1151      19.682764     -3334.4323      18068.942      5694.8503    
    718000   297.50185     -3354.6517      19.227566     -3335.4241      20320.62       5694.8503    
    719000   305.05226     -3355.6943      19.715549     -3335.9788      18173.949      5694.8503    
    720000   282.22578     -3356.3803      18.240273     -3338.1401      17671.2        5694.8503    
    721000   303.6535      -3354.7215      19.625148     -3335.0964      18467.612      5694.8503    
    722000   296.06511     -3354.2786      19.13471      -3335.1439      17531.483      5694.8503    
    723000   303.61368     -3355.3807      19.622574     -3335.7581      17849.342      5694.8503    
    724000   304.76841     -3355.7947      19.697205     -3336.0974      19814.454      5694.8503    
    725000   296.16762     -3355.1572      19.141334     -3336.0159      20001.377      5694.8503    
    726000   306.68692     -3353.2796      19.821198     -3333.4584      17747.14       5694.8503    
    727000   317.28047     -3354.4666      20.505859     -3333.9607      19341.63       5694.8503    
    728000   284.93264     -3354.3599      18.415217     -3335.9447      19428.532      5694.8503    
    729000   288.40476     -3354.587       18.639621     -3335.9474      20029.091      5694.8503    
    730000   286.17397     -3355.0008      18.495445     -3336.5054      19332.045      5694.8503    
    731000   307.49487     -3355.4188      19.873416     -3335.5454      19634.831      5694.8503    
    732000   321.43785     -3355.8502      20.774551     -3335.0756      18239.565      5694.8503    
    733000   296.14639     -3354.5836      19.139962     -3335.4437      19654.442      5694.8503    
    734000   299.26643     -3356.6763      19.341611     -3337.3347      16053.461      5694.8503    
    735000   318.11429     -3355.0501      20.55975      -3334.4904      18710.05       5694.8503    
    736000   300.33894     -3354.7069      19.410927     -3335.296       18336.361      5694.8503    
    737000   315.89622     -3354.9773      20.416396     -3334.5609      19841.281      5694.8503    
    738000   300.13818     -3355.3279      19.397953     -3335.93        18886.438      5694.8503    
    739000   301.85789     -3355.3182      19.509097     -3335.8091      19420.486      5694.8503    
    740000   308.94935     -3353.0743      19.967419     -3333.1069      19442.39       5694.8503    
    741000   313.42816     -3354.6027      20.256885     -3334.3458      20041.299      5694.8503    
    742000   298.62064     -3354.7013      19.299874     -3335.4014      19072.978      5694.8503    
    743000   278.70481     -3354.7967      18.012712     -3336.784       17620.518      5694.8503    
    744000   309.95115     -3356.2114      20.032165     -3336.1792      16949.603      5694.8503    
    745000   306.37666     -3355.8161      19.801146     -3336.015       18843.667      5694.8503    
    746000   308.5867      -3353.9757      19.943981     -3334.0317      18473.218      5694.8503    
    747000   307.10695     -3353.3825      19.848344     -3333.5342      21601.286      5694.8503    
    748000   305.84398     -3356.1324      19.766718     -3336.3657      17176.58       5694.8503    
    749000   299.78938     -3354.8627      19.375409     -3335.4873      17188.04       5694.8503    
    750000   295.77644     -3354.3285      19.116052     -3335.2124      19413.47       5694.8503    
    751000   292.76058     -3355.5091      18.921138     -3336.588       19050.49       5694.8503    
    752000   286.17875     -3354.9375      18.495753     -3336.4417      16862.985      5694.8503    
    753000   303.92706     -3354.74        19.642828     -3335.0972      18401.081      5694.8503    
    754000   278.3474      -3354.8407      17.989612     -3336.8511      18283.559      5694.8503    
    755000   287.22022     -3355.9946      18.563064     -3337.4315      16363.077      5694.8503    
    756000   298.18981     -3354.8817      19.272029     -3335.6097      19240.309      5694.8503    
    757000   303.36688     -3354.4413      19.606623     -3334.8347      19712.908      5694.8503    
    758000   298.93977     -3354.9123      19.320499     -3335.5918      18560.963      5694.8503    
    759000   287.08711     -3355.3736      18.554461     -3336.8191      17888.995      5694.8503    
    760000   294.06877     -3355.9389      19.005686     -3336.9332      17905.664      5694.8503    
    761000   297.44114     -3354.4779      19.223642     -3335.2543      19933.461      5694.8503    
    762000   301.30411     -3354.3402      19.473306     -3334.8669      18299.712      5694.8503    
    763000   305.07539     -3354.898       19.717044     -3335.181       16532.195      5694.8503    
    764000   279.54607     -3355.5723      18.067083     -3337.5052      17551.751      5694.8503    
    765000   304.95763     -3355.9934      19.709434     -3336.284       17673.026      5694.8503    
    766000   301.21465     -3354.8336      19.467524     -3335.3661      19258.401      5694.8503    
    767000   297.96179     -3354.4084      19.257292     -3335.1511      16320.928      5694.8503    
    768000   289.57697     -3355.3897      18.71538      -3336.6743      19385.987      5694.8503    
    769000   280.10922     -3355.7926      18.103479     -3337.6891      15025.221      5694.8503    
    770000   302.3019      -3354.7925      19.537794     -3335.2547      16869.316      5694.8503    
    771000   307.77811     -3355.1748      19.891722     -3335.2831      17217.932      5694.8503    
    772000   304.49062     -3355.2585      19.679251     -3335.5792      18643.362      5694.8503    
    773000   282.63074     -3355.5342      18.266445     -3337.2678      17958.769      5694.8503    
    774000   300.78793     -3355.7303      19.439946     -3336.2904      18210.903      5694.8503    
    775000   301.0524      -3355.9548      19.457038     -3336.4978      17218.519      5694.8503    
    776000   309.50239     -3354.893       20.003162     -3334.8899      18206.924      5694.8503    
    777000   297.09553     -3355.1954      19.201306     -3335.994       17098.653      5694.8503    
    778000   284.75175     -3354.775       18.403526     -3336.3715      20144.177      5694.8503    
    779000   311.98882     -3353.402       20.16386      -3333.2381      20304.6        5694.8503    
    780000   297.50721     -3354.8787      19.227912     -3335.6508      17666.107      5694.8503    
    781000   282.61542     -3354.6853      18.265455     -3336.4198      15720.785      5694.8503    
    782000   284.04353     -3355.0508      18.357754     -3336.6931      17754.828      5694.8503    
    783000   278.08484     -3354.9354      17.972644     -3336.9628      18611.018      5694.8503    
    784000   314.40797     -3355.7175      20.32021      -3335.3973      17298.093      5694.8503    
    785000   312.57607     -3355.1403      20.201814     -3334.9384      17625.598      5694.8503    
    786000   316.15906     -3355.649       20.433383     -3335.2156      18224.917      5694.8503    
    787000   291.56344     -3355.2311      18.843766     -3336.3873      17523.316      5694.8503    
    788000   321.5233      -3354.1162      20.780074     -3333.3361      19775.881      5694.8503    
    789000   306.22355     -3354.712       19.79125      -3334.9208      17084.532      5694.8503    
    790000   289.25196     -3354.5143      18.694375     -3335.8199      17265.607      5694.8503    
    791000   306.33343     -3356.1967      19.798352     -3336.3984      17323.414      5694.8503    
    792000   281.23919     -3354.6117      18.176509     -3336.4351      17615.679      5694.8503    
    793000   282.74661     -3353.3393      18.273934     -3335.0653      18612.667      5694.8503    
    794000   292.94866     -3354.1783      18.933293     -3335.245       19754.596      5694.8503    
    795000   289.4536      -3356.2435      18.707407     -3337.5361      16839.434      5694.8503    
    796000   286.02532     -3355.5158      18.485837     -3337.03        17266.222      5694.8503    
    797000   298.28221     -3355.5393      19.278001     -3336.2613      17334.519      5694.8503    
    798000   306.17768     -3354.9661      19.788286     -3335.1778      18659.486      5694.8503    
    799000   306.67673     -3354.5157      19.820539     -3334.6952      18175.019      5694.8503    
    800000   283.20724     -3356.4885      18.303704     -3338.1848      17585.128      5694.8503    
    801000   291.06588     -3355.3144      18.811609     -3336.5028      18147.693      5694.8503    
    802000   303.66184     -3355.3109      19.625687     -3335.6852      19034.79       5694.8503    
    803000   307.79573     -3354.4238      19.89286      -3334.5309      20646.086      5694.8503    
    804000   293.12614     -3354.0913      18.944764     -3335.1466      17196.047      5694.8503    
    805000   292.70368     -3354.9732      18.91746      -3336.0557      20015.036      5694.8503    
    806000   302.21086     -3354.3937      19.53191      -3334.8618      17821.142      5694.8503    
    807000   315.06961     -3354.6023      20.362972     -3334.2394      17582.444      5694.8503    
    808000   290.6011      -3353.6781      18.78157      -3334.8965      19764.132      5694.8503    
    809000   298.36592     -3354.643       19.283411     -3335.3596      19370.784      5694.8503    
    810000   289.82419     -3356.8165      18.731359     -3338.0851      17384.374      5694.8503    
    811000   303.02307     -3354.3469      19.584403     -3334.7625      19106.045      5694.8503    
    812000   302.01365     -3355.2811      19.519164     -3335.7619      19411.26       5694.8503    
    813000   292.43214     -3355.7798      18.89991      -3336.8799      17262.692      5694.8503    
    814000   283.36156     -3354.1977      18.313678     -3335.884       19887.478      5694.8503    
    815000   324.30389     -3354.2572      20.959784     -3333.2974      18320.192      5694.8503    
    816000   309.96841     -3356.3928      20.033281     -3336.3596      15716.389      5694.8503    
    817000   283.88975     -3354.6185      18.347815     -3336.2707      17316.626      5694.8503    
    818000   293.30745     -3354.1319      18.956481     -3335.1754      19045.691      5694.8503    
    819000   295.62484     -3355.2579      19.106255     -3336.1516      19055.915      5694.8503    
    820000   295.94619     -3354.9399      19.127024     -3335.8128      19711.255      5694.8503    
    821000   313.76726     -3354.2463      20.278801     -3333.9675      17463.97       5694.8503    
    822000   301.772       -3353.735       19.503546     -3334.2314      20466.161      5694.8503    
    823000   291.17605     -3354.8335      18.818729     -3336.0147      17697.376      5694.8503    
    824000   319.15827     -3356.9505      20.627222     -3336.3232      16164.065      5694.8503    
    825000   293.86019     -3354.6905      18.992205     -3335.6983      18553.724      5694.8503    
    826000   295.74729     -3354.8085      19.114169     -3335.6943      17396.318      5694.8503    
    827000   292.60505     -3355.6068      18.911085     -3336.6957      19179.342      5694.8503    
    828000   295.62755     -3354.9235      19.10643      -3335.8171      19362.033      5694.8503    
    829000   301.07504     -3353.778       19.458502     -3334.3195      19162.437      5694.8503    
    830000   281.09194     -3353.7698      18.166992     -3335.6028      18063.296      5694.8503    
    831000   297.59852     -3355.9128      19.233814     -3336.6789      18442.404      5694.8503    
    832000   305.07404     -3355.2833      19.716957     -3335.5664      20003.299      5694.8503    
    833000   303.82135     -3354.2594      19.635996     -3334.6234      18916.064      5694.8503    
    834000   313.44297     -3354.7589      20.257842     -3334.5011      18080.195      5694.8503    
    835000   310.67846     -3353.9814      20.079172     -3333.9022      19503.212      5694.8503    
    836000   299.82122     -3354.7198      19.377467     -3335.3423      17992.206      5694.8503    
    837000   308.06601     -3355.8549      19.910328     -3335.9446      20150.48       5694.8503    
    838000   321.64168     -3355.7278      20.787725     -3334.94        19222.229      5694.8503    
    839000   313.03215     -3355.7545      20.23129      -3335.5232      17719.13       5694.8503    
    840000   307.99774     -3354.8303      19.905917     -3334.9244      17416.958      5694.8503    
    841000   294.53255     -3355.3194      19.03566      -3336.2838      18322.175      5694.8503    
    842000   294.23671     -3355.4204      19.01654      -3336.4039      16956.266      5694.8503    
    843000   301.68509     -3354.6605      19.49793      -3335.1626      18588.078      5694.8503    
    844000   307.35581     -3355.9063      19.864428     -3336.0419      18496.71       5694.8503    
    845000   300.56917     -3354.0527      19.425808     -3334.6269      18580.115      5694.8503    
    846000   308.42795     -3354.3164      19.933721     -3334.3826      18693.754      5694.8503    
    847000   292.31009     -3355.2447      18.892022     -3336.3527      17859.757      5694.8503    
    848000   307.74724     -3355.0392      19.889726     -3335.1495      18045.944      5694.8503    
    849000   310.92356     -3355.0449      20.095012     -3334.9499      19414.647      5694.8503    
    850000   292.68714     -3355.821       18.916391     -3336.9046      18141.849      5694.8503    
    851000   279.90454     -3355.6026      18.090251     -3337.5124      18210.605      5694.8503    
    852000   293.76465     -3354.5431      18.986031     -3335.557       19730.498      5694.8503    
    853000   319.86558     -3355.4786      20.672936     -3334.8056      17630.099      5694.8503    
    854000   303.05535     -3354.0356      19.586489     -3334.4491      16975.654      5694.8503    
    855000   324.12815     -3355.0923      20.948426     -3334.1439      17932.692      5694.8503    
    856000   292.71681     -3355.9464      18.918309     -3337.0281      16966.32       5694.8503    
    857000   307.63869     -3355.1574      19.882711     -3335.2747      19533.079      5694.8503    
    858000   297.51923     -3354.3202      19.22869      -3335.0915      19888.925      5694.8503    
    859000   299.36927     -3354.7714      19.348258     -3335.4231      19508.464      5694.8503    
    860000   277.96893     -3355.5263      17.965152     -3337.5612      18846.074      5694.8503    
    861000   282.01901     -3355.1201      18.226909     -3336.8931      18473.163      5694.8503    
    862000   302.14675     -3355.4575      19.527766     -3335.9297      18523.158      5694.8503    
    863000   305.26172     -3355.4001      19.729087     -3335.6711      17814.662      5694.8503    
    864000   313.25624     -3354.291       20.245773     -3334.0452      19515.4        5694.8503    
    865000   317.01499     -3354.2371      20.488701     -3333.7484      18918.887      5694.8503    
    866000   316.94594     -3355.6282      20.484239     -3335.144       18278.663      5694.8503    
    867000   284.60767     -3355.1539      18.394215     -3336.7597      18035.436      5694.8503    
    868000   314.02465     -3354.3972      20.295436     -3334.1018      19576.996      5694.8503    
    869000   311.75024     -3354.0912      20.148441     -3333.9427      19648.403      5694.8503    
    870000   305.64422     -3354.5775      19.753808     -3334.8237      20095.632      5694.8503    
    871000   303.05725     -3355.3864      19.586612     -3335.7998      15576.187      5694.8503    
    872000   292.4956      -3354.4948      18.904012     -3335.5908      17550.184      5694.8503    
    873000   299.87554     -3353.6672      19.380978     -3334.2862      17941.491      5694.8503    
    874000   294.77746     -3354.0461      19.051489     -3334.9946      19490.29       5694.8503    
    875000   294.24474     -3355.2852      19.017059     -3336.2681      19803.959      5694.8503    
    876000   301.54787     -3354.9336      19.48906      -3335.4445      19237.484      5694.8503    
    877000   307.00866     -3354.2992      19.841992     -3334.4572      21756.958      5694.8503    
    878000   313.20149     -3355.6395      20.242235     -3335.3973      18161.49       5694.8503    
    879000   298.39237     -3356.1763      19.28512      -3336.8912      16777.763      5694.8503    
    880000   303.57641     -3356.0315      19.620166     -3336.4114      18971.558      5694.8503    
    881000   299.4626      -3355.4882      19.35429      -3336.1339      19462.028      5694.8503    
    882000   301.27305     -3354.8664      19.471299     -3335.3951      17505.959      5694.8503    
    883000   307.70169     -3355.5252      19.886782     -3335.6384      18644.106      5694.8503    
    884000   311.32126     -3356.063       20.120715     -3335.9423      16684.949      5694.8503    
    885000   281.58153     -3353.877       18.198634     -3335.6784      19643.495      5694.8503    
    886000   301.3999      -3355.8109      19.479497     -3336.3314      18275.592      5694.8503    
    887000   288.44249     -3354.8635      18.642059     -3336.2214      18521.698      5694.8503    
    888000   301.02992     -3354.7066      19.455586     -3335.251       19488.31       5694.8503    
    889000   290.5995      -3354.179       18.781467     -3335.3976      18809.509      5694.8503    
    890000   276.59551     -3355.398       17.876388     -3337.5216      18512.26       5694.8503    
    891000   301.7224      -3356.5587      19.500341     -3337.0584      15426.127      5694.8503    
    892000   280.91156     -3354.013       18.155334     -3335.8577      19452.672      5694.8503    
    893000   302.87366     -3354.3021      19.574747     -3334.7274      18749.999      5694.8503    
    894000   286.26093     -3354.5597      18.501065     -3336.0587      18790.057      5694.8503    
    895000   304.72062     -3354.9216      19.694116     -3335.2274      20143.107      5694.8503    
    896000   299.85869     -3354.331       19.379889     -3334.9511      18821.327      5694.8503    
    897000   300.32156     -3354.1934      19.409804     -3334.7836      19723.177      5694.8503    
    898000   307.81724     -3355.8774      19.89425      -3335.9831      18872.008      5694.8503    
    899000   315.63179     -3354.0073      20.399306     -3333.608       19484.872      5694.8503    
    900000   295.74484     -3353.1209      19.114011     -3334.0069      20719.954      5694.8503    
    901000   310.55764     -3355.2118      20.071363     -3335.1405      17716.129      5694.8503    
    902000   303.12898     -3356.0509      19.591248     -3336.4596      18594.98       5694.8503    
    903000   288.92519     -3355.6912      18.673256     -3337.0179      15533.024      5694.8503    
    904000   288.77553     -3355.9541      18.663584     -3337.2905      17264.644      5694.8503    
    905000   295.46808     -3354.9796      19.096124     -3335.8835      18989.015      5694.8503    
    906000   305.31772     -3354.9327      19.732706     -3335.2         21228.105      5694.8503    
    907000   291.3605      -3354.283       18.83065      -3335.4524      18976.545      5694.8503    
    908000   274.75613     -3355.6913      17.757509     -3337.9338      17755.113      5694.8503    
    909000   300.02378     -3354.3103      19.390559     -3334.9197      17952.408      5694.8503    
    910000   309.86518     -3354.3323      20.026609     -3334.3057      18717.246      5694.8503    
    911000   311.38738     -3353.9548      20.124989     -3333.8299      20113.903      5694.8503    
    912000   306.72216     -3356.1619      19.823475     -3336.3385      18357.129      5694.8503    
    913000   308.1219      -3355.5891      19.913941     -3335.6752      18526.666      5694.8503    
    914000   301.97728     -3353.3749      19.516814     -3333.8581      20449.561      5694.8503    
    915000   314.93332     -3354.538       20.354163     -3334.1838      18051.368      5694.8503    
    916000   310.78815     -3355.3917      20.08626      -3335.3055      18023.114      5694.8503    
    917000   306.31681     -3355.945       19.797277     -3336.1477      18028.832      5694.8503    
    918000   305.59276     -3354.1955      19.750482     -3334.445       19796.188      5694.8503    
    919000   309.26647     -3354.0805      19.987915     -3334.0926      19224.93       5694.8503    
    920000   275.96126     -3354.5102      17.835396     -3336.6748      17650.183      5694.8503    
    921000   295.17246     -3355.0581      19.077018     -3335.9811      20012.924      5694.8503    
    922000   307.1228      -3354.8434      19.849369     -3334.994       19248.849      5694.8503    
    923000   297.17717     -3355.5323      19.206582     -3336.3257      17250.463      5694.8503    
    924000   304.48984     -3356.2022      19.6792       -3336.523       18947.923      5694.8503    
    925000   313.2337      -3355.2085      20.244317     -3334.9642      18507.414      5694.8503    
    926000   310.79972     -3355.1762      20.087009     -3335.0892      16608.348      5694.8503    
    927000   298.95153     -3355.6918      19.321259     -3336.3706      18668.622      5694.8503    
    928000   297.07506     -3355.1369      19.199983     -3335.9369      19814.783      5694.8503    
    929000   326.70619     -3354.6163      21.115045     -3333.5013      20215.93       5694.8503    
    930000   302.8996      -3354.6265      19.576423     -3335.0501      18353.044      5694.8503    
    931000   293.99276     -3354.8993      19.000774     -3335.8986      17242.847      5694.8503    
    932000   285.15869     -3355.0527      18.429827     -3336.6228      18047.915      5694.8503    
    933000   290.40856     -3353.9012      18.769126     -3335.132       18526.849      5694.8503    
    934000   323.58317     -3355.0029      20.913204     -3334.0897      19324.252      5694.8503    
    935000   309.43345     -3355.2086      19.998706     -3335.2099      19166.909      5694.8503    
    936000   279.46427     -3354.4986      18.061796     -3336.4368      18790.896      5694.8503    
    937000   323.41899     -3356.0204      20.902593     -3335.1178      16836.079      5694.8503    
    938000   322.37802     -3354.9546      20.835315     -3334.1192      19692.672      5694.8503    
    939000   296.81473     -3354.6168      19.183158     -3335.4337      17463.306      5694.8503    
    940000   291.12407     -3354.9416      18.81537      -3336.1263      19370.625      5694.8503    
    941000   310.9056      -3354.8311      20.093851     -3334.7373      19759.61       5694.8503    
    942000   310.34345     -3354.1881      20.057519     -3334.1306      18201.896      5694.8503    
    943000   292.60018     -3355.0382      18.910771     -3336.1274      19165.061      5694.8503    
    944000   289.2635      -3355.4471      18.695121     -3336.7519      18222.726      5694.8503    
    945000   302.03386     -3354.6805      19.52047      -3335.16        18762.625      5694.8503    
    946000   309.83954     -3354.2625      20.024952     -3334.2375      17212.256      5694.8503    
    947000   309.37794     -3354.6088      19.995119     -3334.6137      18086.553      5694.8503    
    948000   309.3731      -3355.137       19.994806     -3335.1421      18067.276      5694.8503    
    949000   289.21473     -3355.273       18.691969     -3336.581       15956.975      5694.8503    
    950000   303.40145     -3353.9632      19.608857     -3334.3543      18564.926      5694.8503    
    951000   306.30684     -3353.8511      19.796633     -3334.0545      19407.25       5694.8503    
    952000   308.92504     -3355.1857      19.965848     -3335.2198      19285.259      5694.8503    
    953000   307.61054     -3356.068       19.880891     -3336.1871      17803.487      5694.8503    
    954000   298.73721     -3355.5093      19.307408     -3336.2019      17746.294      5694.8503    
    955000   294.37376     -3354.4293      19.025398     -3335.4039      19967.871      5694.8503    
    956000   286.478       -3353.6902      18.515094     -3335.1751      19291.564      5694.8503    
    957000   297.6105      -3355.5212      19.234588     -3336.2866      20612.838      5694.8503    
    958000   273.18816     -3355.2678      17.656171     -3337.6116      16981.664      5694.8503    
    959000   315.76219     -3354.8492      20.407733     -3334.4414      19737.268      5694.8503    
    960000   280.37066     -3353.56        18.120376     -3335.4397      16030.74       5694.8503    
    961000   295.96234     -3354.9674      19.128067     -3335.8394      18061.46       5694.8503    
    962000   329.54934     -3355.6229      21.298798     -3334.3241      17615.542      5694.8503    
    963000   293.66015     -3354.4228      18.979277     -3335.4436      19561.099      5694.8503    
    964000   291.90934     -3355.1063      18.866122     -3336.2402      18539.358      5694.8503    
    965000   302.19507     -3355.0713      19.530889     -3335.5404      18725.854      5694.8503    
    966000   305.28973     -3354.0884      19.730897     -3334.3575      19297.042      5694.8503    
    967000   302.01604     -3354.773       19.519319     -3335.2537      16797.724      5694.8503    
    968000   293.79083     -3355.7384      18.987722     -3336.7507      15997.791      5694.8503    
    969000   287.21371     -3354.5617      18.562643     -3335.999       17614.726      5694.8503    
    970000   307.23779     -3355.0035      19.856801     -3335.1467      17555.162      5694.8503    
    971000   296.28554     -3354.3187      19.148956     -3335.1698      17196.684      5694.8503    
    972000   302.17317     -3354.4991      19.529474     -3334.9697      18254.825      5694.8503    
    973000   317.66106     -3356.3305      20.530457     -3335.8         17061.244      5694.8503    
    974000   290.14184     -3354.5378      18.751888     -3335.7859      16431.785      5694.8503    
    975000   297.75407     -3353.6808      19.243867     -3334.437       20165.516      5694.8503    
    976000   316.46764     -3355.28        20.453326     -3334.8266      17722.735      5694.8503    
    977000   301.35586     -3354.5754      19.476651     -3335.0987      21256.806      5694.8503    
    978000   293.94965     -3354.5026      18.997987     -3335.5046      17102.079      5694.8503    
    979000   293.77406     -3355.2693      18.986639     -3336.2826      17700.17       5694.8503    
    980000   286.80184     -3354.8185      18.536024     -3336.2825      18043.644      5694.8503    
    981000   288.68123     -3354.1765      18.657489     -3335.519       17335.773      5694.8503    
    982000   304.25389     -3354.1416      19.663951     -3334.4777      17890.456      5694.8503    
    983000   303.18322     -3355.2779      19.594753     -3335.6831      18020.345      5694.8503    
    984000   285.10801     -3356.5289      18.426551     -3338.1024      15789.809      5694.8503    
    985000   313.05261     -3355.6195      20.232613     -3335.3869      18428.715      5694.8503    
    986000   315.25375     -3355.0752      20.374873     -3334.7003      17778.288      5694.8503    
    987000   291.50329     -3355.1367      18.839879     -3336.2968      17563.605      5694.8503    
    988000   277.90382     -3355.1155      17.960944     -3337.1545      19154.145      5694.8503    
    989000   306.11353     -3354.5858      19.78414      -3334.8017      18576.223      5694.8503    
    990000   306.25896     -3354.5046      19.793539     -3334.7111      20665.72       5694.8503    
    991000   288.56597     -3356.5967      18.65004      -3337.9467      15481.384      5694.8503    
    992000   301.08422     -3355.3527      19.459095     -3335.8936      16712.401      5694.8503    
    993000   321.88206     -3355.396       20.803261     -3334.5927      17341.989      5694.8503    
    994000   285.28355     -3353.2695      18.437896     -3334.8316      19530.383      5694.8503    
    995000   309.30228     -3355.8676      19.990229     -3335.8774      17468.163      5694.8503    
    996000   308.16277     -3354.4109      19.916582     -3334.4943      16460.244      5694.8503    
    997000   311.29538     -3354.0003      20.119043     -3333.8813      19926.616      5694.8503    
    998000   308.88313     -3355.518       19.963139     -3335.5549      17843.929      5694.8503    
    999000   293.88788     -3355.0435      18.993995     -3336.0495      17897.76       5694.8503    
   1000000   298.25302     -3355.3171      19.276114     -3336.041       18503.14       5694.8503    
   1001000   305.40476     -3354.7632      19.738332     -3335.0248      19117.714      5694.8503    
   1002000   314.11185     -3354.7812      20.301071     -3334.4802      17655.03       5694.8503    
   1003000   299.86783     -3354.9562      19.38048      -3335.5757      19791.446      5694.8503    
   1004000   308.94661     -3354.9755      19.967242     -3335.0083      20661.921      5694.8503    
   1005000   289.13025     -3354.8185      18.686509     -3336.132       17009.746      5694.8503    
   1006000   289.11761     -3355.9844      18.685692     -3337.2987      16862.745      5694.8503    
   1007000   270.08195     -3354.6575      17.455416     -3337.2021      19906.068      5694.8503    
   1008000   289.19755     -3355.1606      18.690859     -3336.4697      16496.187      5694.8503    
   1009000   292.17162     -3354.9073      18.883073     -3336.0242      18008.591      5694.8503    
   1010000   305.65962     -3353.1676      19.754803     -3333.4128      18648.386      5694.8503    
   1011000   302.10413     -3354.4547      19.525012     -3334.9297      20184.296      5694.8503    
   1012000   312.9281      -3356.0465      20.224566     -3335.822       19244.57       5694.8503    
   1013000   308.99054     -3355.7386      19.970081     -3335.7686      18314.954      5694.8503    
   1014000   303.99894     -3353.651       19.647474     -3334.0035      20183.072      5694.8503    
   1015000   315.04637     -3354.4434      20.36147      -3334.082       19101.409      5694.8503    
   1016000   306.71782     -3354.5296      19.823195     -3334.7064      18104.84       5694.8503    
   1017000   284.65685     -3355.8665      18.397393     -3337.4691      17581.972      5694.8503    
   1018000   291.59618     -3354.1309      18.845882     -3335.2851      20746.337      5694.8503    
   1019000   318.38405     -3355.5468      20.577184     -3334.9697      18522.302      5694.8503    
   1020000   291.06577     -3356.8717      18.811602     -3338.0601      17432.154      5694.8503    
   1021000   290.96282     -3355.4043      18.804948     -3336.5994      17780.951      5694.8503    
   1022000   308.46961     -3353.7545      19.936413     -3333.8181      18943.076      5694.8503    
   1023000   306.59592     -3353.6541      19.815317     -3333.8388      20066.434      5694.8503    
   1024000   309.71901     -3356.0866      20.017162     -3336.0694      16908.296      5694.8503    
   1025000   287.85428     -3355.2943      18.604043     -3336.6903      18770.554      5694.8503    
   1026000   296.20834     -3354.982       19.143967     -3335.838       19012.334      5694.8503    
   1027000   294.70182     -3354.1116      19.0466       -3335.065       18727.884      5694.8503    
   1028000   291.50073     -3354.1391      18.839713     -3335.2994      17949.343      5694.8503    
   1029000   290.22276     -3354.5676      18.757118     -3335.8105      17976.846      5694.8503    
   1030000   305.36794     -3355.8814      19.735952     -3336.1455      18554.539      5694.8503    
   1031000   299.13048     -3353.7364      19.332824     -3334.4036      17844.222      5694.8503    
   1032000   315.04262     -3353.7495      20.361227     -3333.3883      19324.338      5694.8503    
   1033000   296.96993     -3355.2205      19.193188     -3336.0273      17883.824      5694.8503    
   1034000   281.15709     -3354.3465      18.171203     -3336.1753      18024.542      5694.8503    
   1035000   315.65496     -3355.1059      20.400803     -3334.7051      18214.557      5694.8503    
   1036000   308.05524     -3353.4624      19.909633     -3333.5528      19406.656      5694.8503    
   1037000   334.67287     -3355.2131      21.629932     -3333.5832      18782.485      5694.8503    
   1038000   299.53955     -3355.6267      19.359263     -3336.2675      19041.633      5694.8503    
   1039000   296.46848     -3355.2361      19.160779     -3336.0753      16957.142      5694.8503    
   1040000   320.30688     -3352.8888      20.701457     -3332.1874      20439.523      5694.8503    
   1041000   296.92154     -3355.4051      19.19006      -3336.215       16504.742      5694.8503    
   1042000   284.97414     -3356.3491      18.4179       -3337.9312      16006.17       5694.8503    
   1043000   299.71684     -3355.4811      19.370721     -3336.1104      16267.78       5694.8503    
   1044000   301.35048     -3354.4171      19.476304     -3334.9408      18144.51       5694.8503    
   1045000   323.10805     -3354.33        20.882496     -3333.4475      19232.524      5694.8503    
   1046000   300.93724     -3355.272       19.449596     -3335.8224      18978.093      5694.8503    
   1047000   292.57124     -3354.9199      18.9089       -3336.011       17778.618      5694.8503    
   1048000   315.80045     -3355.245       20.410206     -3334.8347      19688.794      5694.8503    
   1049000   304.22155     -3353.5038      19.661861     -3333.8419      19250.165      5694.8503    
   1050000   310.3631      -3354.7003      20.058789     -3334.6415      18517.574      5694.8503    
   1051000   306.64645     -3355.3807      19.818582     -3335.5621      17088.732      5694.8503    
   1052000   284.26681     -3355.9678      18.372185     -3337.5956      14399.084      5694.8503    
   1053000   287.16049     -3354.7774      18.559203     -3336.2182      17931.541      5694.8503    
   1054000   298.85645     -3354.4396      19.315114     -3335.1245      17944.526      5694.8503    
   1055000   312.65106     -3354.8267      20.206661     -3334.62        17241.004      5694.8503    
   1056000   309.9063      -3354.7384      20.029266     -3334.7091      19541.046      5694.8503    
   1057000   293.80093     -3355.0035      18.988375     -3336.0152      16168.155      5694.8503    
   1058000   289.64561     -3355.9531      18.719816     -3337.2333      18068.768      5694.8503    
   1059000   302.14069     -3355.4492      19.527375     -3335.9218      19187.437      5694.8503    
   1060000   304.05078     -3355.0997      19.650824     -3335.4489      18621.652      5694.8503    
   1061000   306.13393     -3354.268       19.785458     -3334.4826      19936.734      5694.8503    
   1062000   305.16975     -3354.3277      19.723143     -3334.6045      18583.704      5694.8503    
   1063000   300.717       -3355.3204      19.435362     -3335.8851      19480.772      5694.8503    
   1064000   279.67161     -3354.4572      18.075196     -3336.382       19128.018      5694.8503    
   1065000   336.4596      -3354.3554      21.745409     -3332.61        19267.559      5694.8503    
   1066000   307.62561     -3354.8578      19.881866     -3334.9759      19141.388      5694.8503    
   1067000   278.55856     -3353.7941      18.00326      -3335.7908      17961.246      5694.8503    
   1068000   288.76412     -3355.6736      18.662846     -3337.0108      18260.471      5694.8503    
   1069000   295.59147     -3354.9951      19.104098     -3335.891       16971.783      5694.8503    
   1070000   296.73867     -3354.7274      19.178242     -3335.5491      18519.44       5694.8503    
   1071000   288.00217     -3355.711       18.613601     -3337.0974      18002.783      5694.8503    
   1072000   301.02832     -3355.3633      19.455482     -3335.9079      17945.025      5694.8503    
   1073000   321.69907     -3355.636       20.791435     -3334.8446      19552.046      5694.8503    
   1074000   301.33217     -3353.4248      19.47512      -3333.9497      18896.213      5694.8503    
   1075000   286.37141     -3353.4175      18.508205     -3334.9093      18855.056      5694.8503    
   1076000   303.12489     -3355.3446      19.590984     -3335.7536      18521.712      5694.8503    
   1077000   299.35314     -3356.7596      19.347215     -3337.4124      15948.133      5694.8503    
   1078000   292.10799     -3355.507       18.878961     -3336.6281      17687.827      5694.8503    
   1079000   316.85907     -3355.8502      20.478625     -3335.3715      17426.607      5694.8503    
   1080000   299.73152     -3353.6573      19.37167      -3334.2857      18092.96       5694.8503    
   1081000   300.35284     -3355.0569      19.411826     -3335.6451      16303.893      5694.8503    
   1082000   314.57738     -3356.392       20.331159     -3336.0609      15309.156      5694.8503    
   1083000   321.95444     -3355.8512      20.807939     -3335.0433      16571.738      5694.8503    
   1084000   310.24089     -3354.9976      20.050891     -3334.9467      18704.3        5694.8503    
   1085000   291.50925     -3355.108       18.840264     -3336.2677      18488.044      5694.8503    
   1086000   287.67533     -3355.8023      18.592478     -3337.2099      15780.141      5694.8503    
   1087000   284.382       -3354.1065      18.379629     -3335.7268      18568.778      5694.8503    
   1088000   303.05811     -3354.7668      19.586667     -3335.1801      19752.253      5694.8503    
   1089000   295.28228     -3354.6727      19.084115     -3335.5886      20031.97       5694.8503    
   1090000   295.67151     -3355.0264      19.109271     -3335.9171      18465.95       5694.8503    
   1091000   294.34664     -3355.4588      19.023645     -3336.4351      18144.892      5694.8503    
   1092000   301.42278     -3355.1487      19.480976     -3335.6677      18484.133      5694.8503    
   1093000   302.74385     -3354.2742      19.566357     -3334.7079      19487.351      5694.8503    
   1094000   306.63586     -3354.9679      19.817898     -3335.15        18243.564      5694.8503    
   1095000   303.23791     -3354.9145      19.598288     -3335.3162      17559.594      5694.8503    
   1096000   305.47141     -3356.5795      19.742639     -3336.8369      17082.391      5694.8503    
   1097000   294.87708     -3355.4841      19.057927     -3336.4262      15886.261      5694.8503    
   1098000   311.60905     -3355.4183      20.139316     -3335.279       19426.116      5694.8503    
   1099000   287.29411     -3355.3792      18.567839     -3336.8114      18760.578      5694.8503    
   1100000   301.40322     -3355.8624      19.479712     -3336.3827      17785.105      5694.8503    
   1101000   292.35418     -3354.1992      18.894872     -3335.3044      19152.859      5694.8503    
   1102000   319.50196     -3355.8634      20.649435     -3335.2139      18233.832      5694.8503    
   1103000   291.31726     -3355.4414      18.827856     -3336.6136      18403.226      5694.8503    
   1104000   304.41493     -3354.7797      19.674359     -3335.1053      19160.375      5694.8503    
   1105000   320.02327     -3354.5209      20.683127     -3333.8378      18936.934      5694.8503    
   1106000   304.7208      -3354.1382      19.694127     -3334.4441      20715.963      5694.8503    
   1107000   303.57802     -3354.8498      19.62027      -3335.2296      18079.898      5694.8503    
   1108000   289.42242     -3356.6117      18.705392     -3337.9063      17466.155      5694.8503    
   1109000   295.781       -3355.8188      19.116347     -3336.7025      18997.361      5694.8503    
   1110000   297.06094     -3355.1843      19.19907      -3335.9852      19330.659      5694.8503    
   1111000   305.15172     -3354.8846      19.721977     -3335.1626      17795.244      5694.8503    
   1112000   316.50969     -3354.111       20.456044     -3333.655       20747.489      5694.8503    
   1113000   302.08104     -3354.1334      19.523519     -3334.6099      20058.509      5694.8503    
   1114000   306.48932     -3355.4187      19.808427     -3335.6103      17614.014      5694.8503    
   1115000   309.19139     -3355.2938      19.983062     -3335.3108      17732.849      5694.8503    
   1116000   324.17393     -3355.5364      20.951385     -3334.585       17603.848      5694.8503    
   1117000   290.44981     -3355.8345      18.771793     -3337.0627      18520.876      5694.8503    
   1118000   292.87866     -3356.0002      18.928769     -3337.0714      18694.159      5694.8503    
   1119000   296.49409     -3355.8259      19.162435     -3336.6635      16719.308      5694.8503    
   1120000   310.92786     -3354.8349      20.09529      -3334.7396      19085.679      5694.8503    
   1121000   302.99669     -3355.9434      19.582698     -3336.3607      17180.876      5694.8503    
   1122000   291.08651     -3355.1889      18.812942     -3336.376       19190.129      5694.8503    
   1123000   303.02803     -3355.8783      19.584724     -3336.2936      17426.923      5694.8503    
   1124000   315.05331     -3353.2402      20.361918     -3332.8783      20238.981      5694.8503    
   1125000   298.46925     -3354.6873      19.290089     -3335.3972      19733.435      5694.8503    
   1126000   300.34398     -3355.5979      19.411253     -3336.1866      18895.965      5694.8503    
   1127000   288.72113     -3355.0735      18.660068     -3336.4134      18651.752      5694.8503    
   1128000   308.06015     -3355           19.90995      -3335.09        17855.451      5694.8503    
   1129000   300.56526     -3354.8283      19.425555     -3335.4028      18305.095      5694.8503    
   1130000   298.00386     -3353.5034      19.260011     -3334.2434      21514.434      5694.8503    
   1131000   302.2717      -3355.3279      19.535842     -3335.792       19852.401      5694.8503    
   1132000   306.82246     -3355.6914      19.829958     -3335.8614      18563.115      5694.8503    
   1133000   315.15282     -3356.0996      20.36835      -3335.7312      18506.527      5694.8503    
   1134000   327.02274     -3354.2227      21.135503     -3333.0872      18132.107      5694.8503    
   1135000   315.22912     -3354.6276      20.373281     -3334.2543      19993.127      5694.8503    
   1136000   300.01336     -3354.3284      19.389885     -3334.9385      17237.138      5694.8503    
   1137000   317.56081     -3356.2401      20.523978     -3335.7161      17806.184      5694.8503    
   1138000   279.04741     -3356.685       18.034854     -3338.6501      16429.18       5694.8503    
   1139000   307.6974      -3354.9237      19.886505     -3335.0372      19674.594      5694.8503    
   1140000   308.28535     -3354.6502      19.924505     -3334.7257      19735.081      5694.8503    
   1141000   299.60131     -3357.0521      19.363254     -3337.6889      18584.935      5694.8503    
   1142000   292.76004     -3355.689       18.921103     -3336.7679      17934.434      5694.8503    
   1143000   297.03432     -3354.3104      19.19735      -3335.1131      18103.993      5694.8503    
   1144000   314.54198     -3355.5279      20.328871     -3335.199       17869.238      5694.8503    
   1145000   296.69139     -3355.2891      19.175186     -3336.1139      17717.616      5694.8503    
   1146000   291.16402     -3355.9117      18.817952     -3337.0938      16874.377      5694.8503    
   1147000   284.14704     -3355.5814      18.364443     -3337.217       17527.838      5694.8503    
   1148000   309.58365     -3354.842       20.008414     -3334.8336      16791.853      5694.8503    
   1149000   301.49317     -3355.022       19.485525     -3335.5365      17333.432      5694.8503    
   1150000   281.881       -3355.273       18.217989     -3337.055       17089.231      5694.8503    
   1151000   299.5087      -3355.4469      19.357269     -3336.0897      17254.951      5694.8503    
   1152000   302.54696     -3355.1789      19.553632     -3335.6252      18311.834      5694.8503    
   1153000   302.63218     -3353.9022      19.55914      -3334.343       18045.695      5694.8503    
   1154000   304.29795     -3355.2909      19.666799     -3335.6241      18662.545      5694.8503    
   1155000   293.14538     -3354.4552      18.946007     -3335.5091      19740.749      5694.8503    
   1156000   301.31737     -3354.0097      19.474163     -3334.5356      18753.876      5694.8503    
   1157000   312.64272     -3354.3357      20.206122     -3334.1296      19111.427      5694.8503    
   1158000   298.05137     -3355.63        19.263082     -3336.3669      17004.835      5694.8503    
   1159000   287.86728     -3354.4589      18.604883     -3335.854       18329.137      5694.8503    
   1160000   306.45954     -3355.1617      19.806503     -3335.3552      17752.137      5694.8503    
   1161000   306.76055     -3356.3523      19.825956     -3336.5263      16701.467      5694.8503    
   1162000   275.40582     -3355.0259      17.799498     -3337.2264      17461.507      5694.8503    
   1163000   303.02353     -3354.6111      19.584433     -3335.0267      17925.552      5694.8503    
   1164000   302.72337     -3355.6784      19.565034     -3336.1134      18349.223      5694.8503    
   1165000   302.96362     -3354.6951      19.580561     -3335.1146      18831.922      5694.8503    
   1166000   325.3194      -3355.164       21.025416     -3334.1385      18810.473      5694.8503    
   1167000   298.36438     -3355.1039      19.283312     -3335.8206      17753.309      5694.8503    
   1168000   311.54963     -3355.26        20.135475     -3335.1246      17865.619      5694.8503    
   1169000   320.30202     -3353.8948      20.701143     -3333.1937      20372.064      5694.8503    
   1170000   294.15267     -3354.7746      19.011109     -3335.7635      20861.685      5694.8503    
   1171000   300.04293     -3354.9411      19.391796     -3335.5493      18450.339      5694.8503    
   1172000   306.83889     -3355.0273      19.83102      -3335.1963      18514.208      5694.8503    
   1173000   290.66303     -3355.053       18.785573     -3336.2674      18455.223      5694.8503    
   1174000   286.60174     -3355.4697      18.523091     -3336.9466      16182.333      5694.8503    
   1175000   300.16714     -3354.7379      19.399824     -3335.3381      20163.713      5694.8503    
   1176000   336.49489     -3355.052       21.747689     -3333.3043      20855.706      5694.8503    
   1177000   317.34132     -3355.7604      20.509793     -3335.2506      16364.456      5694.8503    
   1178000   280.57634     -3354.2452      18.133669     -3336.1116      18322.215      5694.8503    
   1179000   297.6674      -3354.8428      19.238265     -3335.6045      17219.824      5694.8503    
   1180000   296.47475     -3353.0335      19.161185     -3333.8723      19059.991      5694.8503    
   1181000   323.06862     -3355.4953      20.879948     -3334.6154      18245.249      5694.8503    
   1182000   295.6547      -3354.8626      19.108185     -3335.7544      17487.074      5694.8503    
   1183000   288.52526     -3355.6065      18.647409     -3336.9591      18853.511      5694.8503    
   1184000   289.82531     -3355.1772      18.731431     -3336.4458      17521.927      5694.8503    
   1185000   304.98359     -3354.8715      19.711112     -3335.1604      17438.883      5694.8503    
   1186000   302.99091     -3354.7938      19.582324     -3335.2115      19817.481      5694.8503    
   1187000   285.83252     -3355.3174      18.473376     -3336.8441      18028.551      5694.8503    
   1188000   295.36334     -3355.2204      19.089354     -3336.1311      19037.618      5694.8503    
   1189000   298.25034     -3354.4847      19.275941     -3335.2087      17010.676      5694.8503    
   1190000   303.59119     -3354.8943      19.621121     -3335.2732      17465.453      5694.8503    
   1191000   309.08508     -3356.3277      19.976191     -3336.3515      16276.289      5694.8503    
   1192000   286.9759      -3356.077       18.547274     -3337.5297      17673.482      5694.8503    
   1193000   300.88464     -3355.5712      19.446196     -3336.125       18775.639      5694.8503    
   1194000   312.64351     -3355.1018      20.206173     -3334.8956      18974.115      5694.8503    
   1195000   305.00161     -3354.3997      19.712276     -3334.6875      19085.073      5694.8503    
   1196000   290.48999     -3354.9529      18.774389     -3336.1786      19454.473      5694.8503    
   1197000   292.36841     -3354.5815      18.895792     -3335.6857      17470.87       5694.8503    
   1198000   317.22071     -3354.6517      20.501997     -3334.1497      18807.42       5694.8503    
   1199000   300.16506     -3355.0345      19.39969      -3335.6348      18012.823      5694.8503    
   1200000   294.70997     -3356.1962      19.047127     -3337.149       15662.241      5694.8503    
   1201000   291.68309     -3355.8134      18.851499     -3336.9619      17040.44       5694.8503    
   1202000   317.30529     -3354.9662      20.507464     -3334.4587      16681.716      5694.8503    
   1203000   310.03212     -3354.7797      20.037399     -3334.7423      18045.144      5694.8503    
   1204000   314.61948     -3355.3506      20.33388      -3335.0168      18574.477      5694.8503    
   1205000   292.4125      -3356.4344      18.898641     -3337.5357      17599.629      5694.8503    
   1206000   296.75726     -3356.1         19.179443     -3336.9206      16595.936      5694.8503    
   1207000   311.26623     -3355.7896      20.117159     -3335.6724      17787.858      5694.8503    
   1208000   304.79927     -3353.962       19.699199     -3334.2628      16697.125      5694.8503    
   1209000   297.67913     -3354.5172      19.239024     -3335.2781      17519.449      5694.8503    
   1210000   291.92315     -3354.479       18.867014     -3335.612       18291.861      5694.8503    
   1211000   316.73836     -3354.7592      20.470823     -3334.2884      17203.129      5694.8503    
   1212000   306.94009     -3354.8174      19.83756      -3334.9799      19420.14       5694.8503    
   1213000   308.60174     -3355.906       19.944953     -3335.961       16738.283      5694.8503    
   1214000   301.89298     -3354.9042      19.511365     -3335.3928      17824.155      5694.8503    
   1215000   330.40791     -3355.3709      21.354287     -3334.0166      17990.982      5694.8503    
   1216000   303.91992     -3354.2717      19.642366     -3334.6293      19627.514      5694.8503    
   1217000   288.96396     -3354.9025      18.675762     -3336.2267      17895.828      5694.8503    
   1218000   296.65703     -3356.9218      19.172965     -3337.7488      17309.78       5694.8503    
   1219000   300.55545     -3353.9987      19.424921     -3334.5737      18335.544      5694.8503    
   1220000   309.10695     -3354.5116      19.977604     -3334.534       17164.253      5694.8503    
   1221000   293.03302     -3354.9249      18.938745     -3335.9861      17656.936      5694.8503    
   1222000   295.71116     -3356.3615      19.111834     -3337.2497      17865.345      5694.8503    
   1223000   285.53053     -3355.5795      18.453859     -3337.1256      18639.149      5694.8503    
   1224000   308.00756     -3355.0934      19.906551     -3335.1869      16981.214      5694.8503    
   1225000   314.23364     -3355.4488      20.308943     -3335.1399      18013.972      5694.8503    
   1226000   301.40989     -3354.9194      19.480143     -3335.4392      16805.2        5694.8503    
   1227000   285.88272     -3356.1386      18.476621     -3337.662       15026.945      5694.8503    
   1228000   283.46484     -3355.522       18.320353     -3337.2016      18076.207      5694.8503    
   1229000   284.13058     -3354.88        18.36338      -3336.5166      18140.213      5694.8503    
   1230000   298.71054     -3355.0533      19.305684     -3335.7476      18296.25       5694.8503    
   1231000   306.71104     -3354.17        19.822757     -3334.3472      18060.533      5694.8503    
   1232000   309.35837     -3355.557       19.993854     -3335.5632      17751.145      5694.8503    
   1233000   298.40613     -3355.6854      19.28601      -3336.3994      17418.193      5694.8503    
   1234000   301.71954     -3354.8796      19.500156     -3335.3794      16131.048      5694.8503    
   1235000   313.26007     -3356.3668      20.246021     -3336.1207      17148.632      5694.8503    
   1236000   291.39969     -3354.1395      18.833183     -3335.3063      20075.345      5694.8503    
   1237000   298.5993      -3354.814       19.298495     -3335.5155      17953.465      5694.8503    
   1238000   314.01749     -3354.3911      20.294973     -3334.0961      18948.363      5694.8503    
   1239000   309.96564     -3354.89        20.033102     -3334.8569      17797.561      5694.8503    
   1240000   292.87284     -3355.3146      18.928393     -3336.3862      16454.419      5694.8503    
   1241000   299.58035     -3356.4053      19.3619       -3337.0434      16515.747      5694.8503    
   1242000   293.7107      -3354.7226      18.982544     -3335.74        18681.31       5694.8503    
   1243000   322.86614     -3354.9041      20.866862     -3334.0373      19250.186      5694.8503    
   1244000   316.52372     -3354.5172      20.456951     -3334.0602      18345.294      5694.8503    
   1245000   309.8186      -3355.8628      20.023599     -3335.8392      17068.149      5694.8503    
   1246000   300.59211     -3354.7259      19.42729      -3335.2986      19019.239      5694.8503    
   1247000   314.86999     -3355.8039      20.35007      -3335.4538      18729.309      5694.8503    
   1248000   302.90326     -3355.4747      19.57666      -3335.898       17035.713      5694.8503    
   1249000   278.13814     -3356.3984      17.976088     -3338.4223      14216.649      5694.8503    
   1250000   304.54583     -3354.6599      19.682819     -3334.9771      18885.892      5694.8503    
   1251000   296.93519     -3353.4758      19.190943     -3334.2848      19014.721      5694.8503    
   1252000   291.48673     -3354.9329      18.838809     -3336.0941      18568.625      5694.8503    
   1253000   299.27527     -3354.519       19.342182     -3335.1768      20048.658      5694.8503    
   1254000   320.49553     -3354.7282      20.713649     -3334.0146      17393.078      5694.8503    
   1255000   306.3305      -3354.3557      19.798163     -3334.5576      18185.443      5694.8503    
   1256000   305.3933      -3355.6308      19.737591     -3335.8932      17501.041      5694.8503    
   1257000   315.76191     -3354.8015      20.407715     -3334.3938      18600.613      5694.8503    
   1258000   305.28222     -3354.6245      19.730412     -3334.8941      16785.306      5694.8503    
   1259000   288.72961     -3355.806       18.660616     -3337.1454      16435.692      5694.8503    
   1260000   304.64944     -3356.6077      19.689516     -3336.9182      15965.491      5694.8503    
   1261000   288.46755     -3353.2989      18.643679     -3334.6553      16592.252      5694.8503    
   1262000   311.94701     -3355.167       20.161158     -3335.0059      16374.168      5694.8503    
   1263000   281.75703     -3354.9062      18.209977     -3336.6962      17171.59       5694.8503    
   1264000   276.96984     -3355.0478      17.900581     -3337.1473      17443.506      5694.8503    
   1265000   297.95351     -3354.5754      19.256757     -3335.3186      18529.983      5694.8503    
   1266000   307.96109     -3355.1759      19.903547     -3335.2723      19489.582      5694.8503    
   1267000   296.80894     -3356.196       19.182783     -3337.0132      17425.916      5694.8503    
   1268000   292.55909     -3356.2851      18.908115     -3337.377       16610.453      5694.8503    
   1269000   285.43341     -3354.3865      18.447582     -3335.9389      18524.452      5694.8503    
   1270000   301.8427      -3354.1908      19.508116     -3334.6827      17857.99       5694.8503    
   1271000   289.08602     -3354.1217      18.683651     -3335.438       19398.225      5694.8503    
   1272000   281.09518     -3355.7596      18.167202     -3337.5924      16137.323      5694.8503    
   1273000   290.97616     -3355.7039      18.80581      -3336.8981      15223.541      5694.8503    
   1274000   312.50171     -3356.1547      20.197008     -3335.9577      17039.243      5694.8503    
   1275000   310.04861     -3354.397       20.038464     -3334.3585      16979.201      5694.8503    
   1276000   301.25507     -3354.3944      19.470137     -3334.9242      17520.261      5694.8503    
   1277000   300.70939     -3356.0562      19.43487      -3336.6213      16145.571      5694.8503    
   1278000   299.86825     -3354.7501      19.380507     -3335.3696      17755.304      5694.8503    
   1279000   291.38718     -3353.456       18.832375     -3334.6236      18616.393      5694.8503    
   1280000   290.44907     -3354.2565      18.771745     -3335.4848      19514.357      5694.8503    
   1281000   297.55118     -3355.3788      19.230754     -3336.148       19978.394      5694.8503    
   1282000   295.23973     -3355.3483      19.081365     -3336.2669      18164.691      5694.8503    
   1283000   312.73602     -3353.9834      20.212152     -3333.7712      18007.471      5694.8503    
   1284000   300.60321     -3354.6819      19.428007     -3335.2539      19242.875      5694.8503    
   1285000   283.13593     -3354.4946      18.299096     -3336.1955      18641.915      5694.8503    
   1286000   299.16438     -3354.5274      19.335015     -3335.1924      19433.264      5694.8503    
   1287000   308.99484     -3354.4146      19.970359     -3334.4442      18130.034      5694.8503    
   1288000   300.98895     -3355.1295      19.452937     -3335.6766      16533.819      5694.8503    
   1289000   309.41203     -3355.114       19.997322     -3335.1166      19255.464      5694.8503    
   1290000   310.37382     -3354.3443      20.059483     -3334.2848      18888.026      5694.8503    
   1291000   300.99945     -3355.4389      19.453616     -3335.9853      17365.253      5694.8503    
   1292000   295.5248      -3356.308       19.09979      -3337.2082      17219.884      5694.8503    
   1293000   295.33252     -3354.8866      19.087362     -3335.7993      16939.322      5694.8503    
   1294000   296.87984     -3355.3308      19.187366     -3336.1434      17287.766      5694.8503    
   1295000   315.58353     -3355.7555      20.396187     -3335.3594      17185.65       5694.8503    
   1296000   306.18968     -3355.625       19.789061     -3335.836       19714.495      5694.8503    
   1297000   282.65116     -3355.3826      18.267765     -3337.1148      18491.396      5694.8503    
   1298000   277.34909     -3355.406       17.925092     -3337.4809      17511.216      5694.8503    
   1299000   307.8455      -3355.2497      19.896077     -3335.3536      19096.396      5694.8503    
   1300000   292.47002     -3354.3161      18.902359     -3335.4137      21043.922      5694.8503    
   1301000   287.99991     -3355.0848      18.613455     -3336.4714      16113.17       5694.8503    
   1302000   289.56947     -3356.2534      18.714896     -3337.5385      16409.571      5694.8503    
   1303000   313.1339      -3354.7052      20.237867     -3334.4674      17236.783      5694.8503    
   1304000   313.0712      -3355.5013      20.233814     -3335.2675      16936.677      5694.8503    
   1305000   287.62521     -3356.0202      18.589238     -3337.4309      16501.007      5694.8503    
   1306000   290.42516     -3355.7943      18.770199     -3337.0241      17184.008      5694.8503    
   1307000   313.16494     -3354.9234      20.239873     -3334.6835      18225.408      5694.8503    
   1308000   306.22608     -3355.0486      19.791414     -3335.2572      17696.428      5694.8503    
   1309000   302.18656     -3355.3269      19.530339     -3335.7966      16686.564      5694.8503    
   1310000   284.59793     -3355.3252      18.393585     -3336.9316      18525.531      5694.8503    
   1311000   297.55445     -3355.1531      19.230966     -3335.9222      17394.743      5694.8503    
   1312000   299.11906     -3354.9166      19.332087     -3335.5845      16924.864      5694.8503    
   1313000   302.02468     -3353.9252      19.519877     -3334.4054      19949.024      5694.8503    
   1314000   283.35838     -3354.5065      18.313473     -3336.1931      17001.703      5694.8503    
   1315000   310.09597     -3356.9848      20.041525     -3336.9433      17158.665      5694.8503    
   1316000   301.77143     -3355.0275      19.503509     -3335.524       18213.462      5694.8503    
   1317000   315.26323     -3355.8371      20.375485     -3335.4616      17454.854      5694.8503    
   1318000   298.51109     -3356.1898      19.292794     -3336.897       17850.636      5694.8503    
   1319000   289.55931     -3355.9769      18.714239     -3337.2627      16482.572      5694.8503    
   1320000   302.31306     -3356.0035      19.538515     -3336.465       17471.59       5694.8503    
   1321000   294.51181     -3354.8318      19.03432      -3335.7975      20277.13       5694.8503    
   1322000   319.03104     -3354.1497      20.618999     -3333.5307      19423.541      5694.8503    
   1323000   300.32046     -3355.1648      19.409733     -3335.7551      19572.532      5694.8503    
   1324000   307.48828     -3355.8399      19.87299      -3335.9669      18039.824      5694.8503    
   1325000   287.36802     -3354.7587      18.572616     -3336.1861      17466.757      5694.8503    
   1326000   289.119       -3353.9863      18.685782     -3335.3005      18599.992      5694.8503    
   1327000   303.10737     -3354.7099      19.589851     -3335.1201      18283.034      5694.8503    
   1328000   295.38287     -3356.1224      19.090616     -3337.0318      16071.197      5694.8503    
   1329000   283.08679     -3354.9443      18.29592      -3336.6483      16132.888      5694.8503    
   1330000   297.63652     -3354.619       19.23627      -3335.3828      20237.29       5694.8503    
   1331000   301.4082      -3353.6947      19.480034     -3334.2147      18828.031      5694.8503    
   1332000   307.07009     -3355.3071      19.845962     -3335.4612      19194.184      5694.8503    
   1333000   291.62968     -3355.6148      18.848047     -3336.7668      16209.869      5694.8503    
   1334000   291.52915     -3355.6675      18.84155      -3336.826       16730.21       5694.8503    
   1335000   299.77007     -3354.5093      19.374162     -3335.1351      17943.835      5694.8503    
   1336000   301.27776     -3356.5371      19.471604     -3337.0655      18408.354      5694.8503    
   1337000   291.70161     -3354.4094      18.852696     -3335.5567      18311.608      5694.8503    
   1338000   305.70796     -3354.2857      19.757927     -3334.5278      19773.803      5694.8503    
   1339000   317.22264     -3355.8877      20.502122     -3335.3855      17797.023      5694.8503    
   1340000   285.81106     -3355.5214      18.471989     -3337.0494      16546.875      5694.8503    
   1341000   283.86579     -3354.448       18.346267     -3336.1018      19872.187      5694.8503    
   1342000   301.93607     -3354.0424      19.51415      -3334.5283      19464.333      5694.8503    
   1343000   291.44456     -3355.07        18.836083     -3336.2339      19785.164      5694.8503    
   1344000   282.61363     -3355.6829      18.26534      -3337.4176      15833.169      5694.8503    
   1345000   302.81775     -3355.5649      19.571133     -3335.9937      21303.07       5694.8503    
   1346000   315.17136     -3354.8491      20.369548     -3334.4796      19046.671      5694.8503    
   1347000   306.02306     -3355.2511      19.778292     -3335.4728      18893.267      5694.8503    
   1348000   292.85319     -3354.808       18.927123     -3335.8809      19412.078      5694.8503    
   1349000   297.62635     -3353.7523      19.235612     -3334.5167      19818.067      5694.8503    
   1350000   318.24308     -3355.284       20.568073     -3334.7159      17271.146      5694.8503    
   1351000   298.16328     -3354.6742      19.270315     -3335.4038      18274.751      5694.8503    
   1352000   300.46631     -3355.3524      19.419159     -3335.9332      18694.07       5694.8503    
   1353000   285.20703     -3356.4026      18.432951     -3337.9696      16529.383      5694.8503    
   1354000   295.8401      -3354.863       19.120167     -3335.7428      17686.716      5694.8503    
   1355000   310.04966     -3354.0605      20.038532     -3334.0219      20127.917      5694.8503    
   1356000   332.00045     -3355.86        21.457213     -3334.4028      16918.633      5694.8503    
   1357000   289.92247     -3354.1844      18.737711     -3335.4466      18322.661      5694.8503    
   1358000   300.83014     -3355.678       19.442674     -3336.2353      18777.251      5694.8503    
   1359000   283.45897     -3356.1562      18.319974     -3337.8362      17901.32       5694.8503    
   1360000   319.06905     -3355.6469      20.621456     -3335.0255      19485.441      5694.8503    
   1361000   284.85837     -3353.8606      18.410417     -3335.4502      19828.133      5694.8503    
   1362000   303.38373     -3355.9405      19.607713     -3336.3327      17492.412      5694.8503    
   1363000   277.47754     -3355.7487      17.933394     -3337.8153      17991.986      5694.8503    
   1364000   301.32732     -3354.6682      19.474807     -3335.1934      18632.042      5694.8503    
   1365000   298.34933     -3354.0848      19.282339     -3334.8025      20924.582      5694.8503    
   1366000   293.28944     -3355.4621      18.955318     -3336.5067      18142.06       5694.8503    
   1367000   282.18374     -3356.2073      18.237555     -3337.9697      16615.164      5694.8503    
   1368000   279.71985     -3353.3696      18.078314     -3335.2913      18338.079      5694.8503    
   1369000   306.32093     -3354.5041      19.797544     -3334.7065      19042.909      5694.8503    
   1370000   301.07879     -3354.7373      19.458744     -3335.2785      19522.368      5694.8503    
   1371000   283.36655     -3354.964       18.314001     -3336.65        19926.246      5694.8503    
   1372000   294.50546     -3355.6099      19.033909     -3336.576       17796.328      5694.8503    
   1373000   296.92313     -3354.8401      19.190163     -3335.65        19983.437      5694.8503    
   1374000   318.90836     -3354.8623      20.61107      -3334.2512      18977.716      5694.8503    
   1375000   296.12977     -3354.434       19.138888     -3335.2951      18849.284      5694.8503    
   1376000   292.66954     -3354.6776      18.915253     -3335.7624      20317.066      5694.8503    
   1377000   302.82233     -3354.811       19.571429     -3335.2395      21110.099      5694.8503    
   1378000   308.28384     -3353.6301      19.924407     -3333.7057      19898.106      5694.8503    
   1379000   311.97984     -3353.9509      20.16328      -3333.7877      20263.447      5694.8503    
   1380000   301.87119     -3355.8116      19.509957     -3336.3016      18727.705      5694.8503    
   1381000   294.44089     -3355.0068      19.029736     -3335.977       19747.455      5694.8503    
   1382000   317.35623     -3353.7658      20.510756     -3333.255       17958.279      5694.8503    
   1383000   315.72001     -3354.4511      20.405007     -3334.046       19673.422      5694.8503    
   1384000   294.33996     -3354.7996      19.023213     -3335.7764      18536.517      5694.8503    
   1385000   309.73326     -3354.7522      20.018083     -3334.7342      18245.782      5694.8503    
   1386000   312.17848     -3354.082       20.176118     -3333.9059      20372.723      5694.8503    
   1387000   311.51818     -3353.9159      20.133443     -3333.7825      20570.642      5694.8503    
   1388000   290.86318     -3354.2528      18.798509     -3335.4542      20026.635      5694.8503    
   1389000   294.66126     -3355.2015      19.043978     -3336.1575      18104.67       5694.8503    
   1390000   281.32613     -3354.09        18.182128     -3335.9079      17146.928      5694.8503    
   1391000   288.1531      -3354.5642      18.623356     -3335.9408      16770.329      5694.8503    
   1392000   298.50929     -3354.4045      19.292677     -3335.1119      20894.543      5694.8503    
   1393000   298.48729     -3355.0345      19.291255     -3335.7433      18256.731      5694.8503    
   1394000   294.90346     -3355.2477      19.059632     -3336.1881      17808.294      5694.8503    
   1395000   297.34249     -3355.0177      19.217267     -3335.8004      19623.033      5694.8503    
   1396000   298.47043     -3354.1174      19.290166     -3334.8272      19215.354      5694.8503    
   1397000   296.45954     -3354.3998      19.160201     -3335.2396      21597.813      5694.8503    
   1398000   315.40706     -3356.0583      20.384781     -3335.6735      18612.474      5694.8503    
   1399000   281.99253     -3355.5474      18.225198     -3337.3222      18061.593      5694.8503    
   1400000   302.01741     -3354.798       19.519407     -3335.2786      19970.036      5694.8503    
   1401000   313.97247     -3355.3404      20.292064     -3335.0483      16530.114      5694.8503    
   1402000   304.27123     -3354.7127      19.665072     -3335.0476      18251.191      5694.8503    
   1403000   290.57262     -3354.9945      18.779729     -3336.2148      17541.846      5694.8503    
   1404000   306.49377     -3355.9944      19.808714     -3336.1857      17494.436      5694.8503    
   1405000   300.84088     -3355.4025      19.443368     -3335.9592      17794.308      5694.8503    
   1406000   307.98599     -3354.3927      19.905157     -3334.4875      18572.937      5694.8503    
   1407000   304.28743     -3354.2431      19.666119     -3334.5769      17684.143      5694.8503    
   1408000   301.20567     -3354.7569      19.466944     -3335.2899      16728.269      5694.8503    
   1409000   286.36936     -3355.5336      18.508072     -3337.0255      17203.93       5694.8503    
   1410000   282.32806     -3354.8972      18.246883     -3336.6504      18487.488      5694.8503    
   1411000   297.63577     -3355.261       19.236222     -3336.0248      19239.875      5694.8503    
   1412000   311.86649     -3353.9989      20.155954     -3333.843       19130.154      5694.8503    
   1413000   301.72998     -3353.1941      19.500831     -3333.6932      19682.681      5694.8503    
   1414000   285.52854     -3355.2131      18.45373      -3336.7594      17569.622      5694.8503    
   1415000   283.57185     -3353.7423      18.327269     -3335.4151      18847.077      5694.8503    
   1416000   312.90043     -3354.9148      20.222778     -3334.692       18031.147      5694.8503    
   1417000   299.81825     -3354.8878      19.377276     -3335.5105      18829.773      5694.8503    
   1418000   283.496       -3355.861       18.322367     -3337.5386      15784.839      5694.8503    
   1419000   302.47502     -3354.8252      19.548983     -3335.2762      18024.775      5694.8503    
   1420000   298.99795     -3354.6299      19.324259     -3335.3057      19886.045      5694.8503    
   1421000   308.70185     -3355.1645      19.951423     -3335.2131      19226.835      5694.8503    
   1422000   303.25036     -3355.8047      19.599093     -3336.2056      17238.557      5694.8503    
   1423000   286.0009      -3354.7737      18.484259     -3336.2895      17259.947      5694.8503    
   1424000   301.78074     -3354.3148      19.504111     -3334.8107      18311.625      5694.8503    
   1425000   320.50583     -3354.9989      20.714315     -3334.2846      17797.943      5694.8503    
   1426000   314.25322     -3353.9348      20.310208     -3333.6246      19670.858      5694.8503    
   1427000   293.00213     -3354.7534      18.936749     -3335.8166      18005.075      5694.8503    
   1428000   293.20898     -3354.7295      18.950117     -3335.7793      17380.065      5694.8503    
   1429000   324.58423     -3355.2547      20.977902     -3334.2768      17553.183      5694.8503    
   1430000   297.4856      -3354.0908      19.226516     -3334.8643      18347.969      5694.8503    
   1431000   298.01924     -3355.2557      19.261005     -3335.9947      19631.851      5694.8503    
   1432000   301.48759     -3354.5703      19.485165     -3335.0851      15854.629      5694.8503    
   1433000   306.06855     -3354.5613      19.781232     -3334.7801      18307.489      5694.8503    
   1434000   282.3801      -3354.5311      18.250247     -3336.2808      19562.89       5694.8503    
   1435000   297.93159     -3356.3637      19.25534      -3337.1084      17294.397      5694.8503    
   1436000   300.07366     -3354.9284      19.393782     -3335.5346      19104.624      5694.8503    
   1437000   297.38724     -3353.6277      19.220159     -3334.4075      19465.318      5694.8503    
   1438000   300.87956     -3354.8849      19.445868     -3335.4391      17292.294      5694.8503    
   1439000   307.22267     -3356.1809      19.855824     -3336.3251      17681.948      5694.8503    
   1440000   317.07249     -3355.2354      20.492418     -3334.7429      18053.277      5694.8503    
   1441000   296.88843     -3354.7159      19.187921     -3335.528       18861.798      5694.8503    
   1442000   291.9568      -3355.1606      18.869189     -3336.2914      18841.085      5694.8503    
   1443000   310.2992      -3355.4316      20.05466      -3335.3769      17313.225      5694.8503    
   1444000   304.07575     -3354.3584      19.652437     -3334.7059      18526.598      5694.8503    
   1445000   314.46952     -3353.9699      20.324188     -3333.6457      16610.205      5694.8503    
   1446000   289.6574      -3354.0481      18.720578     -3335.3275      18484.479      5694.8503    
   1447000   294.84421     -3354.8206      19.055803     -3335.7648      18200.689      5694.8503    
   1448000   288.01339     -3353.7569      18.614326     -3335.1426      18496.625      5694.8503    
   1449000   301.16618     -3355.1963      19.464392     -3335.7319      15953.459      5694.8503    
   1450000   300.90905     -3354.888       19.447774     -3335.4403      17961.585      5694.8503    
   1451000   297.52505     -3355.0471      19.229066     -3335.818       16644.895      5694.8503    
   1452000   285.49122     -3354.9727      18.451318     -3336.5214      16482.977      5694.8503    
   1453000   287.07506     -3356.6025      18.553682     -3338.0488      16729.521      5694.8503    
   1454000   293.93699     -3355.3824      18.997169     -3336.3852      17534.365      5694.8503    
   1455000   312.61536     -3355.3699      20.204353     -3335.1656      18868.578      5694.8503    
   1456000   280.14653     -3354.6813      18.105891     -3336.5754      19383.986      5694.8503    
   1457000   302.33615     -3355.7582      19.540007     -3336.2182      18951.732      5694.8503    
   1458000   318.10533     -3355.0546      20.55917      -3334.4954      19904.049      5694.8503    
   1459000   304.8233      -3355.5579      19.700752     -3335.8572      17960.533      5694.8503    
   1460000   300.64135     -3354.5201      19.430472     -3335.0896      22869.832      5694.8503    
   1461000   316.12005     -3354.306       20.430862     -3333.8752      19785.442      5694.8503    
   1462000   299.6875      -3355.2177      19.368825     -3335.8489      19880.176      5694.8503    
   1463000   285.70263     -3354.2824      18.464982     -3335.8174      17651.144      5694.8503    
   1464000   297.48274     -3354.5015      19.226331     -3335.2752      19924.155      5694.8503    
   1465000   306.58877     -3354.3076      19.814854     -3334.4928      18528.932      5694.8503    
   1466000   309.27103     -3353.123       19.988209     -3333.1348      20956.715      5694.8503    
   1467000   302.38443     -3355.1278      19.543128     -3335.5846      17031.231      5694.8503    
   1468000   300.63202     -3355.7192      19.429869     -3336.2893      17624.391      5694.8503    
   1469000   292.03187     -3356.0033      18.874041     -3337.1293      16252.042      5694.8503    
   1470000   302.85871     -3354.9406      19.573781     -3335.3668      18371.002      5694.8503    
   1471000   309.53592     -3354.5072      20.005329     -3334.5019      18450.773      5694.8503    
   1472000   309.15626     -3355.335       19.980791     -3335.3542      15813.476      5694.8503    
   1473000   290.9693      -3355.4402      18.805367     -3336.6348      17955.674      5694.8503    
   1474000   307.60913     -3355.1763      19.8808       -3335.2955      16970.562      5694.8503    
   1475000   308.84826     -3354.5527      19.960885     -3334.5918      17646.464      5694.8503    
   1476000   304.98281     -3354.5712      19.711061     -3334.8601      18344.992      5694.8503    
   1477000   293.55084     -3355.0428      18.972212     -3336.0706      17448.555      5694.8503    
   1478000   299.17989     -3354.8616      19.336018     -3335.5256      17275.712      5694.8503    
   1479000   307.07281     -3353.8877      19.846138     -3334.0415      19870.958      5694.8503    
   1480000   302.75179     -3354.3448      19.56687      -3334.7779      18911.901      5694.8503    
   1481000   293.46451     -3354.2379      18.966632     -3335.2713      21165.728      5694.8503    
   1482000   301.64258     -3355.4667      19.495182     -3335.9715      17353.536      5694.8503    
   1483000   300.22108     -3355.9263      19.40331      -3336.523       16916.658      5694.8503    
   1484000   309.42299     -3355.8636      19.99803      -3335.8656      16595.725      5694.8503    
   1485000   306.02716     -3354.867       19.778558     -3335.0884      17902.246      5694.8503    
   1486000   324.21108     -3354.3072      20.953786     -3333.3534      19561.371      5694.8503    
   1487000   282.9962      -3354.7906      18.290065     -3336.5006      19762.587      5694.8503    
   1488000   300.24661     -3355.736       19.40496      -3336.3311      17295.64       5694.8503    
   1489000   301.28862     -3354.1976      19.472305     -3334.7253      21327.847      5694.8503    
   1490000   303.68848     -3354.64        19.627408     -3335.0126      19441.506      5694.8503    
   1491000   301.94681     -3354.9486      19.514844     -3335.4338      18840.703      5694.8503    
   1492000   291.14195     -3356.3129      18.816525     -3337.4964      17793.305      5694.8503    
   1493000   305.62814     -3354.8672      19.752769     -3335.1145      17720.772      5694.8503    
   1494000   308.41398     -3354.5864      19.932818     -3334.6536      17918.026      5694.8503    
   1495000   306.87562     -3356.4293      19.833394     -3336.5959      18051.293      5694.8503    
   1496000   293.18252     -3355.7251      18.948408     -3336.7767      17944.438      5694.8503    
   1497000   292.89763     -3354.8088      18.929995     -3335.8788      19075.026      5694.8503    
   1498000   329.38792     -3355.8036      21.288365     -3334.5153      18843.359      5694.8503    
   1499000   318.89641     -3355.4467      20.610298     -3334.8364      17312.496      5694.8503    
   1500000   299.83494     -3355.0105      19.378354     -3335.6322      18336.56       5694.8503    
   1501000   290.27787     -3353.6838      18.76068      -3334.9231      17577.716      5694.8503    
   1502000   321.53847     -3354.3773      20.781054     -3333.5962      21311.648      5694.8503    
   1503000   294.45234     -3354.1886      19.030476     -3335.1581      19891.212      5694.8503    
   1504000   299.79616     -3355.8068      19.375848     -3336.4309      16967.838      5694.8503    
   1505000   292.28851     -3355.5362      18.890627     -3336.6455      18239.382      5694.8503    
   1506000   280.78183     -3355.0095      18.14695      -3336.8626      18246.658      5694.8503    
   1507000   293.43494     -3354.4106      18.964722     -3335.4459      18264.002      5694.8503    
   1508000   316.43705     -3355.4066      20.451349     -3334.9553      16836.984      5694.8503    
   1509000   311.19782     -3355.9834      20.112737     -3335.8706      17783.94       5694.8503    
   1510000   312.69932     -3355.2339      20.20978      -3335.0241      19091.073      5694.8503    
   1511000   304.87505     -3354.3762      19.704097     -3334.6721      19390.011      5694.8503    
   1512000   299.38828     -3355.3059      19.349486     -3335.9564      17102.959      5694.8503    
   1513000   301.41027     -3356.2275      19.480168     -3336.7474      16606.864      5694.8503    
   1514000   297.72809     -3355.1789      19.242188     -3335.9367      16483.163      5694.8503    
   1515000   303.82859     -3356.17        19.636463     -3336.5335      18717.92       5694.8503    
   1516000   316.84521     -3355.898       20.477729     -3335.4203      18649.025      5694.8503    
   1517000   324.47673     -3353.6676      20.970955     -3332.6966      19075.022      5694.8503    
   1518000   314.80989     -3355.5155      20.346186     -3335.1693      17197.217      5694.8503    
   1519000   281.02772     -3354.9168      18.162842     -3336.7539      17873.731      5694.8503    
   1520000   301.15192     -3355.0949      19.46347      -3335.6314      15534.382      5694.8503    
   1521000   302.71687     -3355.9826      19.564613     -3336.418       17171.671      5694.8503    
   1522000   307.26264     -3354.8738      19.858407     -3335.0154      18253.009      5694.8503    
   1523000   299.76225     -3353.8754      19.373656     -3334.5018      20275.894      5694.8503    
   1524000   310.92797     -3355.8127      20.095297     -3335.7174      18214.393      5694.8503    
   1525000   293.21026     -3355.026       18.9502       -3336.0758      16504.543      5694.8503    
   1526000   302.02097     -3354.3814      19.519637     -3334.8618      17544.08       5694.8503    
   1527000   312.2759      -3353.6767      20.182414     -3333.4943      20038.134      5694.8503    
   1528000   307.95821     -3355.4944      19.903362     -3335.5911      16249.797      5694.8503    
   1529000   293.77953     -3355.0762      18.986992     -3336.0893      16488.825      5694.8503    
   1530000   299.4319      -3355.9442      19.352305     -3336.5919      17029.997      5694.8503    
   1531000   287.21231     -3354.0545      18.562552     -3335.4919      17759.686      5694.8503    
   1532000   301.07399     -3354.5895      19.458434     -3335.131       18504.554      5694.8503    
   1533000   295.98876     -3353.5706      19.129775     -3334.4408      19425.258      5694.8503    
   1534000   291.3089      -3354.6779      18.827315     -3335.8505      19783.393      5694.8503    
   1535000   294.51696     -3354.0756      19.034653     -3335.0409      17614.91       5694.8503    
   1536000   320.98952     -3354.6737      20.745576     -3333.9282      18266.24       5694.8503    
   1537000   309.06639     -3355.4527      19.974983     -3335.4778      17591.173      5694.8503    
   1538000   307.48462     -3355.3689      19.872753     -3335.4961      17457.261      5694.8503    
   1539000   292.72548     -3355.0632      18.918869     -3336.1443      17576.844      5694.8503    
   1540000   292.25034     -3355.8748      18.888161     -3336.9866      17925.761      5694.8503    
   1541000   292.29899     -3356.2948      18.891305     -3337.4035      17312.099      5694.8503    
   1542000   299.59263     -3355.4559      19.362693     -3336.0932      19140.903      5694.8503    
   1543000   321.26791     -3355.574       20.763568     -3334.8104      17856.631      5694.8503    
   1544000   297.4396      -3354.5402      19.223543     -3335.3166      20135.29       5694.8503    
   1545000   306.05286     -3356.0058      19.780218     -3336.2255      15393.977      5694.8503    
   1546000   295.19846     -3355.7305      19.078698     -3336.6518      16990.653      5694.8503    
   1547000   297.43882     -3355.3716      19.223493     -3336.1481      16625.536      5694.8503    
   1548000   297.25783     -3354.6676      19.211795     -3335.4558      20355.518      5694.8503    
   1549000   310.00697     -3355.0452      20.035773     -3335.0095      19565.038      5694.8503    
   1550000   305.82454     -3355.5385      19.765462     -3335.7731      16852.821      5694.8503    
   1551000   278.51193     -3354.9052      18.000246     -3336.905       16024.973      5694.8503    
   1552000   297.13824     -3354.9558      19.204066     -3335.7517      18582.33       5694.8503    
   1553000   293.19617     -3355.6323      18.94929      -3336.683       18419.304      5694.8503    
   1554000   285.05285     -3355.6097      18.422986     -3337.1867      17731.317      5694.8503    
   1555000   288.81809     -3354.6631      18.666334     -3335.9968      19206.397      5694.8503    
   1556000   299.90301     -3354.734       19.382753     -3335.3513      20350.446      5694.8503    
   1557000   315.05492     -3355.5564      20.362022     -3335.1944      18603.62       5694.8503    
   1558000   299.17241     -3355.9777      19.335535     -3336.6422      17077.752      5694.8503    
   1559000   295.51086     -3355.7869      19.098889     -3336.688       16320          5694.8503    
   1560000   298.2563      -3355.4779      19.276326     -3336.2016      16442.257      5694.8503    
   1561000   307.65752     -3355.34        19.883928     -3335.4561      18344.937      5694.8503    
   1562000   318.44902     -3355.294       20.581383     -3334.7126      19614.434      5694.8503    
   1563000   302.04867     -3353.8725      19.521427     -3334.3511      20013.032      5694.8503    
   1564000   308.06283     -3353.7635      19.910123     -3333.8534      20608.32       5694.8503    
   1565000   295.40987     -3354.9078      19.092361     -3335.8155      19192.915      5694.8503    
   1566000   302.69901     -3355.5956      19.563459     -3336.0322      18355.566      5694.8503    
   1567000   297.92408     -3356.1815      19.254855     -3336.9267      16419.252      5694.8503    
   1568000   307.44546     -3354.7078      19.870222     -3334.8376      17152.783      5694.8503    
   1569000   294.72311     -3355.5605      19.047976     -3336.5125      17068.219      5694.8503    
   1570000   282.34271     -3355.2999      18.24783      -3337.0521      19136.264      5694.8503    
   1571000   306.74351     -3354.2118      19.824855     -3334.3869      19440.68       5694.8503    
   1572000   312.17973     -3354.331       20.176198     -3334.1548      19481.326      5694.8503    
   1573000   307.9898      -3355.1671      19.905403     -3335.2617      18799.372      5694.8503    
   1574000   299.21223     -3355.2085      19.338108     -3335.8704      19207.033      5694.8503    
   1575000   287.69927     -3354.9519      18.594025     -3336.3579      18649.898      5694.8503    
   1576000   303.41077     -3354.8174      19.60946      -3335.208       17902.204      5694.8503    
   1577000   298.2142      -3355.875       19.273606     -3336.6014      19139.431      5694.8503    
   1578000   299.94666     -3355.2285      19.385574     -3335.843       18251.679      5694.8503    
   1579000   304.96594     -3354.3294      19.709971     -3334.6195      16236.733      5694.8503    
   1580000   314.71151     -3354.4491      20.339828     -3334.1093      18573.851      5694.8503    
   1581000   294.74816     -3353.9304      19.049595     -3334.8808      18934.51       5694.8503    
   1582000   300.75823     -3354.8188      19.438026     -3335.3808      19136.135      5694.8503    
   1583000   305.10726     -3356.1884      19.719104     -3336.4693      17008.531      5694.8503    
   1584000   271.85746     -3355.0245      17.570167     -3337.4543      18196.646      5694.8503    
   1585000   285.88884     -3354.7795      18.477016     -3336.3025      17410.319      5694.8503    
   1586000   300.57581     -3354.9301      19.426236     -3335.5039      19230.105      5694.8503    
   1587000   297.5316      -3354.0648      19.229489     -3334.8354      19403.845      5694.8503    
   1588000   315.46379     -3354.3793      20.388448     -3333.9909      19545.348      5694.8503    
   1589000   289.25322     -3354.1077      18.694456     -3335.4133      19969.512      5694.8503    
   1590000   299.44141     -3355.4133      19.35292      -3336.0604      16719.899      5694.8503    
   1591000   292.951       -3354.8734      18.933445     -3335.9399      17643.657      5694.8503    
   1592000   308.67241     -3353.9347      19.94952      -3333.9852      19787.951      5694.8503    
   1593000   294.25497     -3353.5257      19.01772      -3334.5079      17291.377      5694.8503    
   1594000   293.69339     -3353.8794      18.981425     -3334.898       18485.956      5694.8503    
   1595000   297.52348     -3355.1076      19.228964     -3335.8786      17112.045      5694.8503    
   1596000   289.01472     -3356.1712      18.679042     -3337.4922      16185.85       5694.8503    
   1597000   298.89233     -3354.7799      19.317433     -3335.4625      18845.091      5694.8503    
   1598000   294.42005     -3353.7072      19.028389     -3334.6788      18006.193      5694.8503    
   1599000   303.83802     -3355.3449      19.637073     -3335.7079      16749.769      5694.8503    
   1600000   306.07458     -3356.2115      19.781623     -3336.4299      17698.638      5694.8503    
   1601000   304.81758     -3354.8262      19.700382     -3335.1259      16227.052      5694.8503    
   1602000   308.41919     -3354.2538      19.933155     -3334.3206      18216.533      5694.8503    
   1603000   301.0765      -3354.8162      19.458596     -3335.3576      17601.937      5694.8503    
   1604000   315.70873     -3356.2985      20.404278     -3335.8942      18993.348      5694.8503    
   1605000   296.47722     -3354.044       19.161344     -3334.8826      18839.056      5694.8503    
   1606000   309.58423     -3353.8264      20.008451     -3333.818       20638.483      5694.8503    
   1607000   298.87313     -3354.7945      19.316192     -3335.4783      18720.852      5694.8503    
   1608000   294.97585     -3355.5108      19.064311     -3336.4465      17559.196      5694.8503    
   1609000   294.61768     -3355.9828      19.041162     -3336.9416      16680.412      5694.8503    
   1610000   288.11565     -3354.6622      18.620935     -3336.0413      19127.823      5694.8503    
   1611000   301.47474     -3353.4408      19.484334     -3333.9565      19679.295      5694.8503    
   1612000   309.89644     -3354.5305      20.02863      -3334.5019      19013.559      5694.8503    
   1613000   272.54552     -3355.3071      17.614636     -3337.6924      18275.822      5694.8503    
   1614000   309.43293     -3355.185       19.998672     -3335.1863      18456.15       5694.8503    
   1615000   296.38562     -3353.7008      19.155424     -3334.5453      20274.158      5694.8503    
   1616000   310.34081     -3353.1211      20.057349     -3333.0638      21312.101      5694.8503    
   1617000   294.23693     -3355.0477      19.016554     -3336.0312      17911.139      5694.8503    
   1618000   297.41463     -3355.1522      19.221929     -3335.9303      17600.799      5694.8503    
   1619000   314.42019     -3355.2876      20.321        -3334.9666      17418.167      5694.8503    
   1620000   292.74733     -3355.4161      18.920281     -3336.4958      18554.317      5694.8503    
   1621000   288.22424     -3355.3782      18.627953     -3336.7503      16323.806      5694.8503    
   1622000   297.93365     -3354.9804      19.255473     -3335.725       16511.219      5694.8503    
   1623000   307.35441     -3354.85        19.864338     -3334.9857      18117.073      5694.8503    
   1624000   321.21698     -3356.3202      20.760276     -3335.5599      16894.153      5694.8503    
   1625000   278.32089     -3355.0846      17.9879       -3337.0967      19030.669      5694.8503    
   1626000   284.85357     -3355.702       18.410107     -3337.2919      16889.312      5694.8503    
   1627000   307.29017     -3354.6825      19.860186     -3334.8223      18638.444      5694.8503    
   1628000   307.47421     -3354.0505      19.872081     -3334.1784      19276.056      5694.8503    
   1629000   304.54821     -3353.46        19.682973     -3333.777       19482.258      5694.8503    
   1630000   301.33021     -3356.1767      19.474993     -3336.7017      15521.669      5694.8503    
   1631000   308.85404     -3355.303       19.961259     -3335.3417      16273.926      5694.8503    
   1632000   306.13167     -3355.4842      19.785312     -3335.6989      16184.569      5694.8503    
   1633000   291.69128     -3355.9631      18.852029     -3337.1111      17936.899      5694.8503    
   1634000   300.87317     -3355.6323      19.445455     -3336.1869      16336.023      5694.8503    
   1635000   302.32155     -3355.2984      19.539064     -3335.7593      17884.036      5694.8503    
   1636000   311.32708     -3352.6655      20.121091     -3332.5444      18963.849      5694.8503    
   1637000   299.75378     -3355.5395      19.373109     -3336.1664      17646.667      5694.8503    
   1638000   294.10765     -3354.7849      19.008199     -3335.7767      19166.909      5694.8503    
   1639000   295.80204     -3354.5428      19.117707     -3335.4251      18369.382      5694.8503    
   1640000   308.84286     -3354.5994      19.960536     -3334.6389      18419.917      5694.8503    
   1641000   316.53483     -3354.0892      20.457669     -3333.6315      18510.896      5694.8503    
   1642000   320.99737     -3355.0197      20.746083     -3334.2736      19454.074      5694.8503    
   1643000   304.65057     -3355.3122      19.689588     -3335.6227      18210.834      5694.8503    
   1644000   296.69236     -3355.1119      19.175249     -3335.9367      19431.577      5694.8503    
   1645000   295.67949     -3354.3384      19.109787     -3335.2287      19288.845      5694.8503    
   1646000   310.02668     -3356.3242      20.037047     -3336.2872      18585.5        5694.8503    
   1647000   295.12839     -3356.058       19.074169     -3336.9838      17654.998      5694.8503    
   1648000   299.3249      -3354.8913      19.34539      -3335.546       17486.467      5694.8503    
   1649000   275.77682     -3355.3702      17.823476     -3337.5467      18410.714      5694.8503    
   1650000   283.52109     -3355.4579      18.323988     -3337.1339      17409.473      5694.8503    
   1651000   296.33807     -3354.3997      19.152351     -3335.2474      20358.254      5694.8503    
   1652000   305.94962     -3354.4884      19.773546     -3334.7148      18309.73       5694.8503    
   1653000   312.22403     -3354.3532      20.179062     -3334.1742      18328.114      5694.8503    
   1654000   313.40404     -3355.7127      20.255326     -3335.4574      19466.149      5694.8503    
   1655000   305.01028     -3355.6704      19.712837     -3335.9576      18100.775      5694.8503    
   1656000   297.67481     -3354.1837      19.238745     -3334.945       18614.243      5694.8503    
   1657000   312.04157     -3354.1691      20.16727      -3334.0019      20342.165      5694.8503    
   1658000   313.08274     -3354.1741      20.23456      -3333.9396      19588.42       5694.8503    
   1659000   303.84205     -3355.5503      19.637334     -3335.913       17371.066      5694.8503    
   1660000   303.98535     -3354.2919      19.646595     -3334.6453      18886.514      5694.8503    
   1661000   301.23761     -3354.6533      19.469009     -3335.1843      18751.286      5694.8503    
   1662000   299.45252     -3355.1132      19.353638     -3335.7596      16625.403      5694.8503    
   1663000   290.48552     -3355.6661      18.7741       -3336.892       16531.404      5694.8503    
   1664000   312.49899     -3355.2865      20.196832     -3335.0897      17816.455      5694.8503    
   1665000   330.82769     -3355.3531      21.381417     -3333.9717      18888.226      5694.8503    
   1666000   311.43576     -3355.4533      20.128116     -3335.3252      18107.028      5694.8503    
   1667000   300.06874     -3356.183       19.393465     -3336.7896      18876.063      5694.8503    
   1668000   302.45917     -3355.791       19.547958     -3336.243       18885.911      5694.8503    
   1669000   310.52809     -3355.8567      20.069453     -3335.7872      17687.065      5694.8503    
   1670000   309.71987     -3354.1248      20.017217     -3334.1076      20426.24       5694.8503    
   1671000   319.36725     -3354.5538      20.640728     -3333.913       20781.498      5694.8503    
   1672000   293.64684     -3354.6052      18.978416     -3335.6268      20006.562      5694.8503    
   1673000   299.51856     -3355.6939      19.357906     -3336.336       17752.777      5694.8503    
   1674000   312.63648     -3353.8705      20.205718     -3333.6648      19662.671      5694.8503    
   1675000   304.53886     -3353.7687      19.682369     -3334.0863      18776.554      5694.8503    
   1676000   303.9869      -3355.4365      19.646696     -3335.7898      18205.087      5694.8503    
   1677000   289.97749     -3355.0755      18.741266     -3336.3343      19024.942      5694.8503    
   1678000   320.38105     -3353.638       20.70625      -3332.9318      17625.666      5694.8503    
   1679000   307.87228     -3355.7387      19.897808     -3335.8409      16067.633      5694.8503    
   1680000   289.93262     -3354.7711      18.738366     -3336.0328      18913.695      5694.8503    
   1681000   316.76145     -3355.0132      20.472315     -3334.5408      18630.511      5694.8503    
   1682000   317.24583     -3353.6981      20.503621     -3333.1945      19444.43       5694.8503    
   1683000   280.56088     -3354.882       18.13267      -3336.7494      14958.578      5694.8503    
   1684000   323.85815     -3356.8901      20.930976     -3335.9591      15584.849      5694.8503    
   1685000   312.90822     -3354.8054      20.223281     -3334.5821      18825.476      5694.8503    
   1686000   295.3521      -3355.2551      19.088628     -3336.1664      16646.614      5694.8503    
   1687000   292.17913     -3355.6009      18.883559     -3336.7173      16982.732      5694.8503    
   1688000   282.86325     -3353.8293      18.281473     -3335.5478      19027.531      5694.8503    
   1689000   312.49306     -3354.7688      20.196449     -3334.5724      19479.581      5694.8503    
   1690000   316.28798     -3355.7686      20.441715     -3335.3269      17869.711      5694.8503    
   1691000   309.26777     -3356.1654      19.987999     -3336.1774      16715.028      5694.8503    
   1692000   314.49871     -3356.1125      20.326074     -3335.7865      17497.933      5694.8503    
   1693000   309.46299     -3354.563       20.000615     -3334.5624      19075.582      5694.8503    
   1694000   315.02963     -3355.6527      20.360388     -3335.2923      17071.371      5694.8503    
   1695000   287.55438     -3355.5914      18.58466      -3337.0068      18032.429      5694.8503    
   1696000   283.24844     -3355.5432      18.306368     -3337.2369      15899.773      5694.8503    
   1697000   318.26935     -3355.504       20.569771     -3334.9342      19823.202      5694.8503    
   1698000   307.5414      -3354.5093      19.876423     -3334.6328      18359.752      5694.8503    
   1699000   300.05882     -3353.289       19.392823     -3333.8962      20638.381      5694.8503    
   1700000   318.90543     -3354.6936      20.610881     -3334.0827      17633.191      5694.8503    
   1701000   306.11766     -3355.3724      19.784407     -3335.588       17123.983      5694.8503    
   1702000   302.60252     -3356.031       19.557223     -3336.4738      17833.139      5694.8503    
   1703000   315.79052     -3353.8558      20.409564     -3333.4462      19435.757      5694.8503    
   1704000   307.67957     -3354.671       19.885353     -3334.7856      18100.31       5694.8503    
   1705000   303.12872     -3355.1338      19.591231     -3335.5425      16967.41       5694.8503    
   1706000   287.12265     -3354.4054      18.556758     -3335.8487      18927.157      5694.8503    
   1707000   314.4927      -3354.5447      20.325686     -3334.219       19202.623      5694.8503    
   1708000   323.45339     -3355.7266      20.904816     -3334.8218      17475.021      5694.8503    
   1709000   296.37588     -3355.8631      19.154795     -3336.7083      19210.413      5694.8503    
   1710000   286.16056     -3354.9057      18.494578     -3336.4112      20917.043      5694.8503    
   1711000   315.97977     -3353.2212      20.421796     -3332.7994      21057.451      5694.8503    
   1712000   322.65257     -3355.641       20.853059     -3334.7879      17786.752      5694.8503    
   1713000   306.31501     -3355.519       19.797161     -3335.7218      18807.909      5694.8503    
   1714000   291.71843     -3355.6914      18.853783     -3336.8376      19311.841      5694.8503    
   1715000   292.60335     -3354.9627      18.910976     -3336.0517      19587.222      5694.8503    
   1716000   312.23607     -3355.1375      20.17984      -3334.9577      19024.059      5694.8503    
   1717000   314.7333      -3354.7099      20.341236     -3334.3687      18722.528      5694.8503    
   1718000   289.57325     -3354.4426      18.71514      -3335.7275      18725.63       5694.8503    
   1719000   300.63655     -3355.418       19.430162     -3335.9878      19313.218      5694.8503    
   1720000   286.52107     -3353.2552      18.517877     -3334.7373      20430.545      5694.8503    
   1721000   284.44586     -3353.335       18.383757     -3334.9513      20153.438      5694.8503    
   1722000   304.05659     -3355.0323      19.651199     -3335.3811      17323.788      5694.8503    
   1723000   295.91261     -3356.1694      19.124854     -3337.0445      18180.466      5694.8503    
   1724000   293.64555     -3354.7682      18.978333     -3335.7898      18469.002      5694.8503    
   1725000   315.10489     -3354.826       20.365252     -3334.4608      18379.701      5694.8503    
   1726000   303.89706     -3354.8973      19.640889     -3335.2564      20296.137      5694.8503    
   1727000   315.97775     -3354.8452      20.421665     -3334.4235      18372.712      5694.8503    
   1728000   292.1436      -3354.5919      18.881262     -3335.7106      16395.674      5694.8503    
   1729000   275.94261     -3355.5765      17.834191     -3337.7423      17821.652      5694.8503    
   1730000   313.68451     -3355.0207      20.273452     -3334.7473      19787.268      5694.8503    
   1731000   309.57076     -3354.7491      20.007581     -3334.7416      20112.162      5694.8503    
   1732000   303.9996      -3353.8339      19.647516     -3334.1863      21433.16       5694.8503    
   1733000   305.11672     -3355.2948      19.719716     -3335.5751      19361.488      5694.8503    
   1734000   312.70456     -3356.0172      20.210118     -3335.8071      17839.385      5694.8503    
   1735000   310.18717     -3354.1641      20.047419     -3334.1167      17148.31       5694.8503    
   1736000   296.10537     -3354.1087      19.137311     -3334.9714      20118.234      5694.8503    
   1737000   296.73466     -3355.5817      19.177983     -3336.4037      15869.171      5694.8503    
   1738000   277.61417     -3355.1565      17.942224     -3337.2143      17223.583      5694.8503    
   1739000   298.66098     -3355.0988      19.30248      -3335.7964      17314.859      5694.8503    
   1740000   291.79364     -3353.9389      18.858644     -3335.0802      16391.509      5694.8503    
   1741000   290.18825     -3355.0919      18.754887     -3336.337       17892.324      5694.8503    
   1742000   318.20048     -3355.7153      20.56532      -3335.15        18454.804      5694.8503    
   1743000   310.4256      -3354.633       20.062829     -3334.5701      18606.585      5694.8503    
   1744000   318.50231     -3355.5067      20.584827     -3334.9219      18609.766      5694.8503    
   1745000   296.3906      -3355.4441      19.155746     -3336.2883      16796.516      5694.8503    
   1746000   291.1042      -3355.8633      18.814085     -3337.0492      16760.614      5694.8503    
   1747000   283.73513     -3354.2444      18.337822     -3335.9066      17885.269      5694.8503    
   1748000   316.84801     -3354.7959      20.47791      -3334.318       18795.836      5694.8503    
   1749000   308.15845     -3355.07        19.916303     -3335.1537      18857.261      5694.8503    
   1750000   297.59877     -3354.9655      19.23383      -3335.7317      17166.447      5694.8503    
   1751000   295.78665     -3356.2608      19.116713     -3337.1441      17411.548      5694.8503    
   1752000   298.45403     -3356.1337      19.289106     -3336.8446      17562.369      5694.8503    
   1753000   290.17599     -3354.1551      18.754095     -3335.4011      20356.933      5694.8503    
   1754000   293.28152     -3354.4804      18.954806     -3335.5256      18584.746      5694.8503    
   1755000   286.28905     -3355.281       18.502882     -3336.7781      16541.632      5694.8503    
   1756000   299.87091     -3354.8576      19.380678     -3335.4769      18906.939      5694.8503    
   1757000   309.47649     -3353.1677      20.001488     -3333.1662      19676.875      5694.8503    
   1758000   300.91675     -3354.8244      19.448271     -3335.3761      19249.677      5694.8503    
   1759000   294.81506     -3355.7097      19.053919     -3336.6557      18427.478      5694.8503    
   1760000   319.2062      -3354.081       20.63032      -3333.4507      19366.593      5694.8503    
   1761000   301.45089     -3353.9546      19.482793     -3334.4719      21122.753      5694.8503    
   1762000   312.27234     -3355.8225      20.182184     -3335.6403      17603.507      5694.8503    
   1763000   308.72231     -3354.5543      19.952745     -3334.6015      17190.67       5694.8503    
   1764000   287.0964      -3355.67        18.555061     -3337.115       16902.488      5694.8503    
   1765000   284.99863     -3355.7145      18.419482     -3337.295       18419.72       5694.8503    
   1766000   306.67294     -3355.0893      19.820294     -3335.269       18481.326      5694.8503    
   1767000   307.17958     -3354.8964      19.853038     -3335.0434      18813.861      5694.8503    
   1768000   300.03976     -3356.73        19.391591     -3337.3384      16473.652      5694.8503    
   1769000   263.74368     -3354.8587      17.045773     -3337.8129      16790.984      5694.8503    
   1770000   315.54835     -3355.0843      20.393913     -3334.6904      18495.68       5694.8503    
   1771000   291.34864     -3354.9701      18.829884     -3336.1402      17313.238      5694.8503    
   1772000   287.56521     -3354.8368      18.58536      -3336.2514      18841.471      5694.8503    
   1773000   298.14491     -3354.4941      19.269127     -3335.225       16595.74       5694.8503    
   1774000   303.91088     -3353.7975      19.641783     -3334.1557      18911.955      5694.8503    
   1775000   300.69449     -3354.8247      19.433906     -3335.3908      18520.979      5694.8503    
   1776000   296.38965     -3355.7462      19.155684     -3336.5906      18210.059      5694.8503    
   1777000   300.43734     -3356.3089      19.417287     -3336.8917      17512.542      5694.8503    
   1778000   308.02239     -3357.1253      19.907509     -3337.2178      16783.805      5694.8503    
   1779000   304.09852     -3354.5554      19.65391      -3334.9015      19146.083      5694.8503    
   1780000   271.03846     -3352.9039      17.517235     -3335.3866      19781.318      5694.8503    
   1781000   292.80595     -3355.9142      18.92407      -3336.9901      16658.103      5694.8503    
   1782000   291.05098     -3355.1634      18.810646     -3336.3528      16875.755      5694.8503    
   1783000   324.90041     -3355.0913      20.998337     -3334.093       19297.2        5694.8503    
   1784000   303.37433     -3354.1055      19.607105     -3334.4984      20412.526      5694.8503    
   1785000   307.85466     -3356.0725      19.896669     -3336.1759      15776.856      5694.8503    
   1786000   297.68354     -3355.1036      19.239309     -3335.8643      17087.6        5694.8503    
   1787000   318.97875     -3355.2305      20.61562      -3334.6149      18201.657      5694.8503    
   1788000   314.01889     -3354.0123      20.295064     -3333.7172      17697.26       5694.8503    
   1789000   296.91334     -3354.2105      19.189531     -3335.021       19102.056      5694.8503    
   1790000   307.60861     -3355.523       19.880767     -3335.6422      17919.799      5694.8503    
   1791000   304.73304     -3354.0304      19.694919     -3334.3354      18276.947      5694.8503    
   1792000   318.11018     -3355.5161      20.559484     -3334.9566      18639.172      5694.8503    
   1793000   299.33089     -3355.0268      19.345777     -3335.681       19209.55       5694.8503    
   1794000   292.9446      -3356.0909      18.933031     -3337.1578      16888.183      5694.8503    
   1795000   290.90823     -3355.6072      18.80142      -3336.8057      16341.988      5694.8503    
   1796000   309.38922     -3355.6301      19.995848     -3335.6343      17284.388      5694.8503    
   1797000   286.09459     -3355.1235      18.490314     -3336.6332      15969.815      5694.8503    
   1798000   340.77322     -3353.9683      22.024198     -3331.9441      18076.491      5694.8503    
   1799000   301.93967     -3355.2372      19.514383     -3335.7228      16689.228      5694.8503    
   1800000   303.20979     -3355.5006      19.59647      -3335.9042      16726.655      5694.8503    
   1801000   295.36452     -3354.5927      19.08943      -3335.5032      18138.255      5694.8503    
   1802000   311.3043      -3354.727       20.11962      -3334.6073      19027.611      5694.8503    
   1803000   311.52322     -3355.4357      20.133768     -3335.3019      17658.663      5694.8503    
   1804000   286.11202     -3355.4531      18.491441     -3336.9617      19452.529      5694.8503    
   1805000   278.1495      -3355.1892      17.976822     -3337.2124      14759.474      5694.8503    
   1806000   310.10734     -3354.8841      20.04226      -3334.8418      18280.454      5694.8503    
   1807000   294.23528     -3354.7209      19.016448     -3335.7044      15733.9        5694.8503    
   1808000   288.44284     -3355.8779      18.642082     -3337.2358      17446.204      5694.8503    
   1809000   292.25668     -3355.9378      18.88857      -3337.0492      18697.715      5694.8503    
   1810000   290.61978     -3354.1109      18.782777     -3335.3282      20267.712      5694.8503    
   1811000   277.22229     -3354.6885      17.916897     -3336.7716      17532.12       5694.8503    
   1812000   290.04907     -3355.2261      18.745892     -3336.4802      16554.073      5694.8503    
   1813000   301.50607     -3355.6096      19.486359     -3336.1232      17087.77       5694.8503    
   1814000   313.56244     -3355.086       20.265563     -3334.8204      17192.113      5694.8503    
   1815000   307.85715     -3353.5705      19.89683      -3333.6736      20233.906      5694.8503    
   1816000   312.28142     -3354.7445      20.182771     -3334.5618      17100.907      5694.8503    
   1817000   295.24153     -3355.5301      19.081482     -3336.4486      16073.392      5694.8503    
   1818000   302.76819     -3356.1758      19.56793      -3336.6078      16742.714      5694.8503    
   1819000   287.33171     -3355.5928      18.570269     -3337.0225      17383.894      5694.8503    
   1820000   324.246       -3356.0237      20.956042     -3335.0677      16746.489      5694.8503    
   1821000   309.83956     -3354.7242      20.024953     -3334.6992      18117.255      5694.8503    
   1822000   285.12226     -3353.3064      18.427472     -3334.879       18627.273      5694.8503    
   1823000   299.03252     -3355.0981      19.326493     -3335.7716      19101.795      5694.8503    
   1824000   296.64705     -3354.8719      19.172321     -3335.6996      17355.187      5694.8503    
   1825000   296.84736     -3355.0522      19.185267     -3335.867       17133.09       5694.8503    
   1826000   308.73708     -3354.3914      19.9537       -3334.4377      17050.575      5694.8503    
   1827000   298.26238     -3354.3171      19.276719     -3335.0404      19614.887      5694.8503    
   1828000   282.36466     -3354.5734      18.249248     -3336.3242      18142.487      5694.8503    
   1829000   291.00458     -3356.37        18.807647     -3337.5623      17328.941      5694.8503    
   1830000   299.84106     -3355.3088      19.378749     -3335.93        17971.654      5694.8503    
   1831000   307.78989     -3355.3995      19.892483     -3335.5071      16690.039      5694.8503    
   1832000   296.23596     -3353.9575      19.145752     -3334.8118      18676.269      5694.8503    
   1833000   304.98194     -3355.3762      19.711005     -3335.6651      18895.581      5694.8503    
   1834000   295.27031     -3355.6885      19.083341     -3336.6051      15415.896      5694.8503    
   1835000   306.91727     -3355.6464      19.836085     -3335.8103      16749.41       5694.8503    
   1836000   330.5149      -3355.357       21.361202     -3333.9958      19413.929      5694.8503    
   1837000   307.57975     -3353.535       19.878902     -3333.6561      17958.695      5694.8503    
   1838000   282.06161     -3354.8759      18.229662     -3336.6462      17921.938      5694.8503    
   1839000   302.25371     -3355.5595      19.534679     -3336.0248      16766.271      5694.8503    
   1840000   295.01428     -3354.2874      19.066794     -3335.2206      17038.315      5694.8503    
   1841000   306.69037     -3355.7122      19.821421     -3335.8908      18710.99       5694.8503    
   1842000   291.47142     -3355.5272      18.837819     -3336.6894      17413.682      5694.8503    
   1843000   280.64491     -3355.4107      18.138101     -3337.2726      18080.614      5694.8503    
   1844000   301.13871     -3355.0327      19.462617     -3335.57        19614.92       5694.8503    
   1845000   294.84237     -3354.2973      19.055684     -3335.2416      17194.991      5694.8503    
   1846000   293.05022     -3354.6922      18.939857     -3335.7524      18438.486      5694.8503    
   1847000   290.02877     -3354.6649      18.744581     -3335.9203      19490.137      5694.8503    
   1848000   294.76263     -3356.1151      19.05053      -3337.0646      18508.717      5694.8503    
   1849000   299.4983      -3355.2173      19.356597     -3335.8607      17999.894      5694.8503    
   1850000   308.00153     -3354.8451      19.906161     -3334.939       18747.541      5694.8503    
   1851000   304.69058     -3354.1495      19.692174     -3334.4573      21816.295      5694.8503    
   1852000   311.9665      -3354.1407      20.162417     -3333.9782      20091.135      5694.8503    
   1853000   295.72811     -3354.4237      19.112929     -3335.3108      18988.261      5694.8503    
   1854000   289.12188     -3355.5204      18.685968     -3336.8344      16726.666      5694.8503    
   1855000   294.09195     -3354.9149      19.007184     -3335.9078      18604.09       5694.8503    
   1856000   280.41613     -3353.7317      18.123315     -3335.6084      20159.18       5694.8503    
   1857000   292.60843     -3355.3398      18.911304     -3336.4285      18488.144      5694.8503    
   1858000   309.44867     -3355.3949      19.99969      -3335.3953      16890.368      5694.8503    
   1859000   306.91191     -3354.2346      19.835739     -3334.3989      18915.378      5694.8503    
   1860000   308.32494     -3353.511       19.927063     -3333.5839      21866.663      5694.8503    
   1861000   297.83805     -3355.7671      19.249295     -3336.5178      19998.147      5694.8503    
   1862000   295.20254     -3354.4292      19.078962     -3335.3502      19671.162      5694.8503    
   1863000   303.64407     -3353.4385      19.624538     -3333.814       20671.472      5694.8503    
   1864000   303.56885     -3354.7962      19.619677     -3335.1765      17493.274      5694.8503    
   1865000   289.2465      -3354.6791      18.694022     -3335.9851      19973.473      5694.8503    
   1866000   298.02514     -3354.3292      19.261386     -3335.0678      18171.909      5694.8503    
   1867000   325.50092     -3355.0217      21.037148     -3333.9846      17297.853      5694.8503    
   1868000   295.40312     -3355.1859      19.091925     -3336.094       17946.218      5694.8503    
   1869000   286.29993     -3355.3404      18.503585     -3336.8369      18994.581      5694.8503    
   1870000   286.82794     -3354.0319      18.53771      -3335.4942      20594.826      5694.8503    
   1871000   324.19365     -3354.7991      20.952659     -3333.8464      20207.701      5694.8503    
   1872000   314.11553     -3354.5097      20.301309     -3334.2084      18507.422      5694.8503    
   1873000   287.29883     -3354.7736      18.568144     -3336.2055      20863.844      5694.8503    
   1874000   305.23588     -3355.382       19.727417     -3335.6546      18876.232      5694.8503    
   1875000   303.26791     -3354.1782      19.600227     -3334.578       18237.834      5694.8503    
   1876000   295.3113      -3354.9239      19.085991     -3335.8379      19960.727      5694.8503    
   1877000   290.19537     -3355.2907      18.755348     -3336.5354      17631.63       5694.8503    
   1878000   292.10699     -3356.0868      18.878896     -3337.2079      17860.797      5694.8503    
   1879000   307.93494     -3354.7188      19.901858     -3334.817       18596.535      5694.8503    
   1880000   296.64379     -3353.8491      19.17211      -3334.6769      20289.498      5694.8503    
   1881000   271.84283     -3355.8723      17.569222     -3338.3031      19143.32       5694.8503    
   1882000   306.5364      -3355.0321      19.811469     -3335.2207      17923.761      5694.8503    
   1883000   300.73343     -3354.1547      19.436423     -3334.7183      19462.009      5694.8503    
   1884000   287.46843     -3354.6758      18.579106     -3336.0967      19984.041      5694.8503    
   1885000   298.56406     -3355.9772      19.296217     -3336.681       17047.115      5694.8503    
   1886000   290.11533     -3353.9665      18.750175     -3335.2163      19124.544      5694.8503    
   1887000   309.76271     -3356.0885      20.019987     -3336.0685      18646.719      5694.8503    
   1888000   283.63269     -3355.772       18.331202     -3337.4408      17815.9        5694.8503    
   1889000   308.84894     -3355.1437      19.960929     -3335.1828      18308.282      5694.8503    
   1890000   288.79095     -3354.6276      18.66458      -3335.963       19375.932      5694.8503    
   1891000   285.23544     -3355.2375      18.434787     -3336.8027      18648.429      5694.8503    
   1892000   293.1224      -3355.5122      18.944522     -3336.5676      18880.633      5694.8503    
   1893000   286.78513     -3354.8397      18.534944     -3336.3047      19536.624      5694.8503    
   1894000   295.45095     -3354.9406      19.095016     -3335.8456      19711.115      5694.8503    
   1895000   295.98392     -3354.2256      19.129462     -3335.0961      19571.967      5694.8503    
   1896000   299.36242     -3354.6876      19.347815     -3335.3398      20299.615      5694.8503    
   1897000   302.69425     -3356.0365      19.563152     -3336.4734      15417.855      5694.8503    
   1898000   299.44825     -3356.2915      19.353362     -3336.9382      15625.879      5694.8503    
   1899000   300.91734     -3354.9957      19.448309     -3335.5474      16396.663      5694.8503    
   1900000   299.7915      -3354.8966      19.375547     -3335.5211      18411.491      5694.8503    
   1901000   284.9303      -3355.1758      18.415066     -3336.7607      16986.358      5694.8503    
   1902000   291.36116     -3354.9083      18.830693     -3336.0776      18674.812      5694.8503    
   1903000   284.7616      -3354.4063      18.404163     -3336.0022      19806.893      5694.8503    
   1904000   296.44584     -3354.7668      19.159316     -3335.6075      17152.206      5694.8503    
   1905000   317.06933     -3353.6989      20.492214     -3333.2067      20699.567      5694.8503    
   1906000   302.86253     -3354.504       19.574027     -3334.93        17369.708      5694.8503    
   1907000   301.07594     -3355.202       19.45856      -3335.7434      19616.532      5694.8503    
   1908000   296.04663     -3355.4923      19.133515     -3336.3588      16552.413      5694.8503    
   1909000   299.84402     -3354.3787      19.378941     -3334.9998      17599.264      5694.8503    
   1910000   281.49926     -3353.2267      18.193317     -3335.0334      17496.714      5694.8503    
   1911000   300.02684     -3354.0665      19.390756     -3334.6757      19813.949      5694.8503    
   1912000   315.623       -3355.4183      20.398738     -3335.0196      17910.117      5694.8503    
   1913000   296.11651     -3355.9654      19.138032     -3336.8273      17381.956      5694.8503    
   1914000   299.22961     -3355.9945      19.339231     -3336.6552      19049.094      5694.8503    
   1915000   297.33357     -3354.7815      19.21669      -3335.5648      19367.968      5694.8503    
   1916000   312.2029      -3354.6526      20.177696     -3334.4749      17862.006      5694.8503    
   1917000   305.16125     -3355.1847      19.722593     -3335.4621      16787.117      5694.8503    
   1918000   282.78942     -3355.25        18.2767       -3336.9733      18164.488      5694.8503    
   1919000   301.06012     -3355.3713      19.457537     -3335.9137      17541.789      5694.8503    
   1920000   325.40992     -3353.8053      21.031267     -3332.774       21220.034      5694.8503    
   1921000   302.05495     -3355.1935      19.521833     -3335.6717      20240.428      5694.8503    
   1922000   300.8665      -3355.7558      19.445024     -3336.3108      17167.827      5694.8503    
   1923000   315.62268     -3354.2172      20.398717     -3333.8185      20195.755      5694.8503    
   1924000   307.71357     -3353.9845      19.88755      -3334.0969      20144.744      5694.8503    
   1925000   296.2574      -3354.6268      19.147137     -3335.4797      20559.62       5694.8503    
   1926000   299.27722     -3356.4287      19.342309     -3337.0864      17931.929      5694.8503    
   1927000   295.51975     -3355.7419      19.099463     -3336.6424      17604.657      5694.8503    
   1928000   294.86432     -3355.5437      19.057103     -3336.4866      18503.029      5694.8503    
   1929000   300.94781     -3354.9304      19.450279     -3335.4801      18889.515      5694.8503    
   1930000   298.27559     -3354.1674      19.277573     -3334.8899      17998.997      5694.8503    
   1931000   304.88137     -3354.8252      19.704505     -3335.1207      16808.91       5694.8503    
   1932000   293.65188     -3355.4122      18.978742     -3336.4334      15527.498      5694.8503    
   1933000   315.34987     -3356.6041      20.381085     -3336.2231      18329.536      5694.8503    
   1934000   293.51128     -3354.6085      18.969655     -3335.6388      20234.613      5694.8503    
   1935000   308.69        -3354.8836      19.950657     -3334.9329      17134.367      5694.8503    
   1936000   281.56779     -3353.7328      18.197747     -3335.535       17828.945      5694.8503    
   1937000   294.96495     -3355.8018      19.063606     -3336.7382      17700.62       5694.8503    
   1938000   308.68339     -3356.3986      19.95023      -3336.4484      17457.119      5694.8503    
   1939000   298.73402     -3355.5751      19.307201     -3336.2679      18014.169      5694.8503    
   1940000   309.38737     -3354.4936      19.995728     -3334.4978      16292.584      5694.8503    
   1941000   319.93655     -3354.2513      20.677522     -3333.5738      19017.807      5694.8503    
   1942000   313.56138     -3354.9596      20.265495     -3334.6941      20416.551      5694.8503    
   1943000   285.63883     -3354.7292      18.460858     -3336.2684      17877.714      5694.8503    
   1944000   304.5876      -3355.0739      19.685519     -3335.3884      18435.436      5694.8503    
   1945000   312.32672     -3354.067       20.185698     -3333.8813      19858.833      5694.8503    
   1946000   304.87433     -3354.2289      19.70405      -3334.5249      18144.924      5694.8503    
   1947000   305.49608     -3356.0858      19.744234     -3336.3415      18294.324      5694.8503    
   1948000   290.10883     -3355.4175      18.749755     -3336.6678      17592.345      5694.8503    
   1949000   284.30565     -3354.8486      18.374695     -3336.4739      18326.522      5694.8503    
   1950000   311.24576     -3355.2324      20.115836     -3335.1165      17222.895      5694.8503    
   1951000   317.41494     -3355.5625      20.514551     -3335.048       18937.876      5694.8503    
   1952000   309.45584     -3354.4418      20.000153     -3334.4417      19043.935      5694.8503    
   1953000   310.85327     -3355.9513      20.090469     -3335.8608      19578.983      5694.8503    
   1954000   301.80617     -3354.6607      19.505755     -3335.155       18712.411      5694.8503    
   1955000   306.18494     -3354.1066      19.788755     -3334.3179      19771.814      5694.8503    
   1956000   316.78838     -3354.0079      20.474056     -3333.5338      19735.138      5694.8503    
   1957000   292.11874     -3354.8865      18.879656     -3336.0068      15576.692      5694.8503    
   1958000   279.34643     -3354.2709      18.05418      -3336.2167      17108.069      5694.8503    
   1959000   298.80432     -3356.0399      19.311745     -3336.7282      17184.425      5694.8503    
   1960000   311.77797     -3355.4536      20.150233     -3335.3034      18017.551      5694.8503    
   1961000   305.54473     -3354.8144      19.747378     -3335.067       16740.171      5694.8503    
   1962000   285.51328     -3355.1833      18.452744     -3336.7305      16678.363      5694.8503    
   1963000   297.42579     -3356.0948      19.22265      -3336.8722      18825.103      5694.8503    
   1964000   298.44291     -3353.9841      19.288387     -3334.6957      19821.048      5694.8503    
   1965000   306.03903     -3354.8202      19.779325     -3335.0409      18634.582      5694.8503    
   1966000   289.78585     -3356.0603      18.728881     -3337.3314      19089.448      5694.8503    
   1967000   283.05219     -3355.2785      18.293683     -3336.9849      17253.236      5694.8503    
   1968000   291.11269     -3355.3782      18.814635     -3336.5636      17797.498      5694.8503    
   1969000   294.48418     -3354.7103      19.032534     -3335.6778      20236.897      5694.8503    
   1970000   286.51547     -3355.1013      18.517515     -3336.5838      17289.356      5694.8503    
   1971000   296.74783     -3354.7311      19.178833     -3335.5522      17385.382      5694.8503    
   1972000   334.91093     -3355.0922      21.645317     -3333.4469      21345.911      5694.8503    
   1973000   293.38179     -3354.0701      18.961286     -3335.1088      19930.149      5694.8503    
   1974000   307.18312     -3355.4639      19.853267     -3335.6107      18689.541      5694.8503    
   1975000   305.42223     -3355.4424      19.739461     -3335.7029      18337.28       5694.8503    
   1976000   316.01467     -3353.9443      20.424051     -3333.5203      18705.877      5694.8503    
   1977000   315.38921     -3354.4441      20.383628     -3334.0605      19645.327      5694.8503    
   1978000   309.52319     -3354.7682      20.004506     -3334.7636      20775.943      5694.8503    
   1979000   295.11717     -3354.8411      19.073444     -3335.7677      18583.282      5694.8503    
   1980000   287.90618     -3355.8512      18.607397     -3337.2438      17116.248      5694.8503    
   1981000   286.23828     -3355.85        18.499601     -3337.3504      15834.464      5694.8503    
   1982000   303.98866     -3354.9293      19.646809     -3335.2825      18613.809      5694.8503    
   1983000   287.63066     -3355.2952      18.58959      -3336.7056      15953.655      5694.8503    
   1984000   291.01147     -3355.5657      18.808092     -3336.7576      16985.569      5694.8503    
   1985000   323.07927     -3354.287       20.880637     -3333.4064      18096.08       5694.8503    
   1986000   307.27401     -3355.4402      19.859141     -3335.5811      16968.277      5694.8503    
   1987000   303.26031     -3355.4684      19.599736     -3335.8687      17278.395      5694.8503    
   1988000   294.95698     -3355.6513      19.063091     -3336.5882      17182.665      5694.8503    
   1989000   279.09746     -3355.0239      18.038089     -3336.9858      14275.353      5694.8503    
   1990000   301.58325     -3354.58        19.491348     -3335.0887      18510.424      5694.8503    
   1991000   297.92089     -3354.433       19.254649     -3335.1783      17636.309      5694.8503    
   1992000   303.23409     -3355.3056      19.598041     -3335.7075      16953.328      5694.8503    
   1993000   297.23159     -3355.8808      19.210099     -3336.6707      18611.977      5694.8503    
   1994000   299.67075     -3355.8282      19.367742     -3336.4604      16288.171      5694.8503    
   1995000   304.06892     -3354.7579      19.651996     -3335.1059      18900.585      5694.8503    
   1996000   315.15162     -3354.3709      20.368272     -3334.0026      19820.353      5694.8503    
   1997000   290.16882     -3355.2241      18.753632     -3336.4705      18394.059      5694.8503    
   1998000   286.26106     -3355.8194      18.501073     -3337.3183      17565.326      5694.8503    
   1999000   319.58117     -3355.6321      20.654554     -3334.9776      18878.152      5694.8503    
   2000000   322.43817     -3355.3046      20.839202     -3334.4654      21397.248      5694.8503    
Loop time of 46386.7 on 1 procs for 1500000 steps with 501 atoms

Performance: 1.397 ns/day, 17.180 hours/ns, 32.337 timesteps/s, 16.201 katom-step/s
99.1% CPU use with 1 MPI tasks x 1 OpenMP threads

MPI task timing breakdown:
Section |  min time  |  avg time  |  max time  |%varavg| %total
---------------------------------------------------------------
Pair    | 45016      | 45016      | 45016      |   0.0 | 97.04
Neigh   | 0.11009    | 0.11009    | 0.11009    |   0.0 |  0.00
Comm    | 57.498     | 57.498     | 57.498     |   0.0 |  0.12
Output  | 3.4587     | 3.4587     | 3.4587     |   0.0 |  0.01
Modify  | 1252.8     | 1252.8     | 1252.8     |   0.0 |  2.70
Other   |            | 57.1       |            |       |  0.12

Nlocal:            501 ave         501 max         501 min
Histogram: 1 0 0 0 0 0 0 0 0 0
Nghost:           2056 ave        2056 max        2056 min
Histogram: 1 0 0 0 0 0 0 0 0 0
Neighs:              0 ave           0 max           0 min
Histogram: 1 0 0 0 0 0 0 0 0 0
FullNghs:        66506 ave       66506 max       66506 min
Histogram: 1 0 0 0 0 0 0 0 0 0

Total # of neighbors = 66506
Ave neighs/atom = 132.74651
Neighbor list builds = 201
Dangerous builds = 0

# ── Save final state ─────────────────────────────────────────
variable  pe_final  equal  pe
variable  temp_fin  equal  temp
variable  press_fin equal  press

print "EQUIL_RESULTS_START"
EQUIL_RESULTS_START
print "  T_K          : 300"
  T_K          : 300
print "  pe_final_eV  : ${pe_final}"
  pe_final_eV  : -3355.30458026745
print "  temp_final_K : ${temp_fin}"
  temp_final_K : 322.438169255511
print "  press_final  : ${press_fin}"
  press_final  : 21397.2479093809
print "EQUIL_RESULTS_END"
EQUIL_RESULTS_END
# ── Final Saves ──────────────────────────────────────────────
# Save a single binary file at the absolute end of the job
write_restart  results/notebook10-bulk-equilibration/N_1234/Hastelloy_N_1234_300K_final.restart
System init for write_restart ...
write_data     structures/notebook10-bulk-equilibration/N_1234/Hastelloy_N_1234_H_300K.lammps
System init for write_data ...
Total wall time: 17:06:26
