LAMMPS data file via write_data, version 11 Feb 2026, timestep = 135, units = metal

362 atoms
8 atom types

0 12.447907776 xlo xhi
0 12.9362452296 ylo yhi
0 52.3600831054 zlo zhi

Masses

1 26.9815
2 10.811
3 12.011
4 51.9961
5 55.845
6 95.95999999999999
7 58.6934
8 1.008

Atoms # atomic/kk

1 7 1.1452375093 1.4081816753 14.1715776782 0 0 0
2 7 3.6089097657 1.073862554 14.6652943824 0 0 0
3 5 6.0769479465 0.9507443644 14.9077299879 0 0 0
9 7 7.3908140875 3.1592534805 14.9161871246 0 0 0
5 7 11.0501948888 1.2569423315 14.5972711515 0 0 0
6 7 12.372304413799998 3.459934108 14.8175807564 -1 0 0
10 7 9.9135025222 3.394383111 14.7760659883 0 0 0
16 4 0.4698534946 7.8164615842 14.7946335627 0 0 0
20 7 10.4458795465 7.6737377857 14.1797824813 0 0 0
26 7 0.1286170593 12.2084278019 14.9054832291 0 0 0
27 7 2.4828469888 11.8121990101 14.4589561174 0 0 0
23 7 6.9220445131 9.0095696103 14.7742898804 0 0 0
28 7 4.9601335305 11.7909383487 14.6023392105 0 0 0
29 6 7.487887891 11.4964938545 14.9163051734 0 0 0
24 7 9.2116966834 9.7423003437 14.5372715576 0 0 0
25 7 11.7633225316 9.8785141476 14.7859852738 0 0 0
30 7 10.0622011806 11.9491374349 14.7568174032 0 0 0
7 7 2.4280890684 3.2785091221 14.9871351501 0 0 0
31 6 0.1325491046 1.570695125 16.5404617164 0 0 0
32 7 2.6052564624 1.6890788438 16.9106052047 0 0 0
36 7 1.21999407 3.8600092313 17.02489575 0 0 0
37 7 3.7107836214 3.8411094703 17.0522747284 0 0 0
56 2 1.9144254162 0.32466715759999865 15.6043022962 0 1 0
8 7 4.9291306734 3.1310940181 15.005986706 0 0 0
33 7 4.985916084 1.6687916385 16.9502161687 0 0 0
34 7 7.410514285 1.7729985434 16.9750499128 0 0 0
38 5 6.179073683 3.8638848352 16.9842048048 0 0 0
4 6 8.6410130071 1.0006166771 14.9958720054 0 0 0
35 7 9.9859062871 1.6663784502 16.9388971287 0 0 0
39 7 8.7311129104 3.8667082354 16.8571756202 0 0 0
40 7 11.1910013477 3.8107948278 16.995449938 0 0 0
11 7 1.2353448193 5.4989273917 15.0756837965 0 0 0
12 7 3.7237717027 5.3201395941 15.0866077199 0 0 0
17 7 2.6532803164 7.4990359896 15.1489580276 0 0 0
42 7 2.4543060815 6.1314225979 17.136623832 0 0 0
47 7 3.8869723618 8.2018285121 17.0587106739 0 0 0
13 7 6.1791284758 5.3095038527 15.029482199 0 0 0
18 7 5.0801483875 7.482901801 15.0638998818 0 0 0
19 2 7.0601749036 7.022954324 15.3846762742 0 0 0
43 7 4.9530701425 5.9668463901 17.0899442249 0 0 0
44 7 7.4774504043 5.944479979 17.0830300733 0 0 0
48 7 6.3471713745 8.058965168 17.0448946349 0 0 0
14 7 8.704614859 5.6626390614 14.9606938541 0 0 0
15 6 11.1810722058 5.6084405068 15.1798058941 0 0 0
41 7 12.4426452722 6.0021932094 17.2216015828 -1 0 0
45 7 9.9238885249 6.0425526821 17.2479924157 0 0 0
49 7 8.7170243464 7.9259422846 16.06475499 0 0 0
50 7 11.1858946411 7.9949513975 16.4488247897 0 0 0
85 6 9.7880581286 8.4774207921 18.5358726152 0 0 0
21 2 1.1659369815 10.4822894765 15.2079366178 0 0 0
22 7 2.9704183181 9.8688386095 15.6399519778 0 0 0
46 7 0.7952459702 9.3711287804 16.8698937275 0 0 0
52 7 1.3509084922 11.8685204636 16.9840390666 0 0 0
57 7 3.7543714309 12.4407145198 16.6047432946 0 0 0
87 1 3.6654287714 10.7194436479 18.2604058042 0 0 0
53 7 5.3363614175 10.1259200336 16.3223055733 0 0 0
54 7 7.7340497918 10.0578054993 16.941879451 0 0 0
58 6 6.3199854909 12.3706584932 16.9499980705 0 0 0
51 3 11.5202415059 9.3742715867 17.6572668311 -1 0 0
55 7 10.1857379845 10.2799452375 16.6765887255 0 0 0
59 7 8.8371548363 12.3850420716 16.9570005231 0 0 0
60 7 11.2433550924 12.4710585971 16.877796329 0 0 0
61 6 0.0482973112 0.0027501334 18.9896734432 0 0 0
66 6 1.3935967846 2.1698300538 19.0484074406 0 0 0
67 5 3.8315856212 2.1735777347 19.0726074352 0 0 0
91 4 1.3616318555 0.7528925751 21.2949775445 0 0 0
92 7 3.7538310088 0.7281117184 21.0504989856 0 0 0
96 7 0.0827163361 2.8009774109 21.1822389507 0 0 0
97 7 2.5933167317 2.8536582139 21.194350001 0 0 0
63 5 4.9572612583 0.0568419493 18.9569252837 0 0 0
64 7 7.4421412182 0.0861635244 19.0962431577 0 0 0
68 7 6.1954044794 2.1627780189 19.0751443905 0 0 0
74 6 7.5022232938 4.2893403368 19.0495670978 0 0 0
93 7 6.2603937867 0.7233692064 21.1687453393 0 0 0
98 7 5.0262365115 2.8775675108 21.1487501455 0 0 0
99 5 7.4798071844 2.8191099682 21.164009826 0 0 0
65 7 10.0023243962 0.0842880376 19.0908297615 0 0 0
69 7 8.7390158279 2.157992283 18.9901217764 0 0 0
70 7 11.2876401397 2.2421944126 18.9488333934 0 0 0
75 5 9.9091926161 4.3094453373 19.0282227094 0 0 0
94 7 8.7145872236 0.7176297871 21.2307780456 0 0 0
95 7 11.3050942433 0.6745411183 21.1941420435 0 0 0
100 6 10.031480763 2.7886541921 21.0495492708 0 0 0
72 7 2.484360732 4.392863338 19.1021670632 0 0 0
76 7 1.2006426683 6.4386016406 19.2549809846 0 0 0
77 7 3.7844350118 6.5111968479 19.1603604235 0 0 0
82 6 2.3593854846 8.4929988543 18.9108099375 0 0 0
101 7 1.2049351736 4.9903075884 21.2544120022 0 0 0
102 6 3.7303490397 5.0463382659 21.2250209463 0 0 0
107 7 2.4690580776 7.1766713019 21.2278001133 0 0 0
73 7 4.9764262384 4.3203206392 19.0822680903 0 0 0
78 7 6.1969544005 6.5231180932 19.1349576464 0 0 0
103 7 6.2756351686 5.0511026941 21.1709997602 0 0 0
108 7 5.0121925303 7.2325149738 21.2221675289 0 0 0
109 7 7.4197899365 7.2526887586 21.2599218068 0 0 0
71 1 12.3841350154 4.3821219311 19.1811610153 -1 0 0
79 7 8.6259724191 6.4760760647 19.3178932256 0 0 0
80 7 11.1140979622 6.4244904326 19.3528194481 0 0 0
81 4 12.3432055863 8.4769215989 19.1955303243 -1 0 0
104 7 8.7412587571 5.0273264556 21.2383339032 0 0 0
105 3 10.084656205617373 4.376014633593459 22.28334938046993 0 0 0
106 7 12.4357580801 7.1008556461 21.3106524283 -1 0 0
110 7 9.8908171927 7.1703173104 21.296472763 0 0 0
62 7 2.588037161 12.8581215116 19.0333870515 0 -1 0
86 7 1.2821763811 10.6942611792 19.1564597909 0 0 0
111 7 1.1801629329 9.2935920609 21.1911113273 0 0 0
112 6 3.7021471728 9.3596146842 21.1386065793 0 0 0
116 1 0.0374937072 11.4907730202 21.2925744389 0 0 0
117 7 2.470962999 11.5322285104 21.1404056807 0 0 0
83 7 4.9466402569 8.7369774273 19.0786672968 0 0 0
84 7 7.3979366125 8.6438164702 19.080690776 0 0 0
88 7 6.1629219647 10.805267131 18.9250665518 0 0 0
113 7 6.214404089 9.4132042076 21.0303751018 0 0 0
118 7 4.9644999437 11.5446085264 21.037819712 0 0 0
119 4 7.4000293779 11.5402408879 21.0695873677 0 0 0
89 6 8.7318279094 10.8541397876 19.0332344379 0 0 0
90 4 11.2727407102 10.8250136581 18.9334376976 0 0 0
114 7 8.70012327 9.3202947109 20.9878232752 0 0 0
115 6 11.1095089146 9.2561616428 21.1703622598 0 0 0
120 7 9.9863421964 11.5206311862 21.1768822162 0 0 0
121 7 0.0778415281011395 1.3775131785962862 23.308454363787924 0 0 0
122 7 2.5692290365043564 1.389097273566487 23.32819677926064 0 0 0
126 6 1.348881376770856 3.5721163533686404 23.26455439596681 0 0 0
127 7 3.844404014757466 3.575692450102498 23.360783852973167 0 0 0
156 1 1.4731563341434697 2.1152898962103373 25.51347475760179 0 0 0
157 7 3.9595599326706643 2.121483716435448 25.44263410005731 0 0 0
162 7 2.5922337453481936 4.247547687017938 25.427525408833223 0 0 0
123 7 4.986188794154531 1.414161842803042 23.16132186442156 0 0 0
124 7 7.387655175186442 1.4858581683793375 23.484147308364406 0 0 0
128 7 6.297215354204845 3.6496963324949583 23.182200307974885 0 0 0
153 7 5.1900876302217664 0.055506249988971704 25.291874578555774 0 0 0
158 2 5.768875769799019 2.443334222456706 24.627316049065453 0 0 0
163 7 5.111282094316433 4.22890148290921 25.420764789668112 0 0 0
164 5 7.470515752978057 4.0471562384392215 25.35926555094131 0 0 0
125 7 10.036909638688547 1.412207098362914 23.353120411072723 0 0 0
129 7 8.744930719334924 3.530911945327511 23.34625738391192 0 0 0
130 4 11.360502670700974 3.600979244006094 23.401173700373032 0 0 0
155 4 10.112642636115469 0.04615552457578733 25.55574854304273 0 0 0
159 7 8.862418850041559 2.0830241759522563 25.4459830324042 0 0 0
160 7 11.394133815616494 2.1385456757597106 25.419535052079947 0 0 0
165 7 10.058654747898437 4.200942214838081 25.41153689672092 0 0 0
131 7 0.06435830915684401 5.754698122349082 23.40274828958801 0 0 0
132 7 2.5358918505464274 5.782546635856132 23.359504923174843 0 0 0
136 7 1.2962122089610653 7.896015680131058 23.30352394136503 0 0 0
137 7 3.7697643168096384 7.963708307491923 23.277347488124725 0 0 0
161 4 0.10233287869291356 4.323281780062534 25.468313073035027 0 0 0
166 7 1.3307679494600249 6.396845122435305 25.429941194837724 0 0 0
167 7 3.800760858229999 6.420542874770648 25.442663079873636 0 0 0
171 6 0.10211686275367257 8.595387725906384 25.4285397113636 0 0 0
172 7 2.6151570571301885 8.59029370394138 25.375120660414964 0 0 0
133 6 5.058106184697195 5.841994791452973 23.386755900383235 0 0 0
134 7 7.552250735359785 5.761139832488255 23.313875997334414 0 0 0
138 7 6.303292731227846 7.979371048152484 23.340664328558123 0 0 0
168 7 6.357752575712221 6.377372111281339 25.433162044052143 0 0 0
173 7 5.096865171677114 8.535445403176258 25.332036122811225 0 0 0
135 7 10.057207661795267 5.807689437707083 23.386905110976336 0 0 0
139 4 8.686740910189325 7.924026419311547 23.242667575660896 0 0 0
140 4 11.274915216446457 7.8719945716997115 23.316372581036173 0 0 0
169 7 8.768327469003964 6.312795641538328 25.383107376998552 0 0 0
170 7 11.282101106145854 6.389470214420964 25.44787275771705 0 0 0
175 6 9.878121276196325 8.54839527732499 25.522128906315377 0 0 0
141 7 0.012399809554344356 10.04928133325973 23.3424716491102 0 0 0
142 7 2.4884354993873288 10.08772412434488 23.253713651928077 0 0 0
146 7 1.2946177702158403 12.216821178254035 23.349273003779707 0 0 0
147 7 3.798804387031246 12.225825173699523 23.1793381761392 0 0 0
151 4 0.084546647448615 12.85629742210468 25.41397106978515 0 -1 0
152 7 2.6469471920229313 12.925406429189142 25.372371936711364 0 -1 0
176 7 1.3344591119533489 10.780251440625436 25.43025119279023 0 0 0
177 6 3.871598924207254 10.797561522718604 25.27304577325317 0 0 0
143 7 5.04719938336389 10.08708808887023 23.180549402050673 0 0 0
144 7 7.497617505993275 10.071558657904731 22.91889939441287 0 0 0
148 4 6.20480114410969 12.252354027442076 23.18469238356692 0 0 0
154 7 7.592928723149702 12.924566152868076 25.47245672988269 0 -1 0
178 6 6.609304173753691 10.523296267746398 25.219799470559696 0 0 0
145 7 9.987669475399706 10.055882124321425 23.31431826808017 0 0 0
149 6 8.70020044140497 12.254840540768804 23.328055029361938 0 0 0
150 7 11.239099482733339 12.199640953370716 23.404246991531675 0 0 0
174 3 8.405297234732943 9.48940990318892 24.422549694881912 0 0 0
179 5 8.99057885387534 10.904328197084366 25.57987731324507 0 0 0
180 5 11.328298074640191 10.848053778972636 25.5050444764112 0 0 0
181 7 1.3835521320253488 0.6468323118737053 27.495203938773088 0 0 0
182 7 3.8702513945654937 0.6841024961592671 27.435551835625294 0 0 0
186 7 0.16541902177047535 2.8401075591648377 27.494002067840835 0 0 0
187 7 2.6542117941148162 2.834399732484025 27.567633147326628 0 0 0
211 7 0.2040367854289879 1.4275455131664585 29.589784225488792 0 0 0
212 7 2.705245148182298 1.341972816609252 29.58119464068391 0 0 0
216 7 1.4057165836164989 3.5368389029641962 29.59156057528067 0 0 0
217 4 3.819016855784889 3.554463853341455 29.600179032114816 0 0 0
183 7 6.303848421431531 0.6969721556389511 27.570986896897708 0 0 0
188 7 5.077238981991724 2.8551829306919485 27.577130387338553 0 0 0
189 7 7.5893139532040035 2.7756012785960857 27.46476924604008 0 0 0
213 5 5.129758214118961 1.4077806059080944 29.601458140874282 0 0 0
214 7 7.607462216459729 1.3377713231608994 29.593853507292145 0 0 0
218 7 6.357480991822839 3.5188514464306246 29.546256603109327 0 0 0
184 7 8.879873506043152 0.7010527737630888 27.56808580319669 0 0 0
185 4 11.377786270758973 0.704364396362206 27.540761973970664 0 0 0
190 7 10.139186596519387 2.814016869212296 27.492649866124662 0 0 0
215 7 10.11863807447574 1.3858828278369058 29.63392386830325 0 0 0
219 7 8.833766374746013 3.495230577281137 29.53406722596301 0 0 0
220 7 11.363868331558567 3.5421164625931296 29.525080164678595 0 0 0
191 7 1.3856081786871919 4.9884698793340725 27.475545545630208 0 0 0
192 7 3.827765228589637 4.971893340865397 27.485175400483094 0 0 0
196 7 0.13055512629408597 7.139031029896184 27.500944048237358 0 0 0
197 7 2.573356580256825 7.1747185729011145 27.47811207690248 0 0 0
221 7 0.114688647646459 5.708797653322375 29.575999422208618 0 0 0
222 7 2.586198678311691 5.711003385693339 29.556046746940464 0 0 0
226 7 1.3581424660252581 7.885223152887522 29.554870412527855 0 0 0
227 7 3.8547489585279915 7.895070701481788 29.47265424981548 0 0 0
193 7 6.363277201106444 4.957299687012006 27.41681559898992 0 0 0
198 7 5.096031443086429 7.155024692795849 27.41417784285534 0 0 0
199 7 7.614639595836728 7.169989605132908 27.450401565528633 0 0 0
223 6 5.146342836847137 5.703096749148258 29.494596073079602 0 0 0
224 7 7.6375843880755765 5.720701662863742 29.584638739213602 0 0 0
228 7 6.387180660376476 7.894760374769961 29.494781866073986 0 0 0
194 6 8.841807355302393 4.979063188050372 27.496381056499253 0 0 0
195 7 11.354895451354068 4.976370252841578 27.511491326339016 0 0 0
200 7 10.117886464883505 7.139165210067513 27.54247312783866 0 0 0
225 7 10.095736377006661 5.724354323409928 29.610485494645882 0 0 0
229 7 8.8395757596293 7.865248830889086 29.52686267588396 0 0 0
230 7 11.363255690331744 7.911646893220143 29.528490476382977 0 0 0
201 5 1.3729248325069263 9.306934711581613 27.515239236414825 0 0 0
202 7 3.866194409026534 9.30231289230644 27.376425154407755 0 0 0
206 4 0.18154655475141065 11.458612138952528 27.526097485615683 0 0 0
207 7 2.605234538431895 11.438885570319718 27.438233915322282 0 0 0
231 7 0.15932160613522264 10.060132241119364 29.570630298423968 0 0 0
232 7 2.6274142540407377 10.007442045481621 29.427127564587124 0 0 0
236 7 1.4678979699838401 12.165117222707709 29.554653887119816 0 0 0
203 7 6.368730822792691 9.267160542467932 27.38889889385936 0 0 0
208 7 5.132088231573192 11.482012485757247 27.320271167156104 0 0 0
209 6 7.576666429043699 11.506744000888027 27.63822395536549 0 0 0
233 7 5.143151260348806 10.036707824157453 29.32355783220632 0 0 0
234 7 7.595002326871819 10.070174511672242 29.662895079003174 0 0 0
238 7 6.207694999728291 12.218384337221206 29.679043634666268 0 0 0
204 7 8.832702570578746 9.350219921890861 27.623635400889874 0 0 0
205 7 11.339404745235074 9.3973756992144 27.54878467605239 0 0 0
210 7 10.145472388830338 11.535616016240404 27.585115211872296 0 0 0
235 7 10.079151290851206 10.161081970195681 29.602265197376905 0 0 0
239 4 8.872846847409075 12.236259479811455 29.731396526033787 0 0 0
240 7 11.390580909891519 12.249438748167094 29.562800849329957 0 0 0
237 3 4.02668633149979 0.27792981472962586 30.552302155480934 0 1 0
241 7 0.19655773513892988 0.08582659374756495 31.632860485632268 0 0 0
242 7 2.5654125128430714 0.12563642978892348 31.741937020031905 0 0 0
246 4 1.3396612169616111 2.229463144961882 31.66630451429165 0 0 0
247 7 3.874944364343019 2.1396680375582333 31.640994898229508 0 0 0
252 7 2.6295435557105433 4.309398346272482 31.668757698172616 0 0 0
248 7 6.401612599288205 2.1389664127780352 31.64925426562386 0 0 0
253 7 5.105684961706142 4.2995764944246115 31.625826994045383 0 0 0
254 7 7.614955874707002 4.301155052359574 31.594233301973443 0 0 0
249 7 8.846359351555899 2.0937759086654717 31.686094040283457 0 0 0
250 7 11.37832952449539 2.1279990229462977 31.660428640286995 0 0 0
255 1 10.103253073616305 4.211206203668283 31.50885582877696 0 0 0
251 7 0.14369614150686152 4.314507555899724 31.65492222392828 0 0 0
256 7 1.3247311278027822 6.493265442036924 31.63726365852997 0 0 0
257 6 3.7866577387071545 6.492894177782157 31.670168968162873 0 0 0
286 7 0.09705210329393878 7.266662356013131 33.63305074518224 0 0 0
258 7 6.343739941658076 6.4863268823741445 31.62634990542729 0 0 0
264 7 7.582565607268685 8.568733525218247 31.622573216651553 0 0 0
259 4 8.812855508746948 6.451446175500864 31.631677631831923 0 0 0
260 7 11.310625210132956 6.4783288944318045 31.60188111933992 0 0 0
284 5 8.879893979446562 5.107804249540357 33.57577720985022 0 0 0
285 4 11.351088109300624 5.144236694106086 33.65011109395885 0 0 0
290 7 10.078738133422052 7.246548004014368 33.59871659929181 0 0 0
261 7 0.1703736984094044 8.696665187432535 31.656949483238307 0 0 0
262 7 2.6586380402040555 8.710488023005954 31.533580615386636 0 0 0
266 7 1.5568247048724557 10.821464732027886 31.56891733813682 0 0 0
267 4 3.911967338787144 11.264567316984605 30.84959338249198 0 0 0
292 7 3.9542635092203167 9.357811397721864 33.510381961174 0 0 0
243 7 5.165560805070133 12.892868146992178 32.091702247880676 0 -1 0
244 7 7.622487435016937 12.927665137590592 31.710145719234202 0 -1 0
263 1 5.087226075419767 8.753117824540716 31.423036265212787 0 0 0
268 7 6.2545283530542415 10.75226757408634 31.5796676543888 0 0 0
293 4 6.448268185761497 9.311744825192898 33.649449901596896 0 0 0
245 7 10.10501015233109 12.874572661876403 31.86760847054786 0 -1 0
265 6 10.095034404603858 8.669463610823883 31.5448030969738 0 0 0
269 7 8.768337553783999 10.78966809246013 31.74969805549227 0 0 0
270 7 11.421567688824812 10.893501797622005 31.614400047806427 0 0 0
296 3 11.06635670946285 11.823639686827905 33.32741321305223 -1 0 0
271 7 1.4720653807980055 0.8901045389617893 33.77360183319989 0 0 0
272 7 3.918397825233342 0.9455008916126232 33.91181818372177 0 0 0
276 7 0.17475910047837606 2.9829039965341235 33.7342049427122 0 0 0
277 7 2.6399738380343183 3.068412737566474 33.79375114407172 0 0 0
301 7 0.1868445185352237 1.537968872240259 35.75175899616135 0 0 0
302 7 2.6114597191679976 1.6610981315203521 35.85218908306286 0 0 0
306 4 1.3922869594720804 3.826647839650064 35.942732162159594 0 0 0
307 7 3.9855057335330057 3.7201560093606685 35.830782717419 0 0 0
273 7 6.45594437985301 0.9603724561783336 33.90261106494627 0 0 0
278 1 5.212204691105022 2.9869502948649287 33.72580312483692 0 0 0
279 7 7.720365461474245 3.0307799307796492 33.73405217720197 0 0 0
303 7 5.238897915045423 1.6545825278292903 35.93902180646926 0 0 0
304 4 7.755196593982005 1.618204203697894 35.924582141427585 0 0 0
308 7 6.516386221925321 3.6995265943244844 35.806925881148835 0 0 0
274 7 8.833088542295126 0.8880983928224494 33.84097759373252 0 0 0
275 4 11.43655853453364 0.7893330920907345 33.70960453870619 0 0 0
280 7 10.20015959920908 2.992553743386838 33.7131144860871 0 0 0
305 7 10.222734461903762 1.5631960767343045 35.71840416542108 0 0 0
309 7 9.003055392433724 3.6600403386371028 35.787733374195426 0 0 0
310 4 11.561541294714376 3.9180830284412225 35.874810429002565 0 0 0
281 7 1.3270296852995003 5.171473423122255 33.85399834947848 0 0 0
282 4 3.844293861474404 5.128329652962671 33.777291017840646 0 0 0
287 7 2.6329765088159873 7.278847398475251 33.756638155865836 0 0 0
312 7 2.719936485011391 5.778600980072351 35.798429040898 0 0 0
316 7 1.2303576686334692 7.611268393489677 35.80451024003681 0 0 0
317 7 3.9227119517809577 8.032272861157164 35.7483962709965 0 0 0
283 7 6.369337532574303 5.089493741961168 33.66907099505214 0 0 0
288 7 5.182646829767333 7.260375171112282 33.67997124147889 0 0 0
289 7 7.625516865505446 7.180139804713719 33.71612422611628 0 0 0
313 7 5.241614992365835 5.901447837594551 35.73498828482538 0 0 0
314 7 7.698084518162718 5.804717518396799 35.73345228210629 0 0 0
318 4 6.538476473093509 8.108094272685877 35.83076914166444 0 0 0
311 2 12.398101910885002 5.98239713792739 35.33302662788492 -1 0 0
315 7 10.121299181155782 5.791018968892611 35.57879243004688 0 0 0
319 7 8.948542303678163 7.943123885356902 35.84014251166807 0 0 0
320 7 11.352721459822083 7.913463764077867 35.59130843232714 0 0 0
350 7 11.667440436912461 6.254600560591623 37.290523725997545 0 0 0
355 3 10.43190047522782 7.891540310108756 37.26610515004871 0 0 0
291 7 1.4633906471965656 9.414379462000483 33.729435117164215 0 0 0
297 6 3.0123626894787177 11.557429787399604 33.67878688862517 0 0 0
321 6 0.20210593943074792 10.05498700300713 35.90067212355086 0 0 0
322 7 2.6865280946071093 10.153266374079008 35.76241581580776 0 0 0
326 7 0.4983117321791822 11.640810521465255 33.67197854252512 0 0 0
327 6 3.9058379220286366 12.494771532772159 36.07862409344901 0 0 0
356 4 1.390413604429475 12.340697221112283 35.837961410288905 0 0 0
298 2 5.199044783463205 12.269023813786196 34.191740389398454 0 0 0
299 7 6.994341611196728 11.568421159062222 33.6769851529096 0 0 0
323 6 5.226838648594827 10.230178051917749 35.56546045690863 0 0 0
324 7 7.908901266468777 10.34061885920385 35.707845667665936 0 0 0
328 7 6.45865351919095 12.501511429043363 35.91461554667581 0 0 0
294 7 8.7654499226056 9.273232285295634 33.695969131944935 0 0 0
295 6 11.261810255091799 9.68740563869096 33.76217644349132 0 0 0
300 7 9.375687054837567 11.531678206018935 34.16061316927139 0 0 0
325 7 10.250170375557115 9.829854417741627 37.00899124879629 0 0 0
329 3 9.526709689052002 11.395212949045087 36.1877798436772 0 0 0
330 4 11.254724512638251 12.07197104296931 35.564005025309044 0 0 0
335 5 9.903440720479324 12.909560448856318 37.37536106185482 0 -1 0
332 7 2.477025290993966 0.08076326051236923 38.02108417924594 0 0 0
336 7 1.3291812623830244 2.1680157098231345 37.82517102257856 0 0 0
337 7 3.8646537289835847 2.1782645604811335 37.860922035668004 0 0 0
341 7 0.20585345560333998 4.22893043085009 38.068772229025356 0 0 0
342 7 2.706150484801385 4.275366829615528 37.90353393073715 0 0 0
333 7 5.201549351721042 0.1442335150673655 38.10228227284034 0 0 0
334 7 7.645006145523944 0.06225492688068046 38.004415093374426 0 0 0
338 7 6.524658093257331 2.2523525584774244 37.89992197323495 0 0 0
339 7 8.98591032239007 2.178992711289779 37.86119860037287 0 0 0
340 7 11.35945653863364 2.1776442630703556 37.71855482738169 0 0 0
346 7 1.4855745444190154 6.385240406193952 37.987779686622595 0 0 0
347 6 3.94690960089067 6.456232481445653 37.82527387234932 0 0 0
361 8 3.9494453086220016 7.984058369081162 38.95876927213788 0 0 0
343 7 5.297046714943297 4.402508746580586 37.82011440488314 0 0 0
344 7 7.819397310534952 4.414110433945576 37.88006478210229 0 0 0
348 6 6.641767917022978 6.658123066785269 37.80256232518699 0 0 0
345 4 10.21359476547125 4.326253676432797 37.83070728563592 0 0 0
349 7 9.25399259879141 6.636449710923918 37.92633207844672 0 0 0
351 7 12.252784892430741 8.559397458742914 37.82918390447627 -1 0 0
362 8 8.944890940206246 5.28213559826965 38.85116011075584 0 0 0
352 6 2.504506265526985 8.638751813119544 37.74808804337739 0 0 0
357 7 3.833587427961659 10.812946015027148 37.91984465973285 0 0 0
360 7 1.3806705166297493 10.878641590424811 37.87638420578912 1 0 0
353 7 5.136784198360422 8.715966843351985 37.870774872782725 0 0 0
354 7 7.949287356943505 8.937044718421143 37.818632728960516 0 0 0
358 6 6.421244873905383 10.846969204011028 37.78807918561761 0 0 0
331 7 12.387133493243413 12.875566461422064 37.61987803218637 -1 -1 0
359 2 8.597133788475471 11.176986715965365 37.409187267342254 0 0 0

Velocities

1 0 0 0
2 0 0 0
3 0 0 0
9 0 0 0
5 0 0 0
6 0 0 0
10 0 0 0
16 0 0 0
20 0 0 0
26 0 0 0
27 0 0 0
23 0 0 0
28 0 0 0
29 0 0 0
24 0 0 0
25 0 0 0
30 0 0 0
7 0 0 0
31 0 0 0
32 0 0 0
36 0 0 0
37 0 0 0
56 0 0 0
8 0 0 0
33 0 0 0
34 0 0 0
38 0 0 0
4 0 0 0
35 0 0 0
39 0 0 0
40 0 0 0
11 0 0 0
12 0 0 0
17 0 0 0
42 0 0 0
47 0 0 0
13 0 0 0
18 0 0 0
19 0 0 0
43 0 0 0
44 0 0 0
48 0 0 0
14 0 0 0
15 0 0 0
41 0 0 0
45 0 0 0
49 0 0 0
50 0 0 0
85 0 0 0
21 0 0 0
22 0 0 0
46 0 0 0
52 0 0 0
57 0 0 0
87 0 0 0
53 0 0 0
54 0 0 0
58 0 0 0
51 0 0 0
55 0 0 0
59 0 0 0
60 0 0 0
61 0 0 0
66 0 0 0
67 0 0 0
91 0 0 0
92 0 0 0
96 0 0 0
97 0 0 0
63 0 0 0
64 0 0 0
68 0 0 0
74 0 0 0
93 0 0 0
98 0 0 0
99 0 0 0
65 0 0 0
69 0 0 0
70 0 0 0
75 0 0 0
94 0 0 0
95 0 0 0
100 0 0 0
72 0 0 0
76 0 0 0
77 0 0 0
82 0 0 0
101 0 0 0
102 0 0 0
107 0 0 0
73 0 0 0
78 0 0 0
103 0 0 0
108 0 0 0
109 0 0 0
71 0 0 0
79 0 0 0
80 0 0 0
81 0 0 0
104 0 0 0
105 0 0 0
106 0 0 0
110 0 0 0
62 0 0 0
86 0 0 0
111 0 0 0
112 0 0 0
116 0 0 0
117 0 0 0
83 0 0 0
84 0 0 0
88 0 0 0
113 0 0 0
118 0 0 0
119 0 0 0
89 0 0 0
90 0 0 0
114 0 0 0
115 0 0 0
120 0 0 0
121 0 0 0
122 0 0 0
126 0 0 0
127 0 0 0
156 0 0 0
157 0 0 0
162 0 0 0
123 0 0 0
124 0 0 0
128 0 0 0
153 0 0 0
158 0 0 0
163 0 0 0
164 0 0 0
125 0 0 0
129 0 0 0
130 0 0 0
155 0 0 0
159 0 0 0
160 0 0 0
165 0 0 0
131 0 0 0
132 0 0 0
136 0 0 0
137 0 0 0
161 0 0 0
166 0 0 0
167 0 0 0
171 0 0 0
172 0 0 0
133 0 0 0
134 0 0 0
138 0 0 0
168 0 0 0
173 0 0 0
135 0 0 0
139 0 0 0
140 0 0 0
169 0 0 0
170 0 0 0
175 0 0 0
141 0 0 0
142 0 0 0
146 0 0 0
147 0 0 0
151 0 0 0
152 0 0 0
176 0 0 0
177 0 0 0
143 0 0 0
144 0 0 0
148 0 0 0
154 0 0 0
178 0 0 0
145 0 0 0
149 0 0 0
150 0 0 0
174 0 0 0
179 0 0 0
180 0 0 0
181 0 0 0
182 0 0 0
186 0 0 0
187 0 0 0
211 0 0 0
212 0 0 0
216 0 0 0
217 0 0 0
183 0 0 0
188 0 0 0
189 0 0 0
213 0 0 0
214 0 0 0
218 0 0 0
184 0 0 0
185 0 0 0
190 0 0 0
215 0 0 0
219 0 0 0
220 0 0 0
191 0 0 0
192 0 0 0
196 0 0 0
197 0 0 0
221 0 0 0
222 0 0 0
226 0 0 0
227 0 0 0
193 0 0 0
198 0 0 0
199 0 0 0
223 0 0 0
224 0 0 0
228 0 0 0
194 0 0 0
195 0 0 0
200 0 0 0
225 0 0 0
229 0 0 0
230 0 0 0
201 0 0 0
202 0 0 0
206 0 0 0
207 0 0 0
231 0 0 0
232 0 0 0
236 0 0 0
203 0 0 0
208 0 0 0
209 0 0 0
233 0 0 0
234 0 0 0
238 0 0 0
204 0 0 0
205 0 0 0
210 0 0 0
235 0 0 0
239 0 0 0
240 0 0 0
237 0 0 0
241 0 0 0
242 0 0 0
246 0 0 0
247 0 0 0
252 0 0 0
248 0 0 0
253 0 0 0
254 0 0 0
249 0 0 0
250 0 0 0
255 0 0 0
251 0 0 0
256 0 0 0
257 0 0 0
286 0 0 0
258 0 0 0
264 0 0 0
259 0 0 0
260 0 0 0
284 0 0 0
285 0 0 0
290 0 0 0
261 0 0 0
262 0 0 0
266 0 0 0
267 0 0 0
292 0 0 0
243 0 0 0
244 0 0 0
263 0 0 0
268 0 0 0
293 0 0 0
245 0 0 0
265 0 0 0
269 0 0 0
270 0 0 0
296 0 0 0
271 0 0 0
272 0 0 0
276 0 0 0
277 0 0 0
301 0 0 0
302 0 0 0
306 0 0 0
307 0 0 0
273 0 0 0
278 0 0 0
279 0 0 0
303 0 0 0
304 0 0 0
308 0 0 0
274 0 0 0
275 0 0 0
280 0 0 0
305 0 0 0
309 0 0 0
310 0 0 0
281 0 0 0
282 0 0 0
287 0 0 0
312 0 0 0
316 0 0 0
317 0 0 0
283 0 0 0
288 0 0 0
289 0 0 0
313 0 0 0
314 0 0 0
318 0 0 0
311 0 0 0
315 0 0 0
319 0 0 0
320 0 0 0
350 0 0 0
355 0 0 0
291 0 0 0
297 0 0 0
321 0 0 0
322 0 0 0
326 0 0 0
327 0 0 0
356 0 0 0
298 0 0 0
299 0 0 0
323 0 0 0
324 0 0 0
328 0 0 0
294 0 0 0
295 0 0 0
300 0 0 0
325 0 0 0
329 0 0 0
330 0 0 0
335 0 0 0
332 0 0 0
336 0 0 0
337 0 0 0
341 0 0 0
342 0 0 0
333 0 0 0
334 0 0 0
338 0 0 0
339 0 0 0
340 0 0 0
346 0 0 0
347 0 0 0
361 0 0 0
343 0 0 0
344 0 0 0
348 0 0 0
345 0 0 0
349 0 0 0
351 0 0 0
362 0 0 0
352 0 0 0
357 0 0 0
360 0 0 0
353 0 0 0
354 0 0 0
358 0 0 0
331 0 0 0
359 0 0 0
