LAMMPS data file via write_data, version 11 Feb 2026, timestep = 3085, units = metal

500 atoms
8 atom types

-0.004582308645837404 17.859582308645894 xlo xhi
-0.004582308645837404 17.859582308645894 ylo yhi
-0.004582308645837404 17.859582308645894 zlo zhi

Masses

1 26.9815
2 10.811
3 12.011
4 51.9961
5 55.845
6 95.95999999999999
7 58.6934
8 1.008

Atoms # atomic/kk

1 7 0.01700520372583176 0.0010819907529503198 17.84996067496831 0 0 -1
2 7 0.054424797391932664 1.7884021994157844 1.8016447997710752 0 0 0
3 4 1.7718657325265472 0.0014087456976291796 1.8157798866274613 0 0 0
4 1 1.7026056778117853 1.7577142127167362 17.715903072159797 0 0 -1
5 7 0.06760803111077077 0.10883032385045628 3.633615533450326 0 0 0
8 7 1.8229606163374776 1.80519495144541 3.6036792989820294 0 0 0
21 7 0.002671481017146514 3.579967092181251 0.04077833054195175 0 0 0
23 4 1.7828134835113534 3.5880960377337625 1.8600097268567597 0 0 0
25 7 0.013872281545853755 3.5380170132789037 3.5467099152261503 0 0 0
101 7 3.533183367412482 17.822499880341546 17.81945683319538 0 -1 -1
102 6 3.58956799094717 1.7229626641293172 1.7855447342077249 0 0 0
105 7 3.63968397004818 0.04597589808070414 3.6828524846841444 0 0 0
121 5 3.4476557785011215 3.607565356421544 0.03030603229824347 0 0 0
125 7 3.6568769900815816 3.5709242753265933 3.5068269384896817 0 0 0
103 7 5.393204208957481 17.81930050200866 1.6977295789811184 0 -1 0
104 7 5.341847029937379 1.7873417793569473 17.82151168230347 0 0 -1
108 7 5.432480473763801 1.7792544562184986 3.519189866082825 0 0 0
123 7 5.389317423979533 3.611693464109128 1.6714302179180827 0 0 0
201 4 7.167759460824308 17.818833410910216 0.09181638785036689 0 -1 0
202 7 7.1378325156532565 1.8084549114241513 1.6733331204515596 0 0 0
203 4 8.983500950764588 17.853197487817532 1.7509932784485334 0 -1 0
204 7 8.981310475305396 1.803710073221332 0.01494602521893483 0 0 0
205 1 7.010385174845864 17.697775058562947 3.523064864697252 0 -1 0
208 7 8.826400855145817 1.7006893592299168 3.541834306209925 0 0 0
221 4 7.141006757642642 3.7494443515902423 17.60635553837505 0 0 -1
223 4 8.872489016993995 3.5023199673194414 1.7558579026832366 0 0 0
225 7 7.161246177073131 3.5460314667592825 3.5375896726100566 0 0 0
301 7 10.690446407876312 17.811321686120422 0.038835430904671814 0 -1 0
302 7 10.703490476333098 1.7851722609503466 1.8091553376268217 0 0 0
303 6 12.446218466429377 17.796844312655267 1.7919465988841365 0 -1 0
304 7 12.485524931985273 1.7516560871862612 0.031460214593014284 0 0 0
305 7 10.664103124142775 17.83331908169182 3.578322764841 0 -1 0
308 7 12.507522205600809 1.7725702956305447 3.5565756251495313 0 0 0
321 7 10.798947610821042 3.5369015793253764 0.019175180447267057 0 0 0
323 7 12.521796561069568 3.572092394034572 1.8302690515783202 0 0 0
325 7 10.723570393385405 3.5726935082548916 3.4945041953896006 0 0 0
401 7 14.299978891743548 17.80302340865338 0.10657398542899257 0 -1 0
402 7 14.313191509822916 1.8012058329073573 1.8002405005364224 0 0 0
403 7 16.097539347989997 0.017646566064246114 1.820658060231879 0 0 0
404 7 16.091520214629874 1.7793767418923938 0.038932841981690856 0 0 0
405 6 14.356633088684957 17.842756923780467 3.544020830090435 0 -1 0
408 7 16.12654475976784 1.8113712849695245 3.624329149184356 0 0 0
421 7 14.242543068816993 3.5465871083558644 0.035594022287192585 0 0 0
423 4 16.07026092614292 3.5203593818937318 1.7933523119407333 0 0 0
425 7 14.276358973829819 3.560643697562987 3.5603665501726596 0 0 0
22 7 17.85579264961785 5.301174925775789 1.8396178227519677 -1 0 0
24 7 1.7561712577421924 5.384809900428902 0.025857448252351815 0 0 0
28 7 1.8072374504476005 5.257817879728024 3.564985498603284 0 0 0
41 1 0.05922344169171902 7.111342819703415 0.1822955302964223 0 0 0
42 3 17.31394702057645 8.871709697675914 1.6222274880068355 -1 0 0
43 7 1.7707973178996568 7.173655380254998 1.8705175877756137 0 0 0
44 7 3.2230853062079357 9.053759937557734 1.7127747158728113 0 0 0
45 7 0.042529852217518024 7.0614819864473395 3.614715573261408 0 0 0
48 7 2.1482876306031295 8.738885079595937 4.031662161397338 0 0 0
122 7 3.5200366834502415 5.338303680672098 1.7488060763645932 0 0 0
141 7 3.3871966916803244 7.251466051026743 0.023157105342760644 0 0 0
142 7 3.2779184702424162 10.767134764719687 3.4490891560140815 0 0 0
145 7 3.5695540796161747 7.002256967095291 3.5259673842435304 0 0 0
124 7 5.195227397937715 5.412325081376784 17.806217732498148 0 0 -1
128 7 5.369871542073584 5.360974556311179 3.488642775933609 0 0 0
143 7 5.282412091050428 7.160245688584033 1.727310592969388 0 0 0
144 7 5.2518744759151685 8.925474202990264 17.841043264722284 0 0 -1
148 7 5.198749499596632 8.81868708795483 3.5462203569762996 0 0 0
222 6 7.203617882858783 5.39771487473666 1.7770596411188162 0 0 0
224 7 9.062223407241957 5.286012012073499 17.75373524641421 0 0 -1
228 7 8.960548984804278 5.4121160228626355 3.5435775329475527 0 0 0
241 6 7.099149381589813 7.072479785151971 17.603225688133527 0 0 -1
242 7 7.060814207896531 8.914906296588148 1.7189565447837336 0 0 0
243 4 9.052151942655733 7.268075070003251 1.8584568907998547 0 0 0
244 6 9.079217368062817 9.14427929575583 17.797840464930655 0 0 -1
245 7 7.1471158919747335 7.23184313917096 3.50191799376535 0 0 0
248 7 8.947511030998918 8.987905308496321 3.550303588821821 0 0 0
322 6 10.738227976368844 5.388692325492041 1.7302869743096905 0 0 0
324 7 12.552227091882456 5.405425562969559 0.015791095934079267 0 0 0
328 7 12.499579410426165 5.41723487873071 3.5529697518162506 0 0 0
341 3 9.339806205429749 7.109862818259848 17.857424291282957 0 0 -1
342 7 10.774200719883803 9.33629873337406 1.9876475208067244 0 0 0
343 5 12.443487854607346 7.275848030736473 1.7599703171030827 0 0 0
344 7 12.380821912850408 9.01077094030432 0.023300953841754703 0 0 0
345 7 10.77542265610209 7.2250889542369405 3.5509123889917453 0 0 0
348 7 12.57011723332645 8.941997340881297 3.5993129946949964 0 0 0
422 7 14.239913577407394 5.399386052903749 1.851411071312286 0 0 0
424 6 15.936045090048992 5.375754542864015 0.07768196298792338 0 0 0
428 7 16.076365251654316 5.290800299255101 3.5540186836841516 0 0 0
441 7 14.23137231796764 7.214065936301213 0.0406140908213936 0 0 0
442 7 14.313838020046923 8.890368273137552 1.8129216511439112 0 0 0
443 7 16.16088735871341 7.195505880515076 1.8743134026064652 0 0 0
444 7 16.246398654838107 8.81495427091828 17.803508521933892 0 0 -1
445 7 14.299088355394971 7.150843802500432 3.5802896702596794 0 0 0
448 4 16.197280203769548 9.037719158557799 3.411313478916404 0 0 0
61 6 1.017603852999836 9.5432123983549 0.235422469888115 0 0 0
62 7 0.24105360481172064 12.046463141948573 1.3092365140287079 0 0 0
63 2 2.157390842557595 11.070048177196623 1.6389065107174734 0 0 0
64 7 1.9171601013084816 12.533774866392122 17.72647113809971 0 0 -1
65 7 0.6630074257073938 10.070069009311045 2.8054736307807264 0 0 0
68 7 1.536838099450924 12.508692194368018 3.469631257645005 0 0 0
161 7 3.478029033318293 10.74473559871624 17.819080166211577 0 0 -1
162 7 3.5280183258387465 12.54992761813273 1.7297189017945953 0 0 0
165 3 5.14957654043602 10.67837667373206 3.5571948298642795 0 0 0
163 4 5.2426823733177 10.653251029793593 1.6429696759520243 0 0 0
164 7 5.304756882786348 12.522543894872767 17.8221482155092 0 0 -1
168 7 5.28566131783659 12.568807596421312 3.5689625570378944 0 0 0
261 7 7.055650073081781 10.72894039659648 17.843656541858895 0 0 -1
262 6 7.058213717073418 12.572355842247257 1.7936146449799468 0 0 0
263 7 8.743082536687716 10.689264612907712 1.8325746555354518 0 0 0
264 7 8.886742438743383 12.441737204332535 0.07594940434188888 0 0 0
265 4 7.103777955381092 10.676537441910943 3.6087051334060716 0 0 0
268 4 8.83514601139807 12.502063085704982 3.771344710456842 0 0 0
361 4 10.802634135452767 10.92182543826516 17.75369780455635 0 0 -1
362 6 10.581752415072808 12.274192246008129 2.0427938599379356 0 0 0
363 5 12.666566335773643 10.718187335024988 1.92243121573631 0 0 0
364 6 12.603901004317882 12.55843027202082 0.15533978016601785 0 0 0
365 2 10.88708957804135 10.689379565747597 3.947839965615521 0 0 0
368 7 12.503350640500527 12.470648324105056 3.619135344430284 0 0 0
461 6 14.346538893841005 10.636688944424959 0.01768809661152012 0 0 0
462 7 14.454387069742031 12.672850232728349 2.1586721924125585 0 0 0
463 4 16.243262395828403 10.5855038779454 1.6517888192443946 0 0 0
464 7 16.073751410405063 12.492396642424362 0.06090713144956628 0 0 0
465 7 14.455715762827445 10.65914972768252 3.5612350598212683 0 0 0
468 6 16.83122425666415 12.053350617692503 3.493417424318641 0 0 0
81 5 17.843208640661192 14.264742889149895 0.03686316752162508 -1 0 0
82 7 0.038748246224311854 16.18630716283606 1.7813251461048039 0 0 0
83 6 1.6235711144389264 14.254941060777814 1.746717762298706 0 0 0
84 7 1.7501193666655008 16.08783920665172 17.85531362218995 0 0 -1
85 2 0.1941869612518222 14.291443572473119 3.8416045998292656 0 0 0
88 7 1.7021993505537003 16.06092293900208 3.5840893947289625 0 0 0
181 7 3.557720504964257 14.34105536298531 -0.0004067951059644471 0 0 0
182 7 3.5538865812799805 16.12170176552251 1.7536102876707005 0 0 0
185 7 3.544750966041592 14.260631772116213 3.5184095618331614 0 0 0
183 7 5.339584975138588 14.327813913735179 1.7691043569749112 0 0 0
184 7 5.386350240653726 16.063319704157365 17.838510517867704 0 0 -1
188 3 3.61624234097951 16.087556793425065 3.589019261379532 0 0 0
281 7 7.117512707201901 14.195993091204224 17.74608155803794 0 0 -1
282 7 7.155643114745658 16.008202575714545 1.7273006984223975 0 0 0
283 7 8.901228036266954 14.241931565441748 1.8270927669706052 0 0 0
284 7 8.940881556064516 15.998603985599566 0.053861519703526 0 0 0
285 7 7.120213606504007 14.30757165406563 3.6066758544794086 0 0 0
288 7 8.875069701221804 16.07738287499979 3.5686063386272266 0 0 0
381 7 10.695130002643134 14.1254218963404 0.07733963836575714 0 0 0
382 7 10.657015938747868 16.021100561010016 1.842951126594608 0 0 0
383 7 12.46541900709298 14.252497961722169 1.9530398303712582 0 0 0
384 7 12.485550465563094 15.898859570630627 0.12310052098992615 0 0 0
385 7 10.632136803659721 14.270735443781964 3.615173958752488 0 0 0
388 7 12.449842031423536 16.03691401751278 3.631638758437128 0 0 0
481 7 14.4067583706524 14.236751331821226 0.15811726796533726 0 0 0
482 7 14.380309209956517 15.80866679971129 2.0647367529862852 0 0 0
483 6 16.42760630590314 14.170345170962557 2.0275141393431433 0 0 0
484 7 16.122225908742006 16.047603473812284 0.0853263732515603 0 0 0
485 2 13.756377837070682 14.365747396934715 3.5698227172232273 0 0 0
488 7 16.28632861326289 16.15415844622479 3.5856790747661145 0 0 0
6 7 0.05570284401628246 2.132159465509288 5.578671137666064 0 0 0
7 7 1.8037978235374383 0.08104568782060943 5.396840878530909 0 0 0
9 7 0.04999390018143645 0.006791088436299977 7.144163241716279 0 0 0
10 7 0.01878383490467657 1.8130416356708758 8.811194609634143 0 0 0
11 7 1.8300169291464226 17.853943342790412 8.901192460999892 0 -1 0
12 7 1.8870809277902065 1.7699625387347426 7.138106708087342 0 0 0
27 5 2.0707177388959304 3.4965590282176846 5.283209779808519 0 0 0
29 3 0.9557230666723954 3.4352172808121506 6.825337300209164 0 0 0
31 4 1.7231054585655352 3.5639663421717636 8.753797581915412 0 0 0
106 7 3.914663472150414 1.7828456363296703 5.537903780501452 0 0 0
109 7 3.589879308785503 17.820728756697488 7.134221222554734 0 -1 0
110 5 3.6781109790164552 1.7908656285347773 8.795264076631168 0 0 0
129 7 3.7079934239873875 3.6051241550636917 7.170665312851913 0 0 0
107 7 5.409765100003364 17.730410526303515 5.394318475123507 0 -1 0
111 7 5.3317564092249805 17.81381515163026 8.865637562597348 0 -1 0
112 2 5.344671055817104 1.0708211103129128 7.1369174827402935 0 0 0
127 7 5.391252601597339 3.712628245104784 5.3017377017031695 0 0 0
131 7 5.370996880219691 3.71222652374554 8.969567450006409 0 0 0
206 6 7.012407715588071 1.790473537055211 5.522299170591759 0 0 0
207 7 8.869586449578616 17.81272310302263 5.37144144026891 0 -1 0
209 7 7.161481228385675 17.753394088004708 7.1640907335249135 0 -1 0
210 7 6.928353990417553 1.8043274708552344 8.622258532889191 0 0 0
211 7 8.954773284874138 0.021182917964161913 8.839656468316651 0 0 0
212 7 8.95402138490211 1.7859189243360896 7.110492694084591 0 0 0
227 7 8.918361653023439 3.621480802642322 5.30513569933725 0 0 0
229 6 7.1521845767119405 3.7760338719718245 7.143991309980131 0 0 0
231 7 8.94248958556468 3.569438019492433 8.915535457781882 0 0 0
306 7 10.708288733430138 1.7445123584914728 5.274097885370976 0 0 0
307 7 12.522207735586758 17.858277792605026 5.309940038333541 0 -1 0
309 6 10.751374578451241 17.831192381235756 7.098839077176552 0 -1 0
310 7 10.743439447267779 1.7873893788685387 8.878061735282428 0 0 0
311 7 12.536514874539698 17.80290151680841 8.869051943672789 0 -1 0
312 7 12.534831339848344 1.7518500174518776 7.107752347334162 0 0 0
327 3 10.814124495062481 3.583256050642101 5.348538923272459 0 0 0
329 7 10.788520371553794 3.5679005252568676 7.160987162091297 0 0 0
331 7 12.548599167724642 3.5729100711887054 8.855087537967062 0 0 0
406 7 14.288647304822245 1.7737049282835264 5.342306701945492 0 0 0
407 1 16.211174730508755 0.06326657974743018 5.470518173408704 0 0 0
409 7 14.296312071291391 17.810315358582884 7.064295341699054 0 -1 0
410 5 14.255287554874457 1.7720059189534256 8.855707180514772 0 0 0
411 7 16.0712255042002 17.851524476981147 8.825682459524655 0 -1 0
412 7 16.013185917298628 1.8365795136497236 7.165396338498341 0 0 0
427 7 15.949128525600127 3.5667444162348603 5.356313683424438 0 0 0
429 7 14.249706727595932 3.5842018326336618 7.102294637958768 0 0 0
431 7 16.061410553812554 3.5867062234037457 8.86887437343935 0 0 0
26 7 0.04487384219110136 5.0163399088163585 5.502304558675146 0 0 0
30 7 17.82371864976535 5.393428758655336 8.89189650574017 -1 0 0
32 4 1.7812495380487812 5.244867353926332 7.182997580175036 0 0 0
46 7 17.835810135572814 8.900825130080497 5.204747956367092 -1 0 0
47 7 1.7117049012721346 6.9066690505042905 5.3863707210656715 0 0 0
49 7 17.85131039270075 7.035584999926852 7.087727346578076 -1 0 0
50 7 17.84089734584409 8.92560133286166 8.932522221146332 -1 0 0
51 5 1.7362842326124706 7.108862603000901 8.963048257562061 0 0 0
52 6 1.6168337573841511 8.898182865293192 7.006651229323713 0 0 0
126 7 3.5556181172633603 5.356097330148559 5.34316522024005 0 0 0
130 7 3.5278682782305086 5.388090651418977 8.931256575863012 0 0 0
146 3 3.5819014930497635 8.940471197813821 7.013902475968861 0 0 0
149 7 3.520734626603319 7.070316662488131 7.128029473926536 0 0 0
150 7 3.5124689055416134 8.896547490866437 8.95660909138724 0 0 0
132 7 5.35035812396416 5.444222921042385 7.130889487879187 0 0 0
147 1 5.2466861664787965 7.1041722905697675 5.300014541056008 0 0 0
151 7 5.3658135036319905 7.125263611681268 8.949390563099579 0 0 0
152 7 5.388111663698769 8.898308192563778 7.104333868449853 0 0 0
226 7 7.165831439732405 5.446437149351088 5.274810971327681 0 0 0
230 7 7.16436073491877 5.452453885012728 8.980758712586095 0 0 0
232 7 8.995684130823946 5.425317903879203 7.145359369910906 0 0 0
246 6 7.240827235854229 8.91858048835706 5.431384672080408 0 0 0
247 7 8.997624225294008 7.164134376198172 5.332000676456536 0 0 0
249 4 7.228050863720315 7.055653773628246 7.139967781480721 0 0 0
250 6 7.216053679110431 8.920492916157741 8.786573691849002 0 0 0
251 7 9.024697643088375 7.186628184114874 8.905569187554212 0 0 0
252 7 9.093235815234587 8.95009405402169 7.133928554836671 0 0 0
326 7 10.825668520691313 5.4089968892106315 5.363988859432824 0 0 0
330 7 10.770615171337125 5.387481986870358 8.889059448049734 0 0 0
332 7 12.533241948607314 5.4290583703832 7.170247723677473 0 0 0
346 7 10.778606645295191 9.017850141537094 5.255904001972695 0 0 0
347 7 12.535012081281934 7.175085108792208 5.361150406777554 0 0 0
349 7 10.800148475097096 7.214084348095079 7.137472632475454 0 0 0
350 7 10.848388240222807 9.20746035718338 9.15978317079081 0 0 0
351 4 12.483846567515032 7.242466525993884 8.929525803777686 0 0 0
352 7 12.51940366403553 8.952714001074952 7.10269228870064 0 0 0
426 7 14.230161055054252 5.327200670381122 5.329040861829847 0 0 0
430 7 14.32664901194068 5.366717585537794 8.815575742932731 0 0 0
432 7 16.03585134409265 5.304656521811745 7.0935478977473005 0 0 0
446 7 14.3836791875949 8.903864819082974 5.331502182941266 0 0 0
447 6 16.101386953214487 7.0282142565530785 5.304998750566773 0 0 0
449 7 14.303013087295033 7.140078987878769 7.08347015057061 0 0 0
450 7 14.335516520355698 8.903517723206443 8.788177366681253 0 0 0
451 7 16.13934559849619 7.149265952061342 8.833053150802034 0 0 0
452 5 16.131746588754737 8.902291334908206 7.122167239082246 0 0 0
66 4 0.06540550930475202 12.52664762138724 5.512839287621856 0 0 0
67 7 1.6329152622097713 10.760593133514051 5.28556177998672 0 0 0
69 7 17.84690646518657 10.749645500072107 7.151223397645252 -1 0 0
70 7 17.843707549953976 12.47677712243242 8.9479064256681 -1 0 0
71 7 1.7400547262225037 10.718387776842812 8.943121948095895 0 0 0
72 7 1.8122384599957428 12.489582684845354 7.158118668176724 0 0 0
166 1 3.4308625345438055 12.49884083668527 5.266380462709195 0 0 0
169 5 3.5390103770217793 10.797831863280441 7.196803999844847 0 0 0
170 7 3.555237233373841 12.494903497443248 8.948704335747932 0 0 0
167 7 5.243915112374358 10.690789259174702 5.417635584718514 0 0 0
171 7 5.347309514487655 10.722036791050138 8.899093923696496 0 0 0
172 7 5.285107632098093 12.505043020964191 7.129488054974093 0 0 0
266 7 7.0753900848334395 12.507684204419885 5.342940710621122 0 0 0
267 7 8.998017521011535 10.720832738761548 5.331410701499985 0 0 0
269 7 7.124381020150979 10.747384028052387 7.092694196064516 0 0 0
270 7 7.097149992684058 12.49304335430864 8.894407198326368 0 0 0
271 7 8.932265456246316 10.729227830998544 8.844755780280318 0 0 0
272 1 8.925507128211974 12.50930043584678 7.10341018011602 0 0 0
366 7 10.745736673089072 12.437946577619167 5.283584946352001 0 0 0
367 7 12.561787937400668 10.714160625160696 5.270040899869781 0 0 0
369 5 10.84501881908518 10.69866914863233 7.088391036394513 0 0 0
370 7 10.797300691618185 12.322989892563779 8.966522022541065 0 0 0
371 7 12.661632459890376 10.719442789089445 8.814211275466656 0 0 0
372 7 12.600551826453616 12.476931446269965 7.037393712532367 0 0 0
466 6 14.49513201083297 12.626478239780997 5.1274763752509935 0 0 0
467 7 16.140031123891852 10.648596920665636 5.412687548109557 0 0 0
469 7 14.365011598141164 10.73858984251061 7.058113051780928 0 0 0
470 7 14.375462807498796 12.44945504269407 8.881516541922776 0 0 0
471 4 16.11234335477292 10.694925783525314 8.85723615328693 0 0 0
472 7 16.11540687968234 12.546480847676856 7.09060964200595 0 0 0
86 7 0.08182532185580373 16.11397010686207 5.358648268982518 0 0 0
87 7 1.7117922107605352 14.261295241808138 5.360667668658769 0 0 0
89 7 0.0016551796654094664 14.308153006000726 7.155516819106952 0 0 0
90 4 17.83249409151682 16.126828566254403 8.859022313615878 -1 0 0
91 6 1.7783881407080544 14.277111996625573 8.932631887953663 0 0 0
92 7 1.7865809313576924 16.07593226687812 7.130903648570567 0 0 0
186 7 3.55637795900094 16.043347111315807 5.417512254755137 0 0 0
189 4 3.6305146692552848 14.316313964608714 7.168717468737959 0 0 0
190 7 3.556539836029921 16.059845441673755 8.910078091425254 0 0 0
187 7 5.337519376905339 14.277605130756474 5.3849042894063 0 0 0
191 7 5.308506941867843 14.266834837602808 8.901690800904534 0 0 0
192 7 5.352373673485651 16.01059032293657 7.145806397645487 0 0 0
286 7 7.146708485561207 16.012013817349477 5.398495903115624 0 0 0
287 7 8.900846593591357 14.282866331489172 5.3615237437689345 0 0 0
289 7 7.108494394128043 14.253053595628892 7.15516968219006 0 0 0
290 5 7.162652100508849 15.966948600800308 8.911185908622612 0 0 0
291 7 8.966439784584235 14.249152667039924 8.904672643154214 0 0 0
292 7 8.940581631671972 16.010352615077228 7.157634056056387 0 0 0
386 7 10.687648050892355 16.05356293298913 5.35969309559243 0 0 0
387 7 12.518033864579191 14.248678049006445 5.325870864707914 0 0 0
389 7 10.740878801504586 14.223767192002683 7.096347389203001 0 0 0
390 7 10.755176324861417 16.025490432809768 8.865992765829471 0 0 0
391 6 12.553998271136688 14.212685114855216 8.826005326053599 0 0 0
392 7 12.584424713092563 16.03409909658662 7.047577540390487 0 0 0
486 7 14.374502180953964 15.853206682295545 5.138672724275337 0 0 0
487 7 16.31914061632516 14.261499932786885 5.102431110401072 0 0 0
489 7 14.388387954013062 14.265787346032468 7.089046789042999 0 0 0
490 4 14.353743726609604 16.085037739941402 8.832714943774354 0 0 0
491 7 16.103702948141105 14.285183469057905 8.881660545527662 0 0 0
492 7 16.100412153901605 16.04339193847425 7.076684017460336 0 0 0
13 7 0.017340901508591324 0.001710102294063196 10.632256656373539 0 0 0
14 6 17.83457794941864 1.8001044271645634 12.591502781494919 -1 0 0
15 5 1.7801782537177697 17.837890801811817 12.470994363742335 0 -1 0
16 7 1.8117504314481523 1.7741065381834893 10.645014096263855 0 0 0
33 6 17.837811021311225 3.623756255258342 10.609380862276812 -1 0 0
35 7 1.7046022762915005 3.6399529267019792 12.505519689630512 0 0 0
113 7 3.58130974462769 17.856351005890716 10.694988504219916 0 -1 0
114 7 3.4926425859019576 1.7790119422026838 12.51163006569291 0 0 0
133 6 3.5026627796518106 3.6519472732464693 10.762310900738248 0 0 0
115 5 5.255567599072962 17.816599960398364 12.537117444722119 0 -1 0
116 6 5.38333575287684 1.8189672390167653 10.736595746402731 0 0 0
135 7 5.381452585082879 3.6668152708838457 12.559359479687435 0 0 0
213 6 7.215095553526381 0.041078843366801225 10.639608095641231 0 0 0
214 4 7.231237588723789 1.8241444284578168 12.589373182352437 0 0 0
215 7 9.013499828015618 17.849145948172303 12.455929308388072 0 -1 0
216 7 8.95820420664687 1.8204551511615894 10.647718101693226 0 0 0
233 7 7.173629929938327 3.5473863527492306 10.691938388223058 0 0 0
235 7 9.020577385022511 3.5495086659246797 12.460465540508167 0 0 0
313 7 10.727271548912363 17.837278618858267 10.626370630743782 0 -1 0
314 7 10.798286222646587 1.7653813216704621 12.417717912344317 0 0 0
315 4 12.505889629325594 0.02877579577385845 12.374547878093784 0 0 0
316 7 12.511004290073439 1.7739220247096266 10.607094452307976 0 0 0
333 7 10.794901445852405 3.6175418314035195 10.631731637788102 0 0 0
335 7 12.495106368046391 3.569374875562583 12.426652464776868 0 0 0
413 7 14.284543402106687 17.794697431941337 10.624583607997607 0 -1 0
414 6 14.352117954065035 1.8582148939628487 12.33448844038541 0 0 0
415 6 16.09326926381181 17.71081222042883 12.40527948744239 0 -1 0
416 7 16.105875892105562 1.7705923750384407 10.567062249962394 0 0 0
433 7 14.307485729057271 3.61455870402242 10.609519655638401 0 0 0
435 7 16.05800793674782 3.66558125500832 12.512916882419908 0 0 0
34 7 17.787575785442467 5.462938532436841 12.507179895287312 -1 0 0
36 7 1.7223533548893164 5.389224781161186 10.715198059098094 0 0 0
53 4 17.810120931660407 7.158432712205543 10.702220991144143 -1 0 0
54 7 17.832011471493765 8.900828826495838 12.487402288158258 -1 0 0
55 7 1.6934672941192757 7.156449223041974 12.49851240645688 0 0 0
56 7 1.7254931052580913 8.929530958351565 10.721432575332333 0 0 0
134 7 3.5158625643924726 5.44080564711048 12.543553228795291 0 0 0
153 7 3.519809227308025 7.139795071625435 10.724218876174616 0 0 0
154 7 3.4953741055030974 8.941802023431073 12.471349423253592 0 0 0
136 7 5.350729092625285 5.423196666299224 10.758338723069846 0 0 0
155 7 5.33630310377287 7.171390822165132 12.570492315561093 0 0 0
156 6 5.3056066992303075 8.891182334892855 10.767036966756761 0 0 0
234 7 7.104597672756443 5.4397652650407275 12.496286035999102 0 0 0
236 5 8.994670889734486 5.387423685720415 10.571584266744887 0 0 0
253 7 7.170178410675054 7.2472503641395845 10.732501331232287 0 0 0
254 7 7.116298251149005 8.923983854672848 12.61225210463268 0 0 0
255 7 8.950558465387171 7.326137089960928 12.545634412698552 0 0 0
256 7 8.914538528152711 8.977983587044111 10.661639542639415 0 0 0
334 3 8.948494408240684 5.421799498568045 12.471437663064258 0 0 0
336 7 12.579904239838566 5.421959775556224 10.568327096741434 0 0 0
353 7 10.765325980695945 7.247499330927824 10.642125225323536 0 0 0
354 6 10.789305259898407 9.251319619521716 12.31067294280201 0 0 0
355 6 11.00408118611297 5.549435037564254 12.42030733777816 0 0 0
356 6 12.95922284672664 7.7314335105741865 12.148269685008518 0 0 0
434 7 14.222324515922597 5.406590981689461 12.477985347773123 0 0 0
436 7 16.046904496279005 5.412304569119328 10.70071816802857 0 0 0
453 5 14.379636449634953 7.14221107238696 10.404115460520151 0 0 0
454 2 14.659291020215802 9.1105281387282 12.849460335477668 0 0 0
455 7 15.882308292963339 7.2406594127177195 12.506612355888102 0 0 0
456 4 16.047333165502973 8.884341745636453 10.726635020842918 0 0 0
73 7 17.800268911565194 10.691213290999887 10.712594624284629 -1 0 0
74 7 -0.002318633582552523 12.493769646882168 12.468508095083834 0 0 0
75 4 1.7858166907988957 10.783538782094455 12.398526633604567 0 0 0
76 7 1.7436216795697843 12.508746490051728 10.730017776480883 0 0 0
173 7 3.534594968815058 10.729371211673806 10.699130940792905 0 0 0
174 7 3.5468656364330275 12.49512735807621 12.488070141009688 0 0 0
175 7 5.301271385264984 10.728135452386496 12.481457780035678 0 0 0
176 7 5.318564025765467 12.492104541778168 10.667760740852216 0 0 0
273 7 7.063040453327641 10.703845857562891 10.671157346388519 0 0 0
274 7 7.065466368161188 12.514744708671701 12.411924734568082 0 0 0
275 7 8.778276437641853 10.70620236663815 12.377544302155828 0 0 0
276 7 8.911054018344721 12.462892987540402 10.571458029602526 0 0 0
373 2 10.104444115944457 10.798297436066473 10.559815556086042 0 0 0
374 7 10.816961354191772 12.079883609472287 12.16644335546206 0 0 0
375 7 12.838516030132503 10.593643130167983 12.584493811764306 0 0 0
376 7 12.630934237040519 12.376839552017517 10.644721677249446 0 0 0
473 6 14.299802286454993 10.518429008383865 10.699439690821873 0 0 0
474 7 14.39526605978864 12.489755695958557 12.483146499925379 0 0 0
475 7 16.05035992778322 10.635472553726748 12.527658779718188 0 0 0
476 7 16.070328365069415 12.435208677048037 10.685310048602096 0 0 0
93 7 17.843207747589016 14.284800306788846 10.687867307785309 -1 0 0
94 7 0.049597000147197826 16.043871005234255 12.46627808963883 0 0 0
95 7 1.805854103754509 14.267793489402845 12.471786881068779 0 0 0
96 7 1.7728587132406546 16.09523026047951 10.680518856810618 0 0 0
193 7 3.5576679109125915 14.283484760077958 10.720586617518112 0 0 0
194 7 3.550856571923719 16.05671080525704 12.476092255479344 0 0 0
195 7 5.342342966765085 14.265464788110435 12.437441138754314 0 0 0
196 7 5.333579670209103 16.064180507823263 10.662987757238094 0 0 0
293 7 7.114941760503295 14.272051149713423 10.637755827868313 0 0 0
294 6 7.123684397434165 16.022821470002786 12.501006087397046 0 0 0
295 6 9.008557668396444 14.149601310546661 12.376468559274342 0 0 0
296 4 8.98531597270713 16.063030728046783 10.571337706737415 0 0 0
393 7 10.76382174527029 14.216485970880983 10.620490945058478 0 0 0
394 7 10.751404453170894 16.026667513643098 12.342765893453327 0 0 0
395 7 12.516346419563368 14.128709582865541 12.356667094444251 0 0 0
396 7 12.53654815719741 16.031190235138453 10.634647768719562 0 0 0
493 7 14.337696020624305 14.25873299807272 10.622342556235177 0 0 0
494 7 14.253463549883277 15.99672954096077 12.430521764163172 0 0 0
495 7 16.08195412546861 14.313074724529548 12.453121051134547 0 0 0
496 7 16.09729347241213 16.03295938896081 10.593461660450687 0 0 0
17 7 17.84639890859957 17.795524414818342 14.307513612829043 -1 -1 0
18 7 17.844120086897288 1.7633892488948721 16.039013962709408 -1 0 0
19 7 1.768010954379968 17.785291778435997 16.030238658882066 0 -1 0
20 7 1.7599339288611138 1.7597680438489305 14.31013926569764 0 0 0
37 7 17.84837884644439 3.629762575021499 14.313030622885872 -1 0 0
39 7 1.7625468591998246 3.6190513102080897 16.064084840681204 0 0 0
117 7 3.51897413309527 17.818302017387595 14.265543182465382 0 -1 0
118 7 3.51051523037549 1.7511445052725345 16.03566610197186 0 0 0
137 7 3.478021389059255 3.6016517527784253 14.239839248600235 0 0 0
119 6 5.332111818767966 17.84303644272548 16.013436239398608 0 -1 0
120 7 5.328077312003799 1.7837157490660527 14.18838715845743 0 0 0
139 6 5.144787070919746 3.5785786898089413 16.03381405451809 0 0 0
217 7 7.201222620464908 0.007493391164097225 14.209744505687805 0 0 0
218 6 7.299864571044905 1.7566955454115363 16.036817166856043 0 0 0
219 7 9.039242482050875 17.81230219994521 16.035099788326978 0 -1 0
220 7 9.063320674507423 1.7804182769062533 14.233926799873828 0 0 0
237 6 7.222007492835259 3.8526200265138253 14.50372356128414 0 0 0
239 5 9.167212559645872 3.609557754313882 16.055523593895252 0 0 0
317 7 10.830048175931035 17.84867710645105 14.226071446998285 0 -1 0
318 7 10.790538515167517 1.736426118551376 16.08399647087997 0 0 0
319 4 12.460480440690505 17.79423100496451 16.20633195057326 0 -1 0
320 4 12.419503241989709 1.8145925953677102 14.264174279453789 0 0 0
337 7 10.828130066693586 3.561321132540645 14.264707813052997 0 0 0
339 7 12.530171671153758 3.561825481477774 16.048020678636107 0 0 0
417 6 14.264038462492742 0.022717099417876124 14.346709835588257 0 0 0
418 7 14.248120338528878 1.765576471917249 16.14403611313027 0 0 0
419 7 16.058788621646272 17.826848560073014 16.116172390569055 0 -1 0
420 7 16.039742854255024 1.8104244619276448 14.313562588971347 0 0 0
437 4 14.17603412576799 3.596155250607634 14.288216373001026 0 0 0
439 6 16.0724454533244 3.554417830115648 16.100054051197365 0 0 0
38 7 17.856699405414208 5.420573953967636 16.118516240962936 -1 0 0
40 7 1.70057539036998 5.443212902528727 14.28788602548651 0 0 0
57 4 17.855690113528212 7.190224329183384 14.38945048139237 -1 0 0
58 2 17.676324046921415 8.901988970952413 16.000046455705565 -1 0 0
59 4 1.6181423505630796 7.347623748037228 16.08219154444205 0 0 0
60 1 1.7869243299767352 9.018460377384159 14.237452578844932 0 0 0
138 7 3.3855374103650013 5.470597382667839 16.065620523656396 0 0 0
157 7 3.4207505698209455 7.223653732838906 14.303546512962209 0 0 0
158 7 3.4442361780434676 8.995021013416794 16.126044424444995 0 0 0
140 7 5.230109771045069 5.462943787622497 14.321443925662594 0 0 0
159 7 5.1739598015180235 7.23479474537801 16.027411182565356 0 0 0
160 1 5.2584762176998785 8.998545721352368 14.292001111799493 0 0 0
238 2 6.469918772867821 5.495145387897031 16.085312874231622 0 0 0
240 7 9.20357457493535 5.4439299030196 14.355993087720263 0 0 0
257 4 7.231267855570273 6.963717689368701 14.603408329346143 0 0 0
258 7 7.137186247125003 9.015496960062906 15.992946087802375 0 0 0
259 4 9.226355188756987 7.231323929653882 15.920984985942152 0 0 0
260 4 9.00990600850989 9.111334064491695 14.33733748144318 0 0 0
338 7 10.888416927953084 5.408898249407837 16.098987544091056 0 0 0
340 7 12.548034242189578 5.454106240060998 14.3004045284395 0 0 0
357 7 10.914447283076537 7.377809992984708 14.16850589860251 0 0 0
358 7 10.826082980059459 9.153782819677541 15.95237344170257 0 0 0
359 7 12.510331453298107 7.249487873728259 16.107495566705264 0 0 0
360 5 12.741256192990198 9.024290813616597 14.359437567720391 0 0 0
438 7 14.254162488098105 5.432678571100576 16.03849554885197 0 0 0
440 7 16.046328473891194 5.402175915829177 14.28220970579802 0 0 0
457 4 14.248975469613313 7.2095408484394365 14.295135725231415 0 0 0
458 7 14.351522037835563 8.933241978108486 16.136041202705062 0 0 0
459 7 16.10037731070742 7.138925509380826 16.067073744158375 0 0 0
460 7 16.13358930043675 8.905518326619788 14.37005844310357 0 0 0
77 7 0.01591315975724792 10.645062348842783 14.279054540442552 0 0 0
78 7 0.022469893339230024 12.484908197400522 16.175678380037688 0 0 0
79 7 1.6663530854629138 10.679934905753557 16.032546156317583 0 0 0
80 3 0.1388407437733113 12.46498235570251 14.318742059858701 0 0 0
177 7 3.494310297547167 10.775976482414174 14.279803933897005 0 0 0
178 7 3.545808005153276 12.48674385741429 16.013740994245556 0 0 0
179 7 5.377223079103873 10.79564319283444 16.084553667114093 0 0 0
180 6 5.333371346306244 12.53608179236745 14.317939749445818 0 0 0
277 7 7.102226480613995 10.787809339271389 14.255046193307189 0 0 0
278 2 7.012464235899342 12.371307744832441 16.499778512342687 0 0 0
279 7 8.803596984789783 10.965868808512234 16.032050598446524 0 0 0
280 7 8.923638625915965 12.383336161536908 14.062619142021642 0 0 0
377 4 10.759450517317603 10.898042396842552 14.31020997035862 0 0 0
378 6 9.05181504026006 13.840581883899961 15.992684280886476 0 0 0
379 7 12.581088527613367 10.812978193765924 16.048424315151514 0 0 0
380 7 12.645487666205847 12.438835863367864 14.200424199902077 0 0 0
477 4 14.435594962406253 10.742040898902099 14.418295275920034 0 0 0
478 7 14.400979950471015 12.526318077884703 16.085438071898828 0 0 0
479 7 16.294074632707698 10.599167373473614 16.194821285131464 0 0 0
480 7 16.112637552795167 12.514807078265322 14.30642575210825 0 0 0
97 7 0.05088785545784924 14.301369205855359 14.277805782436424 0 0 0
98 7 17.841158902968818 16.026782220993155 16.10638047494277 -1 0 0
99 1 1.8101064131972617 14.267129158880351 16.002282550295266 0 0 0
100 7 1.7722275552240065 16.062025586245525 14.245607376652568 0 0 0
197 7 3.5467410168513838 14.277507105683014 14.232450549599015 0 0 0
198 7 3.5546105179426988 16.03732609158991 16.056075081823728 0 0 0
199 7 5.351454643597145 14.245111681089796 16.05145601521702 0 0 0
200 7 5.32339294086413 16.01851323162359 14.266823856845326 0 0 0
297 7 7.16717915466685 14.185567007730876 14.300613751711035 0 0 0
298 7 7.152465273477958 16.022752045548753 16.013886458251278 0 0 0
299 3 9.01081700412516 15.91726927724953 16.03744553570762 0 0 0
300 7 9.091110090899319 15.996519800377527 14.157596004064231 0 0 0
397 7 10.762650389279372 14.000489053096508 14.159536981609243 0 0 0
398 4 10.95583773166634 15.962171561098883 16.12191870123965 0 0 0
399 7 12.440027087870071 14.055774220645821 16.0638867446915 0 0 0
400 6 12.411227971906795 15.872191860565433 14.15361494883754 0 0 0
497 7 14.357154642125819 14.25464959783376 14.25507285673879 0 0 0
498 6 14.240801913349333 15.94971485343088 16.22025756243456 0 0 0
499 4 16.113556706370513 14.263265732724022 16.153494859306367 0 0 0
500 7 16.09491855030327 15.999318825317728 14.322936586152272 0 0 0

Velocities

1 0 0 0
2 0 0 0
3 0 0 0
4 0 0 0
5 0 0 0
8 0 0 0
21 0 0 0
23 0 0 0
25 0 0 0
101 0 0 0
102 0 0 0
105 0 0 0
121 0 0 0
125 0 0 0
103 0 0 0
104 0 0 0
108 0 0 0
123 0 0 0
201 0 0 0
202 0 0 0
203 0 0 0
204 0 0 0
205 0 0 0
208 0 0 0
221 0 0 0
223 0 0 0
225 0 0 0
301 0 0 0
302 0 0 0
303 0 0 0
304 0 0 0
305 0 0 0
308 0 0 0
321 0 0 0
323 0 0 0
325 0 0 0
401 0 0 0
402 0 0 0
403 0 0 0
404 0 0 0
405 0 0 0
408 0 0 0
421 0 0 0
423 0 0 0
425 0 0 0
22 0 0 0
24 0 0 0
28 0 0 0
41 0 0 0
42 0 0 0
43 0 0 0
44 0 0 0
45 0 0 0
48 0 0 0
122 0 0 0
141 0 0 0
142 0 0 0
145 0 0 0
124 0 0 0
128 0 0 0
143 0 0 0
144 0 0 0
148 0 0 0
222 0 0 0
224 0 0 0
228 0 0 0
241 0 0 0
242 0 0 0
243 0 0 0
244 0 0 0
245 0 0 0
248 0 0 0
322 0 0 0
324 0 0 0
328 0 0 0
341 0 0 0
342 0 0 0
343 0 0 0
344 0 0 0
345 0 0 0
348 0 0 0
422 0 0 0
424 0 0 0
428 0 0 0
441 0 0 0
442 0 0 0
443 0 0 0
444 0 0 0
445 0 0 0
448 0 0 0
61 0 0 0
62 0 0 0
63 0 0 0
64 0 0 0
65 0 0 0
68 0 0 0
161 0 0 0
162 0 0 0
165 0 0 0
163 0 0 0
164 0 0 0
168 0 0 0
261 0 0 0
262 0 0 0
263 0 0 0
264 0 0 0
265 0 0 0
268 0 0 0
361 0 0 0
362 0 0 0
363 0 0 0
364 0 0 0
365 0 0 0
368 0 0 0
461 0 0 0
462 0 0 0
463 0 0 0
464 0 0 0
465 0 0 0
468 0 0 0
81 0 0 0
82 0 0 0
83 0 0 0
84 0 0 0
85 0 0 0
88 0 0 0
181 0 0 0
182 0 0 0
185 0 0 0
183 0 0 0
184 0 0 0
188 0 0 0
281 0 0 0
282 0 0 0
283 0 0 0
284 0 0 0
285 0 0 0
288 0 0 0
381 0 0 0
382 0 0 0
383 0 0 0
384 0 0 0
385 0 0 0
388 0 0 0
481 0 0 0
482 0 0 0
483 0 0 0
484 0 0 0
485 0 0 0
488 0 0 0
6 0 0 0
7 0 0 0
9 0 0 0
10 0 0 0
11 0 0 0
12 0 0 0
27 0 0 0
29 0 0 0
31 0 0 0
106 0 0 0
109 0 0 0
110 0 0 0
129 0 0 0
107 0 0 0
111 0 0 0
112 0 0 0
127 0 0 0
131 0 0 0
206 0 0 0
207 0 0 0
209 0 0 0
210 0 0 0
211 0 0 0
212 0 0 0
227 0 0 0
229 0 0 0
231 0 0 0
306 0 0 0
307 0 0 0
309 0 0 0
310 0 0 0
311 0 0 0
312 0 0 0
327 0 0 0
329 0 0 0
331 0 0 0
406 0 0 0
407 0 0 0
409 0 0 0
410 0 0 0
411 0 0 0
412 0 0 0
427 0 0 0
429 0 0 0
431 0 0 0
26 0 0 0
30 0 0 0
32 0 0 0
46 0 0 0
47 0 0 0
49 0 0 0
50 0 0 0
51 0 0 0
52 0 0 0
126 0 0 0
130 0 0 0
146 0 0 0
149 0 0 0
150 0 0 0
132 0 0 0
147 0 0 0
151 0 0 0
152 0 0 0
226 0 0 0
230 0 0 0
232 0 0 0
246 0 0 0
247 0 0 0
249 0 0 0
250 0 0 0
251 0 0 0
252 0 0 0
326 0 0 0
330 0 0 0
332 0 0 0
346 0 0 0
347 0 0 0
349 0 0 0
350 0 0 0
351 0 0 0
352 0 0 0
426 0 0 0
430 0 0 0
432 0 0 0
446 0 0 0
447 0 0 0
449 0 0 0
450 0 0 0
451 0 0 0
452 0 0 0
66 0 0 0
67 0 0 0
69 0 0 0
70 0 0 0
71 0 0 0
72 0 0 0
166 0 0 0
169 0 0 0
170 0 0 0
167 0 0 0
171 0 0 0
172 0 0 0
266 0 0 0
267 0 0 0
269 0 0 0
270 0 0 0
271 0 0 0
272 0 0 0
366 0 0 0
367 0 0 0
369 0 0 0
370 0 0 0
371 0 0 0
372 0 0 0
466 0 0 0
467 0 0 0
469 0 0 0
470 0 0 0
471 0 0 0
472 0 0 0
86 0 0 0
87 0 0 0
89 0 0 0
90 0 0 0
91 0 0 0
92 0 0 0
186 0 0 0
189 0 0 0
190 0 0 0
187 0 0 0
191 0 0 0
192 0 0 0
286 0 0 0
287 0 0 0
289 0 0 0
290 0 0 0
291 0 0 0
292 0 0 0
386 0 0 0
387 0 0 0
389 0 0 0
390 0 0 0
391 0 0 0
392 0 0 0
486 0 0 0
487 0 0 0
489 0 0 0
490 0 0 0
491 0 0 0
492 0 0 0
13 0 0 0
14 0 0 0
15 0 0 0
16 0 0 0
33 0 0 0
35 0 0 0
113 0 0 0
114 0 0 0
133 0 0 0
115 0 0 0
116 0 0 0
135 0 0 0
213 0 0 0
214 0 0 0
215 0 0 0
216 0 0 0
233 0 0 0
235 0 0 0
313 0 0 0
314 0 0 0
315 0 0 0
316 0 0 0
333 0 0 0
335 0 0 0
413 0 0 0
414 0 0 0
415 0 0 0
416 0 0 0
433 0 0 0
435 0 0 0
34 0 0 0
36 0 0 0
53 0 0 0
54 0 0 0
55 0 0 0
56 0 0 0
134 0 0 0
153 0 0 0
154 0 0 0
136 0 0 0
155 0 0 0
156 0 0 0
234 0 0 0
236 0 0 0
253 0 0 0
254 0 0 0
255 0 0 0
256 0 0 0
334 0 0 0
336 0 0 0
353 0 0 0
354 0 0 0
355 0 0 0
356 0 0 0
434 0 0 0
436 0 0 0
453 0 0 0
454 0 0 0
455 0 0 0
456 0 0 0
73 0 0 0
74 0 0 0
75 0 0 0
76 0 0 0
173 0 0 0
174 0 0 0
175 0 0 0
176 0 0 0
273 0 0 0
274 0 0 0
275 0 0 0
276 0 0 0
373 0 0 0
374 0 0 0
375 0 0 0
376 0 0 0
473 0 0 0
474 0 0 0
475 0 0 0
476 0 0 0
93 0 0 0
94 0 0 0
95 0 0 0
96 0 0 0
193 0 0 0
194 0 0 0
195 0 0 0
196 0 0 0
293 0 0 0
294 0 0 0
295 0 0 0
296 0 0 0
393 0 0 0
394 0 0 0
395 0 0 0
396 0 0 0
493 0 0 0
494 0 0 0
495 0 0 0
496 0 0 0
17 0 0 0
18 0 0 0
19 0 0 0
20 0 0 0
37 0 0 0
39 0 0 0
117 0 0 0
118 0 0 0
137 0 0 0
119 0 0 0
120 0 0 0
139 0 0 0
217 0 0 0
218 0 0 0
219 0 0 0
220 0 0 0
237 0 0 0
239 0 0 0
317 0 0 0
318 0 0 0
319 0 0 0
320 0 0 0
337 0 0 0
339 0 0 0
417 0 0 0
418 0 0 0
419 0 0 0
420 0 0 0
437 0 0 0
439 0 0 0
38 0 0 0
40 0 0 0
57 0 0 0
58 0 0 0
59 0 0 0
60 0 0 0
138 0 0 0
157 0 0 0
158 0 0 0
140 0 0 0
159 0 0 0
160 0 0 0
238 0 0 0
240 0 0 0
257 0 0 0
258 0 0 0
259 0 0 0
260 0 0 0
338 0 0 0
340 0 0 0
357 0 0 0
358 0 0 0
359 0 0 0
360 0 0 0
438 0 0 0
440 0 0 0
457 0 0 0
458 0 0 0
459 0 0 0
460 0 0 0
77 0 0 0
78 0 0 0
79 0 0 0
80 0 0 0
177 0 0 0
178 0 0 0
179 0 0 0
180 0 0 0
277 0 0 0
278 0 0 0
279 0 0 0
280 0 0 0
377 0 0 0
378 0 0 0
379 0 0 0
380 0 0 0
477 0 0 0
478 0 0 0
479 0 0 0
480 0 0 0
97 0 0 0
98 0 0 0
99 0 0 0
100 0 0 0
197 0 0 0
198 0 0 0
199 0 0 0
200 0 0 0
297 0 0 0
298 0 0 0
299 0 0 0
300 0 0 0
397 0 0 0
398 0 0 0
399 0 0 0
400 0 0 0
497 0 0 0
498 0 0 0
499 0 0 0
500 0 0 0
