(written by ASE)

362 atoms
8 atom types

0.0      12.447907775999999  xlo xhi
0.0      12.936245229600001  ylo yhi
0.0      52.360083105400001  zlo zhi

Atoms # atomic

     1   4      1.2289158587380828     0.79967330506050283       15.25379065989042
     2   7      3.5651315031868491     0.96486237416241682      14.777366336506946
     3   5      6.0622087804353395     0.76654809088212505      14.907628024470769
     4   7      8.5230171327890023     0.76121104738011736      14.879089802071389
     5   2      11.535544338132352     0.68301886312333449       15.45676796706813
     6   4     0.30766636724396734      2.6004035331689925      15.001441834098372
     7   2      2.5475004221205264      2.6354779566996265      15.478067894207834
     8   7      4.7886454828551335      2.9861541498785953      14.914894338966921
     9   7      7.2521367300220083      2.7855211927113515      14.777841933320028
    10   7      10.406660541203816      2.2570504733196692      14.674793238255136
    11   7      1.5247159761997084       4.708999129718114      14.938113711305219
    12   4      3.8016859340573657      5.1805338811140036      15.196889577396952
    13   6      6.3808723133536871      5.0592203665952207      15.042391416635276
    14   7      8.9874387210764173      4.3077991987514785      15.358257740279006
    15   7      11.334988804519252      4.7785640554136393      14.802519473811122
    16   6     0.11428640081684176      6.9558624813052372      14.862131200895464
    17   5      2.5932100667545908      7.1204316390767435      14.897183709557188
    18   7      5.0590347391516284      7.1661100763586383      14.573746247901227
    19   6       7.619249029586042      7.2709283902286099      14.815546224197247
    20   7      10.068034725103955      7.0395927469572905      14.872779791674853
    21   7      1.3155975676036165      9.3689177492582214      14.919174975803829
    22   7      3.7027638526784301      9.3326555125060615      14.771415164745395
    23   6      6.1882061109302153       9.361200808021799      14.875551300316786
    24   7      8.8757429080874353      9.4295841132468841       14.76641117981131
    25   6      11.319041697215997      9.2205543194059967      14.962676338287526
    26   7   0.0015656933578443982      11.619883079753185      15.044927064093734
    27   6      2.5608201652974274      11.550569240478293      15.412661573904483
    28   7      4.9395423806682874      11.556216426883916      14.780384937425293
    29   7      7.4827030591710324      11.547676076723461      14.825361017723553
    30   1      9.9627058378058475       11.79287180886522      14.950022979279245
    31   7    0.034121312396312831      1.3334918105862061      17.197549832376836
    32   7      2.6843278471361161      1.1698511283626927      17.110748596388955
    33   7      5.0919977714743476      1.5190307647742096      17.032202362989423
    34   7      7.5447830424062978      1.5089361377148862      16.963676613240761
    35   7      9.9692265338487367      1.2962567841916643      16.867610364179001
    36   7      1.3198890487837618      3.4128713416002325      17.027971666613098
    37   7      3.7117602476794862      3.4759902461956855      17.032822542491882
    38   7      6.2983716763372426      3.6112009236900642      17.019319986068155
    39   3      8.8502825230702964      2.4791759536907678      15.800867913997722
    40   6      11.081777068352762      3.4886842979568744      16.949581858919213
    41   7      0.0855277483955212       5.567027509273438      16.928899533185316
    42   7      2.5503322328992679      5.6326343863066706       17.07534601276916
    43   7      5.0164680035951266      5.6672474015664367      17.154851183235927
    44   7      7.6578819546048305      5.6841901666420096      17.021385610262154
    45   7      10.077009910286014      5.7357892340200962       16.96336404982409
    46   6      1.2521931931678771      7.8063673018476001      17.048118149154721
    47   4      3.7548885447377458      7.8897187985082065      16.726732596914612
    48   1      6.2640591846944185      7.7049169672593418      17.049762885859046
    49   7      8.7988054060576477      7.8678819942325857      16.916704340604372
    50   4      11.217394424300636      7.8521537703939561      17.034890461500559
    51   7   -0.059793872679925968      10.072517505241715       16.99676963138004
    52   7      2.3485186997918741      10.015641064547667      17.316016449174494
    53   5      4.7759971146617488      10.016664150787852       16.89110259671271
    54   6      7.4931934861197984      10.058415016724943      16.933736169722728
    55   7      9.9885002152200606      10.075924951078497      16.978608432330859
    56   7      1.1965449198505211      12.119964475317998      17.298580887875701
    57   2      4.2849782547406665      12.795918558674341      16.281965796786434
    58   7      6.1621327800405217      12.261078500945445      16.911438963331211
    59   7      8.6446468234265552      12.205370760029293       17.03728354407642
    60   7      11.196612820488918      12.225735659875367      17.010488499388991
    61   7   -0.010957611708048903    -0.04304831183463579      19.212703997451122
    62   7       2.443645733269439     -0.1049948130957047      19.197525338329442
    63   7      4.9270829402517116   -0.022071392833537939      18.954605598566317
    64   4      7.4346654767340361     -0.0244274543986133      19.033375085291642
    65   7      9.9332370017673668    0.019858451380590093       19.04984475536908
    66   4      1.3484793202535637      2.0649781024400515      19.198025589400089
    67   7      3.7419845140860768      2.1286686458066244      19.173302081783866
    68   7      6.2874216217360761      2.0840996311575162      19.085020218487355
    69   7      8.7448950227822362      2.1659910909390194      19.022129681372856
    70   7       11.20674443200393      2.1450553499100193       19.07587523673272
    71   7    0.059059116389027985      4.1945601106690829      19.052177207652946
    72   4       2.489373081045688      4.1798997180629165       19.11168544131165
    73   7      5.0323069915270384      4.1993393856524825      19.149270185612544
    74   7      7.5180126086388634      4.2832509251997823      19.065447194789201
    75   7      10.008390318846592      4.3432073981678609      19.024771655236307
    76   7       1.296400974214811      6.3362159029666056       19.11217443074192
    77   7      3.8087636739582913      6.2946205100658794      19.126994990849457
    78   5      6.3643161843145588       6.357691754139446       19.14226216501562
    79   7      8.8154735688882919      6.4773762216104842      19.011105135390199
    80   7      11.334477724148831      6.4741151888826689      19.024540652853599
    81   7     0.24812958687431783      8.9284035763458576      19.111464101075097
    82   7      2.6422140800061147      8.3971222596495991      19.124478263460922
    83   7      5.0223556860485008      8.5122655938691487      19.038126081440392
    84   7      7.5629702883262118        8.58271075071114      19.002834022070328
    85   7      10.053656373875619      8.6400860709130569      19.019474302665905
    86   2      1.9063399257577867      10.183188288821716      19.564347900844393
    87   7      3.7700143996357491       10.70987525305987      19.092603066429831
    88   7      6.2241643739942445      10.783009089455851      18.947753210541286
    89   7      8.7289990397258261      10.818676173966034      19.139503517707922
    90   7      11.187326407227394      10.842830071940789      19.086252430735797
    91   7      1.2625066977987398     0.66018748504573721      21.213038767989559
    92   7      3.6877483342159767     0.68198151239615956      21.121515761937047
    93   7      6.1700491385909251     0.74250296414311701      21.118553477399882
    94   6      8.6237854629547073     0.77416930569329434      21.119776945855389
    95   1      11.302468544424608     0.74059231921428215      21.146048467305917
    96   7    0.099595240956169714      2.8156684359640503      21.150099758844387
    97   4      2.5909059647952151      2.7418548294268335      21.419427736317573
    98   7      4.9857619946297351      2.8120948740762524      21.221891196115259
    99   7      7.4491861517851952      2.9058233664802557      21.089052887626611
   100   7      10.009024482612739      2.8598318451048192      21.074167489608481
   101   7       1.351127150524208      4.8874621551592226      21.157696944221176
   102   1      3.7996019183806333      4.8994628663305395      21.246765546201402
   103   7      6.2589181462953203      4.9775583774732448      21.216951364036941
   104   7      8.7505972235617246      4.9761400543310454      21.069730613112807
   105   7      11.319164160720751      4.9629915384319947      21.107727405695631
   106   7    0.098014055234195083      7.1277385383632081      21.145105863476992
   107   7      2.5736798026325256      7.0613841069809542       21.15410010610163
   108   1      5.0153657835892771      7.0839297850627077      21.177264307522115
   109   7      7.5408132240936041      7.1417740488955328      21.093525993734836
   110   6      10.020334425711084      7.1115758910898217      21.115282750752939
   111   7      1.3255759546374737      9.2445003236190519      21.263069913512435
   112   4      3.7199423648196097      9.3270180311139192      21.132662685781128
   113   6      6.2749609829290174      9.3181659788260021      21.016210019742793
   114   7      8.7505405842425326      9.3823932468918017       21.19589960396511
   115   6      11.244948495332812      9.3877443071983411      21.171202106089517
   116   5    0.084387164138962176      11.418790901470802       21.18953257095102
   117   7      2.4529051631434204      11.422161885734715      21.156921681549196
   118   6       5.005854863759585      11.550434587978208      21.135920748869161
   119   7      7.4941217983634871      11.513501851083177      21.204177051358798
   120   7      10.011051319048692      11.600810931815452        21.2184691069689
   121   7   -0.004836089869810923      1.3103333661927927      23.278132564719744
   122   7      2.4379211698184831      1.2145778528905156      23.260692096807869
   123   7       3.692023789644205    -0.74307207915318174      23.202467231077065
   124   7       7.301309802266517      1.5230087114938549      23.167328201358455
   125   7      10.003148721424362      1.3554694397738352      23.143869400059323
   126   7       1.269390288293931      3.5146870347144432      23.256480903839059
   127   3      3.1052634173039855      2.9213520384516536      23.511573561891815
   128   7      4.9861384298853455      3.3002113189954065      23.667812092413627
   129   7      8.7080538291138563      3.5477618859715947      23.073736210669768
   130   7      11.223312652396046      3.5102801421563412      23.182147358262494
   131   5     0.05908543194211742      5.6569431843083802      23.161675989697237
   132   7      2.5561658855376326      5.6616174084317086      23.182367523155936
   133   7      5.1360839891658543      5.6440841696938948      23.303954914987681
   134   4      7.6277279583303494      5.7621786900005505      23.067498351850155
   135   7      10.034426882360592      5.6516129177191914       23.15852429100649
   136   7      1.3115904995681023      7.8014564813337213      23.223479654067901
   137   7      3.8029512691954923       7.840147623645227       23.14859819990869
   138   7      6.3470301288850051      7.8963473643750062      23.153830900518049
   139   7      8.7741112456105075      7.9012531897110732      23.192437726091256
   140   7       11.28295538944586      7.8541980051765536      23.240327314088457
   141   4     0.13480628280177331      9.9872075920380627      23.333510862530645
   142   7      2.5630266517269837      9.9876073431939094      23.290059905032905
   143   7      5.0514227487771848      9.9774444032006446      23.170187498221214
   144   4      7.5512658635724268      10.107461640112273      23.347717336321708
   145   7      10.004410419944895      10.077732919432872       23.27276291548386
   146   7      1.2217500842780622      12.073248690203497      23.298487992022476
   147   2      4.7908618389802884      11.356949192431117      24.487114338531743
   148   7       6.204304700549379      12.242404386735871      23.312307428389175
   149   7      8.7146317564724853       12.23506974173489      23.262942612847006
   150   4      11.266808967871007       12.09805433442213      23.239370958073973
   151   7     0.05095710614760568    -0.10251737015410972      25.377678089450239
   152   7      2.5457629184051545    -0.23056710533575275      25.473437513878093
   153   7      5.0035259441691657     -0.1362695650989991      25.699643682671255
   154   7      7.5138556508529639    -0.12464914894139829       25.35424955680277
   155   7        10.0495452067795    -0.10673366438883025       25.30869141415485
   156   7      1.2542726098177328      2.0465184988734619      25.314558366499792
   157   7      3.7220196566483978      1.8534452590386878      25.152697443270029
   158   7      6.1850748108922975      1.8483115134717039      25.261139464165268
   159   6        8.73028134924472      2.0481106175699986      25.143944426312753
   160   7      11.236464424605176      2.0228805592680681      25.298287975366101
   161   7   0.0014810195637823586       4.170089038940973      25.257563993097659
   162   4      2.8723661223323704       4.120574492391091      25.045873898219703
   163   2      4.9363455992269669      4.6140237722256332      25.511527326550581
   164   6      7.1478900822280176      4.1422286476178654      24.971652781817888
   165   7      9.9386542879343338      4.2187934507588043      25.207946756923221
   166   7      1.2975198785906561      6.2774371845993597      25.217453842557884
   167   7      3.7641472785621417      6.3683300117272772      25.215379470068381
   168   6      6.2874323202666673      6.5548140217004169      25.306152250310848
   169   7      8.7735401703717031      6.3984017906654653      25.159358245193189
   170   7      11.288326647514298      6.3502562477099218      25.245365593502527
   171   7    0.073961095667037721      8.5219882700084426      25.325005381183296
   172   7      2.5090264296168363      8.4835951710604007      25.227870507399732
   173   7       4.971238418903833      8.5781882199817669      25.179528644236534
   174   7      7.5697589787734376      8.6497094062235806      25.289370303493225
   175   7      10.035118815274842       8.565436886490895      25.269137549218424
   176   7      1.3107669491711844      10.661345895204274      25.394836054488046
   177   7      3.7272466422338084       10.45850459364789      25.909549169940906
   178   7      6.2940107849169182      10.661679664275225      25.442634545099118
   179   7      8.8070207377767336      10.751894545117084      25.376825617591983
   180   7      11.311613219035859      10.690453140574519      25.269933095546651
   181   4      1.3424402721360391     0.62087530494044918      27.442494449826256
   182   7      3.8306472022008728     0.75652920450120364      27.711707784008642
   183   7      6.2829724339282773     0.75919283373220559      27.685610069741326
   184   1      8.7172254896615229     0.65113703571892945      27.403004686618406
   185   5      11.301906262723257     0.63922149912684023      27.500059398960001
   186   4   -0.058344532398463447      2.6839835117869435      27.348001376144559
   187   7      2.5829678395186915      2.7564948079528473      27.155920195305963
   188   7      5.0097702816772385      2.9230779181598407      26.961271773840483
   189   7      7.4763217197349796      2.7869898277117588      27.231020246780584
   190   7      9.9677440973233313      2.7629263308915366      27.265936605131571
   191   6      1.2795720849852956      4.8510062600759021       27.30285518707618
   192   7       3.769508953072187      4.9748538380126677       27.21064914086497
   193   7       6.205709453665329      4.9892086524646793      27.222519817797476
   194   7      8.6298366819880261      4.9654587333875266      27.123734132984175
   195   5      11.149262576973058      4.9474571760128629       27.24274884089181
   196   4    0.025073599807297987       7.102162700180247      27.252386622230251
   197   7      2.4971139781573113      7.0417215144029752      27.238801190634266
   198   7      4.9382788102164126       7.146015007353018      27.313500913331797
   199   7      7.4700805771928014       7.209329157219015       27.36888756165866
   200   7      9.9725725404756211      7.1301400078747061      27.260799392639875
   201   7       1.709547421271491      9.2797501205595552      27.457606726068811
   202   2      3.7839812668660717      9.8085482456946611      27.967522721038808
   203   7      5.8804895760143427      9.3022434251373394      27.417350738294335
   204   7      8.6851214234759873      9.3121732083645625      27.356970565514068
   205   4      11.135113319366758      9.3052086717021272      27.352464189683975
   206   7    0.022069003459636822      11.448992025767708      27.407606190470144
   207   7      2.5562523781694857      11.546346781458384      27.663031512529109
   208   7      5.0044569580510352      11.526120094565094      27.718390521931898
   209   7      7.4530183583202865       11.46471521647975      27.445131665749866
   210   3      11.031777439577075      10.890787026201625      28.467953681076182
   211   7    0.044407769671367676       1.419263714987463      29.666931841958672
   212   7      2.5255220167329724      1.4614037013065537      29.886042858197424
   213   7      4.9931052485342704      1.4685375374786491      29.879789022693679
   214   6      7.4812460467404112      1.5236118258541758      29.897397244093135
   215   7      10.028540410890461       1.502178101006731      29.696825840885364
   216   3        1.42690469454486      2.1956432983669556      28.546251117637109
   217   7      3.6828054512937825      3.5029469335242984       29.17417739996575
   218   7      6.1389276973707716      3.4716228251360945      29.126059004514474
   219   7       8.716451712751061      3.5376996805584029      29.158822287941863
   220   7       11.22901101371623      3.5586333134689725      29.291122589163987
   221   7    -0.04566242431870577      5.6899339130274917      29.251379214388507
   222   7        2.49217253450758      5.7239851699352453      29.315415513660849
   223   7      4.9338470523485229      5.6607461328203836      29.272063183083681
   224   7      7.4561147351536503      5.6359216673375068      29.265575209125803
   225   7      9.9628327346708492       5.655231745941486      29.216080787008067
   226   3     0.22523082239124592      8.5660617802722427      28.379065263679465
   227   7      3.6576105867895232      7.9903641038153124      29.182372058516734
   228   7      6.1811761251660426      7.7668745816449229      29.386101333763278
   229   7      8.7474870716638797      7.7696722595825616      29.405954600966325
   230   7      11.254889929785969      7.7937340954075678      29.377144432025194
   231   7    0.057070562225766897      10.010086071016429      29.512217626082904
   232   7      2.5146314551820259      10.087828650661276      29.637485959428886
   233   7      4.9420236120612868      10.029326141901704      29.622564366247182
   234   6      7.4212684378176528      9.9176593270538067      29.420312210616668
   235   5      9.9092422762342203      9.8767946022548117      29.528728752490462
   236   7      1.3225764873249524      12.217109881587993      29.637807237256599
   237   7      3.7797601286635452      12.241955996487997      29.751839510452719
   238   7      6.3005286639114084      12.184173892209186      29.680698996663061
   239   6      8.8517437581234102      12.138066472832641      29.552022476710363
   240   7      11.342999306759493      12.242778277298649      29.665754436422588
   241   7    0.099604826065980367    -0.03608727939291554      31.819914020418093
   242   7      2.5508257486117962     -0.1066965820443794      31.809814502919483
   243   7      5.0505517096767969    -0.14007117132747104      31.769861980942611
   244   7      7.5246976390734392    -0.10451599964032739      31.829509736609516
   245   6      10.044342643109024  -0.0020356221942570882       31.85194150633416
   246   7      1.3824741365091884      2.1361917308018907       32.04979870693743
   247   4      3.8192125102814543      2.1154532005187399      31.941004981020061
   248   7      6.2369392348154147      2.0627577554751584      32.139117769924205
   249   7      8.7420410966076414      2.1433764755688438      32.059082666606443
   250   6      11.414106326164545      2.3805726040448842      31.777855917735117
   251   4      1.1000648218263576      3.6464676927320645      29.714413459554123
   252   7      2.6175224867392126      4.1229062819382012      31.262768075229488
   253   7       5.025273863820809      4.0387943862865106      31.179245662651308
   254   7      7.4376388246796479       4.013300082734589      31.153009447986605
   255   7      9.8799034523232621      4.1470929137869961      31.181271118248187
   256   7      1.2366786932178278      6.2518621442240345      31.296188539290103
   257   7      3.7751339894970881      6.2876760194994903      31.321388067493974
   258   7      6.2440622544717872      6.2407112158410323       31.33984270784303
   259   7      8.7165549359274141      6.2645886004995726      31.343283730632233
   260   7      11.210778036008691      6.2303885675255977      31.330997898706389
   261   7    0.031409577831435935      8.4770682463374971      31.471662788654001
   262   7      2.5645511083710208      8.4415915767685377      31.466656951980351
   263   1      5.0078182966346114      8.4018906698565665       31.41640604691856
   264   7      7.4953913282267912      8.4062643817251814      31.496461808555583
   265   7      10.032550052834591      8.4070972913671724      31.527328403032975
   266   5      1.2871686433543041      10.662680743086749      31.630882632721825
   267   7      3.7593001709710876      10.608953087295989      31.730666391346485
   268   7      6.2661604680098915      10.602988568984486      31.659970111860307
   269   7      8.7550235287511526      10.592181418010782      31.612897776985218
   270   7      11.268303339933045      10.635314355147312       31.64481531379877
   271   7      1.2918221425295158     0.50535016163810964      33.974103715661983
   272   6      3.8546736605933405     0.46102478534702362      33.882214597426596
   273   7       6.339770489983529     0.43774515149948695      34.029457221676608
   274   7      8.7724575362394113     0.47543088054930149      34.014477422209758
   275   4       11.27734923040347     0.51878806260495935      33.938044872700807
   276   7    0.048120758000104728      2.6665371617143148      34.207112439202312
   277   4       2.457756212647991      2.7706130642745701       34.22782745261771
   278   6      5.0286682936374154      2.7422283962205221      34.394111246436587
   279   4       7.479745993776401      2.6999845769420516      34.212605982655433
   280   6      9.9807302753980096      2.7131713083439033      34.260379007173782
   281   7       1.197942738105753      4.5260437118753032      33.102409238222606
   282   7      3.8145233585485299      4.5910254592400879      33.230947778115123
   283   7      6.2544815975410257      4.6018790939794698      33.196820810820626
   284   7      8.7070243217117813      4.6005409058996563      33.207167137260114
   285   7      11.220563957572072      4.6150497019884673      33.168345332368901
   286   7   -0.025201633841351542      6.8368591867898871      33.358577204928395
   287   6      2.4668353148775841       6.693215335036812      33.443613471200365
   288   7      4.9889862335820716      6.8508801416014338      33.429658546126184
   289   6      7.5019833445172663      6.8025071147242944       33.51643432864617
   290   7      9.9867923203263871      6.8248672380071636      33.447309272753401
   291   6      1.2688563630107612      9.0329172223232401      33.581400688926017
   292   4      3.7832782176343471      9.0283829860789204      33.668447620343628
   293   7      6.2132601278424788      8.9902839309946891      33.586251164148237
   294   7      8.7617072404883309      9.0137494999509542      33.590741465619345
   295   4      11.158777692459372      9.0530279683319712      33.549337504025885
   296   7    0.010906136944387789      11.254380616653025       33.71217241142412
   297   7      2.5377191318963415      11.215906248822195      33.764754929751135
   298   7      5.0437067233153812      11.161836362520557      33.784278418587355
   299   7      7.5465911775286587      11.147173059206406      33.745916698271593
   300   5      10.004408922534612      11.159989582307881      33.684414421127315
   301   7     0.03890521176577566      1.0371275729202718      36.127226109711351
   302   6      2.5409588619531234       1.023523088621866      36.179633319730527
   303   7      5.0166370001783127       1.014090406250461      36.194276474932892
   304   6      7.4662634351040378      1.0722614089815816      36.237940797806104
   305   7      10.028061742986912      1.0328904948783331      36.157115735600641
   306   4      1.2300544693275226      3.2648503188479405      36.328150383784411
   307   7      3.6808543203512043      3.2459975636380665      36.602042120091902
   308   7      6.2024259916211308      3.2538793679147799      36.582467979186852
   309   7      8.7258760252642897      3.2143665706567575      36.417444093465612
   310   7      11.202896404950861      3.2143441368213455      36.407540446223408
   311   7    0.048198020288133907      5.1826051157537876      35.181353217883448
   312   7      2.5381970608563784      5.0677297698228454      35.341089059521693
   313   7      4.9930308864810407       5.173645740422848      35.304568456832186
   314   7      7.4845456313736634      5.0355764932997724      35.359977699676641
   315   7        9.97668893076019      5.1279630774623444      35.310842507170982
   316   7      1.2751153589914357      7.3353479597897318      35.563833799158509
   317   7      3.7649074344659499       7.375887247653611      35.544843098048084
   318   7      6.2492375809825056       7.266547423558432      35.657864717959484
   319   5      8.7758102596675069      7.2071426439410571      35.626741474758433
   320   7      11.233287386700958      7.3584116519557341      35.482017736242419
   321   7    0.025154045784149467      9.4742386398146223      35.678011629889163
   322   7      2.5381530645081876      9.5099952890045785      35.735994965800764
   323   7        4.97990404846486       9.488512722917239      35.738620527134351
   324   6      7.4559600625183649      9.4285129477955216       35.74629902072887
   325   7       10.00814237652442      9.4805798206223386      35.689957287443804
   326   6      1.3329845251626795      11.679058795728011      35.930702187297335
   327   7      3.8396784664112298      11.703647748127345      35.902610579506316
   328   7      6.2334949346924455      11.716765502668625      35.908873968706423
   329   6      8.7419283509868908      11.754789288990453      35.963122140588588
   330   6      11.263328096778595      11.721918818578345      35.956159306108859
   331   7    0.065203229461841525    -0.60044284108457879      38.076878257478448
   332   7       2.606563565840295    -0.72452308175219515      38.090303672001134
   333   4      5.0184620787586454    -0.65340810956986872      37.948819918530901
   334   7      7.4426669854778771    -0.71601334583989606      38.115001895796929
   335   7      10.025943782780555    -0.62957056489697838      38.134766167545706
   336   7      1.3059746561642276      1.6202867401461432      38.221570807935045
   337   7      3.8063101035368136      1.3829723650382528      38.304780273890792
   338   7      6.2215486618268914      1.4181735800981321      38.364414636409556
   339   7      8.8006378791929816      1.5445402900880583       38.29236070135007
   340   7      11.259397622920359      1.5036034840757042       38.26286568102708
   341   7    0.046591514993122071      3.6414096654508854      38.538102897381869
   342   7      1.3376314821280826      5.7103075089288735      37.435387388832858
   343   3      4.8977742460146247      4.4945430062558138      37.110870094533873
   344   7      7.5836763703903918      3.7360945971938428      38.471693302138192
   345   7      10.000093584251507      3.7529677423357559      38.473803799494874
   346   3   -0.049444968483500815      4.5873876735687142         36.966046681022
   347   7       3.732106475984998      5.8499163709507256      37.429113313063411
   348   5      6.2680893938910396      5.6522151088064483      37.540853783796834
   349   4      8.7378650758117775      5.5702876814011191      37.410163573036776
   350   7      11.153330997577021       5.812364327907372      37.464783518626142
   351   7    0.013610629231030135      7.9802217327455933      37.635614805042913
   352   7      2.4789342323515728      7.9648504967110298      37.626658345177511
   353   7      5.0137993573169028      7.9449786731316152      37.681130648050413
   354   6      7.5130385151356469      7.8075577330937751      37.922144300673132
   355   7       10.01582224364715      7.9479733989728665      37.608725531894351
   356   7      1.2234316651462227      10.093275348606848      37.848863516228498
   357   7      3.8100068490764163      10.132071934133149      37.832811203726095
   358   7      6.2262191815678696      10.138362434284232      37.876983126664946
   359   7      8.8141220533574618       10.07756312598919       37.88889250931512
   360   4      11.238944952882841      10.073415757880804      37.871199432830771
   361   8      7.7535209411361592      6.4583324350667715      39.332251795222419
   362   8      7.8066135659622322       7.093946993546397      39.884304202029384
