(written by ASE)

362 atoms
8 atom types

0.0      12.447907775999999  xlo xhi
0.0      12.936245229600001  ylo yhi
0.0      52.360083105400001  zlo zhi

Atoms # atomic

     1   4      1.2289158587464428     0.79967330507111911      15.253790659928212
     2   7      3.5651315031909898     0.96486237417294241      14.777366336544656
     3   5      6.0622087804351823     0.76654809089318443       14.90762802450897
     4   7      8.5230171327849771        0.76121104739098      14.879089802107067
     5   2      11.535544338123666     0.68301886313348514      15.456767967099974
     6   4     0.30766636725415858      2.6004035331773094      15.001441834137205
     7   2      2.5475004221282069       2.635477956709475       15.47806789425484
     8   7      4.7886454828577651      2.9861541498874815       14.91489433901174
     9   7      7.2521367300196591      2.7855211927202741      14.777841933361829
    10   7      10.406660541196576       2.257050473328202      14.674793238289864
    11   7      1.5247159762089144      4.7089991297238445      14.938113711350443
    12   4      3.8016859340628608      5.1805338811198416      15.196889577449117
    13   6      6.3808723133532803      5.0592203666013233      15.042391416685847
    14   7      8.9874387210704114      4.3077991987595921      15.358257740326264
    15   7      11.334988804510211      4.7785640554190323      14.802519473849152
    16   6     0.11428640082871602      6.9558624813065526      14.862131200939107
    17   5      2.5932100667625368      7.1204316390784239      14.897183709607345
    18   7      5.0590347391540602      7.1661100763602645      14.573746247950222
    19   6      7.6192490295829751      7.2709283902301953      14.815546224247548
    20   7      10.068034725096179      7.0395927469592818       14.87277979172063
    21   7      1.3155975676137968      9.3689177492548712      14.919174975851552
    22   7      3.7027638526840905      9.3326555125027966      14.771415164796167
    23   6      6.1882061109303397      9.3612008080187277      14.875551300369208
    24   7       8.875742908081854      9.4295841132440206      14.766411179859404
    25   6      11.319041697206091      9.2205543194037514      14.962676338330782
    26   7   0.0015656933698394119      11.619883079745584       15.04492706413579
    27   6      2.5608201653055214      11.550569240469265      15.412661573956083
    28   7      4.9395423806711536      11.556216426876356      14.780384937473688
    29   7      7.4827030591684514      11.547676076716044      14.825361017771741
    30   1      9.9627058377986408      11.792871808857848      14.950022979323714
    31   7    0.034121312411828066      1.3334918105998916      17.197549832427057
    32   7       2.684327847145267      1.1698511283780995      17.110748596444203
    33   7      5.0919977714775921      1.5190307647896657      17.032202363047773
    34   7      7.5447830424027877      1.5089361377303261      16.963676613296105
    35   7      9.9692265338401249      1.2962567842054744      16.867610364226554
    36   7      1.3198890487977559      3.4128713416110084      17.027971666672851
    37   7       3.711760247686954      3.4759902462075178      17.032822542557007
    38   7      6.2983716763371325      3.6112009237025644      17.019319986134764
    39   3      8.8502825230645961      2.4791759537007856      15.800867914043232
    40   6      11.081777068339617      3.4886842979678048      16.949581858971694
    41   7    0.085527748413689791      5.5670275092792947      16.928899533245829
    42   7      2.5503322329117157      5.6326343863137103      17.075346012840217
    43   7      5.0164680035990479      5.6672474015744125      17.154851183312378
    44   7      7.6578819545996764      5.6841901666496195       17.02138561033458
    45   7      10.077009910273974      5.7357892340268997      16.963364049887986
    46   6      1.2521931931847081      7.8063673018480344      17.048118149225285
    47   4      3.7548885447457652      7.8897187985088397       16.72673259698735
    48   1      6.2640591846938882      7.7049169672615188      17.049762885938666
    49   7      8.7988054060485172      7.8678819942339606      16.916704340676525
    50   4      11.217394424284763       7.852153770395466      17.034890461564277
    51   7   -0.059793872660355289      10.072517505234483      16.996769631442877
    52   7      2.3485186998064784      10.015641064540491      17.316016449254629
    53   5      4.7759971146665823      10.016664150781311      16.891102596789437
    54   6      7.4931934861148006      10.058415016718456      16.933736169798639
    55   7      9.9885002152077771      10.075924951072441      16.978608432399675
    56   7      1.1965449198668741      12.119964475303417      17.298580887941664
    57   2      4.2849782547461022       12.79591855866035      16.281965796844876
    58   7      6.1621327800403991      12.261078500930232      16.911438963401419
    59   7      8.6446468234189311      12.205370760014945      17.037283544144614
    60   7      11.196612820474931      12.225735659862925      17.010488499447664
    61   7   -0.010957611687223945   -0.043048311812475037      19.212703997514161
    62   7      2.4436457332841597    -0.10499481307118172      19.197525338402095
    63   7       4.927082940256799   -0.022071392808278377      18.954605598640367
    64   4      7.4346654767292311   -0.024427454372286436      19.033375085364462
    65   7      9.9332370017537439    0.019858451404464378      19.049844755432229
    66   4      1.3484793202738485       2.064978102458789      19.198025589481389
    67   7      3.7419845140980836      2.1286686458270876      19.173302081872411
    68   7      6.2874216217362457      2.0840996311798765      19.085020218575725
    69   7      8.7448950227709883      2.1659910909601661         19.022129681454
    70   7      11.206744431984234      2.1450553499292484      19.075875236801128
    71   7    0.059059116417138527       4.194560110681449      19.052177207736815
    72   4      2.4893730810648003      4.1798997180781523      19.111685441407847
    73   7      5.0323069915334342      4.1993393856704477      19.149270185716212
    74   7      7.5180126086315733      4.2832509252179358      19.065447194889344
    75   7      10.008390318828894       4.343207398183992      19.024771655323825
    76   7      1.2964009742415064      6.3362159029745095      19.112174430843989
    77   7      3.8087636739722055      6.2946205100761974      19.126994990963905
    78   5       6.364316184312476      6.3576917541513511      19.142262165132617
    79   7      8.8154735688735038      6.4773762216209461      19.011105135495573
    80   7      11.334477724123477      6.4741151888917399      19.024540652942818
    81   7     0.24812958690730902       8.928403576342161      19.111464101175525
    82   7      2.6422140800278502      8.3971222596492936      19.124478263579025
    83   7      5.0223556860551328      8.5122655938699996      19.038126081564361
    84   7      7.5629702883164382      8.5827107507123568      19.002834022189028
    85   7       10.05365637385435      8.6400860709128864      19.019474302770821
    86   2      1.9063399257851839      10.183188288809859      19.564347900971551
    87   7      3.7700143996502433       10.70987525304551      19.092603066550986
    88   7      6.2241643739929264      10.783009089443279      18.947753210660842
    89   7       8.728999039709441      10.818676173953902      19.139503517824497
    90   7      11.187326407200699      10.842830071929514      19.086252430833266
    91   7      1.2625066978252779     0.66018748506981551      21.213038768094144
    92   7      3.6877483342362583     0.68198151241700633      21.121515762056521
    93   7      6.1700491385944991     0.74250296417649808      21.118553477523307
    94   6      8.6237854629398587     0.77416930572936915      21.119776945971577
    95   1      11.302468544395325     0.74059231924368762       21.14604846739493
    96   7    0.099595240998117132      2.8156684359771034       21.15009975896395
    97   4      2.5909059648290071      2.7418548294382754      21.419427736448661
    98   7      4.9857619946436316      2.8120948741021161      21.221891196250091
    99   7      7.4491861517783509      2.9058233665113522      21.089052887760204
   100   7      10.009024482587455       2.859831845128002      21.074167489720971
   101   7      1.3511271505688092      4.8874621551707254       21.15769694435911
   102   1       3.799601918401037      4.8994628663489213      21.246765546361249
   103   7      6.2589181462937233      4.9775583775001779      21.216951364201421
   104   7      8.7505972235399589      4.9761400543576366      21.069730613258226
   105   7      11.319164160684354      4.9629915384537409      21.107727405816959
   106   7    0.098014055291164595      7.1277385383716929      21.145105863625925
   107   7      2.5736798026698327       7.061384106997509       21.15410010627857
   108   1      5.0153657835949321      7.0839297850822573      21.177264307714129
   109   7      7.5408132240755554      7.1417740489172221      21.093525993911062
   110   6       10.02033442567558      7.1115758911065079      21.115282750911454
   111   7      1.3255759546868573      9.2445003236142878      21.263069913695205
   112   4      3.7199423648484982      9.3270180311171877      21.132662685992216
   113   6       6.274960982914279        9.31816597883547      21.016210019947543
   114   7      8.7505405842124144      9.3823932468952354      21.195899604156072
   115   6      11.244948495283543      9.3877443071958737      21.171202106250014
   116   5    0.084387164198688233       11.41879090144371      21.189532571113244
   117   7      2.4529051631721033      11.422161885700898       21.15692168174003
   118   6      5.0058548637715479       11.55043458794936       21.13592074908215
   119   7       7.494121798332424       11.51350185106425       21.20417705156953
   120   7      10.011051319013268      11.600810931788924      21.218469107150202
   121   7  -0.0041960607647850787       1.310079438335326      23.278037480730735
   122   7      2.4385604779044341      1.2141828427735342       23.26041350086286
   123   7      3.6927056794919748    -0.74362435776138835      23.202979002300097
   124   7      7.3019490423099782      1.5229484582640451      23.167145765136091
   125   7      10.003730768724846       1.355247624098008      23.143778909408162
   126   7      1.2701497510446935      3.5145771274082827      23.256681979435893
   127   3      3.1060436582224522       2.920913742737723      23.511670810499417
   128   7      4.9871462484190339      3.2996627826167049      23.667809494691603
   129   7      8.7085691445731683      3.5475104668974771      23.073816161020297
   130   7      11.224011306033498      3.5102199104992877      23.182193802943292
   131   5     0.05963558659933408      5.6568773798026326      23.162016016510442
   132   7      2.5567065568926086      5.6616682926620676      23.182711782551124
   133   7       5.136628062509784      5.6438308986745866      23.304592765091115
   134   4      7.6281017649852902      5.7620014017089609      23.067698500138228
   135   7      10.034824799656906      5.6514981435076876      23.158537979787461
   136   7       1.311956080937128      7.8012594494419245      23.223718537239591
   137   7       3.803579326795397      7.8400377561032286       23.14895596100046
   138   7      6.3474405062340686      7.8962193759772434      23.154311464323797
   139   7         8.7744045946095      7.9011811004940329      23.192839612902947
   140   7      11.283198426764439      7.8541943076426008      23.240471620692606
   141   4     0.13511258502353707      9.9870311061808668      23.333666826999242
   142   7      2.5633215148822455      9.9872452330419605      23.289988363981095
   143   7      5.0518678840740137      9.9774377382161319       23.17070559546298
   144   4      7.5515610361934682      10.107354617708355      23.348587532191281
   145   7      10.004625260169826      10.077693039663309      23.273167851629498
   146   7      1.2222733458099508      12.072941662424718      23.298618580366611
   147   2      4.7918633226185516      11.356785774506923      24.488101240838969
   148   7      6.2047985085739361      12.242494991411007      23.313083368056201
   149   7      8.7148793094727139      12.235017588139328      23.263535304309926
   150   4      11.267257190126706      12.097881925415152      23.239564722514356
   151   7    0.052001047526484871    -0.10289057886593331      25.377892635716655
   152   7      2.5466412477227038    -0.23101239850645755      25.473959733035411
   153   7      5.0043437186182897    -0.13702921250445405      25.701510877587964
   154   7      7.5148360550325597    -0.12579068535853052      25.356329859563623
   155   7      10.050475797611185    -0.10718819678291003       25.30937317569634
   156   7      1.2555251739517836      2.0459817291803293      25.314400566667423
   157   7      3.7230982205205496      1.8524507487843616      25.152070622155239
   158   7      6.1860377890892391      1.8466963295152641      25.260556868060235
   159   6      8.7311389379188054      2.0468829302167726      25.144035672229677
   160   7      11.237647764366322      2.0225598204272193      25.297875373211042
   161   7   0.0026705983262007519      4.1698738430219917      25.257949654807646
   162   4      2.8737679624973427       4.120313861141522      25.045912870550143
   163   2      4.9374910247150874      4.6143971969250011      25.511605946421081
   164   6      7.1485698934723807      4.1414014602100959      24.971739107843323
   165   7      9.9393817087145351      4.2181511873467175      25.207673546556919
   166   7      1.2985179352500889      6.2771217830898367      25.218225684064659
   167   7      3.7651842454986117      6.3684068072728692      25.216119515703209
   168   6      6.2886666543779093      6.5545116095774123      25.306962857112115
   169   7      8.7744264982128346      6.3979193016959615      25.159712446154849
   170   7      11.289005890615034      6.3500855323347603      25.245454722102551
   171   7    0.074724751003261106      8.5216075756418128      25.325317963770424
   172   7      2.5099014344689969      8.4833691468740575      25.228162056001885
   173   7      4.9724170770145069      8.5779080889881207      25.180534259312822
   174   7      7.5707302036640538      8.6494258302849385      25.290686912128425
   175   7      10.035760031355037      8.5651925052987021       25.26982731948625
   176   7      1.3116795689892762      10.660971447843119      25.395141097602618
   177   7      3.7283405279423127       10.45793896770547      25.910601012414546
   178   7      6.2947693233448394      10.661251805668918      25.444268626846682
   179   7      8.8079566452529026      10.751294738724495      25.378319106485879
   180   7      11.312470076912465      10.690109650407718      25.270248171602439
   181   4      1.3442725298016864      0.6210469082315826      27.443502407755439
   182   7      3.8324188761715936     0.75636161597151075      27.713322392513184
   183   7      6.2843084374562777     0.75826765162643628      27.687798218530762
   184   1       8.718770184068612     0.64979816516268096       27.40504966508858
   185   5      11.303798947550236     0.63935540470345575      27.499596249001598
   186   4   -0.055883224307252982       2.683427935179802      27.347545958585997
   187   7      2.5849762868446104      2.7559016417501856      27.155295981360961
   188   7      5.0112389301678713      2.9229641359515921      26.959613241816712
   189   7      7.4774690428633601      2.7854457355826208      27.229902337558382
   190   7      9.9692787311939792      2.7618146066714533      27.264968025623741
   191   6      1.2813553306219345      4.8504007621643543      27.303865820337002
   192   7      3.7712241789201175      4.9746830359914673      27.211207283261221
   193   7      6.2074334704154808      4.9885782107808154      27.223046339829594
   194   7      8.6310047472026561      4.9645194926028182      27.123740068998792
   195   5      11.150446461501298      4.9472196908029682      27.242187911915451
   196   4    0.026060379900628046      7.1013508046984137      27.252756477405544
   197   7      2.4985360357368172      7.0416261431230529      27.239727334625631
   198   7      4.9401393537956553      7.1454873793855018       27.31485698683808
   199   7       7.471491906634685      7.2086768208998304      27.370541881192313
   200   7      9.9734379078049962      7.1298130261446193       27.26156255427642
   201   7      1.7103198089744798      9.2794668456547562      27.457823367844949
   202   2      3.7859131531747887      9.8078525796350089      27.968798623692489
   203   7      5.8829229818624347      9.3013283755003915      27.419553568982625
   204   7      8.6862536470772032       9.311605004345056      27.359288172390066
   205   4      11.136136420250939      9.3046943136542382      27.352908605594525
   206   7     0.02259840896483143      11.448923503705894      27.407988703457182
   207   7      2.5574461223861964      11.546031273379517      27.663417854239153
   208   7      5.0057793630291236      11.524993219664495      27.720060335670588
   209   7      7.4542759616716046      11.463381711247132      27.447985192310085
   210   3      11.032662984099849       10.88932271247147      28.468975400758055
   211   7    0.046647340993013299      1.4182482636555629      29.665846811897371
   212   7      2.5276046400463308      1.4609751604617518      29.886561887563921
   213   7      4.9946167838168343      1.4677229678558381      29.882260956657202
   214   6      7.4821473771533178      1.5208891133628291      29.899813872144772
   215   7      10.029980004203217      1.5008052737626529      29.696327278405754
   216   3      1.4295989309189698      2.1970041180894944      28.546872365920411
   217   7      3.6845793772319326      3.5018688480155125      29.173959247064644
   218   7      6.1403413984523363      3.4688767723294811      29.124870366249187
   219   7      8.7174393788858371      3.5350760875808347      29.157121904232518
   220   7      11.231320344189051      3.5571148101054089      29.288674475746745
   221   7   -0.044103006147014075      5.6888707591335566       29.25125230588479
   222   7      2.4952075490789447      5.7229544218102983      29.315807761759032
   223   7      4.9369492211204946      5.6594835377876089      29.273045837029791
   224   7      7.4581482772022714      5.6344460556859195      29.266365727162697
   225   7      9.9639264574279842      5.6540630152260025      29.215488230179211
   226   3     0.22628125571466939      8.5651806373880497      28.379397049143499
   227   7      3.6602164194735471      7.9889279111395846       29.18388549668256
   228   7        6.18361530920013      7.7655765162110972      29.389225613340454
   229   7      8.7491101890718692      7.7686724133728955      29.408944523672147
   230   7      11.256021134713279      7.7932440641573004      29.377947220901547
   231   7    0.059036792590808206      10.009759678821256      29.511839387510928
   232   7      2.5164111283559283      10.086633237136708      29.637200600951751
   233   7      4.9440837361822076       10.02758295686287      29.624535167342618
   234   6      7.4234163660732015      9.9156009504654996      29.424544175907755
   235   5      9.9110984441272265      9.8760177237935061       29.53188804572871
   236   7      1.3245009348977028      12.216403939546032       29.63826987011489
   237   7      3.7814631704525823      12.240989177783982       29.75239567061012
   238   7      6.3019102915893974      12.181584790791632      29.683442999829953
   239   6      8.8528792987266716      12.136174992278221      29.555676232230581
   240   7      11.344722131235688      12.242154043159779      29.665515925873237
   241   7     0.10248887665358013   -0.036798870839009776      31.819836585368432
   242   7      2.5539046171945334    -0.10657531808603531      31.810004580764733
   243   7      5.0532602696645759    -0.14124120048462765      31.770134832664279
   244   7      7.5267556397682505    -0.10879515121966345      31.833261928302644
   245   6      10.046981709270906  -0.0043388970329017625      31.852903284137685
   246   7      1.3855903191670127      2.1365690693689556      32.048645340211401
   247   4      3.8219398438835825       2.116729549040413      31.944076225138126
   248   7       6.238947856388517      2.0617352485961318      32.142172750924061
   249   7      8.7441741832485924      2.1407563690099636      32.058169840640353
   250   6      11.415931398469191      2.3782021296439049      31.775731376386318
   251   4      1.1023245335938145      3.6459237082701552      29.717815082289952
   252   7      2.6237287907977449      4.1241394569801768      31.264694146687752
   253   7      5.0286355717282145      4.0382107002967391      31.178777790854099
   254   7      7.4394514599512815      4.0102663651780368      31.150787613463354
   255   7      9.8827211720034303      4.1449087858914417      31.176740868497951
   256   7      1.2389642246193764      6.2514525459062016      31.294440742768266
   257   7      3.7798580024027704      6.2883833133786871      31.322163197185045
   258   7      6.2488971182666413      6.2399132727009405      31.342493335786365
   259   7      8.7191385809972246       6.263364789263302      31.344191955851471
   260   7      11.211818506303921      6.2309907085475533      31.329436308719021
   261   7    0.034384396451397098      8.4776109064637595      31.470976947958192
   262   7      2.5689498736837049      8.4406190620979142      31.466581835448441
   263   1      5.0146598032755607      8.4013590551275268       31.42104024847767
   264   7      7.4995539330342522      8.4045265651913912      31.504635180090212
   265   7      10.033856057368896      8.4070140802806712      31.532049648778965
   266   5      1.2900639988975904      10.662233004647609       31.63055342753184
   267   7       3.761269539378759      10.607961399044104      31.729690025735096
   268   7      6.2681729279199647       10.59827083958999      31.664957486817222
   269   7      8.7567121447674108      10.588508554947978      31.619101660476641
   270   7       11.27098643567315      10.634513210542204       31.64500509007167
   271   7      1.2961825142480938     0.50506760889426883      33.973287810591017
   272   6      3.8593321844767012     0.46405552397499772      33.881647645255008
   273   7      6.3434003077103727     0.43778434517005937      34.030253532483641
   274   7      8.7745952345707963     0.47257059520422745      34.013818714755018
   275   4      11.280410124729563     0.51561439710399048      33.938912710751595
   276   7    0.051872846896775855      2.6639976629118354      34.202580152761158
   277   4      2.4637208389055965      2.7716819833948425      34.227138733745704
   278   6      5.0362276704075528      2.7448977171082323       34.40138907796721
   279   4      7.4843115847435602      2.6969213360185367      34.215818484172452
   280   6      9.9840709576366322      2.7106878632096918        34.2579843038299
   281   7      1.2043305368513932      4.5245961522732818      33.100596673318059
   282   7      3.8232091847907839      4.5925726707462511       33.23599861637242
   283   7      6.2585229841763965      4.5988387186971904      33.196091554238414
   284   7      8.7108457774257371      4.5954272539739893      33.198710249848212
   285   7      11.227233631007653        4.61278606172674      33.161989988679601
   286   7   -0.022599952491578989      6.8377789755510303      33.355389862796159
   287   6      2.4686762688309174      6.6909480556859631      33.442301526955731
   288   7      4.9935425390598009      6.8477260092119039      33.431745918510487
   289   6      7.5060221927208621      6.7979578692095703      33.523639588698394
   290   7      9.9906205492108882      6.8235219003259235      33.446453515382345
   291   6      1.2731391737718352      9.0321057555682991      33.580844527889994
   292   4      3.7888783239501307      9.0286065746493787      33.666782308567711
   293   7      6.2214326181175927      8.9853510118161868       33.60213888755348
   294   7      8.7645218229161568      9.0078780809170471      33.606470025856687
   295   4      11.161418742899937       9.052587146781784      33.550706718551467
   296   7    0.014590290760138885      11.253102046976293      33.711912576794788
   297   7      2.5416352740482098      11.216367340442211      33.764109879055461
   298   7      5.0460607733475902      11.162410774419422      33.779949491909932
   299   7      7.5485485962889829       11.13832252879708        33.7540222457148
   300   5      10.008338611358914        11.1571124250769       33.68586445823076
   301   7    0.043120961404461228      1.0354567650538176      36.124978183259493
   302   6      2.5455119402847965      1.0211899704122704      36.178819585904833
   303   7      5.0204053095175265       1.012210592203818      36.195407529841795
   304   6      7.4701433289219858      1.0691237668305968      36.243713782571938
   305   7      10.033280266383869      1.0310720844220016      36.155283350021939
   306   4      1.2372718119235795      3.2618180559747358      36.319019702969662
   307   7      3.6804760157482286      3.2434772077680676      36.609409554476827
   308   7      6.2032600282565351      3.2480837166394978      36.598227207528943
   309   7      8.7333574856612408      3.2119307656589462      36.419367173222902
   310   7       11.21173230528964       3.216698673415447      36.403164466459508
   311   7      0.0615752410737666      5.1831181302488964      35.172772152137767
   312   7      2.5520932179785625      5.0720432575023189      35.346948773386444
   313   7      5.0094705312113037      5.1701430084103306      35.323452571596746
   314   7      7.4902386917228307      5.0190946176944093      35.356338184520354
   315   7      9.9889668842922017      5.1188538141658819       35.29965787380516
   316   7      1.2786324601943317      7.3351956016547666      35.563209086900891
   317   7      3.7657435668724242      7.3738292133027672      35.536786775668503
   318   7       6.247180711826009      7.2641046606275159      35.651504386836919
   319   5      8.7843092353313974      7.1827208381001988      35.638895162577541
   320   7      11.238546167601253      7.3575222735303925      35.481293029873285
   321   7    0.030051209873787885      9.4731273964438767      35.678488438974341
   322   7      2.5423871966774088      9.5087633890877967      35.734706077369133
   323   7      4.9847796103007598      9.4945380887212458      35.730382761859936
   324   6      7.4627402352895382      9.4185250342676223      35.772353832390664
   325   7      10.017583982163936      9.4724423888581342      35.696224750603811
   326   6      1.3370024138067176      11.677246045099734      35.930096848957035
   327   7      3.8435506801438377      11.703851007089026      35.899234881566777
   328   7      6.2387340413014307      11.719252780117666      35.903305770754862
   329   6      8.7460920693202944      11.753117120593105      35.959917838614842
   330   6      11.267114585810987      11.717886995679549      35.956662200628671
   331   7    0.069914652344308617    -0.60164958733286666       38.07587754032096
   332   7      2.6083846794960914    -0.72253509499775059       38.09094837584059
   333   4      5.0216699450317668    -0.65488092992986391      37.948270629388084
   334   7      7.4491612541905754    -0.71579213786018347      38.117172634819227
   335   7      10.031701288113226    -0.62860327075996203       38.13525335442678
   336   7      1.3114109332228638      1.6230644492836006      38.218885857149495
   337   7      3.8084513034819829      1.3806356346478226      38.307463999394656
   338   7      6.2224200403206407      1.4064766111894964      38.372496823351874
   339   7      8.8091350181429569      1.5367895824685287      38.295569362472477
   340   7       11.26858248902872      1.5033633024143938      38.261778604081343
   341   7    0.057811124758788704      3.6473131655407345      38.529636571868977
   342   7      1.3502580297001714      5.7122021484141881      37.435733446577117
   343   3      4.8928986725807908       4.489448432080545      37.125174015667923
   344   7      7.5982427690428826      3.7183764198944198      38.498001806277443
   345   7      10.020273030833337      3.7431303535950113      38.467975971346505
   346   3   -0.031902532787780519      4.5890639056902263      36.954872001037437
   347   7       3.748520272146401      5.8608831564049888      37.442611007405937
   348   5      6.2776346354711032      5.6266710328351817      37.526120453372386
   349   4      8.7426495151306263      5.5496273544466215      37.397543372655186
   350   7      11.167176749759694      5.8106820478670134      37.446093499156554
   351   7    0.016367209513726898      7.9831133159441929      37.635248014002578
   352   7      2.4773396867044766      7.9653718271687621      37.629410632785088
   353   7       4.988937194505402      7.9664169113336465      37.645219161568455
   354   6      7.5050956017783665      7.8330594443348946      37.933953505422771
   355   7      10.017693000106783      7.9443739517611247       37.62284746682672
   356   7      1.2251541198885596      10.094912909744037      37.850437357087642
   357   7      3.7983986403858268      10.134624729442129      37.829735805644319
   358   7      6.2122827827238503      10.158553054960436       37.87713739876925
   359   7       8.820514895758075      10.090478718634625      37.901757299173028
   360   4      11.239604813126803      10.073046590067699      37.871697233849588
   361   8      7.5339743156523786      6.0157474305950256      38.782598302243031
   362   8      7.2336184418929808      7.8323505362453121      39.737298986357288
