(written by ASE)

362 atoms
8 atom types

0.0      12.447907775999999  xlo xhi
0.0      12.936245229600001  ylo yhi
0.0      52.360083105400001  zlo zhi

Atoms # atomic

     1   4      1.2289158603948278     0.79967330770504086       15.25379066859556
     2   7      3.5651315037138636     0.96486237677039965      14.777366344997656
     3   5      6.0622087798208311     0.76654809355595344      14.907628032695589
     4   7      8.5230171312338783     0.76121104990958866      14.879089809234177
     5   2      11.535544335592926     0.68301886533825928      15.456767972674474
     6   4     0.30766636941552944      2.6004035352552544      15.001441843200004
     7   2      2.5475004235258631      2.6354779591887989      15.478067905163122
     8   7      4.7886454829114209      2.9861541520949126      14.914894349113222
     9   7      7.2521367287778187       2.785521194887647       14.77784194226634
    10   7      10.406660538924632      2.2570504752766629      14.674793244932774
    11   7      1.5247159780695658      4.7089991311452453      14.938113721970188
    12   4      3.8016859348489169       5.180533882562953      15.196889589555846
    13   6      6.3808723125612836      5.0592203680879182      15.042391427934527
    14   7      8.9874387188782343      4.3077992006929868      15.358257750093536
    15   7      11.334988801827055      4.7785640566546812      14.802519481061417
    16   6     0.11428640342902065      6.9558624815793655      14.862131211220605
    17   5       2.593210068253653      7.1204316394489364      14.897183721321804
    18   7      5.0590347391653143      7.1661100767204182      14.573746259057542
    19   6      7.6192490281492651       7.270928390587887      14.815546235130249
    20   7      10.068034722587422      7.0395927474203299      14.872779800934522
    21   7      1.3155975697111262      9.3689177483585588       14.91917498695217
    22   7      3.7027638535540603      9.3326555116471344      14.771415176405164
    23   6       6.188206110311226      9.3612008072426427      14.875551311956048
    24   7      8.8757429061045716      9.4295841125732416      14.766411189816694
    25   6      11.319041694333535      9.2205543189397723      14.962676346600114
    26   7   0.0015656959448120758       11.61988307782566       15.04492707375451
    27   6      2.5608201667773143      11.550569238192635      15.412661585690108
    28   7      4.9395423808102334      11.556216425019674      14.780384948131585
    29   7      7.4827030579419693      11.547676074971394      14.825361027905474
    30   1      9.9627058355350435      11.792871807229101      14.950022988009438
    31   7    0.034121315806220257       1.333491814103726      17.197549844206506
    32   7      2.6843278487384419      1.1698511323311733      17.110748609219161
    33   7       5.091997771399372      1.5190307687163191      17.032202376126939
    34   7      7.5447830405614633      1.5089361415275213       16.96367662492607
    35   7      9.9692265309362522      1.2962567873574609       16.86761037327344
    36   7      1.3198890517512143      3.4128713443903598      17.027971680913538
    37   7      3.7117602487728014      3.4759902492750552      17.032822557839442
    38   7      6.2983716753087471      3.6112009268777134      17.019320001115666
    39   3      8.8502825209436207       2.479175956094859      15.800867923289918
    40   6       11.08177706433381      3.4886843005352013      16.949581868878614
    41   7    0.085527752529756682      5.5670275107359668      16.928899547792064
    42   7      2.5503322353664655      5.6326343880905831      17.075346029862665
    43   7      5.0164680036071676       5.667247403589732      17.154851201221323
    44   7      7.6578819521776351       5.684190168534939      17.021385626317144
    45   7      10.077009906259502       5.735789235669591      16.963364062819164
    46   6      1.2521931968482201      7.8063673018584083      17.048118166127328
    47   4      3.7548885459846364      7.8897187985881629       16.72673261409712
    48   1      6.2640591834958528      7.7049169677452971      17.049762904123856
    49   7      8.7988054026952778      7.8678819945541907      16.916704356041109
    50   4      11.217394419534035      7.8521537708020439      17.034890473929718
    51   7    -0.05979386827004575      10.072517503315552       16.99676964623702
    52   7      2.3485187027502827      10.015641062619848      17.316016468164189
    53   5      4.7759971149943006      10.016664149079572      16.891102614391603
    54   6      7.4931934838469436      10.058415015121652      16.933736186337821
    55   7       9.988500211255392      10.075924949708165      16.978608446231224
    56   7      1.1965449233189041      12.119964471613978      17.298580903119017
    57   2      4.2849782553849716      12.795918555266196      16.281965809736345
    58   7      6.1621327791716505      12.261078497253502      16.911438978703398
    59   7      8.6446468206681732      12.205370756745129      17.037283558101755
    60   7      11.196612816469047      12.225735657252921      17.010488510313419
    61   7   -0.010957607158336959   -0.043048306075604011      19.212704012216346
    62   7      2.4436457359691066     -0.1049948066538411      19.197525355151207
    63   7      4.9270829402232392   -0.022071386342731838      18.954605615063947
    64   4      7.4346654740211955   -0.024427447949114143      19.033375100329046
    65   7      9.9332369970625258    0.019858456797968417      19.049844766842959
    66   4      1.3484793246008229       2.064978107558185      19.198025609032751
    67   7      3.7419845159143512      2.1286686514321715      19.173302102861641
    68   7        6.28742162013189      2.0840996370923013      19.085020238436162
    69   7      8.7448950182457352      2.1659910962649751      19.022129698112515
    70   7      11.206744425851573      2.1450553543968107      19.075875249001925
    71   7    0.059059122990473722      4.1945601139952986      19.052177228258067
    72   4      2.4893730849869526      4.1798997222284902      19.111685464981683
    73   7      5.0323069916371352      4.1993393905285679      19.149270210539029
    74   7      7.5180126048591056      4.2832509299788581      19.065447217416587
    75   7      10.008390312543352      4.3432074021721077      19.024771672938382
    76   7      1.2964009803086674      6.3362159049593778       19.11217445600305
    77   7      3.8087636763082187      6.2946205127013029      19.126995018989209
    78   5       6.364316181962705       6.357691757179329      19.142262192716153
    79   7      8.8154735631472647      6.4773762242400785       19.01110515842651
    80   7      11.334477716308873      6.4741151911236487      19.024540670122672
    81   7     0.24812959457644623      8.9284035751784376       19.11146412548376
    82   7      2.6422140845610405      8.3971222593261139      19.124478292325932
    83   7      5.0223556862771481      8.5122655938368261      19.038126111115236
    84   7      7.5629702839710351       8.582710750863674      19.002834049016553
    85   7      10.053656366743816      8.6400860709182812      19.019474324292673
    86   2      1.9063399317214844      10.183188285460012      19.564347931553876
    87   7      3.7700144020861064      10.709875249177694      19.092603095105716
    88   7      6.2241643720841315      10.783009086155593      18.947753237801837
    89   7      8.7289990338253851      10.818676171026697        19.1395035425438
    90   7      11.187326399380504      10.842830069576005      19.086252449373745
    91   7      1.2625067035628215     0.66018749218594386      21.213038793137827
    92   7      3.6877483374202802      0.6819815190851658       21.12151579008259
    93   7       6.170049136871059      0.7425029733873264      21.118553504831265
    94   6      8.6237854563556233     0.77416931479683249      21.119776969127436
    95   1      11.302468535335212     0.74059232569467393      21.146048481714296
    96   7    0.099595251049178768      2.8156684403228591      21.150099788403324
    97   4      2.5909059720269032      2.7418548341199207        21.4194277697394
    98   7      4.9857619956779997      2.8120948821288567      21.221891229395332
    99   7      7.4491861467390406      2.9058233751983122      21.089052917828361
   100   7      10.009024473026082      2.8598318512551049      21.074167511481161
   101   7      1.3511271611407134       4.887462158880008       21.15769697954287
   102   1       3.799601922036127      4.8994628720565432      21.246765587236816
   103   7      6.2589181427174827      4.9775583851394813      21.216951404698996
   104   7       8.750597214170174      4.9761400615079658      21.069730645561055
   105   7      11.319164148546703      4.9629915439312464      21.107727428384479
   106   7    0.098014069236127807       7.127738540292504      21.145105900857406
   107   7       2.573679811110686      7.0613841108742026      21.154100151132575
   108   1      5.0153657828961471      7.0839297898442357       21.17726435593806
   109   7       7.540813215857515      7.1417740541700985      21.093526035747345
   110   6      10.020334412842132      7.1115758952244637      21.115282784105709
   111   7      1.3255759663776785      9.2445003216999115      21.263069958614054
   112   4      3.7199423703682943      9.3270180308557435      21.132662737693689
   113   6      6.2749609766355929      9.3181659801222541       21.01621006880741
   114   7      8.7505405728002543      9.3823932472524429      21.195899646303769
   115   6      11.244948480228786      9.3877443068775506      21.171202137131313
   116   5    0.084387177992329393      11.418790894174906      21.189532609569344
   117   7      2.4529051692434556      11.422161876569167      21.156921727159208
   118   6      5.0058548644281133      11.550434579936804       21.13592079888641
   119   7      7.4941217877297621       11.51350184578703      21.204177098473366
   120   7      10.011051307069037      11.600810925835544      21.218469143350692
   121   7  -0.0053090486738612075      1.3097487346712156      23.277659045365741
   122   7      2.4369349935826068      1.2136448451891417      23.259682856972184
   123   7       3.691775525696372      -0.742989870895301      23.202451147509795
   124   7      7.3006825141746639      1.5232075501971603       23.16636116346854
   125   7      10.003004403166647       1.354988045495872      23.143308603307545
   126   7      1.2688553313386211      3.5142619322810407      23.255293877593196
   127   3       3.104845618485442      2.9202634947539776      23.509673798076939
   128   7      4.9857236182587554      3.2992635566691666      23.666777172418108
   129   7      8.7080250613810275       3.547374393098659      23.072764061086758
   130   7      11.222795921312175      3.5097202454788792      23.180752779534828
   131   5    0.058643811038902073      5.6568618269115989      23.160502758233601
   132   7      2.5553938789866013      5.6618367030637051      23.181378917328313
   133   7      5.1350182909177047      5.6434170601763078      23.302979923789202
   134   4       7.627480063465689      5.7623322538165445      23.066684518418679
   135   7       10.03410279172812      5.6514618440226618       23.15776424977436
   136   7      1.3112658288369867      7.8018033603472201      23.223137802025914
   137   7      3.8025176585546081      7.8404970312058406       23.14818264329854
   138   7      6.3464445296723708      7.8966409280729177      23.152936465370509
   139   7      8.7736960120862602      7.9015273772185486      23.191810867794818
   140   7      11.282606465733206      7.8542730300115258       23.23990975793404
   141   4     0.13449230596343623       9.987259821380098      23.333374058779462
   142   7      2.5627797858905614      9.9877998474528162      23.290068224945554
   143   7      5.0511315552773324      9.9781343808165701      23.170234638152685
   144   4      7.5507507339257405         10.107942647865      23.347216392478035
   145   7      10.004027912427503      10.077913970225579      23.272534117891606
   146   7      1.2213310569498139       12.07288060123385      23.298866560196444
   147   2      4.7892833713832612      11.357090766168707      24.488248522286042
   148   7      6.2034253162590947      12.242843461313766      23.312910526539774
   149   7      8.7140232994692184      12.235250228913046      23.263010642702245
   150   4      11.266420784031965      12.097899236099792      23.239453390333775
   151   7    0.050400297097390766    -0.10311886146271083      25.377977717374687
   152   7      2.5456433752932828      -0.231723375968856      25.474372714979328
   153   7      5.0026699612618053    -0.13689895488370324      25.702099410228488
   154   7      7.5133220644270233    -0.12530252343726939      25.354587259318404
   155   7      10.048973726572793    -0.10722860931724415      25.308907582929759
   156   7      1.2534068079873684      2.0453525234670455      25.312605729244336
   157   7        3.72127249970938      1.8516600967198567      25.150110711313555
   158   7      6.1841988428564232        1.84629978776665      25.258908203945495
   159   6      8.7295880470042508      2.0469577177686995      25.142637150923822
   160   7      11.235865376341387      2.0218591681834055      25.297169540409634
   161   7  0.00028838783100531136      4.1688786279726573      25.254408098627071
   162   4      2.8721735636238166      4.1195923609663669      25.043300507050443
   163   2      4.9354589504847093      4.6143900980336756      25.507599673871816
   164   6        7.14683088429938      4.1410982297495877      24.968505661353927
   165   7      9.9378087107529858      4.2177406593994755      25.205459829826637
   166   7      1.2965475878109869      6.2772459732507091      25.215607491961148
   167   7      3.7628562083978516      6.3685901080594558      25.213639440490745
   168   6      6.2865365622392444      6.5548932123859851      25.303669075730607
   169   7      8.7728283590913545      6.3983480953061633      25.157560008524232
   170   7      11.287880080916798      6.3496951750280335      25.243607644295604
   171   7    0.073173589936927311      8.5220260698521528      25.324323920071592
   172   7      2.5082875424050637      8.4838833687466213      25.227682513928741
   173   7      4.9704951850605381      8.5784913175521229      25.178757764937146
   174   7      7.5690118617893809      8.6499030375393051      25.287834490624125
   175   7      10.034422348841341      8.5655824815749213      25.268082501190008
   176   7      1.3103374573314897      10.660918726769236      25.395208396858717
   177   7      3.7268151277089925      10.457997768763176      25.911573631145654
   178   7      6.2932919987132658      10.661721474978982      25.442512862674739
   179   7      8.8063742722714053      10.751885528062768      25.376474144678376
   180   7      11.311134876089435      10.690248895479225      25.269912104394443
   181   4      1.3419792059136955     0.61852345295553568      27.442378783622253
   182   7      3.8294818855990815     0.75708940097203459       27.71573538619927
   183   7      6.2814807801937622     0.75990666287556174        27.6874126879618
   184   1      8.7161572637914233     0.65098475320050952      27.403199397368141
   185   5      11.300926043976304     0.63789260888246169      27.500953607187945
   186   4   -0.057832034338983741      2.6814391067208168      27.346305931309871
   187   7      2.5813782491620945       2.754300008023598      27.152270120774478
   188   7      5.0080698634298288      2.9222005166444278      26.956752688127832
   189   7      7.4750102410374994      2.7859819735596458      27.227019564478173
   190   7      9.9673010309052898      2.7615044213175581      27.263582086969262
   191   6      1.2787671738180384      4.8488669628698835      27.297384269090834
   192   7      3.7681131013878639      4.9736258524569026      27.206711507657804
   193   7       6.203967577775737      4.9881544560684281      27.217943052676187
   194   7      8.6284827926278655      4.9641111212382301      27.118997939781519
   195   5      11.149170697042415      4.9451900777275535       27.23819978180607
   196   4    0.024574655558224891      7.1025715383028496      27.250505756291531
   197   7      2.4956287098795533      7.0408751046008362      27.237120013884358
   198   7      4.9366757483565644      7.1458972507659499      27.310932759171294
   199   7      7.4690770669296427      7.2090158320947655      27.365340585255055
   200   7      9.9722161877173647      7.1297086340070424      27.257317737367714
   201   7      1.7097283843520343      9.2793327916277502      27.458439180244024
   202   2       3.782541079524969      9.8076975047463453       27.96902525623193
   203   7      5.8779904086931287      9.3027772079155149      27.416670426385465
   204   7      8.6834602914312935      9.3124164089718082      27.355374422965273
   205   4      11.133998956508787      9.3052457585665955      27.351955370299574
   206   7    0.022285012903363998      11.447944827490872      27.408061673016114
   207   7      2.5558027434434649       11.54558927707339      27.665804042229226
   208   7      5.0030940757843245      11.526460682542581        27.7207825755154
   209   7      7.4514502192705567      11.465305121036129      27.445394145596477
   210   3       11.03208750605247      10.891084526670099      28.467823268726754
   211   7    0.043722404524555572      1.4174648926165125      29.666439350909815
   212   7      2.5235124652423711      1.4601000033157241      29.889809434749811
   213   7      4.9915515971030393      1.4673950433024321      29.883988683117188
   214   6      7.4795072347324965      1.5243145953370567      29.897175868890695
   215   7      10.026829888882714      1.5014262327541643      29.699499769010206
   216   3      1.4280483137231963      2.1926492996369324      28.545387659714251
   217   7      3.6810605261350688      3.4986035288246398      29.167915606876285
   218   7      6.1366185653900516      3.4687346911558041      29.120293445643828
   219   7      8.7146421236366649      3.5360091472384152      29.153844376755391
   220   7      11.228208265009396      3.5562358068110251      29.287712630679039
   221   7   -0.046252938829986982      5.6883706213083363      29.244513728696976
   222   7      2.4903019914601523      5.7200480663404925      29.309786709569256
   223   7      4.9313007617465745      5.6575941449339968       29.26591286320409
   224   7      7.4543651950780898      5.6332911576297917      29.257662435433751
   225   7      9.9628298686564793      5.6524454564086248      29.207598302814336
   226   3     0.22439969325125991      8.5660836310990867      28.378198875949039
   227   7      3.6555078724628975      7.9882553517399186       29.18188084278264
   228   7      6.1797985954747574      7.7660964185616157      29.381490916699658
   229   7      8.7465781754453715      7.7696663425002566      29.399537359923155
   230   7      11.253817551986884       7.792683880007524      29.374817216295391
   231   7    0.055585694162645354      10.008833206527116       29.51321842656829
   232   7      2.5132544468433795      10.085646368926174      29.640672914019291
   233   7      4.9402208479070895      10.028381330724629      29.623409287122591
   234   6      7.4194028747749181       9.917787203268853      29.419342042254996
   235   5      9.9075441437911369      9.8772174524192398      29.525963023986222
   236   7      1.3210112586975049      12.214933052506639      29.641057283318521
   237   7      3.7780909972740959      12.240741600416765      29.755393809054613
   238   7      6.2986038705310401      12.183750935083667      29.682289224636079
   239   6      8.8494585836160464      12.138632609668836      29.553196038909736
   240   7      11.340852463193958      12.241819657632854      29.667666176181815
   241   7    0.097616978856381598   -0.040590710015012937      31.823867934298502
   242   7      2.5489466922954533    -0.11191362639146774      31.814165516323946
   243   7      5.0491411537920987    -0.14380782160990421      31.773929630624625
   244   7      7.5231053011697204    -0.10346805039113384      31.827592285817438
   245   6      10.042525494942735   -0.004881698644616914       31.85529095078196
   246   7      1.3803624757408095      2.1295948395591715      32.052121021078662
   247   4      3.8177498540471353      2.1091291905340213      31.945799318952016
   248   7      6.2359537126781035       2.060337491583661      32.141914641693447
   249   7      8.7404930482007153       2.141368741027506      32.059735123776036
   250   6      11.412584986089948      2.3764772433711636      31.777577345536884
   251   4      1.0973902585500381      3.6453073185328964       29.70972265289895
   252   7      2.6154051958845148      4.1143486872539183      31.256653505180331
   253   7      5.0222216464241374      4.0314461856761579      31.172685143938605
   254   7      7.4354362064677781      4.0097635501261779      31.147507724589346
   255   7      9.8781142361273719      4.1419977729214725      31.174579128172695
   256   7      1.2362995998575173      6.2453310249046501      31.290720548130178
   257   7      3.7693104939826449      6.2809551076249521      31.313275928499127
   258   7      6.2393265836595591      6.2345354904985495      31.327388128220591
   259   7      8.7184576330122656        6.25954824624952      31.326180421814634
   260   7      11.213164432861731      6.2240488015534794      31.320391103908385
   261   7     0.03126187962096276      8.4733641944148612      31.471200215322057
   262   7      2.5627850086744335      8.4372434010431387      31.469414032419753
   263   1      5.0031898943046906      8.3972984012110761      31.411787221978571
   264   7      7.4941821630763839      8.4047673391483055       31.49183118209757
   265   7      10.031627158660834      8.4071703632550943      31.520719073696721
   266   5      1.2859892076530559      10.657452898758491      31.635740414985282
   267   7      3.7585413600101747      10.605480532706503      31.734679371921604
   268   7        6.26495629921261      10.599864155728064       31.66046744996083
   269   7      8.7553920685828253      10.590742883625412      31.610919825778613
   270   7      11.267846508719174      10.633432768666422       31.64599800194275
   271   7      1.2891226774087594     0.49963849237198393      33.979035334753327
   272   6      3.8519951559029932     0.44994387527093566      33.888263458270835
   273   7      6.3380980902046744     0.43495525084861658      34.033025607891787
   274   7      8.7712449525914806     0.47512542402773905      34.016422575007823
   275   4      11.275719697991589     0.51347219400045585      33.942597820803783
   276   7    0.044115936949971415      2.6623394750914717      34.209877960137362
   277   4      2.4530470742576691      2.7626120936805858      34.229107178714472
   278   6      5.0216831214578219      2.7322671326238721       34.39407563094224
   279   4      7.4780968599414841      2.7007003125845257      34.214528507260681
   280   6      9.9799642114852354      2.7088957825106608      34.262082458480066
   281   7      1.1953018304310612       4.516354521409407      33.096046781786228
   282   7      3.8091472757789111      4.5804784782727364      33.225010074452975
   283   7      6.2495010622253462      4.5931204354186477      33.191440525582067
   284   7      8.7062364826125034      4.5934073011716769      33.201674817541395
   285   7      11.220958233028192      4.6075267580307795      33.159344636651703
   286   7   -0.022620840636157696      6.8286225005227283      33.352046669854147
   287   6      2.4633147246419456      6.6826317176789667      33.440874370518465
   288   7      4.9790926684010826      6.8409061308950525      33.411103103842891
   289   6      7.5024076272637101      6.7916922600425194      33.481993479287588
   290   7      9.9959456157793269      6.8191539802665408      33.420114798936957
   291   6       1.267672055169494      9.0247676129433252      33.586186424183992
   292   4      3.7811970450968149      9.0211791614139347      33.672069872949741
   293   7      6.2094667653927456      8.9821704438378269      33.579203283137076
   294   7      8.7593307026439149      9.0040913154278446      33.588114156584041
   295   4      11.156500849340009      9.0472549899527728      33.545619684535858
   296   7   0.0090585119601950433      11.248053697377774      33.716951431394001
   297   7      2.5366046073769155      11.207812435017438      33.771049148559342
   298   7      5.0439166430989459      11.155018860361732      33.790733462634329
   299   7      7.5490172025974456      11.154333366766277      33.734250309380094
   300   5      10.004697475946967      11.154178898688578      33.687064699417078
   301   7    0.037230936352911748      1.0379984267311624      36.133634820135015
   302   6      2.5400721775402118      1.0152872134373472       36.18703001438508
   303   7      5.0156287124032861      1.0099601811362755      36.200071809078608
   304   6      7.4656268136960247      1.0737847029329037      36.238180188603017
   305   7      10.027465971324963      1.0372894253648584       36.16293883726658
   306   4      1.2256672603407457      3.2597038233809101      36.330559898869808
   307   7      3.6702215730283605      3.2349120029118454      36.605068091607635
   308   7       6.199690625534287      3.2525311204444818      36.572926555176515
   309   7      8.7224442126026425       3.222789184248434      36.415894484759832
   310   7      11.196458911234064      3.2195839700674984      36.415284094325884
   311   7     0.04767354178276368      5.1763620314714176       35.17635103827125
   312   7      2.5317469556736718      5.0608555541179019      35.340549806771385
   313   7      4.9794530565215478      5.1588971179541314      35.299197899288757
   314   7      7.4809761651922866       5.043806973730681      35.350999824040841
   315   7      9.9819954081154005      5.1298327484985666      35.293536204338906
   316   7      1.2756900759998482      7.3299271260338443      35.566207197496425
   317   7      3.7558652412834621      7.3708787472405692      35.541550923473011
   318   7      6.2205433403003347       7.262901317025948       35.57851308737812
   319   5      8.7960735238147123      7.2204128207726752      35.564270951602722
   320   7      11.240221190089381      7.3582622006721516       35.46999251208544
   321   7    0.024125200317556092      9.4727025143840731      35.680821323222418
   322   7      2.5352918070638513       9.505345461404362      35.742899540751147
   323   7      4.9738921507046383       9.487851511078242      35.742947406345564
   324   6       7.445832758041278      9.4547452242603622      35.712053848742421
   325   7      10.008940853529097      9.4851296184124312      35.685703535142451
   326   6      1.3329800526163371      11.675243572922781      35.935984437337154
   327   7      3.8411381582969857      11.696289038265977      35.911235149436287
   328   7      6.2331328097953733      11.715947533220584      35.920129470890664
   329   6      8.7453864923301587      11.758514742332443      35.968359649429118
   330   6      11.265237969205996      11.724782210667419      35.962157652261091
   331   7    0.064684171484772734    -0.60015026358761003      38.083400276002962
   332   7      2.6080005222543274    -0.73030515539882002      38.097063616152674
   333   4      5.0208757816925784    -0.66026177219306259      37.959557015501368
   334   7      7.4460182371684223    -0.71997925460829981      38.119447139379105
   335   7      10.026295713248022    -0.62113490525871318      38.143124265043582
   336   7      1.3052969975755688      1.6237271125246573       38.22621596656569
   337   7      3.8087308664795643      1.3761401818202081      38.311856327181722
   338   7      6.2260331462417415      1.4170281688552033      38.365624013548768
   339   7      8.7930558335246811      1.5570672774312342      38.292527326356037
   340   7       11.25626087885885      1.5105606756423917      38.268724030128851
   341   7    0.038217197464447322       3.646286368217067      38.539641340813382
   342   7      1.3422336864101994      5.7068616137074519      37.439191691074861
   343   3      4.8842571496381906      4.4744168293893152      37.116323602268764
   344   7      7.5654505219558743      3.7752298147935806      38.457847436789905
   345   7      9.9864056974430415      3.7719328765006508      38.484578034150829
   346   3   -0.044752194877786824      4.5883330529273705      36.964324380105154
   347   7      3.7323264913363969      5.8454580412044077      37.425387013194381
   348   5      6.2433043930353698      5.6474968911210901      37.487478257886778
   349   4      8.7581671324450703      5.5551587055517313      37.377453351772466
   350   7      11.161434174713941      5.8161763917960432      37.454969480873899
   351   7    0.022875121967144592      7.9828736684013846      37.636988749066774
   352   7      2.4902839749478747      7.9606010909657945      37.631245243456142
   353   7      5.0395864145106453      7.9238556338322166      37.680447592354113
   354   6      7.5387460482448061      7.8276759933847728      37.720492867007771
   355   7      10.027891350498944      7.9387072204620805      37.604872375002167
   356   7      1.2271210462699775      10.092226746085695      37.855320607588517
   357   7      3.8152666120359036      10.125111247063087      37.844100300877194
   358   7      6.2352578296565815      10.129879698838767      37.914581576834486
   359   7      8.8282791628829358      10.076742452556481      37.902960929303092
   360   4      11.237147972641228      10.071867970115481      37.878900175695101
   361   8      8.1477129112704638      6.8707314930523218      40.071190806112867
   362   8      8.0092901038067694      7.1233381091068884      40.771391224751781
