(written by ASE)

362 atoms
8 atom types

0.0      12.447907775999999  xlo xhi
0.0      12.936245229600001  ylo yhi
0.0      52.360083105400001  zlo zhi

Atoms # atomic

     1   7     0.21401581073970019     -0.4711787681464733      14.819599207610947
     2   7      3.7053075654043384     0.63958964973233123      14.801277369097436
     3   5      6.1282330430079615     0.82404222091993451      14.957128520908702
     4   6      8.6934504518715272      1.0299608893557151      15.008549473164958
     5   7      11.042337868430721      1.2955747330161922      14.573622817188056
     6   7    -0.13969060778608727       3.429706051151086      14.772382810296223
     7   7      2.1968057263390182      2.6320996846108455      15.047973285128158
     8   7      4.8350589025519479      2.9224381763732716      14.998484472981849
     9   7      7.3226782408111735      3.0555997262507231       14.90032245034639
    10   7      9.8323942898067287      3.4223071887300596      14.650961552338787
    11   7      1.1698527371565335      5.4453951055574219      14.990179079044188
    12   7      3.6479067782748134      5.0383573648309685      15.063106980752911
    13   7      6.1608689203800289      5.1746138114454112      15.018124494821485
    14   7       8.653416094999967      5.6644017181579462      14.913519585779332
    15   6      11.140039574533073      5.5825024877280853      15.104266093582417
    16   4     0.35849548112686136      7.8127694254461364      14.588333429475469
    17   7      2.6279386864109262      7.3532863764809218      14.816645129765737
    18   7      5.0336373840765551      7.2336640492705326      14.974044989565712
    19   2      6.9640670921420691      7.0031892241388958      15.326262254376278
    20   7      10.329546491966877      7.6125677450766087      14.109238684175574
    21   2      1.9004116283683361      9.2790990102403885      15.190464878400853
    22   7      3.8568125189728573      9.4068907718276318      14.928329311680768
    23   7      6.5781466886481166      9.1231317887652637      14.878250135617844
    24   7      8.9530076972021408      9.6640362533034132      14.244890067567246
    25   7      12.625961636800954      10.140933387884944      15.886127521152327
    26   7      1.2918328564949835      12.243332096732091      17.031741314422376
    27   7      2.3702876915868649      11.380037159639548      14.913945415696599
    28   7      5.0658748128509945      11.506307356854455      14.809520596138011
    29   6      7.5977971836464944      11.496984007198309      15.003835111284348
    30   7       10.06190230744215      11.967970386461751      14.630702490679266
    31   6     0.12983027709719486      1.5846187127118796       16.46995580469472
    32   7      2.6169757808996779      1.4518238604837266      17.065936560428661
    33   7       4.991741752138033      1.5650793560081815      16.992263444483839
    34   7      7.4274107325548515      1.7177686327124555      16.997120591672694
    35   7      10.016160277207602      1.6505303696166955      16.976425418060675
    36   7      1.1863803668097668      3.8163521646543233      16.972682359344397
    37   7      3.6556915565382608      3.6536334672112072      17.057090309663618
    38   5      6.1555501927524379      3.7666917203696029      16.968191969505803
    39   7      8.7060977131705108      3.8507011114315786      16.810058714179338
    40   7       11.15045547645531      3.8421407197753208      16.963676819191654
    41   7   -0.058297204944949332      5.9942162700110826      17.158895353508267
    42   7      2.4665897224420581      5.9108840645424339      17.035108793219276
    43   7      4.9289373648151402      5.8087105563246153      17.054908054631262
    44   7      7.4468779242449861      5.9268411475852032      17.038109641713628
    45   7      9.8840383109277621      6.0908564214720862      17.174872005588487
    46   7      1.2813478407985563      8.0191138399697799      16.781291361092531
    47   7      3.7752456521273126      7.9765600096235669      16.972774834399537
    48   7      6.2459270956235873      7.9791111752883195      17.023079541952686
    49   7      8.5992949640960568      7.9593658666534104      15.923034495462385
    50   7      11.186586918138257      8.0082623187309014      16.327435563332955
    51   3     -1.0534250726410157      9.6011564435123873      17.262495282428912
    52   7      2.5245975225499824      10.123768788593166      16.988342801284595
    53   7      5.0822071842739724      10.098423288488046      16.876047164714663
    54   7      7.5796552684185929       10.03054533241219      17.015327434558621
    55   7      9.9212442848398421      10.283841648013837      16.370689880845731
    56   2      1.8452562271218067       13.43535658367386      15.397237935613367
    57   7      3.7867938114594923      12.250856138859147      16.863698051096332
    58   6      6.3233542210308569      12.322093179445664      17.052082461127288
    59   7      8.8465775103287712      12.406869008152862      16.984907825906575
    60   7      11.236262020181986      12.395162245380126      16.768989629530903
    61   6   -0.027706024553609373     0.12481836546183202       19.01425265149566
    62   7      2.5229371741214894    0.060020829631901591       19.14059193274349
    63   5      4.9888166969344629     0.14355646304075795      19.063835041057853
    64   7      7.4694715989430787       0.137301313144781      19.141242708703082
    65   7      9.9915855203738548     0.13862812856767837      19.102818620196793
    66   6      1.3638802533567345      2.2717643681843604      19.053351500714012
    67   5      3.8266995722474348      2.2064931289857599      19.130040818503705
    68   7       6.215713646568358      2.2080872900341979      19.086249152579025
    69   7      8.7512639457572323      2.2298707636596524      18.992589752641532
    70   7      11.268171015487939      2.3577805395186449      18.956533825784007
    71   1    -0.10193925051267649      4.5135585359154051      19.179240870553929
    72   7       2.451928991494734      4.4513505505442934      19.065509757039198
    73   7      4.9609228396343967      4.3219792388797549      19.060827206100488
    74   6      7.5031207997465694      4.3495859004034338      19.019540218309974
    75   5      9.9008141030428458      4.4164889211835403      19.006849774165723
    76   7       1.207692739990506      6.5602580646439836      19.131394839510545
    77   7      3.7632921146934479      6.5225707125822856      19.101553746377807
    78   7      6.1831943101638673      6.5232809293886032      19.101912613465203
    79   7      8.6534502440732215      6.5499637386662979      19.297190700749319
    80   7      11.116248057214817      6.6470586290239648      19.267466600128369
    81   4    -0.10271279851306903      8.6689292838232124      18.739558236788202
    82   6      2.4365819151890262      8.6077381971063218      19.035802118098182
    83   7      4.9422443914217711      8.7372505478827787      19.017469442918269
    84   7      7.3750015358716912      8.6404736093089394      19.082671207703388
    85   6      9.7019447142479436      8.5623549128069421      18.289865874888047
    86   7      1.2183454967694123        10.8142621761613      19.126438831198772
    87   1      3.7783014863838624      10.926290421502388      18.979045967238427
    88   7      6.2262824600077282      10.843896151591519      19.079525735936929
    89   6      8.7431284034443397      10.872868989288307      19.039143175571638
    90   4      11.246354805272675      10.873179587324271      18.737436872946585
    91   4      1.3396794907721714     0.77250237805635957      21.323762182767421
    92   7      3.7641838695006133     0.74845655084120621      21.133806999840196
    93   7      6.2916464331566688     0.74950882543891073      21.221280171250939
    94   7      8.7453467935154201     0.74790161081668749      21.255006518215659
    95   7       11.29425211503605      0.7073496542847435      21.247674410472062
    96   7    0.072169216256924337      2.8430480729152223       21.18070662693232
    97   7      2.5871860228409171       2.867478688173362      21.194612033289381
    98   7      5.0358094992513172      2.8834883437816505      21.167245486481558
    99   5      7.4971717876237998      2.8462590637843777      21.162356794849835
   100   6      10.033993010055463      2.8343078872014815      21.053581707737472
   101   7      1.2157800729431774      5.0310033743691802      21.200611433509959
   102   6      3.7389911374297435      5.0479381039647233      21.186825371636722
   103   7      6.2841451359889122      5.0492462677015926      21.155997960547182
   104   7      8.7477085834137291      5.0566341946092788      21.221266148634996
   105   3      10.086146723207117      4.4230329493494249      22.286295378155426
   106   7    0.023591479485138237      7.1418814761327125      21.226894710197378
   107   7       2.482749836681815      7.1790359190936579      21.206760776189569
   108   7      5.0142663104102789      7.2238666366527058      21.184555735015564
   109   7      7.4267736269617961      7.2476053477831703      21.254123309612154
   110   7      9.9135025039069244      7.1701775287583862      21.346282741286721
   111   7      1.1779216552053702      9.3195094656779069      21.140998285340341
   112   6      3.7410975676070626      9.3582679922225012      21.238295769735331
   113   7      6.2219153401399376      9.3937569433531678      21.064860469046433
   114   7      8.7189741191324064       9.313024114700676      20.973976782017679
   115   6      11.141926638941849      9.2264983017389106      20.848114160950029
   116   1   0.0070434009221627776      11.491873379798939      21.240560387084049
   117   7      2.4752279507175468      11.544996842631093      21.158392216384861
   118   7      5.0072271268240609      11.571965377666194      21.145701932497001
   119   4      7.4484784281950516      11.571999045271522      21.112664295826693
   120   7      10.011673225682426      11.525091607115257      21.130731253183608
   121   7    0.078599757429495376      1.4131296216634337      23.334664916649849
   122   7      2.5708153241303124      1.4193104411739335      23.339559437308825
   123   7      5.0071268505234148      1.4368412069228862      23.205797996281277
   124   7      7.4207299599663639      1.5044277452297878      23.494304926830793
   125   7       10.04377857008333        1.43569262083641      23.381692792993231
   126   6      1.3453823553440536      3.6115601840070126      23.245150451374261
   127   7      3.8465844000542999      3.5959121152084923      23.345002414175994
   128   7      6.3081403800103226      3.6564317129576844      23.184086528691999
   129   7      8.7581941283708673      3.5580795778050556      23.352675664181067
   130   4      11.356829420100279      3.6366514560483516      23.410396558068904
   131   7     0.07257905101811761      5.7961760423616031      23.357052026292187
   132   7      2.5465194755168068      5.7987240068783832      23.332261354111189
   133   6      5.0673679431934389      5.8438499376431183      23.356810960832576
   134   7      7.5609680266537804      5.7692998331100149      23.315609762832729
   135   7      10.064132627221765      5.8328380132593187      23.414259989484549
   136   7      1.3203527859280413      7.9230015543647161      23.258328224163279
   137   7      3.7877033701748872      7.9682792949971484      23.303542188086077
   138   7       6.298471907590268      7.9843736256744968      23.317984688938378
   139   4      8.6788395171336976      7.9305590872741423      23.247326553588689
   140   4      11.313095647505442      7.8935003135765207      23.217165125066543
   141   7    0.012754650712883942      10.058607059534051      23.284411896078954
   142   7      2.4907881721772012       10.11331282828411      23.271728494930635
   143   7      5.0717508293795497      10.118239870262922      23.239584215979072
   144   7      7.5043844389735579      10.074531892691359      22.922247282036626
   145   7      10.017436305878334      10.015339846361382      23.172079444483355
   146   7      1.2913131592386484      12.239749253411791      23.334690666660627
   147   7      3.8038409332714647      12.250309437147052      23.219411152370366
   148   4      6.2328817596725559      12.280378329526508       23.25332778500675
   149   6      8.7398119365931954      12.248557038774148      23.326990700092864
   150   7      11.252037223984496      12.205797332488762      23.402925402710881
   151   4    0.099915678217205747   -0.044154414950137992       25.41543077299778
   152   7      2.6540688878998777    0.024619742426023643      25.378690065642342
   153   7      5.2095174975966012    0.080491137922779316       25.32558276516896
   154   7      7.6252149634098059   0.0024869057242926586      25.470538621485897
   155   4      10.141443233207539    0.069074217446499289      25.566518800220695
   156   1      1.4792059299652207      2.1553037377015296      25.503644652768735
   157   7      3.9728334636796498      2.1501482599529318      25.438926794031929
   158   2      5.8131052692501148      2.4657532691694248      24.660750919310768
   159   7      8.8780874551696947      2.1051867776119799       25.46602561492238
   160   7      11.400479268414369      2.1699252349321632        25.4379090806326
   161   4     0.10706094973856968      4.3546168622231241      25.450395319669969
   162   7      2.6038914659021049      4.2755347048925358       25.40252883333503
   163   7      5.1234131899023474      4.2577383482146267      25.402284045209722
   164   5      7.4799854209132732      4.0522203967547341      25.363362214970451
   165   7      10.062860751788762       4.224734180591688       25.43517294339447
   166   7      1.3448774934528278      6.4246073944808479      25.393986336749823
   167   7      3.8176064497770645      6.4449656329211429      25.417963731677556
   168   7      6.3663331144124093       6.406564421331832      25.410809673513839
   169   7      8.7749710541550083      6.3344752615500681      25.404243531526912
   170   7      11.301162801338492      6.4173167060972718      25.436447148456629
   171   6     0.11865559512779633      8.6192560950090176      25.380611427197604
   172   7      2.6295588407592194      8.6195555407050701      25.369820898598615
   173   7      5.1208124529959171      8.5672913770211085      25.337525869203787
   174   3      8.4683124730411468      9.5326588498012796      24.395203979394132
   175   6      9.9218627075224273      8.5676519895011101      25.493410054189184
   176   7      1.3420990656075349      10.812145240621504      25.412627604953911
   177   6      3.8820064758111896      10.829299277379265      25.299045475480234
   178   6      6.6583710026792327      10.532928212163217      25.238477804190058
   179   5      9.0396917867060633      10.918450400141586      25.568983668505652
   180   5      11.349867415792499      10.864047389409295       25.49347972375093
   181   7      1.3965875707500284     0.68866726872542638       27.49143150729277
   182   7      3.8922117561810863     0.71513507387603614      27.440141812843773
   183   7      6.3367061832600999     0.71840927083679862      27.572472332806299
   184   7        8.90605576233229     0.71652975104489824      27.576952123055722
   185   4      11.396154828996274     0.72141779776925297      27.556100515801369
   186   7     0.17418629376955727       2.872196341915942      27.496734841927481
   187   7       2.675027553566784      2.8635130166943843      27.546070454682237
   188   7      5.1184993167224331      2.8768510920882986      27.548042767607075
   189   7      7.6282207197075209       2.801455786327939      27.486878995188302
   190   7      10.156738840815381      2.8378560120666863      27.519706304986087
   191   7      1.3969818428805045      5.0170535105291894      27.440834677082638
   192   7      3.8497187056230762       4.993456558189088      27.447747250038194
   193   7      6.3921033558954354      4.9835338683821133      27.394496847668979
   194   6      8.8665812641431341      5.0053779926421029      27.532041231757663
   195   7      11.368570621953719      5.0061372801474402      27.516275789323466
   196   7     0.14407444815284343      7.1704534173931114      27.473035683462175
   197   7      2.5874210100736392      7.2034551193414416      27.440993942362759
   198   7      5.1097851735461965      7.1800732176391771      27.391681214134799
   199   7      7.6235441944821645      7.1890969429496705       27.45422901736471
   200   7      10.132978214376394      7.1638880910034848      27.544784487934095
   201   5      1.3804036087427234      9.3475498025843375      27.486881832342615
   202   7      3.8780273654039981      9.3355610567653571      27.372481316570219
   203   7      6.3815013409477688      9.2908725627064914       27.39904046651769
   204   7      8.8519304973348714      9.3612074183268472      27.611555428555331
   205   7      11.358307640694379      9.4104596790970234       27.53968348376895
   206   4      0.1872879776377791      11.490391495024157      27.515706095716222
   207   7      2.6101446435699027       11.48418342232412      27.429190244115421
   208   7      5.1499368061569308      11.507926079414403      27.337249615909755
   209   6      7.6018244742404724      11.523004969122356      27.627714269871465
   210   7      10.165335095706789      11.545892864528591      27.597679314085607
   211   7     0.20863122640694423       1.454482601741518      29.596202285086065
   212   7      2.7218563509094587      1.3675783417794956      29.568236514266346
   213   5      5.1494360884122194      1.4238371445173872      29.594446841768409
   214   7       7.634465427079145      1.3624591442574783      29.601922755091124
   215   7      10.133333798659303      1.4038469300284648      29.645809467100683
   216   7      1.4191045357415029      3.5618223538648475      29.561807356679655
   217   4      3.8568777881955953      3.5701406537716327      29.544428770700595
   218   7      6.3951528279080776      3.5428570117836937      29.535905054768243
   219   7      8.8728630942626108       3.532289550505773      29.581576376889526
   220   7      11.372566475955246      3.5769319201112544      29.555345628282062
   221   7     0.13094715444737776      5.7400165550519819       29.55471618764728
   222   7      2.6046530788568969      5.7400601300200709      29.488750192893857
   223   6      5.1725581990887122      5.7251501157813802      29.453623318852031
   224   7      7.6628619504657474       5.748130120803089      29.601650720478368
   225   7      10.123685956308389      5.7514532214978313      29.663368099844696
   226   7      1.3758754053798634        7.93569023785538      29.500782861065343
   227   7      3.8711182424997816      7.9316788923351105      29.436494599850548
   228   7      6.4039709567511807      7.9175278850866073      29.484538745691168
   229   7      8.8595471289092238      7.8866797676776246      29.537170456686876
   230   7      11.384229006077417      7.9198454446829043      29.544774353528069
   231   7     0.16044441924161587       10.09229686425045      29.570176765559623
   232   7      2.6338958003239976      10.065867170891304      29.401850973489438
   233   7      5.1502008469134983      10.070171393291774      29.330940932402576
   234   7      7.6053565493538047      10.087771202920024      29.656281293899749
   235   7      10.093167142623036      10.157745824082747      29.621087170673096
   236   7      1.4556720509236103      12.207583508607073      29.543492084601858
   237   3      4.0352642620067476      13.234335270949131      30.553882253270245
   238   7      6.2365853298987615      12.242398253241664      29.677103476172611
   239   4      8.8823011608234061      12.246006664675093      29.729823872430018
   240   7      11.389043819278038      12.258691579916579      29.588329511021797
   241   7     0.17901824579543077     0.11393303137532763       31.64048299191893
   242   7       2.558666020989568     0.17164754805702837      31.726781496855072
   243   7      5.1651989540477778   -0.011401936948423921      32.094275876867506
   244   7       7.627034980957788    0.012311429045053418      31.715881988866435
   245   7       10.09377435000285   -0.050166490496614397      31.863460691895778
   246   4      1.3417643456631561      2.2702044443402887      31.654981135891433
   247   7      3.9010714855353945      2.1650619971059326      31.611355171713591
   248   7       6.428109375609087      2.1668813920662942       31.64147682841897
   249   7      8.8698576083169698      2.1321474825842115      31.698670637102669
   250   7      11.376387169654558      2.1593452664611528      31.673554117379595
   251   7     0.17305611321765679       4.344784983237715      31.626059255895406
   252   7      2.6816830648896932      4.3235964203744759      31.564481429170204
   253   7      5.1540567160360116       4.321614620044401      31.584309690474992
   254   7      7.6692875665230353      4.3411514770893991      31.624061528561818
   255   1      10.170006897311746       4.279693627173633      31.627617123840317
   256   7      1.3424091408885808      6.5759552414256053      31.534237426208911
   257   6      3.8017529490289235      6.5163671828588043      31.588210432936222
   258   7      6.3563828523915467      6.5090081929788974      31.612175399409185
   259   4      8.8276669710897266      6.4810638543922661      31.668818337467339
   260   7      11.339670013683575      6.4794456262746474      31.679214238271992
   261   7     0.18649267086480792      8.7443573503062311       31.64514945971974
   262   7      2.6834428954777798      8.7820760421447002      31.473913357496762
   263   1      5.1192087774071364      8.7660728878078213      31.403560067399358
   264   7       7.595851168387866      8.5904674555628713      31.620948323262301
   265   6      10.121970952657504      8.6555847676095095      31.579820757352632
   266   7      1.5420843429645135      10.877540511027362      31.563804896998924
   267   4       3.914138871639246      11.272810294248005      30.886861479878803
   268   7      6.2701667272613459      10.779656455627428      31.582977931995593
   269   7      8.7757742368456704      10.795767922849071      31.741716221347552
   270   7      11.404484471036147      10.894589537467544      31.674855612750932
   271   7      1.4132263871466477     0.93471690783145078      33.753914613681047
   272   7      3.8719676391679716     0.99922806048005441      33.897006294982035
   273   7      6.4118365639109429      1.0110725065120953      33.906414256339275
   274   7      8.7879180764362594     0.90878158006121523      33.829958956026637
   275   4      11.374634847934903     0.81013699664755334      33.710903425403586
   276   7     0.14523552631569411      3.0278038717408058       33.71273351177566
   277   7      2.6224750320391501      3.1066048631142551      33.709432054385672
   278   1      5.1999837329239647      3.0218331824530629      33.691232104523628
   279   7      7.7032023381322396      3.0688982777484761      33.742763060696269
   280   7      10.171811449538783      3.0166867878987245      33.757457951486188
   281   7      1.4585552983875574      5.2288061845047178      33.559567431277671
   282   4      3.9142294519599639      5.1732833126321367       33.66914003922691
   283   7      6.3856793692389449       5.135699295251797      33.660389297924404
   284   5      8.9047335653320552      5.1424017553990664      33.689781828839337
   285   4      11.521164148280866      5.2014811737699604      34.020011970883182
   286   7     0.16956839241695743      7.3598447911716569      33.616365610002624
   287   7      2.6855404161377927      7.4025429252649531      33.605319944140362
   288   7      5.1870271943171966      7.3347691448803065      33.629856476789378
   289   7      7.6365465156736567      7.2032741070809392      33.712158004629266
   290   7      10.137352657904925      7.2119155556675913      33.689324607048057
   291   7      1.4777827473989382      9.5159868993101657      33.683873897340376
   292   7      3.9968763338659716       9.501776423818681      33.415128736339923
   293   4      6.4639404121027955      9.3632135643167356      33.655584242003499
   294   7       8.785963968758244      9.2802586106042888      33.683403684542562
   295   6      11.269968360109722      9.6551000533277485       33.85783445018869
   296   3      -1.422866764613572      11.823781622598961      33.356512633303765
   297   6       2.963030981159303       11.63708842619247      33.691836442929798
   298   2      5.1377673374065509      12.326148734717622      34.210211401719071
   299   7      6.9415829910743003      11.633358166959667      33.693539657928618
   300   7      9.3334832479933656       11.54716686036271      34.154113175848821
   301   7     0.07496632663075814      1.5671167267993356      35.739046321925109
   302   7      2.4946295497203796      1.7837154685288581      35.799323733285625
   303   7       5.147811996993001      1.7450580901169352      35.915896463948833
   304   4      7.6530644812490092       1.673609406444089      35.915620710378668
   305   7      10.089062860777837      1.5313759190623744      35.761859849015828
   306   4      1.1154372458410806      4.0858773886557165       35.76817135159736
   307   7      3.8790137972130747      3.8055701805127109      35.762468077441739
   308   7      6.4129113772479149      3.7691388787241222      35.788914258117757
   309   7      8.8805185414639123      3.6906685812894211      35.825304124789305
   310   4      11.325693693712095      3.6957696310367818      35.893598196626357
   311   2      0.6352875690392854      6.1884391187879855      35.230330192959201
   312   7      2.6888322277809995      5.9176624011654173      35.560594603641754
   313   7      5.1911412591666934      5.9740814095574093      35.681825867582319
   314   7      7.6531703275815195      5.8589003129335939      35.768014229288973
   315   7      10.115589367726248      5.7602040391072773      35.873692144787505
   316   7      1.4553550930529799      8.0307562190654522      35.648739084742495
   317   7      3.9196543131733645      8.1275597305983833      35.698494267327135
   318   4      6.5272876083438485      8.1610933808500086      35.782033965122565
   319   7      8.9721734887097213      7.9663842710372057      35.750616651385528
   320   7      11.542929437095642      7.6869891529627719      35.761497435356247
   321   6     0.13887009958715416      10.151153439013395      35.943183746433817
   322   7       2.650166371303631      10.273654046854444      35.791797693318948
   323   6      5.1842984505756906      10.298826527130499      35.561909254505629
   324   7       7.866607670122991      10.392309723056949      35.691739588187609
   325   7      10.227258948705945      9.7403091593547781      36.973658659300256
   326   7     0.44499908206889316      11.683565707000303      33.689795805733674
   327   6      3.8163685676822663      12.611158081516471      36.108765909577166
   328   7      6.3586880576979166      12.575398034203307      35.924914149732992
   329   3       9.500113176546563      11.363271425570861      36.240157455723228
   330   4      11.165657158996579      12.121759476412016      35.582713946764891
   331   7    -0.14037051072119289   -0.030608444150581882      37.618679335718255
   332   7      2.3749136355690301     0.19422871890426013       38.03406911532965
   333   7      5.1334507803961849     0.21603060566532781      38.112901612309379
   334   7      7.5633936774666148    0.090466359681412242      38.002605965780702
   335   5      9.8120447785967055   -0.048545223266060665      37.433561765168697
   336   7      1.1933669765528274      2.2763978408897443      37.747234946365992
   337   7      3.7490729457407661         2.2613533198806      37.815328196625906
   338   7      6.4233617581860436      2.2964605254594841      37.887925455520701
   339   7      8.8681480866171984      2.1990250108138127      37.867532222289725
   340   7      11.231560848489899       2.153221030035021      37.802788294822598
   341   7  -0.0082084180300638025      4.3114058233255399      37.986434850583684
   342   7      2.4997835422135926      4.3518908888689163      37.735127371688563
   343   7      5.1146065111257055      4.4511353383795029       37.79493767240195
   344   7      7.6462591995844944      4.4693977939376976      37.871708022050292
   345   4      10.039907071082803      4.3586037894498633      37.908655671728368
   346   7      1.0854053270284034      6.3338716951683081      37.281915538083283
   347   6       3.752928952766732       6.490417893332654      37.700293895275571
   348   6      6.4326392206666565       6.682323917251817      37.795537474483162
   349   7      8.9233834849364957      6.6595095441437602      37.867990650303753
   350   7      11.276825857743958      6.4767516344378029      37.982210759017029
   351   7    -0.01976410327322765       8.639055835608076      37.868184706576685
   352   6      2.4900399635112742      8.7393327653697295      37.751762380702758
   353   7        5.06598590470914       8.747828253251452      37.825076991661355
   354   7      7.8753868908365341      8.9688500534600184      37.768012799621928
   355   3      10.241515049992287      7.8221639585165832       37.19206441110078
   356   4      1.3241734294996761      12.409959983610396      35.850766107890117
   357   7      3.7994187398338144      10.890283184484286      37.944410046159391
   358   6      6.3614544241931386       10.88502558418859      37.775113428847298
   359   2      8.5580174873970503      11.110040951049765      37.444226955298802
   360   7      13.801637422236684      10.949875929628211      37.925719090200666
   361   8      2.3697150212565194      6.8471357759603908      39.449202228393972
   362   8      2.6350034502035076      7.1263361989650296      40.136785628828193
