(written by ASE)

362 atoms
8 atom types

0.0      12.447907775999999  xlo xhi
0.0      12.936245229600001  ylo yhi
0.0      52.360083105400001  zlo zhi

Atoms # atomic

     1   7     0.21401581073970108    -0.47117876814647236      14.819599207610951
     2   7      3.7053075654043388     0.63958964973233223       14.80127736909744
     3   5      6.1282330430079615     0.82404222091993551      14.957128520908705
     4   6      8.6934504518715272      1.0299608893557155      15.008549473164962
     5   7      11.042337868430721      1.2955747330161926       14.57362281718806
     6   7    -0.13969060778608614      3.4297060511510868      14.772382810296227
     7   7       2.196805726339019      2.6320996846108464      15.047973285128162
     8   7      4.8350589025519479      2.9224381763732725      14.998484472981852
     9   7      7.3226782408111735       3.055599726250724      14.900322450346394
    10   7      9.8323942898067287      3.4223071887300605       14.65096155233879
    11   7      1.1698527371565339      5.4453951055574219      14.990179079044191
    12   7      3.6479067782748142      5.0383573648309685      15.063106980752915
    13   7       6.160868920380028      5.1746138114454112      15.018124494821489
    14   7       8.653416094999967      5.6644017181579462      14.913519585779335
    15   6      11.140039574533073      5.5825024877280853      15.104266093582421
    16   4     0.35849548112686225      7.8127694254461355      14.588333429475473
    17   7      2.6279386864109271      7.3532863764809209      14.816645129765741
    18   7      5.0336373840765551      7.2336640492705335      14.974044989565716
    19   2      6.9640670921420691      7.0031892241388967      15.326262254376282
    20   7      10.329546491966877      7.6125677450766078      14.109238684175578
    21   2      1.9004116283683365      9.2790990102403885      15.190464878400856
    22   7      3.8568125189728582      9.4068907718276318      14.928329311680772
    23   7      6.5781466886481157      9.1231317887652637      14.878250135617847
    24   7      8.9530076972021408      9.6640362533034132      14.244890067567249
    25   7       12.62596163680095      10.140933387884944       15.88612752115233
    26   7      1.2918328564949839      12.243332096732091      17.031741314422383
    27   7      2.3702876915868658      11.380037159639548      14.913945415696602
    28   7      5.0658748128509945      11.506307356854455      14.809520596138015
    29   6      7.5977971836464944      11.496984007198309      15.003835111284351
    30   7       10.06190230744215      11.967970386461751      14.630702490679269
    31   6     0.12983027709719633        1.58461871271188      16.469955804694727
    32   7      2.6169757808996787      1.4518238604837277      17.065936560428668
    33   7       4.991741752138033      1.5650793560081826      16.992263444483847
    34   7      7.4274107325548515      1.7177686327124566      16.997120591672701
    35   7      10.016160277207598      1.6505303696166962      16.976425418060682
    36   7      1.1863803668097679      3.8163521646543241      16.972682359344404
    37   7      3.6556915565382617      3.6536334672112081      17.057090309663625
    38   5       6.155550192752437      3.7666917203696038       16.96819196950581
    39   7      8.7060977131705108      3.8507011114315794      16.810058714179345
    40   7      11.150455476455306      3.8421407197753217      16.963676819191662
    41   7   -0.058297204944947376      5.9942162700110826      17.158895353508274
    42   7       2.466589722442059      5.9108840645424339      17.035108793219283
    43   7      4.9289373648151402      5.8087105563246153      17.054908054631269
    44   7      7.4468779242449861      5.9268411475852032      17.038109641713636
    45   7      9.8840383109277603      6.0908564214720862      17.174872005588494
    46   7      1.2813478407985568      8.0191138399697781      16.781291361092538
    47   7      3.7752456521273134       7.976560009623566      16.972774834399544
    48   7      6.2459270956235882      7.9791111752883186      17.023079541952693
    49   7      8.5992949640960568      7.9593658666534095      15.923034495462389
    50   7      11.186586918138254      8.0082623187308997      16.327435563332962
    51   3     -1.0534250726410144      9.6011564435123873      17.262495282428919
    52   7      2.5245975225499833      10.123768788593166      16.988342801284603
    53   7      5.0822071842739724      10.098423288488046       16.87604716471467
    54   7      7.5796552684185929       10.03054533241219      17.015327434558628
    55   7      9.9212442848398421      10.283841648013837      16.370689880845738
    56   2      1.8452562271218071       13.43535658367386       15.39723793561337
    57   7      3.7867938114594932      12.250856138859147      16.863698051096339
    58   6      6.3233542210308578      12.322093179445663      17.052082461127295
    59   7      8.8465775103287712       12.40686900815286      16.984907825906582
    60   7      11.236262020181984      12.395162245380126       16.76898962953091
    61   6   -0.027706024553606663     0.12481836546183472      19.014252651495667
    62   7      2.5229371741214903     0.06002082963190504      19.140591932743497
    63   5      4.9888166969344629     0.14355646304076139       19.06383504105786
    64   7      7.4694715989430769     0.13730131314478441      19.141242708703089
    65   7      9.9915855203738513     0.13862812856768117        19.1028186201968
    66   6       1.363880253356736      2.2717643681843613      19.053351500714019
    67   5      3.8266995722474357      2.2064931289857608      19.130040818503712
    68   7      6.2157136465683589      2.2080872900341988      19.086249152579033
    69   7      8.7512639457572288      2.2298707636596533      18.992589752641539
    70   7      11.268171015487935      2.3577805395186457      18.956533825784014
    71   1    -0.10193925051267366      4.5135585359154069      19.179240870553937
    72   7      2.4519289914947349      4.4513505505442952      19.065509757039205
    73   7      4.9609228396343985      4.3219792388797567      19.060827206100495
    74   6      7.5031207997465694      4.3495859004034356      19.019540218309981
    75   5      9.9008141030428423      4.4164889211835421       19.00684977416573
    76   7      1.2076927399905075      6.5602580646439854      19.131394839510552
    77   7      3.7632921146934488      6.5225707125822874      19.101553746377814
    78   7      6.1831943101638682      6.5232809293886049       19.10191261346521
    79   7      8.6534502440732215      6.5499637386662997      19.297190700749326
    80   7      11.116248057214813      6.6470586290239648      19.267466600128376
    81   4    -0.10271279851306643      8.6689292838232141      18.739558236788209
    82   6      2.4365819151890271      8.6077381971063218      19.035802118098189
    83   7      4.9422443914217729      8.7372505478827804      19.017469442918276
    84   7      7.3750015358716912      8.6404736093089376      19.082671207703395
    85   6        9.70194471424794      8.5623549128069421      18.289865874888054
    86   7      1.2183454967694136        10.8142621761613      19.126438831198779
    87   1      3.7783014863838633      10.926290421502388      18.979045967238434
    88   7        6.22628246000773      10.843896151591519      19.079525735936937
    89   6      8.7431284034443397      10.872868989288305      19.039143175571645
    90   4      11.246354805272672      10.873179587324271      18.737436872946592
    91   4      1.3396794907721741     0.77250237805636446      21.323762182767428
    92   7      3.7641838695006142     0.74845655084121165      21.133806999840203
    93   7      6.2916464331566706      0.7495088254389165      21.221280171250946
    94   7      8.7453467935154166     0.74790161081669193      21.255006518215666
    95   7      11.294252115036047     0.70734965428474683      21.247674410472069
    96   7    0.072169216256927793      2.8430480729152232      21.180706626932327
    97   7       2.587186022840918      2.8674786881733647      21.194612033289388
    98   7      5.0358094992513189      2.8834883437816532      21.167245486481566
    99   5      7.4971717876237989      2.8462590637843785      21.162356794849842
   100   6      10.033993010055459      2.8343078872014824      21.053581707737479
   101   7      1.2157800729431785       5.031003374369182      21.200611433509966
   102   6      3.7389911374297444      5.0479381039647251      21.186825371636729
   103   7       6.284145135988914      5.0492462677015943       21.15599796054719
   104   7      8.7477085834137451      5.0566341946092805      21.221266148635003
   105   3      10.086128723368097      4.4230154216519919      22.286351432798277
   106   7    0.023591479485142234      7.1418814761327143      21.226894710197385
   107   7      2.4827498366818159      7.1790359190936597      21.206760776189576
   108   7      5.0142663104102807      7.2238666366527076      21.184555735015572
   109   7      7.4267736269617979      7.2476053477831721      21.254123309612162
   110   7      9.9135025039069209       7.170177528758388      21.346282741286739
   111   7      1.1779216552053726      9.3195094656779105      21.140998285340348
   112   6      3.7410975676070635      9.3582679922225047      21.238295769735338
   113   7      6.2219153401399394      9.3937569433531714       21.06486046904644
   114   7      8.7189741191324064      9.3130241147006743      20.973976782017687
   115   6      11.141926638941845      9.2264983017389106      20.848114160950036
   116   1   0.0070434009221674952      11.491873379798937      21.240560387084056
   117   7      2.4752279507175476      11.544996842631095      21.158392216384868
   118   7      5.0072271268240627      11.571965377666196      21.145701932497008
   119   4      7.4484784281950533      11.571999045271518      21.112664295826701
   120   7      10.011673225682422      11.525091607115254      21.130731253183615
   121   7    0.078583983706462912      1.4131567567591456      23.334718134945152
   122   7      2.5708073296929026      1.4193010081252329      23.339632175570962
   123   7      5.0071198770417347      1.4368247082922849      23.205840962149427
   124   7      7.4207376052392249      1.5044525343676811      23.494304770277765
   125   7       10.04375987703612      1.4357271398919964      23.381773296034559
   126   6      1.3453971089299761       3.611573090552965      23.245242960808394
   127   7      3.8465981253813837      3.5959209422561065      23.345138381780352
   128   7      6.3081494922957448      3.6564841939406354      23.184162702904171
   129   7      8.7581931787253424       3.558134295314813      23.352808166728689
   130   4      11.356822653867319      3.6366952568417013      23.410516693933538
   131   7     0.07261711562400508      5.7961881438978633      23.357169444837332
   132   7      2.5465502195422065      5.7987231186457597      23.332380402027454
   133   6      5.0673607581498752      5.8438629797883204      23.356979920957571
   134   7      7.5609401581417686      5.7693402076373488       23.31573694816014
   135   7      10.064126086181101      5.8328400415145767      23.414347006722217
   136   7      1.3203788096123801      7.9229960661520815      23.258396190299404
   137   7      3.7877127816155127      7.9682783828015165      23.303653278061567
   138   7      6.2984615691068102      7.9843664996687131      23.318120859556362
   139   4       8.678843260391897      7.9305431743163908      23.247336159042824
   140   4      11.313117821712938      7.8934947599437191      23.217177532737576
   141   7    0.012770335646635485        10.0585966112167      23.284461866770762
   142   7      2.4908038083270627      10.113298980026384      23.271806073094872
   143   7      5.0717281731830433      10.118220189589509      23.239681399545354
   144   7      7.5043711020536108      10.074533999724743      22.922272696885578
   145   7      10.017432836474732      10.015338362748974      23.172087218921916
   146   7      1.2913075975529569      12.239738043416468      23.334739866885045
   147   7       3.803841168656501      12.250259287594828      23.219508017377681
   148   4       6.232881480486876      12.280368318852892       23.25336382648663
   149   6       8.739809254299157      12.248570539921099       23.32697265603333
   150   7      11.252031617545997      12.205805855825357      23.402942012539008
   151   4     0.09991340171360226   -0.044132796850759548      25.415461665239043
   152   7      2.6540548929520162    0.024554582805925151      25.378793934784312
   153   7      5.2094884734892881    0.080367429414671759      25.325651194199995
   154   7      7.6252251472520811    0.002500528585589073      25.470507634575853
   155   4      10.141425598971292    0.069132096331924076      25.566540083536136
   156   1      1.4792532697723544      2.1553336988218397      25.503839927659012
   157   7      3.9728743679397791      2.1501268800964133      25.439081331367593
   158   2      5.8130171778110853      2.4658419349385658      24.660733285163438
   159   7      8.8780258924439774      2.1052908740639951      25.466211683642165
   160   7       11.40047603552167      2.1700152717162959      25.438091784265346
   161   4     0.10712670876377497      4.3546719558250668      25.450638838471416
   162   7      2.6039335911961232      4.2755683468197381      25.402823373389761
   163   7      5.1233964838553341      4.2577317548903695      25.402615416969745
   164   5      7.4799294656475688      4.0523539612900059      25.363635649138001
   165   7      10.062840779620725      4.2248058546215344      25.435436030178845
   166   7       1.344941441127514      6.4246041873749578      25.394232625714007
   167   7      3.8176362670690156      6.4449326110286798      25.418288236051893
   168   7      6.3662651439682607      6.4064693542836828      25.411197603487732
   169   7      8.7749503841354937      6.3345114273598639      25.404415965705653
   170   7      11.301196159703387       6.417324388565004      25.436563535057505
   171   6     0.11869154532315108      8.6192423523153892      25.380705274056812
   172   7       2.629586893556056       8.619499031071344      25.370052326851887
   173   7      5.1208075298205173      8.5671896030709753       25.33780915170205
   174   3      8.4682935065285836      9.5326043271268208      24.395225583534923
   175   6      9.9219164473561534      8.5676615302340693      25.493406993915993
   176   7      1.3421126117416498      10.812118676282353      25.412763463502817
   177   6      3.8819931810748081      10.829188681786695      25.299263733950053
   178   6      6.6583643169897417      10.532822369743659      25.238560959479759
   179   5      9.0397151128846591      10.918468823973411      25.568917969942177
   180   5       11.34989527430951      10.864067486819199      25.493506755662995
   181   7      1.3965673799061598     0.68862098600000232      27.491511471939202
   182   7      3.8921792046882313      0.7150704345782064      27.440204212431812
   183   7       6.336672696090254     0.71842984616435324      27.572446097742851
   184   7      8.9060177559558884     0.71662973226705018      27.577004418095996
   185   4      11.396113958967776     0.72150013319971207       27.55616136533375
   186   7     0.17423363078692516      2.8723326734812162      27.497044547643089
   187   7      2.6750312541550834      2.8636249051359832       27.54642330568981
   188   7      5.1183680036448695      2.8769064632472916       27.54854135350153
   189   7      7.6280984200407751      2.8016292181962519      27.487280939957433
   190   7      10.156702115562595      2.8380376940487988      27.520085953906552
   191   7      1.3971219992791832      5.0171878369566185      27.441376773042286
   192   7      3.8497310547356944      4.9935881645502906       27.44844034440958
   193   7      6.3918471866983353      4.9836233685240341      27.395263218332719
   194   6      8.8664087071855295      5.0055028624914346      27.532392473733957
   195   7      11.368603889317496      5.0062491805829179      27.516549234774121
   196   7     0.14412943164730865       7.170501510687159      27.473264080560146
   197   7      2.5874712910664712      7.2034664587384807      27.441611492575827
   198   7      5.1096841509153181      7.1799910240527058      27.392423027770121
   199   7      7.6234115428383173      7.1890901074714613      27.454608295033673
   200   7      10.132964102800299      7.1639274839899754       27.54484819323423
   201   5      1.3803902992199062      9.3475027969759896      27.487166279775295
   202   7      3.8779946144096278      9.3353666722821043      27.372973514510555
   203   7      6.3814588096650731      9.2908133392792074      27.399320854330618
   204   7      8.8519226195861425      9.3612060205663994      27.611528552048966
   205   7      11.358295793417998      9.4104720084827456      27.539722441221461
   206   4     0.18728727079297719      11.490386985541219      27.515807117635994
   207   7      2.6101428761661749      11.483971320509236      27.429523543131229
   208   7      5.1499193809864501      11.507782591061497      27.337460661637923
   209   6      7.6018512531611497      11.523028365834314      27.627602181353879
   210   7      10.165331798622333      11.545948221842236      27.597656446498693
   211   7     0.20858104387578769      1.4545632371725974      29.596245593300264
   212   7      2.7217462678000532      1.3676865410384116       29.56823861527015
   213   5      5.1494330896988414      1.4238203087252002      29.594514487178223
   214   7      7.6343697986691907      1.3626149216653065       29.60199386226844
   215   7       10.13318373095821      1.4040228068202512      29.645934963071713
   216   7      1.4192339598726897      3.5621038981245934      29.562509806158474
   217   4      3.8568525372642082      3.5704252129511191      29.545271065920588
   218   7       6.394838498792077      3.5431432643011158      29.536724273656819
   219   7      8.8725922205815699      3.5326298529927795      29.582222529188122
   220   7      11.372657062604484      3.5772107250607994      29.555828728574618
   221   7     0.13104100994585463      5.7401853291332907      29.555280068344089
   222   7      2.6047997541130252      5.7403747716141842      29.490065521251839
   223   6      5.1721820328206469      5.7253598551350882      29.455153143071588
   224   7      7.6625397003228368      5.7482738714718646      29.602408524277923
   225   7      10.123584671658771      5.7515584442945045      29.663525513969208
   226   7       1.375761450766013      7.9356520346371253      29.501505415922281
   227   7      3.8709174531900268       7.931532946982454      29.437903689565672
   228   7      6.4037375861360868       7.917549026118694      29.485306757630866
   229   7      8.8595010416224209       7.886713292601728      29.537244057589959
   230   7       11.38417756265401      7.9199340179139091      29.544904869280636
   231   7     0.16031886597780085      10.092307565905728      29.570299728425404
   232   7       2.633742784109002      10.065425077352062      29.402525631968818
   233   7      5.1501233451164001      10.069895205346088       29.33137952174804
   234   7      7.6053465811195142      10.087809967214055      29.656160602127596
   235   7      10.093107882440387      10.157816688600455      29.621075505564971
   236   7      1.4556972322256045      12.207501684790824      29.543668046335128
   237   3      4.0350329475048641      13.234373963109938      30.553699122033837
   238   7       6.236598373084604      12.242364738981253      29.676989916629545
   239   4      8.8822627560540539      12.246075531559333      29.729739375234992
   240   7      11.389000897115059      12.258787239193556      29.588358998505708
   241   7     0.17885399153596288     0.11404919322070299      31.640651837230518
   242   7      2.5584975237056322     0.17177176671483882      31.726724341131586
   243   7      5.1651138424153524   -0.011364864830202685      32.093949555869145
   244   7      7.6269715410087233    0.012518959911753353      31.715696661192997
   245   7      10.093547689868522   -0.050030313945610881       31.86330735824345
   246   4      1.3417674672061486      2.2704462609055041      31.654821899194868
   247   7      3.9009473390403877      2.1652116916916562      31.611408034181601
   248   7      6.4279770109695136      2.1671704766154769      31.641574145304332
   249   7      8.8695381481147173      2.1326347998019846      31.699041760319709
   250   7      11.376164206269731      2.1596253454248755      31.673414947824234
   251   7     0.17366150816049658      4.3456251394676206      31.627349779048796
   252   7      2.6820247195079139      4.3240961592001721      31.565781909585482
   253   7      5.1535737784687745      4.3224369986650384      31.586236130052235
   254   7      7.6685598222987696      4.3419765006199942      31.625610391089275
   255   1      10.169953099451842      4.2801348505096026      31.628160128438562
   256   7        1.34256156547811      6.5761428408279441       31.53557825093025
   257   6      3.8016654437088073      6.5165140613119501      31.591377281055745
   258   7      6.3556921404557229      6.5096882454545666      31.614149833391611
   259   4      8.8274604649333845      6.4813589831931679      31.669129429641327
   260   7      11.339506142969093       6.479779725629184      31.679231694140817
   261   7      0.1864096849428715      8.7444708730543628      31.645556359315474
   262   7      2.6832356617355697      8.7815405327933824      31.475734346030258
   263   1      5.1186537668084879      8.7662743322846506      31.405103623022274
   264   7      7.5958829612361738      8.5906780191156642      31.620800873003979
   265   6      10.121907207644224      8.6557744496347997      31.579850719684437
   266   7      1.5419746961066751      10.877336800283217      31.564027848148005
   267   4      3.9139381042425816      11.273028253053001      30.886608435019145
   268   7      6.2701242671642516      10.779709655749508      31.582708391946657
   269   7       8.775661241464789      10.795881643095463      31.741705599533255
   270   7      11.404359995370388      10.894609884799525      31.674867419257428
   271   7      1.4131636870555691     0.93445951876896483      33.753977944206277
   272   7      3.8716848015099647     0.99891132642446279      33.896916661994055
   273   7      6.4116036599816244      1.0111808510524753      33.905932159377294
   274   7      8.7874325345913569     0.90933998180240672      33.829943195706726
   275   4      11.374111370927979     0.81017121267213632      33.710752607137323
   276   7     0.14461085789707315      3.0274730131950669       33.71197278693608
   277   7      2.6219243639055954      3.1060056642791576      33.709437599628146
   278   1      5.1995394422282866      3.0219785881828543      33.690613165111351
   279   7      7.7018989381639162      3.0699143789263146      33.743674389132636
   280   7      10.171186934268565      3.0170728234342494      33.757799874243176
   281   7      1.4619801146101508      5.2299639785522736      33.563073863990169
   282   4      3.9137023941368798      5.1750977847841106      33.675518609665772
   283   7      6.3825877518434879      5.1377851703767226      33.665179036577769
   284   5      8.9040283898957657      5.1428478186931255       33.69078057752408
   285   4      11.521501773237155      5.2016505191317277      34.020698443651639
   286   7     0.16975008936808791      7.3596330123755394      33.616494952591353
   287   7      2.6866314786558041      7.4009315849376689      33.611902720066944
   288   7      5.1867150042817585      7.3339125352123284      33.635402898118521
   289   7      7.6364372431474425      7.2035151168792391      33.712128579344402
   290   7      10.137503558617448      7.2118565110029476      33.689543980446807
   291   7      1.4776798875789914      9.5153723364310139      33.685385163978971
   292   7      3.9957164566420702      9.4986311215895167      33.419089649022176
   293   4      6.4645194097982097      9.3632212123647154      33.655078879420181
   294   7      8.7862268944646882      9.2802865849357463      33.683580863619483
   295   6      11.270171423785703      9.6551576006921529      33.858263126742514
   296   3     -1.4227112780181919      11.823766579259926      33.356270238404001
   297   6      2.9632867630416095      11.636096212814556      33.691107972347901
   298   2      5.1378663372898323      12.326281380364165      34.209755214985144
   299   7      6.9417310071889773      11.633483244762152      33.693157608962089
   300   7      9.3336326763229245      11.547633434276515      34.153787739117007
   301   7    0.074210331526835246      1.5668993940064435      35.738414656477282
   302   7      2.4942500327718351      1.7832316148331151      35.799847388448669
   303   7      5.1479293905033758      1.7447184515055092       35.91550832124662
   304   4      7.6518652408823193      1.6744030600266184      35.915252500716292
   305   7      10.088287342074013      1.5314159438842088      35.761822154760843
   306   4      1.1137965397981222      4.0855812411332444      35.765326149610502
   307   7      3.8780717569014125      3.8033870276840993      35.761034617061149
   308   7      6.4100779477366121      3.7715169325352833      35.790445459991425
   309   7       8.879417693949744      3.6909373902282532      35.825379950143954
   310   4      11.324929965472581      3.6953129400333529      35.894278436387339
   311   2     0.63899447993371195      6.1886302873798167      35.228384290941555
   312   7      2.6930828556763728      5.9184239992354533      35.577272724320693
   313   7       5.184246352274025      5.9786338915726196      35.699510319990942
   314   7      7.6508545394558229      5.8598948435674814      35.768392053912876
   315   7        10.1149621355367      5.7600142272823556      35.874736044732117
   316   7      1.4556919471374472      8.0306955128816035      35.650614019573169
   317   7      3.9193968952270697      8.1232250615699559      35.709653933444606
   318   4      6.5276316952147893      8.1619977937263002      35.783149692396101
   319   7      8.9726944080342133      7.9664534887382965      35.751122630549091
   320   7      11.543209031608317       7.686217602632575      35.761371149639579
   321   6      0.1388439770404333      10.150871513279991      35.943665148460063
   322   7      2.6514090308594933      10.272496082102451      35.791379020052517
   323   6      5.1844788610797901      10.297984032003466      35.560177878685636
   324   7      7.8670938920987812      10.393013715587623      35.691252965053096
   325   7      10.227197049135146      9.7402865673574155      36.973382574980803
   326   7     0.44507756980519897      11.683316861582698      33.690010553191058
   327   6      3.8163516943493567      12.610329569801532      36.108433428281046
   328   7       6.358541477592734      12.575002576373667      35.924152644108361
   329   3      9.5003529643501317      11.363349153321412      36.239831046368856
   330   4      11.165874668672123      12.122089159225123      35.582681500555509
   331   7    -0.14071931669482685   -0.029983109413383707      37.618505099167272
   332   7      2.3755586295561155     0.19428724505165612      38.034288037062723
   333   7      5.1336669734269531     0.21670889722117201      38.112233457734426
   334   7      7.5634137333921245    0.091518696085519644      38.001939443532898
   335   5      9.8121494703571841    -0.04861218124043383       37.43348218018869
   336   7      1.1918610012220436      2.2742601022670805      37.747762766674249
   337   7      3.7494261926177588      2.2617053379635137      37.814933930101354
   338   7      6.4223962808396449      2.2982149812931225      37.887955004113053
   339   7      8.8674019218060494      2.1992840494682162      37.867330074490141
   340   7      11.230688573822659      2.1531348338406531      37.802944793023123
   341   7   -0.009501573693296194      4.3103312886353526       37.98807055121447
   342   7      2.4962851550233727      4.3467147976613232      37.730462689672919
   343   7      5.1108335831056584       4.454631048875962      37.789761590794917
   344   7      7.6442159094468067      4.4705657484710031      37.871661556706215
   345   4      10.038183265633014      4.3583531713491217      37.909339769643509
   346   7      1.0771254780348292      6.3318845003287105      37.278097317835979
   347   6      3.7336805343570871       6.493220951108376      37.748021382993294
   348   6      6.4318521246993612      6.6830952972749476      37.797500506150698
   349   7      8.9228012797961274      6.6602890605321061      37.868133333078866
   350   7      11.275304625435773      6.4762124722648995      37.986301509402985
   351   7   -0.021319434862491306       8.637993802646605      37.867740668444149
   352   6      2.4874681572048387      8.7473956081632913       37.75200269004538
   353   7       5.070838360064549       8.750480145896919      37.821917146754338
   354   7      7.8755081094209931      8.9693920233915509      37.768372518022751
   355   3      10.243257858152527      7.8221242568508202      37.192473978704946
   356   4      1.3244520130233923      12.410111356573804      35.850475333112819
   357   7       3.799550663595372      10.891031646743262       37.94366767929565
   358   6      6.3621534099651891      10.886100633495415      37.774908104053452
   359   2      8.5585655395896687      11.110120635791787      37.444200610993654
   360   7      13.801315112076438      10.951760060671125      37.925833716532097
   361   8      2.4169143824041006      6.8322039854242078      39.352005782250089
   362   8      2.6504003910702618      7.1146636449806433      40.070478306085889
