(written by ASE)

362 atoms
8 atom types

0.0      12.447907775999999  xlo xhi
0.0      12.936245229600001  ylo yhi
0.0      52.360083105400001  zlo zhi

Atoms # atomic

     1   7     0.21401581074413809    -0.47117876814133014      14.819599207627183
     2   7      3.7053075654060588     0.63958964973770271      14.801277369118392
     3   5      6.1282330430071932     0.82404222092550727      14.957128520931111
     4   6      8.6934504518680153      1.0299608893609364      15.008549473186438
     5   7      11.042337868425665      1.2955747330202785      14.573622817205477
     6   7    -0.13969060778065659      3.4297060511536563      14.772382810314037
     7   7      2.1968057263427347      2.6320996846146705      15.047973285150162
     8   7      4.8350589025528183      2.9224381763771192      14.998484473005874
     9   7      7.3226782408092665      3.0555997262543988      14.900322450370055
    10   7      9.8323942898024388       3.422307188733051      14.650961552359576
    11   7      1.1698527371613059      5.4453951055588163      14.990179079065015
    12   7      3.6479067782772661      5.0383573648329794      15.063106980776872
    13   7       6.160868920379702       5.174613811447287      15.018124494846457
    14   7      8.6534160949967749      5.6644017181592599      14.913519585802995
    15   6      11.140039574527217       5.582502487729367      15.104266093603751
    16   4     0.35849548113181956      7.8127694254458007       14.58833342949301
    17   7      2.6279386864143226      7.3532863764808631      14.816645129787155
    18   7      5.0336373840775552      7.2336640492706064      14.974044989589737
    19   2      6.9640670921409455      7.0031892241391285      15.326262254402653
    20   7      10.329546491962835      7.6125677450762987      14.109238684194217
    21   2      1.9004116283724402      9.2790990102389248      15.190464878421809
    22   7      3.8568125189752385      9.4068907718259211      14.928329311702534
    23   7      6.5781466886476903      9.1231317887636898      14.878250135640815
    24   7      8.9530076971995243      9.6640362533014983      14.244890067586621
    25   7      12.625961636793832      10.140933387882528      15.886127521172005
    26   7      1.2918328565009045       12.24333209672737      17.031741314445281
    27   7      2.3702876915901996      11.380037159636448       14.91394541571491
    28   7      5.0658748128519973      11.506307356851055        14.8095205961578
    29   6      7.5977971836451053      11.496984007194662      15.003835111305351
    30   7      10.061902307438643      11.967970386458205       14.63070249069694
    31   6     0.12983027710427797      1.5846187127173141      16.469955804718488
    32   7      2.6169757809045424      1.4518238604911697      17.065936560460116
    33   7        4.99174175213928      1.5650793560156944      16.992263444517288
    34   7      7.4274107325518841      1.7177686327196926      16.997120591706135
    35   7      10.016160277200482      1.6505303696233276      16.976425418090127
    36   7      1.1863803668166724      3.8163521646585936      16.972682359373405
    37   7      3.6556915565420458      3.6536334672163031      17.057090309697415
    38   5      6.1555501927522869      3.7666917203744701      16.968191969540829
    39   7      8.7060977131658159      3.8507011114359697      16.810058714212158
    40   7      11.150455476446599      3.8421407197793909      16.963676819220826
    41   7   -0.058297204936116155       5.994216270013113      17.158895353535382
    42   7      2.4665897224475399      5.9108840645449385      17.035108793250863
    43   7      4.9289373648173171      5.8087105563272754      17.054908054666125
    44   7      7.4468779242429735      5.9268411475876146      17.038109641749447
    45   7      9.8840383109210581      6.0908564214740588      17.174872005623293
    46   7      1.2813478408051562      8.0191138399696982      16.781291361119738
    47   7      3.7752456521310513      7.9765600096235767      16.972774834431572
    48   7      6.2459270956241619      7.9791111752880273      17.023079541987475
    49   7      8.5992949640929037       7.959365866652945      15.923034495490292
    50   7      11.186586918130878      8.0082623187301571      16.327435563359295
    51   3     -1.0534250726314438      9.6011564435104493      17.262495282451678
    52   7      2.5245975225550628      10.123768788590441      16.988342801312747
    53   7      5.0822071842760401       10.09842328848511      16.876047164745444
    54   7      7.5796552684172145       10.03054533240886      17.015327434591903
    55   7      9.9212442848346303      10.283841648010474      16.370689880872728
    56   2      1.8452562271253707      13.435356583669485      15.397237935629775
    57   7      3.7867938114626774      12.250856138853809      16.863698051121801
    58   6      6.3233542210312299      12.322093179439415      17.052082461155788
    59   7      8.8465775103253623      12.406869008146325      16.984907825934531
    60   7      11.236262020175552      12.395162245374511       16.76898962955438
    61   6   -0.027706024541345214     0.12481836547397142      19.014252651531905
    62   7      2.5229371741293196    0.060020829647336779       19.14059193278954
    63   5      4.9888166969366949     0.14355646305673789      19.063835041107478
    64   7      7.4694715989380613      0.1373013131605349      19.141242708753229
    65   7      9.9915855203626691     0.13862812858094764      19.102818620238569
    66   6       1.363880253366726      2.2717643681939594      19.053351500756545
    67   5      3.8266995722533461      2.2064931289966911      19.130040818552601
    68   7       6.215713646569089      2.2080872900447961      19.086249152632089
    69   7      8.7512639457496295      2.2298707636692812      18.992589752691675
    70   7      11.268171015474215        2.35778053952694      18.956533825824728
    71   1    -0.10193925049985583      4.5135585359216179       19.17924087059188
    72   7      2.4519289915027116      4.4513505505519637      19.065509757082882
    73   7      4.9609228396389771      4.3219792388871507      19.060827206149547
    74   6      7.5031207997446128      4.3495859004096458      19.019540218363261
    75   5      9.9008141030328449      4.4164889211892318      19.006849774215844
    76   7       1.207692740000732      6.5602580646491555      19.131394839552257
    77   7      3.7632921146994001      6.5225707125876822      19.101553746423786
    78   7      6.1831943101673295      6.5232809293926532      19.101912613516671
    79   7      8.6534502440692638      6.5499637386700522      19.297190700808528
    80   7      11.116248057199266      6.6470586290269758      19.267466600180583
    81   4    -0.10271279850116471      8.6689292838236476      18.739558236822738
    82   6      2.4365819151968102      8.6077381971078619      19.035802118141675
    83   7      4.9422443914267138      8.7372505478835549      19.017469442965041
    84   7      7.3750015358731282      8.6404736093089163      19.082671207757738
    85   6      9.7019447142408861      8.5623549128058034      18.289865874932364
    86   7      1.2183454967791916      10.814262176157651      19.126438831237124
    87   1      3.7783014863898963      10.926290421498386      18.979045967278886
    88   7      6.2262824600120465      10.843896151587025      19.079525735984216
    89   6      8.7431284034411743      10.872868989282074      19.039143175623781
    90   4      11.246354805260811      10.873179587318488      18.737436872987548
    91   4      1.3396794907872129      0.7725023780798298      21.323762182841325
    92   7      3.7641838695128005     0.74845655086679164      21.133806999919152
    93   7      6.2916464331640265     0.74950882546603981      21.221280171347114
    94   7      8.7453467934998415     0.74790161083800766      21.255006518304992
    95   7       11.29425211501243     0.70734965430101726      21.247674410533925
    96   7    0.072169216272296763      2.8430480729249261      21.180706626988634
    97   7      2.5871860228493548      2.8674786881927212      21.194612033345976
    98   7       5.035809499265568      2.8834883437999768      21.167245486549358
    99   5      7.4971717876240147      2.8462590637879948      21.162356794944493
   100   6      10.033993010039472      2.8343078872060112      21.053581707816363
   101   7      1.2157800729521469      5.0310033743873337      21.200611433561374
   102   6      3.7389911374379192      5.0479381039847517      21.186825371686243
   103   7      6.2841451360027385      5.0492462677070833      21.155997960620233
   104   7      8.7477085834143278      5.0566341946136566      21.221266148722197
   105   3      10.086110021959048      4.4230123381689941      22.286400544995935
   106   7    0.023591479502966299      7.1418814761474527      21.226894710253351
   107   7      2.4827498366872467      7.1790359191167843       21.20676077624849
   108   7      5.0142663104178054      7.2238666366687339      21.184555735067423
   109   7      7.4267736269848506      7.2476053477951927      21.254123309702901
   110   7      9.9135025038855282       7.170177528769015      21.346282741401478
   111   7      1.1779216552186691      9.3195094656892081      21.140998285408362
   112   6      3.7410975676153368      9.3582679922375611      21.238295769797048
   113   7      6.2219153401560927      9.3937569433633481      21.064860469115704
   114   7      8.7189741191341312      9.3130241147004416       20.97397678212003
   115   6      11.141926638918934      9.2264983017345994      20.848114161033962
   116   1   0.0070434009434302402      11.491873379793196      21.240560387141613
   117   7      2.4752279507283412      11.544996842631836       21.15839221643947
   118   7      5.0072271268396298      11.571965377667196      21.145701932552164
   119   4      7.4484784282112706      11.571999045260814      21.112664295918318
   120   7      10.011673225671723      11.525091607106221      21.130731253289373
   121   7    0.078562078501341059      1.4132185769743404      23.334752217147763
   122   7      2.5707919157372463       1.419309741919504      23.339693878011481
   123   7      5.0071062274276006      1.4368106771062852      23.205885123848208
   124   7      7.4207329134767006      1.5045119927924631      23.494212065606696
   125   7      10.043727515914151      1.4358048576576812      23.381836510893656
   126   6      1.3454182919378297      3.6116129283044169      23.245320902673857
   127   7      3.8466189709993723      3.5959411274733468      23.345291073200304
   128   7      6.3081609487618628      3.6565817772206102      23.184228568348512
   129   7      8.7581824668717196      3.5582356457539097      23.352937660583404
   130   4      11.356824809353974      3.6367779536026728      23.410615391429072
   131   7    0.072664300335311627      5.7962309060281445      23.357300347269522
   132   7      2.5465895568487071      5.7987393064460457       23.33251891586967
   133   6      5.0673477017406237      5.8439026457835341      23.357168719347023
   134   7      7.5608986515437051      5.7694190001086163      23.315874697817073
   135   7      10.064111970086778      5.8328672764708758      23.414424392544817
   136   7      1.3204123041409488      7.9230015276612038      23.258453344762454
   137   7       3.787720077901358      7.9682959471577375      23.303772688744061
   138   7      6.2984506250358852      7.9843876032201129      23.318289648078824
   139   4      8.6788414609730857      7.9305387495374129      23.247307625148515
   140   4      11.313142350235262      7.8935066025606035      23.217162686351106
   141   7    0.012772513030946798      10.058606329899231      23.284474595864452
   142   7      2.4908009551349233      10.113291812362643      23.271869460552296
   143   7      5.0716913871838587      10.118216298996078       23.23978017501242
   144   7      7.5043474708331086      10.074556801370507      22.922279694136815
   145   7      10.017417524384406      10.015352380756722      23.172072359195099
   146   7      1.2912857765849335      12.239745304359182      23.334763804448613
   147   7      3.8038221349755137      12.250216294820175      23.219590695786842
   148   4      6.2328680315916296       12.28036760337748      23.253381565924961
   149   6      8.7398020725654906      12.248610602753308       23.32689013131921
   150   7      11.252009263639259      12.205844835103996      23.402906743840713
   151   4    0.099880375903327503   -0.044055644903490267      25.415420918534959
   152   7      2.6539990421921256    0.024504046323716829      25.378857126687148
   153   7      5.2093962045315996    0.080180951622744023       25.32567040171994
   154   7      7.6251853874356934   0.0025449699215303457      25.470338868544047
   155   4      10.141378590177668    0.069256137401334433      25.566474463167275
   156   1      1.4792774051025321      2.1553946306094933      25.503976852745879
   157   7      3.9729052888579832      2.1500949752578054      25.439211994663562
   158   2      5.8128716649578642      2.4660206796923259       24.66067096874017
   159   7      8.8778965929447402      2.1054656512832666      25.466306084516312
   160   7      11.400435903949028       2.170162853039844      25.438198819973007
   161   4     0.10717512456616814      4.3547738402457261      25.450851812330431
   162   7      2.6039529686872211       4.275626960958661      25.403104872709331
   163   7      5.1233455286545846      4.2577590924540205      25.402940022790609
   164   5      7.4798645809146409      4.0526249310396523       25.36387665897146
   165   7      10.062801867982493      4.2249531678596934      25.435632215927587
   166   7      1.3449892933886971      6.4246405020760626      25.394478603241499
   167   7      3.8176425423191258      6.4449288797257527      25.418624422847603
   168   7      6.3661713090108387      6.4064252754609381      25.411592427551099
   169   7      8.7748980891785369       6.334652591759574      25.404558816760652
   170   7       11.30120727056917      6.4173860586190932      25.436649954868699
   171   6     0.11870956457618964      8.6192704862087712      25.380732097617674
   172   7      2.6295830155752653      8.6194517182013755      25.370274691937592
   173   7      5.1207634536244875      8.5671124985722056      25.338087768519109
   174   3       8.468241041409561      9.5325256225682882      24.395218514111441
   175   6      9.9219817666112693      8.5677310517920624       25.49334983130333
   176   7      1.3420934060099121      10.812131565130109      25.412847630710374
   177   6      3.8819266734796587      10.829079100126526      25.299447382735803
   178   6      6.6583551139581063      10.532672108071871      25.238622316093387
   179   5       9.039733190060522      10.918545146338506      25.568726135983358
   180   5      11.349905520614035      10.864146358862971      25.493452079724371
   181   7      1.3964952240439255     0.68862735094380023      27.491486385357831
   182   7      3.8920862236696241      0.7150083644476859      27.440196287162077
   183   7      6.3365610077735584     0.71847861479083308       27.57220627100201
   184   7      8.9058979755008369      0.7167546878096529      27.576854097684933
   185   4      11.396012800352791      0.7216166343523287      27.556086499240319
   186   7      0.1742190236376969      2.8725028862994164      27.497214284975239
   187   7      2.6750041980064609      2.8637615537303436      27.546632505889587
   188   7      5.1182187760279856      2.8769751313823826      27.548883359999628
   189   7      7.6279278040943428      2.8018307839329921      27.487532098340179
   190   7      10.156602240099481      2.8382481347206059      27.520281283842785
   191   7      1.3971739081121661      5.0173593831382712      27.441806785958235
   192   7      3.8496870022202279      4.9937417195813429      27.449021745560263
   193   7      6.3915853559992595      4.9837272123947658      27.395892486284399
   194   6       8.866202135570429      5.0056724110630713      27.532603123309553
   195   7      11.368559045282089      5.0064191053570122      27.516713893894178
   196   7     0.14410561488153575      7.1706238107655071      27.473410587199236
   197   7      2.5874669955093363      7.2035231771222437      27.442160724272437
   198   7      5.1095413129940077      7.1800169287904332      27.393051795963917
   199   7      7.6232046367364497      7.1891215446908392      27.455002667611812
   200   7      10.132862442406532      7.1640334253984843      27.544845906831988
   201   5      1.3802936897858245      9.3475072548386375      27.487315406763514
   202   7       3.877898698832523       9.335230154173491      27.373376882781486
   203   7      6.3813763963868055      9.2907925750454261      27.399561913553899
   204   7      8.8518427849653172      9.3612449799681485      27.611428328062484
   205   7        11.3582042712023       9.410552750558745      27.539652777354057
   206   4     0.18723002288641524      11.490466249734029      27.515792259894511
   207   7      2.6100943161082677      11.483812197001257      27.429772377528781
   208   7      5.1498385514248506      11.507647907974048      27.337609538053165
   209   6      7.6018206798470276      11.523086598548364      27.627343333318894
   210   7      10.165275080791307      11.546034608986186       27.59753819100937
   211   7      0.2084581694103938      1.4546532773311549      29.596101107809893
   212   7      2.7215366125773173      1.3679374708742362      29.568090470262263
   213   5      5.1493619318598487      1.4239075856270531      29.594382501998602
   214   7      7.6341863553945606      1.3627935335995256      29.601781551467784
   215   7      10.132937779530343      1.4041600085574015      29.645713280571076
   216   7      1.4192606105977026      3.5623566344973754      29.562846299281976
   217   4      3.8568565083657269      3.5706560237419502      29.545748704603238
   218   7      6.3946148803057916      3.5434280396221061      29.537208955918128
   219   7      8.8723800257839223      3.5329485251295467      29.582542768799232
   220   7      11.372609719815216      3.5774521657351208      29.555987543706877
   221   7     0.13101820843542772      5.7403922380406751      29.555529849851123
   222   7      2.6048401085001576      5.7406140324960386       29.49092444624107
   223   6      5.1719503568731504      5.7256132511452025      29.456141639549116
   224   7      7.6623039200107081      5.7484908722985297      29.602926023995749
   225   7      10.123424297515616      5.7516970019541773      29.663551611838745
   226   7      1.3755918127341953       7.935724284844329       29.50194631465158
   227   7      3.8707007465257037      7.9315127006863344      29.438924582510239
   228   7      6.4034959577488024      7.9176817801966131      29.485945572195565
   229   7      8.8593837510141125      7.8868330979233958       29.53729994766795
   230   7      11.384022775723707      7.9200841596699005      29.544869624743992
   231   7     0.16011086713434319      10.092417527665141      29.570184079907033
   232   7      2.6334764885012318      10.065080092521631      29.402922627546282
   233   7      5.1500031848981056      10.069698502706359      29.331647647449412
   234   7      7.6052715780947455      10.087906715729062      29.656005866581438
   235   7      10.092955227419967      10.157902437916627      29.621022463219411
   236   7      1.4557213731858554      12.207523722859596      29.543676607149482
   237   3      4.0346533282626895      13.234523167204324      30.553220515434244
   238   7      6.2364941745474205      12.242372890275433      29.676655974832723
   239   4      8.8821182773529195      12.246127870380008      29.729450059994935
   240   7      11.388899894639071      12.258915735571001      29.588272019664593
   241   7     0.17864635421664196      0.1141055705306725      31.640636279597704
   242   7      2.5582755243674815     0.17187862518526323      31.726498410230477
   243   7      5.1649602233271894     -0.0112507341932148      32.093260494536324
   244   7      7.6267947372396847    0.012655003094148024      31.715124327224881
   245   7      10.093289445761325   -0.050036727189737749      31.862752805291954
   246   4      1.3416812363210615       2.270516976710153      31.654444715919411
   247   7      3.9008481213938806      2.1652968507401447      31.611326021028024
   248   7      6.4278305672220135      2.1674083844357446      31.641406983060392
   249   7      8.8692162776045596       2.132891605962417      31.698877957104944
   250   7       11.37577947400424      2.1596347933288733      31.672867422568054
   251   7     0.17382093302270049      4.3459795005814206      31.627584211920848
   252   7      2.6823203401670184      4.3242663955582827      31.566323461771393
   253   7      5.1534848236627253      4.3228704751925475      31.587196050689741
   254   7      7.6683137538688557      4.3424913529466158      31.626294265205985
   255   1      10.169895212848658      4.2804034625950127      31.628404667871781
   256   7      1.3426546455345343      6.5763648287176277      31.535990134474666
   257   6      3.8016527823159505       6.516689633315444      31.593008578287026
   258   7      6.3554252821205219      6.5101641902242147       31.61520016005257
   259   4      8.8273933885140892      6.4815687838449243      31.669337337796165
   260   7      11.339363704668562       6.479946053814329      31.678983342243352
   261   7     0.18626315856969264      8.7446271218491649      31.645452299641669
   262   7      2.6830481353822817      8.7814124786293259      31.476900147143461
   263   1      5.1181255903848095      8.7666364884532548      31.406064056937417
   264   7      7.5958590498863972      8.5908782852942416      31.620787108185116
   265   6       10.12181654720079      8.6558540977287084      31.579882596190647
   266   7      1.5417635284177831      10.877273904565072      31.563875292900121
   267   4       3.913632716457125      11.273384629218096      30.885953780585726
   268   7      6.2699337406220748       10.77985337474076      31.582373898006171
   269   7      8.7754723030067296       10.79593952527657      31.741688503034787
   270   7      11.404214797729733       10.89453382256767      31.674704436036912
   271   7      1.4131458832409989     0.93398279526766703      33.753900448481012
   272   7      3.8714192237065581     0.99842507119612978      33.896609101893169
   273   7      6.4112243210706232      1.0111438080296971      33.905183998447626
   274   7      8.7867788547614651     0.90934692037377318      33.829271406168893
   275   4      11.373432286731394      0.8098438298133096      33.710262508195505
   276   7     0.14385506601174888      3.0265227382427327       33.71074919777142
   277   7      2.6214879083833855      3.1053455499427329      33.709275399024953
   278   1      5.1991288599427792      3.0218251074979121      33.690261210206401
   279   7      7.7012686370823387      3.0701510989822931      33.743749917764518
   280   7      10.170475041524838      3.0168009245174678      33.757560103488657
   281   7      1.4632311894845806      5.2298592189224582       33.56332808057342
   282   4      3.9139430518950227      5.1755012292066613      33.677720983393918
   283   7      6.3821410260752858       5.138212914607017      33.666528939468698
   284   5      8.9039530570288239       5.142881086277943      33.691543418117888
   285   4      11.521491437612834      5.2011900871208949      34.020363021998229
   286   7     0.16975154102195869      7.3595072580398266      33.615918547510411
   287   7      2.6870718994700491      7.3999739979516406      33.614483865593094
   288   7      5.1871598630538918      7.3335392811328894      33.637392331525021
   289   7      7.6368456741877901      7.2034540695294647      33.712388963385145
   290   7      10.137751639225453      7.2115726845334898       33.68972903203435
   291   7      1.4776150867931033      9.5148449755719398      33.685783486872367
   292   7      3.9951464334758722      9.4964732395865301      33.421461015797135
   293   4      6.4650944016877689      9.3631547608330088      33.654599503417025
   294   7      8.7866745473609296       9.280111659887746      33.683793568647857
   295   6      11.270414717973186      9.6549912441457018      33.858472560382999
   296   3     -1.4223531095513764      11.823469175972196       33.35582425031815
   297   6       2.963685062121252      11.635135153670442       33.69010929985054
   298   2      5.1380890939732886      12.326121062075075      34.208866332409826
   299   7      6.9422377062248017      11.633543790054008      33.692647093215399
   300   7      9.3340871648816766      11.547937801849125       34.15347031004881
   301   7    0.073648086679563199      1.5659819907096342      35.737753720924452
   302   7       2.494122777742986      1.7828406693310304      35.800090201678863
   303   7      5.1477727660467583      1.7444305726576304      35.915087248431064
   304   4      7.6509873598592684      1.6748165235145065      35.914379684241091
   305   7      10.087282406979186      1.5305962498395258       35.76132490000078
   306   4      1.1119970697285328      4.0841992255233732      35.762482880503505
   307   7      3.8782869776256264      3.8027779174901726      35.760178200164518
   308   7      6.4094947723023932       3.771995398836435       35.79051200963378
   309   7      8.8788174360379664       3.690867725840822      35.825323980101857
   310   4      11.323673638659308      3.6935380925986592      35.893849113483249
   311   2     0.64044608934624914      6.1883055217985659      35.225719773729985
   312   7      2.6941687255007269      5.9175969183413049      35.581003702174819
   313   7      5.1843202408304521      5.9796541221546766      35.703385499650793
   314   7      7.6512754126288156      5.8602721348550553      35.769057118299337
   315   7      10.115842555426264      5.7592529217853308      35.876041670224126
   316   7      1.4564347319274571       8.030418807748017      35.651126652702935
   317   7      3.9199903399468421       8.121731099783986      35.712295676098528
   318   4      6.5288506697520328      8.1619107155295954      35.783500328649822
   319   7      8.9740490553233005      7.9662010271189665      35.751820681844052
   320   7      11.543896431727628      7.6852072628844006      35.761092377943207
   321   6     0.13945841518399024      10.150730179683737      35.943520785740759
   322   7      2.6525235266480243       10.27146493833245      35.790926031795721
   323   6      5.1853699922199832       10.29789278398397      35.558812184397624
   324   7      7.8678598083539839      10.393305139276217      35.690839363788811
   325   7      10.227818558441077      9.7403425885694279      36.973422112803085
   326   7     0.44535524378881569      11.683049347631876      33.689923541618199
   327   6      3.8165398765136835      12.609508749184831      36.107728665793424
   328   7      6.3586265008793053      12.574899053727021      35.923270411728915
   329   3      9.5009980010550201      11.363154312330524      36.239349421720632
   330   4         11.166490099934       12.12207052334297      35.582566835544739
   331   7    -0.14019712360167749   -0.030636785060259419      37.618459742029891
   332   7       2.376549484817474     0.19372511046625723      38.034321062360071
   333   7      5.1340401638232072     0.21674484963931709      38.111344222157761
   334   7      7.5639107324939179    0.091619404357056941      38.000957450518328
   335   5      9.8129952225561468   -0.049363698342208683      37.433670047059053
   336   7      1.1909407197781694      2.2720815043026512      37.747950752110413
   337   7      3.7496623138205947      2.2616929831256987      37.814672760976435
   338   7      6.4223549079947295      2.2979954562511953      37.887643015259791
   339   7      8.8669348008010225      2.1987875030568347      37.866756267249599
   340   7       11.22987586535262      2.1517248686624066       37.80260583568419
   341   7   -0.010796938524968703      4.3081730476821631      37.987744791380564
   342   7      2.4944880309848294       4.344040580278361      37.726173382426445
   343   7      5.1109697986759519      4.4535643196259453      37.787285897499267
   344   7      7.6437985417418508      4.4704073730693024      37.871704506211245
   345   4      10.037100178681339      4.3573431756948438      37.910028274780394
   346   7       1.071779272079554      6.3291481799341147      37.272542593687483
   347   6      3.7346257838050767      6.4909105838916776      37.753215603320932
   348   6      6.4334817903952271      6.6833961047215391      37.799129717780175
   349   7       8.923554430779685      6.6605558617631209      37.868501696629394
   350   7      11.274721883186032      6.4751435241103659      37.989657332382215
   351   7   -0.022244611507234842      8.6369791144117229      37.866441181699855
   352   6      2.4874298224084406      8.7492714780484562      37.751201387282208
   353   7      5.0736207571770304      8.7516273299859275      37.819340722762639
   354   7      7.8763533695047414      8.9697997094065904      37.768531644803737
   355   3      10.245455831314141      7.8220031120011058      37.193264116015392
   356   4      1.3251682911663276      12.409740101800416      35.850225535638934
   357   7      3.8002359099098562      10.890754292778935      37.942466091717868
   358   6      6.3630947372792379      10.886555048522363      37.774387093239689
   359   2      8.5596600172333872      11.109706221183407      37.444173495368858
   360   7      13.802283871640036      10.951480889063332      37.925229685648112
   361   8      2.4230891171500653       6.826729460464775      39.306672166348967
   362   8      2.6615770168480375      7.1037686197973748      40.029745853639042
