(written by ASE)

362 atoms
8 atom types

0.0      12.447907775999999  xlo xhi
0.0      12.936245229600001  ylo yhi
0.0      52.360083105400001  zlo zhi

Atoms # atomic

     1   7     0.21401581077221749    -0.47117876811466769       14.81959920770541
     2   7       3.705307565419921      0.6395896497676975      14.801277369235555
     3   5      6.1282330430069694     0.82404222095816859      14.957128521060413
     4   6      8.6934504518477702      1.0299608893933732      15.008549473314678
     5   7      11.042337868391572      1.2955747330457228      14.573622817310765
     6   7    -0.13969060774681868      3.4297060511665811      14.772382810399979
     7   7      2.1968057263679421      2.6320996846352109      15.047973285266474
     8   7      4.8350589025619941       2.922438176399079      14.998484473139801
     9   7      7.3226782408025777        3.05559972627599      14.900322450510204
    10   7      9.8323942897799306      3.4223071887516645      14.650961552486461
    11   7       1.169852737193174      5.4453951055651988      14.990179079172592
    12   7      3.6479067782956376      5.0383573648443791      15.063106980906312
    13   7       6.160868920382466      5.1746138114601123       15.01812449499011
    14   7       8.653416094979244      5.6644017181662321       14.91351958594748
    15   6      11.140039574492153      5.5825024877363205      15.104266093737392
    16   4     0.35849548116342889      7.8127694254452082      14.588333429578739
    17   7      2.6279386864381085       7.353286376482032      14.816645129901115
    18   7      5.0336373840880917      7.2336640492726119      14.974044989725012
    19   2      6.9640670921413443      7.0031892241423019      15.326262254558891
    20   7      10.329546491941215      7.6125677450747959      14.109238684309609
    21   2      1.9004116284003649      9.2790990102345408      15.190464878530674
    22   7      3.8568125189930966      9.4068907718194215      14.928329311825223
    23   7      6.5781466886501843      9.1231317887571848       14.87825013577579
    24   7      8.9530076971899923      9.6640362532919593      14.244890067711237
    25   7      12.625961636748716      10.140933387869062      15.886127521304754
    26   7      1.2918328565394066      12.243332096705284      17.031741314558857
    27   7       2.370287691613143      11.380037159619798       14.91394541581105
    28   7      5.0658748128616162      11.506307356831195       14.80952059627141
    29   6      7.5977971836423412      11.496984007172037      15.003835111435375
    30   7      10.061902307416757      11.967970386434716      14.630702490807698
    31   6     0.12983027714830889      1.5846187127440798      16.469955804834022
    32   7      2.6169757809385867       1.451823860530151      17.065936560625023
    33   7      4.9917417521532936      1.5650793560568521      16.992263444696544
    34   7      7.4274107325393519      1.7177686327624389      16.997120591895246
    35   7      10.016160277160255      1.6505303696641842      16.976425418266228
    36   7       1.186380366861373      3.8163521646808509      16.972682359512273
    37   7      3.6556915565711274      3.6536334672445401      17.057090309883247
    38   5      6.1555501927595362      3.7666917204028865      16.968191969737788
    39   7      8.7060977131413928      3.8507011114627194      16.810058714403262
    40   7      11.150455476396548      3.8421407198053945      16.963676819401474
    41   7   -0.058297204882989159      5.9942162700258237      17.158895353658664
    42   7      2.4665897224853568      5.9108840645638185      17.035108793411069
    43   7      4.9289373648383732      5.8087105563471377       17.05490805485487
    44   7      7.4468779242401686      5.9268411476049421      17.038109641958819
    45   7      9.8840383108846783      6.0908564214890433      17.174872005837596
    46   7      1.2813478408475982      8.0191138399731781      16.781291361252745
    47   7       3.775245652160363      7.9765600096281943      16.972774834595771
    48   7      6.2459270956371959      7.9791111752897166      17.023079542186149
    49   7      8.5992949640767549       7.959365866652333      15.923034495662103
    50   7      11.186586918086171      8.0082623187259649      16.327435563525793
    51   3     -1.0534250725744672      9.6011564435075645      17.262495282551086
    52   7      2.5245975225904784      10.123768788584755      16.988342801457492
    53   7      5.0822071842972445      10.098423288476436      16.876047164919314
    54   7      7.5796552684187484      10.030545332390062      17.015327434787331
    55   7      9.9212442848011992      10.283841647989016      16.370689881042594
    56   2      1.8452562271495669      13.435356583646369      15.397237935711706
    57   7      3.7867938114874571      12.250856138823554      16.863698051259128
    58   6      6.3233542210409963      12.322093179402781      17.052082461322946
    59   7      8.8465775103070197      12.406869008106723      16.984907826108923
    60   7      11.236262020133998      12.395162245338822      16.768989629705906
    61   6   -0.027706024466014865     0.12481836553332783      19.014252651704471
    62   7      2.5229371741837738    0.060020829729070878      19.140591933039932
    63   5      4.9888166969616163     0.14355646314650566      19.063835041385175
    64   7      7.4694715989190099     0.13730131325346337      19.141242709049891
    65   7      9.9915855203014292     0.13862812866191568      19.102818620493576
    66   6      1.3638802534297141      2.2717643682415618      19.053351500959781
    67   5      3.8266995723007828      2.2064931290527809      19.130040818805256
    68   7      6.2157136465896485      2.2080872901038129      19.086249152934847
    69   7      8.7512639457105514      2.2298707637265385      18.992589752994363
    70   7      11.268171015394813      2.3577805395780995      18.956533826078463
    71   1    -0.10193925042722815      4.5135585359543438       19.17924087075216
    72   7      2.4519289915564872      4.4513505505960769      19.065509757288527
    73   7      4.9609228396829996      4.3219792389262608      19.060827206405605
    74   6      7.5031207997492873      4.3495859004458941      19.019540218676543
    75   5      9.9008141029817374      4.4164889212244614      19.006849774526568
    76   7      1.2076927400633224      6.5602580646875701      19.131394839739077
    77   7      3.7632921147468994      6.5225707126275676      19.101553746657753
    78   7      6.1831943102107525      6.5232809294247316      19.101912613798447
    79   7      8.6534502440644143      6.5499637386991205      19.297190701174166
    80   7      11.116248057106461      6.6470586290505445      19.267466600515107
    81   4    -0.10271279843040856      8.6689292838379544      18.739558236975732
    82   6      2.4365819152492292      8.6077381971304323      19.035802118358962
    83   7      4.9422443914709913      8.7372505479016969       19.01746944322413
    84   7      7.3750015359018262      8.6404736093172616      19.082671208090318
    85   6      9.7019447142047426      8.5623549128036007      18.289865875219601
    86   7      1.2183454968403209      10.814262176150494      19.126438831421343
    87   1      3.7783014864383704      10.926290421490014      18.979045967490265
    88   7       6.226282460058588       10.84389615156895      19.079525736262084
    89   6      8.7431284034331522       10.87286898924598      19.039143175954194
    90   4      11.246354805188499      10.873179587283044       18.73743687325851
    91   4      1.3396794908789196     0.77250237819635814      21.323762183226297
    92   7       3.764183869609945     0.74845655100413655      21.133807000364914
    93   7      6.2916464332471334     0.74950882562249554      21.221280171930683
    94   7      8.7453467934194009     0.74790161096206165      21.255006518866406
    95   7      11.294252114871094     0.70734965439846165       21.24767441092435
    96   7    0.072169216347881801      2.8430480729565315      21.180706627218523
    97   7      2.5871860229030461      2.8674786882957322      21.194612033565768
    98   7      5.0358094993938343      2.8834883439016248      21.167245486878638
    99   5      7.4971717876626878      2.8462590637832266      21.162356795520171
   100   6      10.033993009962096      2.8343078872176206       21.05358170832617
   101   7      1.2157800729912023      5.0310033745052625      21.200611433733531
   102   6      3.7389911375042009      5.0479381041203739      21.186825371843653
   103   7      6.2841451361390064      5.0492462677326584      21.155997961012186
   104   7      8.7477085834623853      5.0566341946337552      21.221266149261712
   105   3      10.086198291467388      4.4231438113495551      22.286237083932559
   106   7    0.023591479593336337      7.1418814762659037      21.226894710466659
   107   7      2.4827498367160739       7.179035919299869       21.20676077647672
   108   7      5.0142663104931362      7.2238666367980748      21.184555735274813
   109   7      7.4267736271993909      7.2476053478927112      21.254123310245529
   110   7      9.9135025037651427      7.1701775288537339      21.346282742178367
   111   7      1.1779216552928022      9.3195094658034083      21.140998285732277
   112   6      3.7410975676816896      9.3582679923810002      21.238295770076281
   113   7      6.2219153403036049      9.3937569434607759      21.064860469497543
   114   7       8.718974119180551      9.3130241147138531      20.973976782799078
   115   6       11.14192663877771      9.2264983017134607      20.848114161619176
   116   1   0.0070434010709488791      11.491873379793054      21.240560387413751
   117   7      2.4752279508017834      11.544996842683586      21.158392216692931
   118   7      5.0072271269701574      11.571965377715967      21.145701932831766
   119   4      7.4484784283606444      11.571999045212532      21.112664296515185
   120   7      10.011673225621159      11.525091607062173      21.130731254030117
   121   7    0.078561194215950383      1.4134767419275485      23.334587830896155
   122   7      2.5707789211227605      1.4195883534144982      23.339441503711164
   123   7      5.0071208048703557       1.437077272993166      23.205738739779711
   124   7      7.4207543121205495      1.5046985260070813      23.493730385332871
   125   7      10.043709765383459      1.4360278857681938      23.381667504987355
   126   6      1.3454485401429932      3.6118795261037682       23.24516419185602
   127   7      3.8466349053463307      3.5961885007933754      23.345115360115027
   128   7      6.3081768485405272       3.656786254969314      23.184143380484649
   129   7      8.7581726466106584      3.5584594527097941      23.352718234481841
   130   4      11.356894086259834       3.636996576930049      23.410395861303332
   131   7    0.072652138381546855      5.7964780551778636      23.357139270580056
   132   7      2.5465817088299114      5.7990039019146078      23.332393725996479
   133   6      5.0673459743068268      5.8441202193328081      23.357021190842101
   134   7      7.5608871697652029      5.7696553324382736      23.315715888782929
   135   7      10.064102882852477      5.8330379146145868      23.414210039947839
   136   7      1.3203673086385554      7.9232279841945061      23.258294913446605
   137   7      3.7876759259966284      7.9685088829810322      23.303653818939445
   138   7      6.2984088304057213       7.984614802738875      23.318114920644625
   139   4      8.6788241129078951      7.9308040728442606      23.247184544738349
   140   4      11.313097149706518      7.8936936826512207      23.217061254826376
   141   7    0.012708396569030873      10.058842655152567      23.284266386958713
   142   7      2.4907139833472791      10.113509122811084      23.271676082905394
   143   7      5.0716341206922797      10.118452430116871      23.239597218856737
   144   7      7.5042919265628232      10.074685843965806      22.922110219517986
   145   7      10.017437249229816      10.015542217735138       23.17193375510552
   146   7      1.2912477548801511      12.239991338609212      23.334538142610434
   147   7      3.8037770865197547      12.250497392040401      23.219336322854787
   148   4      6.2328123961029727      12.280572144149474      23.253161887081767
   149   6      8.7398230037200069      12.248722909650791      23.326699491717743
   150   7      11.251983884088247      12.206096814353049      23.402666156156098
   151   4    0.099800632661015437   -0.043584915700842206      25.415011272439688
   152   7      2.6539107589146975    0.024927036485737526      25.378428304102641
   153   7      5.2093159286852062    0.080557323602283293      25.325240062493901
   154   7      7.6251146787624133   0.0030020786725999844      25.469776807789611
   155   4      10.141362530375277    0.069713238687890616      25.566135597788666
   156   1      1.4792000916423604      2.1558539691984109      25.503527913040191
   157   7      3.9728384163410064      2.1505259179511853      25.438758814132033
   158   2      5.8129112140953643      2.4662821746537609      24.660562836505655
   159   7      8.8777554397846892      2.1059789935085065      25.465802031494217
   160   7      11.400352795961075      2.1705923305033319      25.437816578468642
   161   4     0.10714833287545925        4.35525022168774      25.450516350348771
   162   7      2.6039205661569729      4.2761492969290646      25.402735650576442
   163   7       5.123351956021347      4.2582107276341077      25.402597292419021
   164   5      7.4799252961079334      4.0533838498675943      25.363511072499975
   165   7      10.062801807117163      4.2254552872479509      25.435170290273632
   166   7      1.3449099622162017      6.4251524566172771      25.394168709022946
   167   7      3.8175911252895949      6.4454686299897279       25.41831630186164
   168   7      6.3661380588131493      6.4070614548199956       25.41126116699505
   169   7       8.774863079751837      6.3352229830789781      25.404157959933183
   170   7      11.301128784357724      6.4178809468820353      25.436315789655286
   171   6     0.11858151006272581      8.6197498973998563      25.380422160125782
   172   7        2.62944366473103      8.6199156661170075       25.36991975760937
   173   7      5.1206563058611483      8.5676333582745734      25.337734166193417
   174   3      8.4682516591655972      9.5329575655570924      24.395025483279579
   175   6      9.9218901014895629       8.568209081587856      25.493188679458147
   176   7      1.3419668364697459      10.812601670291386      25.412478627350268
   177   6      3.8817806289940586      10.829512193616274      25.299063000102734
   178   6      6.6583373521521905      10.533123272073794      25.238230826835121
   179   5      9.0397009074696211      10.919005336393234      25.568510479044445
   180   5      11.349795195638736      10.864624206838325      25.493123846441179
   181   7      1.3963983445675932     0.68918931093503977       27.49069597771506
   182   7      3.8920003229046198     0.71546325880252992      27.439445294637672
   183   7      6.3364334797210349      0.7190374037080397      27.571167637570536
   184   7      8.9057266844913716     0.71720154745395326      27.576030145041393
   185   4      11.395909105846171     0.72198596818100491      27.555610730240161
   186   7     0.17415788230141244      2.8729802654140695      27.496618651474542
   187   7      2.6750463992079814      2.8644544060533126      27.545805143609591
   188   7      5.1182813154045421      2.8776056088928952       27.54802847359732
   189   7      7.6278408784541956      2.8023869199030909      27.486845007809329
   190   7      10.156507440884884      2.8386938327485089      27.519590701989355
   191   7      1.3970659622984698      5.0179422822750892      27.441266149921706
   192   7      3.8496532228164999      4.9944173724613137      27.448395998864235
   193   7      6.3916085209215492      4.9843667498171325      27.395322392887774
   194   6      8.8661681556976877      5.0061535916752513      27.531974721469219
   195   7      11.368474410520514      5.0069062612623716      27.516186629744382
   196   7     0.14392532994085669       7.171166306689245      27.472987913361077
   197   7      2.5873256696178175       7.204148173069469      27.441667684595146
   198   7      5.1094927643718409      7.1807179158482581      27.392547041830912
   199   7      7.6232602972917203      7.1897137539450107      27.454554961293862
   200   7      10.132747364812827      7.1645314780696916      27.544516703927453
   201   5      1.3800080407804924      9.3480573437998231      27.486717789542077
   202   7      3.8777620266963448      9.3357225548523903      27.372830791033568
   203   7      6.3814255734478582      9.2912434800962895      27.398919169958766
   204   7       8.851757962793517      9.3617932611766719       27.61123331304351
   205   7      11.357955147210337      9.4110825279860784      27.539265070771567
   206   4     0.18703254996421168      11.491053496530794      27.515239065237225
   207   7      2.6099968549686507      11.484288682360875      27.429251497696914
   208   7      5.1496984905113115      11.508072588165932      27.337061018612761
   209   6      7.6016235568054551      11.523620455350596      27.626767310053118
   210   7      10.165152357144223      11.546450401753498        27.5973261528333
   211   7     0.20840299424950343      1.4548592283603814      29.595271862107822
   212   7      2.7214382749088024      1.3689578763721335      29.566620770970374
   213   5      5.1493758033082724      1.4249866282517485      29.593074622455063
   214   7      7.6339252361574026      1.3632380508844384      29.600628206534214
   215   7      10.132685586824389      1.4043390390733625      29.644505575416396
   216   7      1.4192093141616469      3.5628718951748208      29.561834647814706
   217   4      3.8570486738310139      3.5713350013607927      29.544730347621766
   218   7      6.3948216839456409       3.544183752085913      29.536382965625045
   219   7      8.8724321432664102      3.5333278845576079      29.581687603098107
   220   7      11.372532543725848      3.5776885027964882      29.555085818966436
   221   7     0.13093194172015871      5.7408320759534899      29.554745753766515
   222   7      2.6047810026120461      5.7411510839721887      29.490015946211749
   223   6      5.1721108770900273      5.7262453672219191      29.455227781520719
   224   7      7.6625239789705679      5.7490749454355523      29.602180825685867
   225   7      10.123409303628945      5.7519475977011325      29.662885246058941
   226   7      1.3754376805729553      7.9362515956552597      29.501244257105721
   227   7      3.8706255568469965      7.9320768232241257      29.438222073332263
   228   7      6.4035929717610518      7.9182414023676406      29.485272642681476
   229   7      8.8594799354991522       7.887335313423403       29.53706311503197
   230   7      11.383880319277807      7.9205221618947359      29.544365984036624
   231   7     0.15978791307308729      10.092951576630798      29.569372384165533
   232   7      2.6330983878162719      10.065287350969278       29.40203527135311
   233   7      5.1500943500799936      10.069884755161024      29.330713601603343
   234   7      7.6050887947179451      10.088485997795194      29.655536252135743
   235   7      10.092774521432275      10.158194536616897      29.621056096877332
   236   7      1.4557269798149426      12.208095677569471      29.542616262279608
   237   3       4.034660910154769      13.234767260541027      30.550641658888132
   238   7      6.2357604444405696      12.242898669506278      29.675707650197925
   239   4      8.8818181900001516      12.246382063844226      29.728624891445662
   240   7       11.38874325979236      12.259167147479802      29.588069865337502
   241   7     0.17865080583138326     0.11377461438550998      31.639976380340535
   242   7       2.558260557242432     0.17255190229610934      31.724049156463135
   243   7      5.1647949305679814    -0.01068362718142464      32.090808683623649
   244   7      7.6265072852554443    0.012691342870709985      31.713444473729648
   245   7      10.093155547611454   -0.050599612379919702      31.861327275934986
   246   4      1.3418110165519299      2.2705694259029046      31.652915145959494
   247   7      3.9009009248619702      2.1659088447991954      31.610086786611316
   248   7      6.4277866343573313      2.1679710210243051      31.640221911351858
   249   7      8.8689927778445519      2.1326803048855743      31.697342507394985
   250   7      11.375435164745831      2.1589773077984193      31.671221036768756
   251   7     0.17363284448423674      4.3456475635249072      31.626012090847983
   252   7      2.6826554392519797      4.3244499187412861      31.564994945064846
   253   7      5.1538959586952977      4.3232850685768254      31.586147591531343
   254   7      7.6689466668917667      4.3427901444780161      31.625273108836353
   255   1       10.17003812275286      4.2801482044927752      31.627599272293818
   256   7       1.342813540673687      6.5766823045896237      31.534667759447483
   257   6      3.8020413187911926      6.5170270494304203      31.591422368658325
   258   7        6.35605299723911      6.5104036625699084      31.613805483137966
   259   4      8.8279329988240107      6.4815713677198623      31.668853694218686
   260   7      11.339373713747879      6.4796321786368845      31.677921353283708
   261   7     0.18637322098377324      8.7449438510793023      31.644219772666641
   262   7      2.6831697471660232      8.7819719732357076      31.476157999848464
   263   1      5.1181204240462348      8.7671811001476119      31.405184951542715
   264   7      7.5960713486316589      8.5911000268876592      31.620224903527166
   265   6      10.122043812675987      8.6556720522803872      31.579939981436723
   266   7      1.5415354836932402      10.877674101609697      31.562420488626849
   267   4      3.9135186003513911      11.274167456169955      30.883475462982901
   268   7      6.2694964541136251       10.78029526350285      31.581636091381494
   269   7      8.7751294150297134      10.795785416722653      31.741369861592876
   270   7      11.404203610662339      10.894009633458648      31.674753185711754
   271   7      1.4133673937012259     0.93279659884319088      33.752004353679496
   272   7      3.8714087247014763     0.99800273991593469      33.894348187241789
   273   7      6.4105313181466741      1.0111989053484833      33.902950214283635
   274   7      8.7855619434568872     0.90805513473666977      33.826860414881139
   275   4      11.372712297623018     0.80844737516672693      33.708786202365623
   276   7     0.14330645541583226      3.0240768464248879      33.708409434461103
   277   7      2.6215091081939619      3.1049288636103096      33.707978730794785
   278   1      5.1985369117663041      3.0220924472777178      33.689459836635884
   279   7      7.7012139881710056      3.0697748674444911      33.742345161923147
   280   7      10.169797897914151      3.0148736917678027      33.755704122931945
   281   7      1.4628256538414024      5.2285337938473679      33.560209254795232
   282   4      3.9144247689134652      5.1754857220253143      33.675916876403022
   283   7      6.3836498773546593      5.1376254188230526      33.663963174429846
   284   5      8.9054640277100603      5.1420585667810812      33.691658899718192
   285   4      11.521221198316265      5.1991466487170399      34.018478327334265
   286   7     0.16903669670123758      7.3594728917431675      33.613776196517385
   287   7      2.6868598029931654      7.3991631603823969      33.612079448172381
   288   7      5.1884601762276086       7.333047827485955       33.63464775389442
   289   7      7.6380308782956483      7.2026770483016698      33.711597867473216
   290   7      10.138655674150412       7.210528570888914      33.689861961493193
   291   7      1.4775084058167725      9.5144732341574798      33.683884707827772
   292   7      3.9956111992967625      9.4947332150471553      33.421201129658201
   293   4       6.466207411091716      9.3626187477966933      33.653308213322759
   294   7      8.7878127843810265      9.2790879587234976      33.683746240479053
   295   6      11.271772914055022      9.6537435848931992      33.859331127401731
   296   3     -1.4213369272014422      11.821912024170858      33.355645442723564
   297   6      2.9654136287055053      11.634496191811037      33.685724248811063
   298   2      5.1388373708529729      12.325677973905405      34.205947806748725
   299   7      6.9436357984583337      11.633492150242946      33.691536785482654
   300   7      9.3348961343001697      11.547389284951457      34.152385471941116
   301   7    0.073386929085703628      1.5617965906136646       35.73636943671174
   302   7       2.493809453314817      1.7818371905539274      35.797499882920278
   303   7      5.1469540223069661      1.7448612694511916      35.912945180521298
   304   4      7.6500035388174403      1.6750507047803485      35.911615225603761
   305   7      10.085704077298837       1.527431985948462      35.759134808047925
   306   4      1.1109126586174831      4.0804397099735725      35.759179802488404
   307   7      3.8775378446302224      3.8035979251959042      35.760602526045943
   308   7      6.4095501098538765      3.7718422683323158      35.788678777313642
   309   7      8.8793577873078124      3.6897536221481348      35.824113721904943
   310   4      11.322881967872654      3.6883927405340233      35.891308483276205
   311   2     0.64115233937504712      6.1871081713912828      35.219250092542481
   312   7        2.69392516809395      5.9161998119695376      35.576910708557918
   313   7      5.1876574152964841      5.9789393776770909      35.698690900669156
   314   7      7.6542394834914287      5.8587822762167319      35.768004139828619
   315   7      10.120072373592755      5.7567640585889777      35.878539488696795
   316   7      1.4580841801842781      8.0294463664987319      35.648305346738503
   317   7      3.9232217670456815      8.1215391275016842       35.70722892102642
   318   4      6.5313613975066032      8.1606894381201549      35.781794441858594
   319   7      8.9761502529371437      7.9640061007681267        35.7520310602454
   320   7      11.545659042991645      7.6839490538409185      35.762274878759399
   321   6     0.13896560980671421       10.14878477592158      35.946051695327476
   322   7      2.6532189405329825      10.271200976878752       35.78558173991123
   323   6      5.1874163505254822       10.29820605657671      35.556341292905387
   324   7      7.8696626026474199      10.392501672726269      35.690326349148648
   325   7      10.229827354973395      9.7366796966365854      36.975355724012097
   326   7     0.44625490118998656      11.682081757909161      33.689577421359452
   327   6      3.8174138549248382      12.609386447535302      36.105037114609168
   328   7      6.3589862284667493      12.575203548698106      35.921297266246057
   329   3      9.5034945469507726      11.359692346770229      36.239393697715656
   330   4      11.167143845804837        12.1202471458716       35.58144234668513
   331   7    -0.13797318673432282   -0.037500743742594281      37.617789403685201
   332   7      2.3783378562567075     0.19091164737425001      38.032699625531706
   333   7      5.1345588448006838     0.21420851046143952      38.109506348139732
   334   7      7.5648499929587842    0.089095315342357206      37.998732592071427
   335   5      9.8146396440276149   -0.052410237629238486      37.433593458504077
   336   7      1.1911508533168642       2.268954107263903      37.746126672343244
   337   7       3.748450460961978      2.2596459395536668      37.812346450730232
   338   7      6.4222118724124515      2.2948875512592566       37.88553347943563
   339   7      8.8663822789080626      2.1956598511819236      37.864805504233971
   340   7      11.228991460342783      2.1453124664819976      37.800453364778768
   341   7   -0.015402957203856574      4.3017077849873013      37.985714652991128
   342   7      2.4910934097686845      4.3450198708085424      37.725756809287809
   343   7       5.112397653155683      4.4501490518250009      37.784952631912624
   344   7      7.6436719991097233      4.4671643009168669      37.870437828770257
   345   4      10.035081807944685      4.3529605289566238      37.910667437839102
   346   7       1.064117311475304      6.3221313150885994      37.261777021039997
   347   6      3.7397323845415702      6.4873276553100485      37.742638196184274
   348   6      6.4362889632328688      6.6810232546386539      37.797106410032782
   349   7      8.9244514487235396      6.6574030358328082      37.868731217218574
   350   7        11.2743899990502      6.4726782269120529      37.995149739428136
   351   7   -0.015788468202054162      8.6310039090689621      37.868544789397077
   352   6      2.4926079059028825      8.7448393658167056      37.744748776141051
   353   7      5.0757773793224086      8.7473184994380304      37.818478999551914
   354   7      7.8779834748539947       8.967820828533478      37.768216590783211
   355   3      10.246697189982681      7.8181220866873522      37.193886799168844
   356   4      1.3269219663169158      12.407186054348038       35.84903335405572
   357   7       3.803705587562547      10.886100505092086      37.936736384365055
   358   6      6.3649745875215391      10.884624814913971      37.771962049801004
   359   2      8.5624323584494881      11.106432684340056      37.444564036993221
   360   7      13.809378978715381      10.946363947183103      37.923165234654853
   361   8      2.4512115582209288      6.7108257486898095      39.304058324854175
   362   8      2.6811220568584804       7.040417085519219        40.0031741950148
