(written by ASE)

362 atoms
8 atom types

0.0      12.447907775999999  xlo xhi
0.0      12.936245229600001  ylo yhi
0.0      52.360083105400001  zlo zhi

Atoms # atomic

     1   7     0.21401581074659082    -0.47117876819975096      14.819599207374495
     2   7      3.7053075654384546     0.63958964969889698      14.801277368969712
     3   5      6.1282330430581649     0.82404222090159973      14.957128520812224
     4   6      8.6934504518846563       1.029960889358482      15.008549473114931
     5   7      11.042337868395668      1.2955747330180574      14.573622817158515
     6   7    -0.13969060778309561        3.42970605111937       14.77238281004071
     7   7      2.1968057263611755      2.6320996845781592       15.04797328492198
     8   7      4.8350589025892177      2.9224381763538516      14.998484472825549
     9   7      7.3226782408644304      3.0555997262378387      14.900322450280019
    10   7       9.832394289850793      3.4223071887310224       14.65096155231986
    11   7      1.1698527371819998      5.4453951055304053      14.990179078824861
    12   7      3.6479067783071621      5.0383573648203539      15.063106980554933
    13   7      6.1608689204334572      5.1746138114600679      15.018124494705742
    14   7      8.6534160950206545      5.6644017181422903       14.91351958575809
    15   6      11.140039574546538      5.5825024877141294      15.104266093598651
    16   4     0.35849548113691676      7.8127694254658175      14.588333429235194
    17   7      2.6279386864390974      7.3532863764989917      14.816645129570151
    18   7      5.0336373841198974      7.2336640492870359      14.974044989423906
    19   2      6.9640670922221446       7.003189224153707       15.32626225430335
    20   7      10.329546492002462      7.6125677450850526      14.109238684173244
    21   2      1.9004116283948207      9.2790990102959476       15.19046487818356
    22   7      3.8568125190044351      9.4068907718761796      14.928329311557416
    23   7      6.5781466887061555      9.1231317888039936      14.878250135541636
    24   7      8.9530076972787729      9.6640362533317354      14.244890067620959
    25   7      12.625961636789413      10.140933387904171      15.886127521270602
    26   7      1.2918328565148658      12.243332096803634      17.031741314129789
    27   7      2.3702876916105429      11.380037159663559       14.91394541551583
    28   7      5.0658748128848687      11.506307356864594      14.809520596044575
    29   6      7.5977971837102452      11.496984007195037      15.003835111286914
    30   7       10.06190230743838      11.967970386444371      14.630702490689615
    31   6     0.12983027709989334      1.5846187126401836      16.469955804364943
    32   7      2.6169757809402094      1.4518238604100522      17.065936560118139
    33   7      4.9917417522025511      1.5650793559520484      16.992263444187174
    34   7      7.4274107326140717      1.7177686326919093      16.997120591478936
    35   7      10.016160277247744      1.6505303696153573      16.976425417990047
    36   7      1.1863803668310355      3.8163521646102265       16.97268235891476
    37   7       3.655691556596667      3.6536334671767889      17.057090309429373
    38   5      6.1555501928417993      3.7666917203516026      16.968191969292544
    39   7      8.7060977132159216      3.8507011114261975      16.810058714042096
    40   7      11.150455476497138      3.8421407197834094      16.963676819188141
    41   7   -0.058297204960112474      5.9942162700124282      17.158895353042791
    42   7      2.4665897224822717       5.910884064581186      17.035108792850508
    43   7      4.9289373648946562      5.8087105563638577      17.054908054344128
    44   7      7.4468779243461709      5.9268411476127749      17.038109641579009
    45   7      9.8840383109800172      6.0908564215035028      17.174872005571082
    46   7      1.2813478408154233       8.019113840014823      16.781291360722083
    47   7      3.7752456521913782      7.9765600096718847      16.972774834033707
    48   7      6.2459270957196784      7.9791111753291828      17.023079541773907
    49   7      8.5992949641286032      7.9593658666817024       15.92303449545377
    50   7      11.186586918149573      8.0082623187436095      16.327435563364023
    51   3     -1.0534250726625076      9.6011564436115453      17.262495281997833
    52   7      2.5245975225909674      10.123768788715727       16.98834280097504
    53   7      5.0822071843643775      10.098423288592356      16.876047164540026
    54   7      7.5796552685261505      10.030545332428437      17.015327434438618
    55   7      9.9212442848207498      10.283841648005399      16.370689880870305
    56   2      1.8452562271439004      13.435356583713174      15.397237935404902
    57   7      3.7867938115120965      12.250856138881344      16.863698050880664
    58   6      6.3233542211052001       12.32209317946347      17.052082461027187
    59   7      8.8465775103564486      12.406869008160541      16.984907825918373
    60   7      11.236262020159478      12.395162245369981      16.768989629596259
    61   6   -0.027706024558274964     0.12481836529908871      19.014252650951818
    62   7      2.5229371741829647    0.060020829490042289      19.140591932391082
    63   5        4.98881669705065     0.14355646294748928      19.063835040747389
    64   7      7.4694715990690987     0.13730131309889898      19.141242708555868
    65   7      9.9915855204569635     0.13862812855717266       19.10281862015842
    66   6      1.3638802533691232      2.2717643680631636      19.053351500087956
    67   5      3.8266995723600896      2.2064931288649459       19.13004081797861
    68   7      6.2157136467309799      2.2080872899677306      19.086249152313123
    69   7        8.75126394583876      2.2298707636372423      18.992589752557812
    70   7      11.268171015546908      2.3577805395171119      18.956533825801024
    71   1    -0.10193925058122993      4.5135585358542833      19.179240869775334
    72   7      2.4519289915398907      4.4513505505090638       19.06550975636608
    73   7      4.9609228397970115      4.3219792388048317        19.0608272056005
    74   6      7.5031207999196239      4.3495859003793029      19.019540218138715
    75   5      9.9008141031568542      4.4164889211833058      19.006849774166312
    76   7      1.2076927399840676       6.560258064710359      19.131394838766262
    77   7      3.7632921148045386      6.5225707126490287      19.101553745859398
    78   7      6.1831943103948541      6.5232809294624365      19.101912613076468
    79   7      8.6534502442787176      6.5499637387272793      19.297190700737957
    80   7      11.116248057250951      6.6470586290758398      19.267466600239729
    81   4    -0.10271279854220268      8.6689292839403045      18.739558236149552
    82   6      2.4365819152325949       8.607738197235614      19.035802117560745
    83   7      4.9422443915624692      8.7372505480147229      19.017469442609663
    84   7      7.3750015360764998      8.6404736094012069      19.082671207670458
    85   6       9.701944714325764      8.5623549128658674      18.289865875025207
    86   7      1.2183454967762548      10.814262176318167      19.126438830643387
    87   1      3.7783014865005859      10.926290421673764      18.979045966832217
    88   7      6.2262824602147955      10.843896151691034      19.079525735781491
    89   6      8.7431284035626149      10.872868989309763       19.03914317564411
    90   4      11.246354805284891      10.873179587328321      18.737436873127375
    91   4      1.3396794907592173      0.7725023777601896      21.323762182026439
    92   7      3.7641838697276975     0.74845655062540506      21.133806999419932
    93   7      6.2916464335467222     0.74950882532262875      21.221280171135888
    94   7      8.7453467936819003     0.74790161073671479      21.255006518300959
    95   7      11.294252115086698     0.70734965425249885      21.247674410547013
    96   7    0.072169216055086582      2.8430480726216416      21.180706625698328
    97   7      2.5871860228564598      2.8674786879996277      21.194612031928493
    98   7      5.0358094996699476      2.8834883436618841      21.167245485542171
    99   5      7.4971717880153266      2.8462590635013654      21.162356794751805
   100   6      10.033993010285489      2.8343078870302136      21.053581707978083
   101   7      1.2157800727732671      5.0310033744279901      21.200611431996801
   102   6      3.7389911375925684      5.0479381040903011      21.186825370078768
   103   7      6.2841451365161882      5.0492462676146435      21.155997959933657
   104   7      8.7477085838773263      5.0566341945341735      21.221266148640744
   105   3      10.086250850923703      4.4232176791229865      22.286134885609769
   106   7    0.023591479279322123      7.1418814764167671       21.22689470881345
   107   7      2.4827498366322773      7.1790359195097881      21.206760774767872
   108   7      5.0142663107088712      7.2238666369663864      21.184555733840103
   109   7       7.426773627710693      7.2476053480238303      21.254123309415071
   110   7       9.913502504033529      7.1701775289554783      21.346282741992415
   111   7      1.1779216551212002      9.3195094661373865      21.140998284333559
   112   6      3.7410975677652551      9.3582679927445938      21.238295768662443
   113   7      6.2219153406334051      9.3937569437078299      21.064860468561751
   114   7      8.7189741194976413      9.3130241148630333      20.973976782499047
   115   6       11.14192663894991       9.226498301798939      20.848114161652347
   116   1    0.007043400881662774      11.491873380162911       21.24056038620629
   117   7      2.4752279507884438      11.544996843120929       21.15839221550565
   118   7      5.0072271271772166      11.571965378103487      21.145701931854479
   119   4      7.4484784287038073      11.571999045457911      21.112664296143819
   120   7      10.011673225844982      11.525091607243899      21.130731254090204
   121   7    0.078527308485831476      1.4136974581794006      23.334556939463937
   122   7      2.5706920458321512      1.4199005645107521      23.339407023599822
   123   7      5.0070321924808763      1.4374255598941004       23.20559122831181
   124   7      7.4207268632441874      1.5048435673516822       23.49381615254784
   125   7       10.04366709616956      1.4361809742662457      23.381687810930625
   126   6      1.3454075819849771      3.6121042272510886      23.245108849604446
   127   7      3.8465605542790211      3.5964313974239137      23.345036428863054
   128   7      6.3081572945180389      3.6568765898454663      23.184151832430366
   129   7      8.7581798181310404      3.5585616240724947      23.352591166052029
   130   4      11.356933883039021      3.6371450565225896      23.410270056294681
   131   7    0.072605919363715174      5.7967013830035343      23.357092091242531
   132   7      2.5465073983215589      5.7992510473918939      23.332276879850536
   133   6      5.0673192589886717      5.8442419094140101      23.356780658764723
   134   7       7.560942403978034      5.7698290232742373      23.315475651368036
   135   7      10.064144341177295      5.8331670418762602      23.414039811427134
   136   7      1.3202776911547589      7.9234829499493706      23.258243808173201
   137   7      3.7876190820037001       7.968713495197413      23.303520214189092
   138   7      6.2983352662129803       7.984762457343221      23.317751036948739
   139   4      8.6788375595908764      7.9312167734321068      23.247239584762191
   140   4      11.313004902476735      7.8938944290835069      23.217132484992124
   141   7    0.012686595517342221      10.059095451375606      23.284226864957603
   142   7      2.4906957411341133      10.113777620127765      23.271560344734702
   143   7      5.0716023344847523      10.118705989179375      23.239408557307222
   144   7      7.5041922559368475      10.074788820489784      22.922016837185353
   145   7      10.017508996052902      10.015826512976417      23.171888205067518
   146   7      1.2912328672363884      12.240270795238271      23.334507756134588
   147   7      3.8037232746800629      12.250911928486067      23.219143416851082
   148   4      6.2327143564907805      12.280868218451669       23.25317581173562
   149   6       8.739751340979673      12.248838964646572      23.326915703843316
   150   7      11.251977147020195      12.206383252795934      23.402756663919885
   151   4    0.099873453774508972   -0.043028571927078624       25.41504647803508
   152   7      2.6539848406862871      0.0256784189669668      25.378425931439466
   153   7      5.2094965522668844    0.081783191834437247      25.325162078645175
   154   7      7.6252463745473378   0.0037373094091541618      25.470148820754233
   155   4      10.141430111762151    0.070317304748085674      25.566381558378357
   156   1       1.479165155414623      2.1564793426307092      25.503595068526636
   157   7      3.9726862544385111      2.1512782753931603      25.438822849504696
   158   2      5.8129055047678335       2.466265997673446      24.660623236010395
   159   7      8.8779125580070755       2.106530819431379      25.465838696006923
   160   7      11.400463104688987      2.1710970975329391      25.437788772046389
   161   4     0.10711426850235052      4.3558329511120313      25.450440865087632
   162   7      2.6038396547091422      4.2767668470495535      25.402512923186972
   163   7      5.1234566136991599      4.2586378338151141      25.402308592404271
   164   5      7.4800811918330972      4.0538883441168503       25.36319679121587
   165   7      10.062945784882434      4.2259495372513873      25.434895061293648
   166   7      1.3448201210988233      6.4257903353567301       25.39395471134063
   167   7      3.8175886886437862      6.4461052586264005      25.417879455059818
   168   7      6.3662044418733066      6.4077849728030651      25.410601675098302
   169   7      8.7749254829022263      6.3357967446754655      25.403688197079163
   170   7      11.301054014692781      6.4184666180616041      25.436230380493196
   171   6     0.11850547013898936      8.6203321586379857      25.380432128368991
   172   7      2.6294404784031484        8.62061096091354      25.369597827117651
   173   7      5.1207422797839532      8.5684638603380527      25.337210524298857
   174   3      8.4684229324010758      9.5338476264326584        24.3949497858756
   175   6      9.9217146847690341      8.5688493149355356      25.493331899455686
   176   7      1.3419744899066743      10.813170424278558      25.412305529905055
   177   6      3.8818736540564971      10.830370720825117      25.298678568387572
   178   6      6.6583826157934558      10.534221723848416      25.237959196503237
   179   5      9.0396810907277363       10.91958137624264      25.568888798272084
   180   5      11.349734901123337      10.865212753045245      25.493173180214406
   181   7      1.3963929060369675     0.69018162510968839      27.490853683044453
   182   7      3.8919874912401022     0.71649495973050803      27.439670020291761
   183   7      6.3364768394469699     0.72019141193852798      27.571602018243571
   184   7      8.9058236106017254     0.71817802913035222      27.576581926988766
   185   4      11.395970493907802      0.7229633389079968      27.555840337998809
   186   7     0.17418614673013499      2.8738079610242275      27.496665962116413
   187   7      2.6749584361517336      2.8653519756228536      27.545834459240016
   188   7      5.1181998617809992      2.8785889063865744      27.548126295567041
   189   7      7.6279383575741431      2.8032527394316737      27.486616438650383
   190   7      10.156698853125985      2.8394456518035289      27.519465030325492
   191   7      1.3969364134732449      5.0187515272977716      27.441012231394446
   192   7      3.8495872968771496      4.9952460611154867      27.447758941572246
   193   7      6.3918814418944354      4.9852433877040827      27.394459061032013
   194   6      8.8664363971484192      5.0069900076642533       27.53138647064257
   195   7      11.368537426331798      5.0076800036023128      27.516226358436885
   196   7     0.14384979662611388      7.1719315355250881      27.473017756383484
   197   7      2.5872667796779774      7.2050297081799748       27.44103622014806
   198   7      5.1096539414111826      7.1817330438254379       27.39155706384139
   199   7      7.6235540274927409       7.190885304241144      27.453585879082077
   200   7       10.13281339056709      7.1654026286188923      27.544583300217909
   201   5      1.3800129777251755      9.3488742276759478      27.486514120274848
   202   7      3.8778205169669522      9.3368948497787496      27.372157545232117
   203   7      6.3814408134725324      9.2924375686576077      27.398334838725603
   204   7      8.8517619609903857       9.362870949641696      27.611396392610636
   205   7      11.357939169847588      9.4119749618698698       27.53928729074493
   206   4     0.18701274196655013      11.491996303176213      27.515040214885978
   207   7       2.609934743401654      11.485397679675025      27.428770037910898
   208   7      5.1497840963173829      11.509390031201344        27.3365434850379
   209   6      7.6016156733428399      11.524652428740596      27.627075434154357
   210   7      10.165151015168274      11.547411228571336      27.597486543720525
   211   7     0.20858871518493211      1.4562565120961013       29.59580700325413
   212   7      2.7216032990409698       1.370114103679134      29.566956804622375
   213   5      5.1493869293064716      1.4264185078972007      29.593861531837497
   214   7      7.6338891761019214      1.3647233855477388      29.601102999542977
   215   7      10.133046266404161      1.4056182137681161      29.645359567641165
   216   7      1.4191542131113142      3.5640442422238632      29.561838471094649
   217   4      3.8568576166269746      3.5725205692285362      29.544674232787951
   218   7      6.3949108688207721      3.5453709488961223      29.535942794989818
   219   7      8.8728059455262596      3.5343265798412484      29.580908206998433
   220   7      11.372680889735776      3.5786348580699179       29.55517920967111
   221   7     0.13081145159244606      5.7418641442796314      29.555037403617728
   222   7      2.6045928072438285      5.7421140197531466      29.489317062856816
   223   6      5.1723181371054086      5.7273224079163638       29.45378898118415
   224   7      7.6628402327996552      5.7504208360071587      29.600737870180225
   225   7      10.123536021464403      5.7531455024045046      29.662842148964753
   226   7      1.3755086634888398      7.9371913590970147      29.500942147470301
   227   7      3.8708316960335938      7.9335111517132315      29.436770255571062
   228   7      6.4038551952670444      7.9196690103456309      29.483936738641592
   229   7      8.8594952552522237      7.8886198778464491      29.536979606093976
   230   7      11.383854140291898      7.9217027496225647      29.544478433653136
   231   7     0.15989673626159553      10.094175797117057      29.569207833992369
   232   7      2.6332230181525511      10.066849300060447      29.401367892835566
   233   7      5.1501916163924939       10.07168289328062      29.329994397042732
   234   7      7.6051150291257041      10.089855260652408       29.65584987123896
   235   7       10.09280119267458      10.159456381111772      29.621124987463944
   236   7      1.4557207569790735      12.209352996666949      29.542542001958878
   237   3      4.0347805821051645      13.235215914082591      30.550308318597782
   238   7      6.2357736431284918       12.24436778535452      29.675791938147206
   239   4      8.8819279329723209      12.247791116264464      29.729150983603336
   240   7      11.388846653942982      12.260434173581427      29.587914174765032
   241   7     0.17879837833043472     0.11514550971830823       31.63978229707477
   242   7      2.5586535652148661     0.17355237596747938      31.724116081646905
   243   7      5.1651996482035827  -0.0087656040696315884      32.090342812740424
   244   7      7.6265880950798906    0.014805194807562299      31.713702091776906
   245   7      10.093371173834814   -0.048421271976518389      31.862460679875205
   246   4      1.3423717409089269      2.2719470807963935      31.653636637696625
   247   7      3.9004798198562662      2.1678606922858257       31.61077203766629
   248   7      6.4272527343573254      2.1702012656799337      31.641224822089974
   249   7      8.8691559356094007      2.1342544360035336      31.697352097603297
   250   7      11.376412029155095      2.1607010414732337      31.672926665498171
   251   7     0.17324861732612695      4.3464457658613922      31.626379825835865
   252   7      2.6819815408124437      4.3260160039643596      31.565271141775522
   253   7        5.15365076471595      4.3246527868345765      31.585328116592681
   254   7       7.669486304556413      4.3438990926089538      31.622978798124663
   255   1      10.170251732466733      4.2813329411862737       31.62699674618262
   256   7      1.3427444078479871       6.577511394103829      31.535128439246556
   257   6      3.8022647002725449      6.5184362731098631      31.589024555719607
   258   7      6.3567020801670635      6.5119097608072272      31.611046537755978
   259   4      8.8281495603892477      6.4828877237639633      31.668358128217875
   260   7       11.33936714643964      6.4810465214526962      31.678425157721762
   261   7     0.18648800875971974      8.7466151160765939      31.643976368389385
   262   7      2.6832620055386025      8.7835984115191774      31.474640347854447
   263   1       5.118787432728892      8.7687213216566207      31.403370300263003
   264   7      7.5960576316767172      8.5928091435822171      31.620446644456617
   265   6      10.121862630364676      8.6571835730592781      31.580091563924132
   266   7      1.5416857668432316      10.879081920882049      31.562470869428211
   267   4      3.9136955871078047      11.274796559702446      30.884101012642375
   268   7      6.2697237603622975      10.782107354339665      31.582015739420335
   269   7      8.7753290510001953      10.797651187750157      31.741650024112175
   270   7       11.40398129825703      10.895941292391894      31.674458981600356
   271   7      1.4127259772595229     0.93521937220629636      33.750902953351769
   272   7      3.8711576124832168     0.99999101626093956      33.893022697543941
   273   7       6.408800838794348      1.0150403536982386      33.903542201827726
   274   7      8.7846953797147247     0.91006987781376458      33.827660720871926
   275   4      11.373724665021903     0.81051685996937595      33.710318301919727
   276   7     0.14545911712085002      3.0272837804575592       33.71201052227223
   277   7      2.6233538762088693      3.1086632963411476      33.710230790778802
   278   1      5.1958732268671595      3.0266041701241395      33.693531200462168
   279   7      7.7011418790443411      3.0717650526034905      33.741028914739474
   280   7       10.17059306799392      3.0165991011137225      33.755097487076029
   281   7      1.4593281276025625      5.2289550586555533      33.560863553125543
   282   4      3.9131939034207908      5.1788700864897974      33.674537262526769
   283   7      6.3856498005393885      5.1391378808470218      33.657962066089866
   284   5      8.9057464412200247      5.1437001944093135      33.689518174743789
   285   4      11.521374066421991      5.2018590680783179      34.017880198272699
   286   7     0.16893109465432501      7.3625561394303309      33.614182560386226
   287   7      2.6853430427141616       7.403277449552589      33.607789103282961
   288   7      5.1882489193236063      7.3377573620633232       33.62900813123882
   289   7      7.6377019628786229      7.2051766438630978      33.711175654295673
   290   7      10.138113917518655      7.2130213961322118      33.690322752292246
   291   7      1.4769947300041408      9.5175151658591108      33.683609591239765
   292   7      3.9964326216013579      9.4999439141968072      33.417335227972799
   293   4      6.4657612566732769      9.3656581990631302      33.653546365508802
   294   7      8.7873841578790746      9.2813583449199459      33.684163321201602
   295   6      11.271340473826662      9.6556094161358796      33.858143390647953
   296   3     -1.4220760482736248      11.824158172616727      33.355895433312831
   297   6       2.963751136263348      11.637012058753726      33.687566291753406
   298   2      5.1379808563509153      12.327521585793873      34.204512854337182
   299   7      6.9433762220278723      11.637131909768891       33.69165299472332
   300   7      9.3345225744410065       11.54933994065423      34.152643633917286
   301   7    0.075013787562039067       1.563996973952297      35.738323297483042
   302   7      2.4928892915110805      1.7826466141637201      35.795172510995151
   303   7      5.1419456225814661      1.7510173456593492      35.913841505847387
   304   4      7.6494929911996641      1.6778248157959292      35.911641872096126
   305   7      10.086392758407532      1.5302838754606882      35.759149193086472
   306   4      1.1181067548777233      4.0789594063251533       35.77175053389594
   307   7      3.8685952011781133      3.8131719300271634      35.773360036537959
   308   7      6.4087701233580736      3.7742416581048253      35.786258755600763
   309   7      8.8799680712077862      3.6913519799510093       35.82298530336309
   310   4      11.326008047538989       3.692124499981372      35.888221914228495
   311   2     0.63646306459779467      6.1878809942850506      35.219704369531158
   312   7      2.6896686219932007      5.9208329816565639       35.56853108252664
   313   7       5.193196368155391      5.9806421697936152      35.684832668610312
   314   7       7.655888340280562      5.8601986286429737      35.766313356043639
   315   7      10.119928040980776      5.7585579517119116      35.876689544663101
   316   7      1.4582494649625524      8.0335032536290782      35.650434067530497
   317   7      3.9231952683983979      8.1268720118263591      35.702129523637133
   318   4      6.5294318641874867      8.1630791145023469      35.779727757214594
   319   7      8.9751911933608728      7.9671490569378207      35.753121256115129
   320   7      11.545046529954652      7.6867233188647788      35.762753472950948
   321   6     0.13474970676318521      10.147562356730289      35.948160497019487
   322   7      2.6507999228019901      10.271209283925119      35.788513227907323
   323   6      5.1862842167115506      10.302143151198621      35.556323671228277
   324   7      7.8681532954306679      10.395459395351295      35.690620620129899
   325   7      10.227399265600326      9.7407394742526439      36.979405983754667
   326   7     0.44500274048434241      11.683806907590364       33.68902888446901
   327   6      3.8158700058492667      12.612782474635347      36.104244728824618
   328   7      6.3565224360634414      12.580383271986578       35.92110213574793
   329   3      9.5017643691561489      11.362759539531508      36.239775545998079
   330   4      11.166140548801829      12.121900518894828       35.58162635890622
   331   7     -0.1389219420461244   -0.035518197282355016      37.617154624642033
   332   7      2.3754059366407811     0.20012928610609368       38.02871295179564
   333   7      5.1308901727982175     0.21781730509504391      38.110024512923815
   334   7      7.5624538190335828    0.091084689487594794      37.998932162445726
   335   5      9.8128324330596985   -0.049403452418873124      37.433242339925215
   336   7      1.1940618284635285      2.2854211654630072      37.743909730437721
   337   7      3.7419468283598465      2.2649235999556843      37.813042614915751
   338   7      6.4203702017386171      2.2959394292932078      37.884690771921811
   339   7      8.8646514184145051      2.1974619462662583      37.865292360555472
   340   7      11.227961049443163       2.148032463908085      37.799857931653946
   341   7   -0.026836582598267118      4.3050231280905527      37.987295545639959
   342   7      2.4873318182845878      4.3679544388305098      37.765851339981964
   343   7      5.1171017894892721      4.4504206008256029      37.784258504788305
   344   7       7.642338499040366       4.469229197842469      37.868655318002837
   345   4        10.0281620724493      4.3543044830888213      37.909301424365758
   346   7      1.0619047830744106      6.3209544284269681      37.257311112823544
   347   6      3.7571597730624688       6.490947595406527      37.716005187651128
   348   6      6.4383116902524016       6.685875530759084      37.793633084007155
   349   7      8.9238673399074155      6.6600964734422181      37.867809338841276
   350   7      11.272099221238722      6.4734933741054235      37.990683804851955
   351   7   -0.020696511212157695      8.6337260412758585      37.875184005978625
   352   6       2.492115698775732      8.7337241892261304      37.752831254089685
   353   7       5.070690720538507      8.7467584143690864      37.824034273316492
   354   7       7.875036089741779      8.9720855734622162      37.768707447873687
   355   3      10.245919936451768      7.8225614022522922      37.195288846782553
   356   4      1.3246712448890254      12.406518144883899      35.846901170014256
   357   7      3.8036566072188243       10.88721478746972      37.934591527497901
   358   6      6.3614619041326108      10.888155844411203      37.770346876988427
   359   2      8.5598798737616484       11.11048671866013       37.44470692829492
   360   7      13.814119883119121      10.954401001312862       37.91506024831321
   361   8      2.5656831867430738      6.3816169686246145       39.35524346639945
   362   8      2.6348442856735916      6.9675805787026004      39.921892044644025
