(written by ASE)

362 atoms
8 atom types

0.0      12.447907775999999  xlo xhi
0.0      12.936245229600001  ylo yhi
0.0      52.360083105400001  zlo zhi

Atoms # atomic

     1   7     0.21401581076203599    -0.47117876813919596      14.819599207614448
     2   7      3.7053075654225758     0.63958964974670585      14.801277369154111
     3   5      6.1282330430194536     0.82404222093976909      14.957128520981922
     4   6      8.6934504518598441      1.0299608893801995      15.008549473248202
     5   7      11.042337868397945      1.2955747330354508      14.573622817259194
     6   7    -0.13969060776040973      3.4297060511532824      14.772382810300575
     7   7       2.196805726362828      2.6320996846184332      15.047973285166195
     8   7       4.835058902567579      2.9224381763849938      14.998484473044783
     9   7      7.3226782408183944      3.0555997262637478      14.900322450434487
    10   7      9.8323942897999732      3.4223071887440715      14.650961552428285
    11   7       1.169852737185888      5.4453951055562442      14.990179079072444
    12   7      3.6479067782961323      5.0383573648371893      15.063106980802882
    13   7      6.1608689203947682      5.1746138114582587      15.018124494901002
    14   7      8.6534160949919219      5.6644017181597999      14.913519585881117
    15   6      11.140039574510395      5.5825024877303324      15.104266093685053
    16   4      0.3584954811525517      7.8127694254505728      14.588333429483253
    17   7      2.6279386864351015       7.353286376486138      14.816645129804508
    18   7      5.0336373840946393      7.2336640492759106      14.974044989632986
    19   2      6.9640670921606684      7.0031892241444327       15.32626225447499
    20   7      10.329546491958668      7.6125677450777074      14.109238684260539
    21   2      1.9004116283951447      9.2790990102500484      15.190464878430923
    22   7      3.8568125189936135      9.4068907718339911      14.928329311742424
    23   7      6.5781466886635931       9.123131788769328      14.878250135700215
    24   7      8.9530076972122377      9.6640362533026902      14.244890067671035
    25   7      12.625961636765059      10.140933387879191      15.886127521276942
    26   7      1.2918328565280781      12.243332096732688      17.031741314438573
    27   7      2.3702876916093589      11.380037159632918      14.913945415725943
    28   7      5.0658748128662037      11.506307356842344      14.809520596200352
    29   6      7.5977971836589164      11.496984007180973      15.003835111380766
    30   7       10.06190230742534      11.967970386440468      14.630702490763683
    31   6     0.12983027713034248      1.5846187127150382      16.469955804703591
    32   7      2.6169757809342729      1.4518238604954308      17.065936560478463
    33   7      4.9917417521636924      1.5650793560256753      16.992263444548811
    34   7      7.4274107325596024      1.7177686327392183      16.997120591768784
    35   7      10.016160277187378      1.6505303696465599      16.976425418174905
    36   7      1.1863803668476918      3.8163521646605894      16.972682359347768
    37   7      3.6556915565734802      3.6536334672241106      17.057090309745508
    38   5      6.1555501927789633      3.7666917203864405      16.968191969602284
    39   7      8.7060977131632402      3.8507011114501402      16.810058714289863
    40   7      11.150455476427959      3.8421407197963924      16.963676819324569
    41   7   -0.058297204909243935      5.9942162700211012      17.158895353491591
    42   7      2.4665897224793381       5.910884064565165      17.035108793251961
    43   7      4.9289373648496237      5.8087105563482018      17.054908054704626
    44   7      7.4468779242663024      5.9268411476043763      17.038109641837536
    45   7      9.8840383109131267      6.0908564214905363      17.174872005743232
    46   7       1.281347840833897      8.0191138399831505      16.781291361105122
    47   7      3.7752456521639832      7.9765600096383347      16.972774834437061
    48   7      6.2459270956555288      7.9791111752993853      17.023079542058444
    49   7      8.5992949640918379      7.9593658666596125      15.923034495587631
    50   7      11.186586918108119      8.0082623187311857      16.327435563463418
    51   3     -1.0534250726041168      9.6011564435331174      17.262495282402536
    52   7      2.5245975225856832      10.123768788616776      16.988342801319888
    53   7      5.0822071843108061       10.09842328850506       16.87604716480255
    54   7      7.5796552684443572      10.030545332402298      17.015327434676411
    55   7        9.92124428481136      10.283841647996145      16.370689880977153
    56   2      1.8452562271448296      13.435356583666202       15.39723793562615
    57   7      3.7867938114901283      12.250856138842664      16.863698051147928
    58   6      6.3233542210551956       12.32209317942319      17.052082461227769
    59   7      8.8465775103219215      12.406869008125415      16.984907826038555
    60   7      11.236262020146414      12.395162245351361      16.768989629658368
    61   6   -0.027706024499066364     0.12481836546772877      19.014252651497227
    62   7      2.5229371741760644    0.060020829659199873      19.140591932845417
    63   5      4.9888166969803134     0.14355646308530809        19.0638350411914
    64   7      7.4694715989582408     0.13730131320271283      19.141242708888704
    65   7      9.9915855203476287      0.1386281286250102      19.102818620376532
    66   6      1.3638802534062067       2.271764368191123      19.053351500718712
    67   5      3.8266995723088222       2.206493128999222      19.130040818568673
    68   7        6.21571364662144      2.2080872900621586      19.086249152741452
    69   7      8.7512639457481178       2.229870763696614      18.992589752846381
    70   7      11.268171015442762      2.3577805395561686      18.956533825975576
    71   1    -0.10193925047502322      4.5135585359254122      19.179240870491249
    72   7      2.4519289915450484      4.4513505505687148      19.065509757034402
    73   7      4.9609228397049776      4.3219792388919069      19.060827206173929
    74   6      7.5031207997904259      4.3495859004246675      19.019540218502208
    75   5      9.9008141030315766      4.4164889212096403      19.006849774396024
    76   7      1.2076927400352626      6.5602580646879476      19.131394839475583
    77   7      3.7632921147544476      6.5225707126274894      19.101553746428944
    78   7      6.1831943102496911      6.5232809294292027      19.101912613584357
    79   7      8.6534502441171188      6.5499637387019742      19.297190701017694
    80   7      11.116248057154602       6.647058629053535      19.267466600402749
    81   4    -0.10271279846760846      8.6689292838609173      18.739558236753183
    82   6      2.4365819152379693      8.6077381971533153      19.035802118132992
    83   7      4.9422443914877121      8.7372505479265783      19.017469443036745
    84   7      7.3750015359408438      8.6404736093369241      19.082671207941225
    85   6      9.7019447142394704      8.5623549128191971      18.289865875131483
    86   7       1.218345496816194       10.81426217619266      19.126438831205881
    87   1      3.7783014864467384      10.926290421535711      18.979045967300497
    88   7      6.2262824600901929      10.843896151601633      19.079525736105996
    89   6      8.7431284034661996      10.872868989267058      19.039143175833885
    90   4      11.246354805221932      10.873179587299107      18.737436873188855
    91   4      1.3396794908368854      0.7725023780733572      21.323762182877822
    92   7      3.7641838696253029     0.74845655089233765      21.133807000068821
    93   7      6.2916464333091549     0.74950882552734688      21.221280171655756
    94   7      8.7453467934946421     0.74790161088966656       21.25500651865196
    95   7      11.294252114943383     0.70734965434918118      21.247674410778703
    96   7    0.072169216265699998      2.8430480728699079      21.180706626814683
    97   7      2.5871860228842807       2.867478688209034      21.194612033135421
    98   7        5.03580949944359      2.8834883438287044      21.167245486506317
    99   5      7.4971717877437865      2.8462590637149012      21.162356795252933
   100   6      10.033993010051148      2.8343078871701861      21.053581708169258
   101   7      1.2157800729323551      5.0310033744701599      21.200611433284212
   102   6      3.7389911375167353      5.0479381040938769      21.186825371391322
   103   7      6.2841451362125831      5.0492462677004459      21.155997960692307
   104   7      8.7477085835574115      5.0566341946069535      21.221266149035067
   105   3      10.086210409740284      4.4231517353601078      22.286219024940966
   106   7    0.023591479503893682       7.141881476286569      21.226894710032685
   107   7       2.482749836691502       7.179035919326064      21.206760776027703
   108   7      5.0142663105357057      7.2238666368213487      21.184555734894577
   109   7      7.4267736272947742      7.2476053479113371      21.254123309967703
   110   7      9.9135025038473206      7.1701775288670424      21.346282742024968
   111   7      1.1779216552405567      9.3195094658698121      21.140998285345493
   112   6      3.7410975676929881      9.3582679924505427      21.238295769692172
   113   7      6.2219153403640881      9.3937569435086719      21.064860469216157
   114   7      8.7189741192519303       9.313024114749064      20.973976782632153
   115   6      11.141926638839065      9.2264983017369513      20.848114161544057
   116   1   0.0070434010068920515      11.491873379883979      21.240560387081338
   117   7      2.4752279507881618      11.544996842783457      21.158392216367687
   118   7      5.0072271270032207      11.571965377803725      21.145701932554385
   119   4      7.4484784284241359      11.571999045278805      21.112664296341588
   120   7      10.011673225682529      11.525091607112106      21.130731253941775
   121   7     0.07855247014185987      1.4135325129941698      23.334587454144874
   122   7      2.5707608302926928      1.4196649296393196      23.339434348386842
   123   7      5.0071012754021842       1.437166354679033      23.205693328168969
   124   7        7.42075867958284      1.5047459327334525      23.493788031150896
   125   7      10.043700607406898      1.4360755189971384      23.381704747558153
   126   6      1.3454424638053104      3.6119332289094315      23.245160450058194
   127   7      3.8466207660108065      3.5962445982634939      23.345115275939865
   128   7      6.3081791845702773      3.6568046335479005      23.184159617816125
   129   7      8.7581894833327496      3.5584895254041395      23.352724309769549
   130   4      11.356910442531666      3.6370353861975993      23.410382039653307
   131   7    0.072658805641447916      5.7965289482917983      23.357141596951088
   132   7      2.5465731034581802      5.7990566086503472      23.332371136014164
   133   6      5.0673438453399564      5.8441352882138808       23.35696302052521
   134   7      7.5609087576944249      5.7696819302513074      23.315649084964686
   135   7      10.064136822425356      5.8330661705509037      23.414167285147432
   136   7      1.3203621341777834      7.9232830442637852      23.258275472970581
   137   7      3.7876763540958849      7.9685485267563365      23.303614264209831
   138   7      6.2984045771835806      7.9846387329109119      23.318019589175623
   139   4      8.6788274962117828      7.9308811537128632        23.2471734809582
   140   4      11.313091589862935      7.8937394764468305      23.217063952142208
   141   7    0.012710305652307992      10.058895575229659      23.284230706062687
   142   7      2.4907233028207512      10.113568168195398      23.271633618048401
   143   7       5.071643902924893      10.118505003358017      23.239530032560697
   144   7      7.5042775686025864      10.074709957860074      22.922069860439514
   145   7      10.017456133026061      10.015601895598772       23.17190186844714
   146   7      1.2912474269275953      12.240056626300584      23.334525767184491
   147   7       3.803774188749653      12.250600526434475      23.219279652076661
   148   4      6.2328007878470233      12.280651139285901      23.253153049486325
   149   6      8.7398075279768008      12.248765045185614      23.326741087738952
   150   7      11.251976977756662       12.20617161078445      23.402674021176146
   151   4     0.09983643991957751   -0.043452720877074892      25.415011037392247
   152   7       2.653958047384938    0.025117673029898768      25.378410426240077
   153   7      5.2094147660631798    0.080901942937611576      25.325204518508652
   154   7      7.6252029260106893   0.0032248757679800748      25.469897654970929
   155   4       10.14140533137466    0.069893291418263323      25.566220738601324
   156   1      1.4792123456949213      2.1560178457178285      25.503556034483005
   157   7      3.9728221362145231      2.1507206204396261       25.43880663797513
   158   2      5.8129188301430785      2.4662550712913269      24.660577380514972
   159   7      8.8778290011950389      2.1061432659696475       25.46590291207432
   160   7       11.40041495049363      2.1707343275139368      25.437856887165989
   161   4       0.107171984937572      4.3554057526639944      25.450545065397986
   162   7      2.6039161731061551      4.2763076143573393      25.402710098643738
   163   7      5.1233925232432505      4.2582910987695577      25.402571138357455
   164   5      7.4799716328612798      4.0534779401496204      25.363480115990164
   165   7      10.062883602342694      4.2255710538085793      25.435151085259804
   166   7      1.3449145475975006      6.4253057783263268      25.394130504524213
   167   7      3.8176113552638884      6.4456136875256504      25.418212964863752
   168   7      6.3661665739757147      6.4071961265416979      25.411087253800481
   169   7      8.7748979141011745      6.3353222880608833       25.40401797478092
   170   7      11.301135821770652      6.4180058271349507      25.436308671252615
   171   6     0.11858881656097789      8.6198724728043281      25.380403394190171
   172   7      2.6294702523219189      8.6200786297263345      25.369828664628983
   173   7      5.1207035757894426      8.5678261773223738      25.337578653884226
   174   3      8.4682842074501483      9.5331200280140092      24.394977140694095
   175   6      9.9218589554234882      8.5683299184846362      25.493167041239158
   176   7      1.3419940224555993       10.81272150143166      25.412388522508682
   177   6      3.8818427219628515      10.829726030650413      25.298930907679843
   178   6      6.6583698550179493      10.533418531859152      25.238126587793378
   179   5      9.0397241847906162      10.919147032147515      25.568482761358027
   180   5      11.349792201367702      10.864748443235795      25.493038918730715
   181   7      1.3964102907369722     0.68948946198653138      27.490684269271885
   182   7      3.8920509536046404     0.71572065065437185      27.439476287357543
   183   7      6.3365299244342337     0.71939947205230126      27.571344488957372
   184   7      8.9058174572222573     0.71753843102905568      27.576310688024954
   185   4      11.395941794743564     0.72231165311737067      27.555713231731715
   186   7     0.17420315409152529      2.8732563284523644      27.496688954468141
   187   7      2.6750439296201844      2.8647350925837811      27.545833299322112
   188   7      5.1182562012649155       2.877883941464852      27.548194890874591
   189   7      7.6279034643986448      2.8026702310777956      27.486926497795885
   190   7      10.156618564605727       2.838941504765224      27.519684281823913
   191   7      1.3970584067512293      5.0182003371261121      27.441267831390224
   192   7      3.8496449128608181      4.9946674579324659       27.44828407266073
   193   7      6.3916902812129051      4.9846021616927896      27.395150897509772
   194   6      8.8662735971924533       5.006397174421255      27.531847222931191
   195   7      11.368528819350985      5.0071471646161676      27.516281978647001
   196   7     0.14392125540105591      7.1713697686578843       27.47301444394585
   197   7      2.5873267491229406       7.204388696638909       27.44151552432438
   198   7      5.1095628852269606      7.1809824054410702      27.392276986802621
   199   7      7.6233714803587445      7.1900417220619905      27.454213910581643
   200   7      10.132787209825461      7.1647745264493548      27.544518427724114
   201   5      1.3800173540603038      9.3482508287379105      27.486646095763909
   202   7       3.877805529925034      9.3360358719351417      27.372616736314345
   203   7      6.3814557982665789      9.2915780229167435      27.398693629962157
   204   7      8.8517842981406947      9.3620921742616794      27.611165846495421
   205   7      11.357965713101121      9.4113233737106494      27.539193685282349
   206   4     0.18702274639471145      11.491312376525917      27.515059881432215
   207   7       2.609993250497852      11.484583338127857      27.429037062172849
   208   7      5.1497825181005572      11.508450017079088      27.336862293499678
   209   6      7.6016885607895377      11.523926453387958      27.626751768531772
   210   7      10.165168405721188      11.546729863231876      27.597241899790028
   211   7     0.20851454943946293      1.4554225626438591      29.595446362661331
   212   7       2.721622156434429       1.369352984768762      29.566527006717941
   213   5      5.1495069087704763      1.4254226179521279      29.593384642652943
   214   7      7.6339847729875068      1.3638106044837708      29.600938998204207
   215   7      10.132873982590461      1.4048447822596721      29.645021810751036
   216   7      1.4192385908257648      3.5633479037115006      29.561896667634226
   217   4      3.8569851896140537      3.5717830332549623      29.544840234957018
   218   7      6.3948194072533884      3.5446300089489045       29.53641555481094
   219   7       8.872589009714277      3.5337170091353194      29.581597816967353
   220   7      11.372631448773303      3.5780835797649773      29.555256300830216
   221   7     0.13090480708870506      5.7412092853024141      29.554980485365913
   222   7      2.6047261305177609      5.7415033655848458      29.489955288240115
   223   6      5.1721472608273418      5.7266109262044322      29.454911867884189
   224   7      7.6626265530410045      5.7495195499983804      29.601756381809018
   225   7       10.12346296148497      5.7523934225868292      29.662941817757268
   226   7      1.3754235193916555      7.9365076868193096      29.501197221987812
   227   7      3.8706777067400124      7.9325037879514957      29.437794876956932
   228   7      6.4037077204065191       7.918672267785916      29.484781158144767
   229   7      8.8594928476474344      7.8877566823914558      29.536978538498893
   230   7      11.383864142834597      7.9209161530466368      29.544368749475712
   231   7     0.15979255601547937      10.093349921899557      29.569253726695351
   232   7      2.6331296921411838      10.065759942697539      29.401778278780185
   233   7      5.1501366750164017      10.070432482420685      29.330435598096415
   234   7      7.6051171642089965      10.088881093900426      29.655463316206305
   235   7      10.092804892055177       10.15861588267243      29.620937556731057
   236   7      1.4556713653646614       12.20850508897953      29.542411089806595
   237   3      4.0347922937504226      13.234597272437163        30.5501444371349
   238   7      6.2359056713146632      12.243366821054735      29.675657244963681
   239   4       8.881894586534635      12.246878015494085      29.728677292356107
   240   7      11.388755696217192      12.259589904155337      29.587866921603514
   241   7     0.17859927188003391     0.11430057865585017      31.639620499606632
   242   7      2.5583460978542378     0.17298422475998715      31.723523975286362
   243   7      5.1650858557421273  -0.0099431235005899513      32.090240394336433
   244   7      7.6266685428893819    0.013547914994596283      31.713580333799111
   245   7      10.093174778782826   -0.049703500519370357      31.861664468527763
   246   4      1.3420825454778922      2.2712389088212239      31.653139588713863
   247   7       3.900765375645439      2.1667062381295294      31.610183664615551
   248   7      6.4276270869700625      2.1689595588928583      31.640686671347794
   249   7      8.8691221148098336      2.1334670417866346      31.697660564294033
   250   7      11.375909883690724      2.1598757997016031      31.672017177822404
   251   7     0.17355711304619792      4.3461046455868235      31.626350863987373
   252   7      2.6823964820709403      4.3251343094535102      31.565263917166913
   253   7      5.1537279212565572      4.3239091163644137      31.586187734431004
   254   7      7.6691078230440022      4.3432985010187446      31.624655198291865
   255   1      10.170162187586405      4.2807712435241916      31.627583739899137
   256   7      1.3427689808590315      6.5769886732506979      31.535113160816511
   257   6      3.8020860706365447      6.5175085503956218      31.590920488026182
   258   7      6.3562628663774712      6.5109876377887526      31.612939187976764
   259   4      8.8279579888949229      6.4821381558347761      31.668736945059869
   260   7      11.339342787605831       6.480239909842858      31.678179802580939
   261   7     0.18636304142973031      8.7456254878986783      31.644130276077625
   262   7      2.6830871069893414      8.7824621149520556      31.475610461951181
   263   1      5.1183879938852339      8.7676132774786684      31.404478686391673
   264   7      7.5960458696006645      8.5917299451335918      31.620245928118134
   265   6      10.121960630886001       8.656274735413545      31.579893891492862
   266   7       1.541520939296811       10.87817531529285      31.562316725798581
   267   4      3.9135955309562331      11.274181811490386      30.883756788569595
   268   7      6.2696252276499935      10.780850648133221      31.581594834543484
   269   7      8.7751549251748919      10.796465687498387      31.741152559429928
   270   7      11.404003978796872      10.894780013402382      31.674635709515687
   271   7       1.412847866710603      0.9338628926924798      33.750837099379623
   272   7      3.8712886563978719     0.99882564540540841      33.893145879036716
   273   7      6.4101123601388252       1.012797983504427      33.902686809343898
   274   7      8.7854839184827931     0.90916897032143229      33.827361499571872
   275   4      11.373032921228187     0.80957801809787366      33.709066670029443
   276   7     0.14432800522700207      3.0257704322984544      33.710032354726984
   277   7      2.6224562928332804      3.1065486610016433       33.70871903486907
   278   1       5.197444017815279      3.0240889341339003      33.691237140668584
   279   7      7.7011373834153938      3.0708600859774187       33.74230011258657
   280   7      10.170290922778605      3.0161471598805014      33.755875372828889
   281   7      1.4617086520903466      5.2288617706851284      33.560956380996039
   282   4      3.9137180995151275      5.1769928807459298      33.676226339838344
   283   7      6.3842288692092781      5.1384269460883125      33.662050961336817
   284   5       8.905445731298741      5.1429838468716511      33.691049391702357
   285   4      11.521414828564867      5.2005126447380245      34.018783166562294
   286   7     0.16893995832231243      7.3608707846728967      33.613991392724202
   287   7      2.6860654783971967      7.4009202287395279      33.610727513782223
   288   7      5.1882065387478189      7.3349786720004806      33.632694111058171
   289   7      7.6377944457359384      7.2037642639063755      33.711561528957311
   290   7      10.138390164729051      7.2116312067063868      33.690057904026325
   291   7      1.4770823312587003      9.5158552464384609      33.683789749355206
   292   7      3.9958568431487183      9.4970434910812305      33.419323632184629
   293   4        6.46591338346279       9.363676724069137      33.653461133799574
   294   7      8.7875569257393256      9.2800324612184593      33.683687279143918
   295   6       11.27155405018091      9.6545105492080339      33.858923268602098
   296   3     -1.4218394856439316      11.822948152747594      33.355722557954856
   297   6      2.9646625911283695      11.635788790553143      33.685880402189987
   298   2       5.138408934271939      12.326888237923605      34.205194777833185
   299   7       6.943095705535888      11.634816786274417      33.691354369621877
   300   7      9.3342536393739373      11.548184031843393      34.151849463436605
   301   7    0.073632640519046957      1.5629316362351899      35.736632036374445
   302   7       2.493061674520451      1.7818597874919042      35.795261590205868
   303   7      5.1451501292525696       1.747475381137648      35.912214014846583
   304   4      7.6498306673673824      1.6765577178260347      35.911577561129477
   305   7      10.085976619688502      1.5293675000479197      35.759155300600149
   306   4      1.1142054881848551      4.0797827698678653      35.764758590965762
   307   7      3.8733593599998977      3.8075300161425178      35.766516663349002
   308   7      6.4086513697779717      3.7734008989478389      35.788434832856552
   309   7      8.8794142312410678      3.6909963549962077      35.824013897700773
   310   4      11.324607269285927      3.6909217428320216      35.890914628067534
   311   2     0.63942732924321588      6.1876819161939931      35.219275497249335
   312   7      2.6920605028398668      5.9188850031062525      35.574859464435406
   313   7      5.1894019540802097      5.9800184649957258      35.693767415610644
   314   7      7.6543954703093089      5.8598096161539539      35.767706411248973
   315   7      10.119709611233837      5.7580085898287718      35.878154655311569
   316   7      1.4576542209156396      8.0313493519999959      35.649525940628543
   317   7      3.9231519129529357      8.1245395806429901      35.704954749862523
   318   4      6.5306005895956876      8.1620083232426666      35.781180823646444
   319   7      8.9754950771545747      7.9656059944709066      35.752398751366066
   320   7      11.545120002768339      7.6853641887706337      35.762634142422982
   321   6     0.13646809551856454      10.148826449257577      35.947279387243036
   322   7      2.6515737302785687      10.272259045877744      35.785984666063648
   323   6      5.1867867904614267      10.300221059850646      35.555985167152798
   324   7       7.868811148256734      10.393826356332907        35.6902605006877
   325   7      10.228326652390278      9.7385117097696003      36.976662129983175
   326   7      0.4455712764024029       11.68281325383605      33.689159918846961
   327   6      3.8169366233634054      12.611233425248383      36.104545721620077
   328   7      6.3582629946799987      12.577567321810555      35.920957426558758
   329   3      9.5024130250296555       11.36130956136053      36.239274734765857
   330   4      11.166036036297264      12.121220118215419      35.580791436548232
   331   7    -0.13881865945621136   -0.036929920494325266      37.616839511825034
   332   7      2.3768900284186349     0.19438338656998513      38.030742415247722
   333   7      5.1330679021427583      0.2156890352176771      38.109665665467837
   334   7      7.5635184695197308    0.090430461538379608      37.998880501476265
   335   5      9.8132970255199723   -0.050560630894994123       37.43290714463793
   336   7      1.1921450533300055      2.2750302426142106      37.744112434808677
   337   7      3.7456813430925262      2.2607101872264472      37.810985701405187
   338   7      6.4208449621729358      2.2958440613095905      37.884735199511937
   339   7      8.8653243347835442      2.1968604742402071      37.865119719003673
   340   7      11.228420838752314      2.1466418019889768      37.800278304768874
   341   7   -0.019840741061433433       4.302903573518698      37.988054826426207
   342   7      2.4891306930253378      4.3557411495322738      37.742079756618232
   343   7      5.1130907238547634      4.4514663936505494      37.786199744106938
   344   7      7.6426626289500472      4.4683733787340945      37.870096200320525
   345   4      10.032101936282432      4.3537533819097662       37.91050868733268
   346   7       1.061568021688061      6.3216295391061221      37.260111481124326
   347   6      3.7458037221295095      6.4905445495621015      37.732797785114812
   348   6      6.4368220708378985      6.6833891537414978      37.796264179843639
   349   7      8.9238069940134412      6.6589100617144874      37.868400451146186
   350   7      11.272863751076718       6.473314669662134      37.994345127406881
   351   7   -0.017908070835495001      8.6319584453423435      37.871579171323518
   352   6      2.4923869456659653      8.7412151414485386      37.746665344316682
   353   7      5.0734006083035981      8.7473737101455971      37.821073715832249
   354   7      7.8764599321207287      8.9699653247861306      37.768523815647342
   355   3      10.246014098529018      7.8200968641808366      37.194521042817385
   356   4      1.3257572062770435      12.407349247956308      35.847755922723884
   357   7      3.8034748778531116      10.886512488462323      37.935353325825858
   358   6      6.3632558944531405       10.88639355573144      37.771077522477817
   359   2      8.5609196255750746      11.108742593806323      37.444254536844824
   360   7      13.811432462104085       10.94954252784399      37.919736933545707
   361   8      2.4978906682913737      6.5793130086022842      39.334281172374702
   362   8      2.6704738599941713      7.0268852287729313      39.984082811025246
