# Hastelloy N slab + 1H at fcc_hollow — Notebook 06

361 atoms
8 atom types

0.0  12.4479077760  xlo xhi
0.0  12.9362452296  ylo yhi
0.0  52.3600831054  zlo zhi

Masses

1  26.9815  # Al
2  10.811  # B
3  12.011  # C
4  51.9961  # Cr
5  55.845  # Fe
6  95.96  # Mo
7  58.6934  # Ni
8  1.008  # H

Atoms # atomic

1  7  1.3660886857  0.4127282032  14.7778498687
2  7  3.8948488823  0.5785068100  14.8302142171
3  7  6.4427373715  0.5501398995  14.7849653846
4  4  8.9566370883  0.3821267746  15.0050483748
5  7  11.3409460969  0.4573951861  14.8569263688
6  4  0.3131714814  2.6495217470  14.9242051316
7  7  2.6653881869  2.6954168046  14.8012833427
8  1  5.1754332713  2.6847862655  14.6762022177
9  7  7.6844358063  2.7245584709  14.7858552838
10  6  10.1191852886  2.7154350642  14.9140535989
11  7  1.4182487027  4.9592676138  15.0355295619
12  7  3.8489022967  4.7762716369  14.8789708424
13  7  6.4363872094  4.8140060576  14.7880945200
14  7  8.9281562533  4.9525466046  14.9366127415
15  7  11.4381369133  4.9302312278  14.9435002897
16  6  0.2159097658  7.2694640783  15.2059554176
17  5  2.8625510080  7.0114402035  15.2825371571
18  2  5.3374289629  7.5202556274  15.4509260099
19  7  7.3138393176  7.0676305294  14.9946073341
20  7  10.1717681124  7.1765694145  15.0730184071
21  7  1.6312770473  9.1476985854  14.8975924158
22  7  4.0856471732  9.0566198857  14.9717274967
23  4  6.4658385855  9.3047539761  15.1601526348
24  7  8.8592631937  9.1075737289  15.0601821280
25  2  11.0267643648  9.0653815348  15.4596339889
26  6  0.1772691294  11.1479023416  14.9049627350
27  7  2.7144259707  11.2961306122  14.8285648337
28  7  5.2196869812  11.2910483945  14.8348799374
29  7  7.7574605375  11.2868894224  14.8702247244
30  7  10.2082674357  11.0710056220  15.0044218365
31  4  0.1302004534  1.2423491281  16.8228673608
32  7  2.6002497640  1.2707166050  16.8719582441
33  7  5.1358189679  1.2897697261  16.8641552894
34  6  7.7052463750  1.3324692746  16.9270869738
35  7  10.1783326396  1.2355549865  17.0073933446
36  7  1.4341933370  3.4408181295  17.0066709809
37  7  3.9077433117  3.3688091170  16.8957187976
38  7  6.3942803661  3.4380873258  16.8448384757
39  7  8.9095299484  3.5244448702  16.9335089145
40  6  11.4213720439  3.4775484626  17.0922596763
41  7  0.2307718735  5.6288144986  17.0858947253
42  7  2.6999791320  5.5226082142  17.1496323949
43  6  5.1951711377  5.6409108541  16.7377349695
44  7  7.7113564655  5.6358755274  17.0033808771
45  7  10.1701978275  5.6605515611  17.0406305227
46  4  1.4268361806  7.6722738372  17.3644156332
47  4  3.9121546694  7.6793495238  17.1854023309
48  7  6.4678356005  7.7827491937  17.1504843555
49  7  8.8829964883  7.7158157921  17.1553877346
50  7  11.3155080332  7.7468804754  17.1969258242
51  7  0.1272872509  9.6859672500  16.8442035367
52  7  2.6746026568  9.7519228913  16.9929245234
53  7  5.1399180858  9.8452375089  17.0391060257
54  7  7.7212113513  9.8860564416  17.0892447304
55  7  10.1194426033  9.8032324941  17.1285234467
56  4  1.3451999440  11.8308982065  16.9564530699
57  6  3.8566935888  12.0157264004  16.9292822799
58  6  6.4621474317  12.0031374721  16.8987675748
59  7  8.9530997531  11.9794401191  17.0547961192
60  7  11.3913466286  12.0014414146  16.9982994058
61  3  1.3443836250  0.4521296890  18.0728021561
62  7  2.6182361685  -0.2226042949  19.1975965462
63  7  5.1608721291  -0.1789416103  19.0321313975
64  4  7.7298401242  -0.1809982969  19.1919110546
65  7  10.1214197541  -0.1718117893  19.1079326953
66  7  1.2609011533  1.9474243688  19.1385088500
67  1  3.8558614860  1.8901735236  19.0008862850
68  7  6.3391952327  1.9375763113  18.9629371893
69  7  8.8763492112  1.9835428511  19.0681859123
70  7  11.3104593862  1.9740991757  19.1393410689
71  7  0.2102227381  4.2044059061  19.2382136262
72  7  2.6594829786  4.0242561124  19.0903938166
73  4  5.0747439355  4.2029402596  18.9237204972
74  6  7.5488740376  4.1133413786  18.9955831098
75  7  10.1033980676  4.2174417255  19.0609670440
76  5  1.5315998090  6.2342810961  19.1777907625
77  4  3.9486301697  6.1890283177  19.3484231645
78  4  6.4915319903  6.3304247411  19.2101694267
79  4  9.0541387194  6.4003424304  19.1764414516
80  7  11.5767547595  6.3491928323  19.0634894168
81  7  0.4486254223  8.3431033807  20.0660909014
82  7  2.7320926224  8.4537594439  19.2149962609
83  6  5.2526356303  8.4980665721  19.2560507886
84  7  7.7717620592  8.5159081295  19.2219433990
85  4  10.3283910626  8.3385621638  19.4882527342
86  7  1.4621281624  10.4686848504  19.1659994640
87  7  3.9025565193  10.6441339739  19.0620412248
88  7  6.4657152928  10.6840949194  19.1140720390
89  7  8.9822866765  10.5841721845  19.1901950327
90  7  11.5142496975  10.4330242514  18.9703421542
91  4  1.2483893810  0.2661947085  21.5185122835
92  7  3.8202799458  0.5304857683  21.1481523111
93  7  6.3671279852  0.5707783785  21.0800301381
94  5  8.8607419655  0.6773822905  21.1291850033
95  4  11.3318504536  0.7576622576  21.2107479980
96  7  0.1023089618  2.8451613135  21.2088551140
97  7  2.5198207304  2.5862401120  21.1016644154
98  7  5.0252843651  2.6849858118  21.0347084721
99  7  7.5039415826  2.7454387777  21.0873818546
100  7  10.0585799813  2.8628449885  21.1068527141
101  7  1.8868035546  4.8946117909  21.1989754809
102  2  3.8196925074  4.3195087191  20.7657870080
103  7  5.9244813342  4.9311128018  21.1313312243
104  7  8.5568660377  4.9093090064  21.0922418789
105  7  11.0674670820  5.2557019314  21.0701342188
106  7  -1.1023396201  7.8259215778  21.9522064314
107  7  2.6185774712  7.1925669881  21.2039690306
108  7  5.1502971954  7.1876387896  21.3068028508
109  4  7.6589732661  7.0691267501  21.2929675837
110  3  9.7704013101  6.9452956750  21.0240396746
111  2  1.9743998906  9.1400987039  21.1380392301
112  7  3.9509405985  9.2886228932  21.2630871635
113  7  6.4948923474  9.3059243254  21.3087635336
114  6  9.0659269404  9.0482319511  21.5144737255
115  3  11.3983556033  9.4266528682  20.7139951194
116  7  0.0999266730  12.6403107226  19.3307453355
117  4  2.5481925494  11.3116211015  21.1730838791
118  7  5.1094071082  11.3929533125  21.1240035481
119  7  7.7808540739  11.3681122082  21.1850014559
120  6  10.5409884402  11.3351545328  21.1059296944
121  7  0.1596039559  1.5486310073  23.3126591821
122  7  2.5715832880  1.3826763482  23.2343363752
123  7  5.0434109184  1.3516187996  23.2471324292
124  7  7.5741322252  1.3738856602  23.1838605115
125  6  10.1847886146  1.5099469313  23.2495892458
126  7  1.2611529424  3.6643210366  23.2062431142
127  6  3.7204019687  3.6184913333  23.0414161179
128  7  6.2057797767  3.5549797129  23.1374401541
129  7  8.8279019821  3.6720201936  23.1223041438
130  7  11.2529276115  3.8386975576  23.1405517112
131  7  0.1172614685  5.8753046446  22.9815921727
132  7  2.5914564555  5.8419088461  23.2664540503
133  1  5.0329032198  5.8793034800  23.3596432287
134  7  7.4072962740  5.6874166280  23.2428575685
135  7  10.0115029751  4.4742862408  25.1715198831
136  7  1.2935959990  7.9710742574  22.9749186124
137  7  3.8193525600  7.9236106070  23.3264568376
138  7  6.4105713271  7.9029977427  23.3154642801
139  7  7.4219804174  8.7236588797  25.3844329127
140  6  9.8500633771  6.1014671116  23.0216787622
141  6  0.2425871188  10.0905452938  22.2461687415
142  7  2.5980609497  10.0121915343  23.2004013180
143  7  5.1278884708  10.0197281127  23.2993866434
144  7  7.7000832108  9.9820453433  23.3975763441
145  7  10.4444141444  9.9642148523  23.4657038190
146  2  1.6347666253  11.9202508138  23.1835091432
147  7  3.7502684491  12.1447308352  23.2055105257
148  6  6.3904960789  12.1085653184  23.1486706071
149  6  9.1017232252  12.0847868585  23.2580446113
150  7  11.8343312488  12.2108485013  23.2591608474
151  7  0.0364416566  0.1720798158  25.4179147479
152  7  2.4548244338  0.0549408573  25.2010563529
153  1  4.9124700735  0.0130614461  25.3458700887
154  7  7.4763050451  0.0485455489  25.3203912824
155  7  10.0589738595  0.0691761846  25.3806426275
156  7  1.3306700675  2.2857399622  25.3431555979
157  7  3.7739155622  2.2362860556  25.2857115787
158  4  6.2202608657  2.2324293688  25.2839817922
159  3  7.5910729810  2.9662822673  24.2410553906
160  7  11.3201107579  2.3486104760  25.3162921550
161  7  0.0792839833  4.4807355423  25.1800950171
162  7  2.5469228058  4.4060061596  25.2476232529
163  7  4.9853489473  4.3528603737  25.2526073793
164  7  7.5284622582  4.4204863911  25.4029887300
165  7  8.8340966986  2.1828584863  25.3504046311
166  7  1.2764625393  6.6122382299  25.1154586776
167  7  3.7337603994  6.5756027328  25.3888116470
168  7  6.2228639180  6.5454076047  25.4121131833
169  7  8.6901964426  6.5039803594  25.1954846269
170  7  11.2650638941  6.6216538597  24.9799238385
171  7  0.0133482722  8.8607421224  24.7657167986
172  7  2.4342451019  8.7041728714  25.2580402868
173  7  4.9807985365  8.6906636092  25.3626879570
174  3  8.7794078093  7.9061334123  26.3406630583
175  7  10.1911436711  8.7453085156  25.4854350258
176  7  1.1727094019  10.9911230851  24.8762372377
177  7  3.7125048610  10.8028195800  25.3072936047
178  7  6.2358386156  10.8595344216  25.3614589628
179  7  8.8167874865  10.8540318788  25.4426179527
180  7  11.2837934096  10.9024259431  25.5414514651
181  4  1.3012445870  0.9037567826  27.3090807599
182  7  3.7055570766  0.8973019169  27.4040644187
183  7  6.2023812805  0.8642117854  27.3306712778
184  7  8.7506300117  0.7594876799  27.3676908391
185  7  11.2626914237  0.8913663494  27.3793546422
186  7  0.0532888208  3.1000174155  27.3545723656
187  7  2.5027427740  3.0432201380  27.4053422747
188  7  4.9857071360  3.0293096414  27.3706113053
189  7  7.4902178375  2.9256312921  27.3485602327
190  7  9.9904386633  2.9791147862  27.3084571499
191  7  1.2727570421  5.2380334104  27.2611016061
192  7  3.7865230614  5.2077000157  27.3601146201
193  1  6.2893869696  5.0750906970  27.3519015588
194  7  8.7839868859  4.9544158530  27.8320474255
195  5  11.2637460430  5.1143979430  27.1227526841
196  7  0.0407821783  7.3737039018  27.0132702435
197  7  2.4821702826  7.3906031916  27.3565110284
198  5  5.0026053095  7.3736846305  27.4160769867
199  5  7.3940778832  7.2986083970  27.5230276180
200  5  10.0959151458  6.9774180391  27.3536361401
201  7  1.2025260749  9.5868482663  27.1645193023
202  7  3.6859078819  9.5004699425  27.3764490754
203  7  6.1708118996  9.5162910960  27.4763022623
204  6  8.7417217060  9.4828210410  27.6146939928
205  7  11.2708211329  9.2551391800  27.7902979057
206  7  0.0327338651  11.7041974631  27.4372618718
207  7  2.4787506388  11.7036483688  27.3214781706
208  7  4.9465151824  11.6336554376  27.4282879732
209  7  7.4558277719  11.6541327965  27.4171942712
210  4  10.0323654430  11.6377275758  27.4903982071
211  6  -0.0168728077  1.7709915473  29.4498266560
212  4  2.5316786919  1.7186267982  29.4795536127
213  7  4.9883863228  1.7160579874  29.4287094752
214  7  7.4728298557  1.5934092148  29.3652369944
215  7  9.9209994968  1.6239536261  29.3613004850
216  7  1.2132368814  3.9308162186  29.3918223641
217  7  3.7273500204  3.8647379782  29.4602549120
218  7  6.5183106136  3.8470532375  29.4478151858
219  2  8.7262430258  3.2636123135  28.9954416519
220  7  10.8794951495  3.9368418265  29.3560231221
221  6  -0.2385763312  6.1154590163  29.1872433749
222  7  2.4198518210  6.0293142041  29.3844541472
223  6  5.0187433228  6.0006616978  29.4920501198
224  7  7.5675906075  6.0851298692  29.5440156521
225  6  8.7370230780  6.7040714598  31.5209520763
226  7  1.0516438513  8.2336620111  29.3130733715
227  7  3.6499747940  8.1657243447  29.4405931468
228  7  6.1981245001  8.2046668804  29.4938821241
229  7  9.6745931760  7.8053805886  29.4586316933
230  2  11.4226489667  8.6545600880  29.8524353911
231  7  0.0293474599  10.4073225805  29.5210455968
232  5  2.4680920460  10.3198345978  29.3649950323
233  4  4.8815230571  10.2929576506  29.4408754777
234  7  7.4323774422  10.3298240021  29.5084316942
235  7  10.0148347168  10.2978954241  29.6085294469
236  7  1.2813849913  12.5251447159  29.4295112844
237  7  3.7260655238  12.4609509916  29.4311986122
238  4  6.1707462566  12.4572983943  29.4123482028
239  7  8.7036653567  12.3796659789  29.4477300454
240  7  11.2142104925  12.4589207165  29.4734007783
241  7  0.0189036664  0.3231181958  31.5120893805
242  7  2.4954258188  0.3336252705  31.4803059405
243  7  4.9264671028  0.3344592815  31.4782032193
244  7  7.4811610016  0.3326929493  31.4622754292
245  7  9.9401280011  0.3419047691  31.4536489195
246  7  1.2574387250  2.5235920489  31.4922687763
247  7  3.6810334808  2.4919270823  31.5448787797
248  7  6.1564672738  2.4833237571  31.4891078089
249  6  8.6700486945  2.6144511455  31.3296784061
250  7  11.1832813974  2.5116159889  31.4813248344
251  7  -0.0445770719  4.7010504881  31.3609614979
252  7  2.4457980069  4.6306902604  31.5007010119
253  7  4.9329770778  4.6040527157  31.5574846329
254  7  7.3938017692  4.6701202381  31.6123760814
255  7  9.9935232364  4.6683861666  31.5366142508
256  7  1.2391447663  6.7998188791  31.4236790865
257  7  3.6640026198  6.7658939709  31.5144415464
258  7  6.1546871553  6.7943207800  31.5595645110
259  3  8.6980161174  8.3221171335  32.6800676871
260  7  11.2236676245  6.8932352588  31.2739510820
261  7  0.0646475536  9.0283175691  31.5005391753
262  7  2.4596730230  8.9311557047  31.5056924966
263  7  4.9212882969  8.9289114088  31.5060433086
264  7  7.4178220245  8.9236743053  31.4833197183
265  7  10.0740116774  9.0256574395  31.6367427108
266  7  1.2644634535  11.1246945065  31.5240562401
267  7  3.6755907109  11.0799382353  31.4771597720
268  6  6.2187019887  11.1003324095  31.5707690840
269  7  8.7399361254  11.1227075127  31.5860902325
270  7  11.2647562962  11.1958419163  31.6397131370
271  7  1.2499174544  1.0557264593  33.5024012707
272  7  3.6825327392  1.1240844091  33.6605824408
273  6  6.2453642060  1.0809912758  33.5380034979
274  7  8.7352495568  1.0876816074  33.5317556268
275  7  11.1822421091  1.0813517480  33.4900863348
276  7  -0.0551087991  3.3108669318  33.5196678935
277  7  2.4173065096  3.2372117229  33.6585742905
278  7  4.9456311026  3.2411327383  33.6583102241
279  7  7.4572723231  3.2349301017  33.5931804724
280  7  9.9028608378  3.2481274083  33.5767102096
281  7  1.2048906544  5.3916227419  33.5739400232
282  7  3.6555696808  5.3878984366  33.5678002509
283  7  6.2078829421  5.3686739213  33.6455029646
284  4  8.7046716992  5.3201767853  33.6870661691
285  4  11.1248162047  5.3936668934  33.4763716965
286  6  -0.0645886639  7.5639022078  33.4917114101
287  4  2.4786920867  7.5163517566  33.5937716040
288  7  4.9098796811  7.5067000110  33.5823524860
289  7  7.4141587134  7.4913669612  33.7503179477
290  5  9.9344034398  7.4656466275  33.8027429756
291  7  1.2430258306  9.7163052801  33.6070126190
292  7  3.6803612072  9.6363525402  33.5730424298
293  7  6.1661128363  9.6436436957  33.6411039594
294  7  8.6971323277  9.7842096582  33.7153929608
295  7  11.2656420883  9.7907639072  33.6645907205
296  3  -0.0604410472  13.1120977445  34.4955459232
297  7  2.3900285897  11.8596312016  33.5962699002
298  6  4.8453067021  11.8181467833  33.6649927917
299  7  7.4908239191  11.8479146086  33.6657688607
300  7  9.9816898036  11.9206197371  33.6316280549
301  6  -0.0109311590  1.9542764685  35.6232956991
302  7  2.4953558369  1.8423860617  35.8408340713
303  6  5.0123832816  1.8523321649  35.8177037299
304  7  7.4621207018  1.8114021706  35.7377710609
305  7  9.8960549763  1.8383842045  35.6807992925
306  4  1.2643373521  4.0693609924  35.6783804400
307  7  3.6730413464  4.0021283546  35.6368761433
308  7  6.2632042190  3.9897152173  35.6801690525
309  7  8.6689095256  3.9618188350  35.7294090104
310  7  11.1169801133  4.0608070148  35.6088139706
311  7  -0.0175880989  6.1002286863  35.6527896120
312  7  2.4605966585  6.1540811334  35.6609924051
313  7  4.9516001321  6.1026348081  35.6401733956
314  7  7.5106196728  6.1246179055  35.7434655445
315  1  9.9408779115  6.1155346208  35.8784504688
316  7  1.1997789646  8.2462248893  35.6306629280
317  7  3.7165537097  8.2231266588  35.6606246095
318  7  6.1941213011  8.2883146848  35.7557095272
319  5  8.6715680313  8.2497304605  35.8341176276
320  7  11.1997677737  8.2076111993  35.7472643623
321  7  0.0215349636  10.3627461772  35.8083160254
322  7  2.5159591556  10.3324224015  35.6473448323
323  7  4.9372130121  10.3919343226  35.7781611164
324  1  7.3638607824  10.4367495317  35.7667852777
325  6  10.0132125496  10.4101167076  35.7329090500
326  6  1.2871595762  12.4634441978  35.8581752861
327  7  3.7566742629  12.6057501793  35.7702903982
328  7  6.2233987966  12.5808411869  35.7215976608
329  7  8.6877562122  12.5933141752  35.7116200797
330  7  11.1608454779  12.5848399767  35.8267705194
331  7  -0.0304147949  0.4418278053  37.9083809942
332  7  2.4346340993  0.4268902531  37.9117551859
333  7  4.9396120082  0.3601679449  37.8975604066
334  4  7.4294070894  0.3764858313  37.6672490505
335  5  9.8342432995  0.3843953751  37.7497170478
336  7  1.2499169565  2.6334612366  37.7964467391
337  5  3.7299863008  2.5899989168  37.8763071136
338  7  6.1850176013  2.5750937120  37.9331852883
339  7  8.6064195759  2.4478889261  37.8592531788
340  6  11.1231144737  2.5798183497  37.7278602868
341  7  -0.0265617800  4.6702002258  37.6638095338
342  7  2.5206757498  4.6853785436  37.7062809433
343  4  4.9355184516  4.5450937934  37.5543068672
344  7  7.4108672666  4.6467900851  37.7685161302
345  7  9.9017302665  4.6918531948  37.8512625321
346  7  1.2535151860  6.8473379437  37.7054143231
347  7  3.7227036840  6.7797584742  37.7860077435
348  6  6.2066092009  6.8476997877  37.7160728369
349  7  8.6637982690  6.8701178330  37.9169510026
350  7  11.2744963951  6.8255432769  37.8242435307
351  7  0.0468832764  8.9377842341  37.8336047497
352  4  2.4898448225  8.8889569888  37.5737472281
353  7  4.8620581291  8.9760441430  37.9226222303
354  7  7.4135856323  9.0644671789  37.9172876013
355  6  9.9702866404  9.0210842647  37.8076740972
356  7  1.2065456182  10.9932684065  37.9093776430
357  6  3.6561671007  11.1691987281  37.7661024217
358  7  6.1915712661  11.1899316590  37.8762959867
359  5  8.6447675030  11.2368493649  37.8768454657
360  7  11.1645423513  11.2314348089  37.9351765011
361  8  4.7685041309  4.6670641805  39.6754801426
