LAMMPS data file via write_data, version 11 Feb 2026, timestep = 156, units = metal

361 atoms
8 atom types

0 12.447907776 xlo xhi
0 12.9362452296 ylo yhi
0 52.3600831054 zlo zhi

Masses

1 26.9815
2 10.811
3 12.011
4 51.9961
5 55.845
6 95.95999999999999
7 58.6934
8 1.008

Atoms # atomic/kk

1 7 1.3660886857 0.4127282032 14.7778498687 0 0 0
2 7 3.8948488823 0.57850681 14.8302142171 0 0 0
6 4 0.3131714814 2.649521747 14.9242051316 0 0 0
7 7 2.6653881869 2.6954168046 14.8012833427 0 0 0
3 7 6.4427373715 0.5501398995 14.7849653846 0 0 0
8 1 5.1754332713 2.6847862655 14.6762022177 0 0 0
9 7 7.6844358063 2.7245584709 14.7858552838 0 0 0
5 7 11.3409460969 0.4573951861 14.8569263688 0 0 0
10 6 10.1191852886 2.7154350642 14.9140535989 0 0 0
12 7 3.8489022967 4.7762716369 14.8789708424 0 0 0
13 7 6.4363872094 4.8140060576 14.78809452 0 0 0
14 7 8.9281562533 4.9525466046 14.9366127415 0 0 0
15 7 11.4381369133 4.9302312278 14.9435002897 0 0 0
21 7 1.6312770473 9.1476985854 14.8975924158 0 0 0
26 6 0.1772691294 11.1479023416 14.904962735 0 0 0
27 7 2.7144259707 11.2961306122 14.8285648337 0 0 0
28 7 5.2196869812 11.2910483945 14.8348799374 0 0 0
29 7 7.7574605375 11.2868894224 14.8702247244 0 0 0
31 4 0.1302004534 1.2423491281 16.8228673608 0 0 0
32 7 2.600249764 1.270716605 16.8719582441 0 0 0
36 7 1.434193337 3.4408181295 17.0066709809 0 0 0
37 7 3.9077433117 3.368809117 16.8957187976 0 0 0
61 3 1.344383625 0.452129689 18.0728021561 0 0 0
33 7 5.1358189679 1.2897697261 16.8641552894 0 0 0
34 6 7.705246375 1.3324692746 16.9270869738 0 0 0
38 7 6.3942803661 3.4380873258 16.8448384757 0 0 0
4 4 8.9566370883 0.3821267746 15.0050483748 0 0 0
35 7 10.1783326396 1.2355549865 17.0073933446 0 0 0
39 7 8.9095299484 3.5244448702 16.9335089145 0 0 0
40 6 11.4213720439 3.4775484626 17.0922596763 0 0 0
11 7 1.4182487027 4.9592676138 15.0355295619 0 0 0
16 6 0.2159097658 7.2694640783 15.2059554176 0 0 0
17 5 2.862551008 7.0114402035 15.2825371571 0 0 0
41 7 0.2307718735 5.6288144986 17.0858947253 0 0 0
42 7 2.699979132 5.5226082142 17.1496323949 0 0 0
46 4 1.4268361806 7.6722738372 17.3644156332 0 0 0
47 4 3.9121546694 7.6793495238 17.1854023309 0 0 0
18 2 5.3374289629 7.5202556274 15.4509260099 0 0 0
19 7 7.3138393176 7.0676305294 14.9946073341 0 0 0
43 6 5.1951711377 5.6409108541 16.7377349695 0 0 0
44 7 7.7113564655 5.6358755274 17.0033808771 0 0 0
48 7 6.4678356005 7.7827491937 17.1504843555 0 0 0
20 7 10.1717681124 7.1765694145 15.0730184071 0 0 0
45 7 10.1701978275 5.6605515611 17.0406305227 0 0 0
49 7 8.8829964883 7.7158157921 17.1553877346 0 0 0
50 7 11.3155080332 7.7468804754 17.1969258242 0 0 0
22 7 4.0856471732 9.0566198857 14.9717274967 0 0 0
51 7 0.1272872509 9.68596725 16.8442035367 0 0 0
52 7 2.6746026568 9.7519228913 16.9929245234 0 0 0
56 4 1.345199944 11.8308982065 16.9564530699 0 0 0
57 6 3.8566935888 12.0157264004 16.9292822799 0 0 0
23 4 6.4658385855 9.3047539761 15.1601526348 0 0 0
53 7 5.1399180858 9.8452375089 17.0391060257 0 0 0
54 7 7.7212113513 9.8860564416 17.0892447304 0 0 0
58 6 6.4621474317 12.0031374721 16.8987675748 0 0 0
24 7 8.8592631937 9.1075737289 15.060182128 0 0 0
25 2 11.0267643648 9.0653815348 15.4596339889 0 0 0
30 7 10.2082674357 11.071005622 15.0044218365 0 0 0
55 7 10.1194426033 9.8032324941 17.1285234467 0 0 0
59 7 8.9530997531 11.9794401191 17.0547961192 0 0 0
60 7 11.3913466286 12.0014414146 16.9982994058 0 0 0
66 7 1.2609011533 1.9474243688 19.13850885 0 0 0
67 1 3.855861486 1.8901735236 19.000886285 0 0 0
71 7 0.2102227381 4.2044059061 19.2382136262 0 0 0
72 7 2.6594829786 4.0242561124 19.0903938166 0 0 0
91 4 1.248389381 0.2661947085 21.5185122835 0 0 0
92 7 3.8202799458 0.5304857683 21.1481523111 0 0 0
96 7 0.1023089618 2.8451613135 21.208855114 0 0 0
97 7 2.5198207304 2.586240112 21.1016644154 0 0 0
68 7 6.3391952327 1.9375763113 18.9629371893 0 0 0
73 4 5.0747439355 4.2029402596 18.9237204972 0 0 0
74 6 7.5488740376 4.1133413786 18.9955831098 0 0 0
93 7 6.3671279852 0.5707783785 21.0800301381 0 0 0
98 7 5.0252843651 2.6849858118 21.0347084721 0 0 0
99 7 7.5039415826 2.7454387777 21.0873818546 0 0 0
69 7 8.8763492112 1.9835428511 19.0681859123 0 0 0
70 7 11.3104593862 1.9740991757 19.1393410689 0 0 0
75 7 10.1033980676 4.2174417255 19.060967044 0 0 0
94 5 8.8607419655 0.6773822905 21.1291850033 0 0 0
95 4 11.3318504536 0.7576622576 21.210747998 0 0 0
100 7 10.0585799813 2.8628449885 21.1068527141 0 0 0
76 5 1.531599809 6.2342810961 19.1777907625 0 0 0
77 4 3.9486301697 6.1890283177 19.3484231645 0 0 0
81 7 0.4486254223 8.3431033807 20.0660909014 0 0 0
82 7 2.7320926224 8.4537594439 19.2149962609 0 0 0
101 7 1.8868035546 4.8946117909 21.1989754809 0 0 0
102 2 3.8196925074 4.3195087191 20.765787008 0 0 0
107 7 2.6185774712 7.1925669881 21.2039690306 0 0 0
78 4 6.4915319903 6.3304247411 19.2101694267 0 0 0
83 6 5.2526356303 8.4980665721 19.2560507886 0 0 0
84 7 7.7717620592 8.5159081295 19.221943399 0 0 0
103 7 5.9244813342 4.9311128018 21.1313312243 0 0 0
108 7 5.1502971954 7.1876387896 21.3068028508 0 0 0
109 4 7.6589732661 7.0691267501 21.2929675837 0 0 0
79 4 9.0541387194 6.4003424304 19.1764414516 0 0 0
80 7 11.5767547595 6.3491928323 19.0634894168 0 0 0
85 4 10.3283910626 8.3385621638 19.4882527342 0 0 0
104 7 8.5568660377 4.9093090064 21.0922418789 0 0 0
105 7 11.067467082 5.2557019314 21.0701342188 0 0 0
106 7 11.345568155899999 7.8259215778 21.9522064314 -1 0 0
110 3 9.7704013101 6.945295675 21.0240396746 0 0 0
62 7 2.6182361685 12.7136409347 19.1975965462 0 -1 0
86 7 1.4621281624 10.4686848504 19.165999464 0 0 0
87 7 3.9025565193 10.6441339739 19.0620412248 0 0 0
111 2 1.9743998906 9.1400987039 21.1380392301 0 0 0
112 7 3.9509405985 9.2886228932 21.2630871635 0 0 0
116 7 0.099926673 12.6403107226 19.3307453355 0 0 0
117 4 2.5481925494 11.3116211015 21.1730838791 0 0 0
141 6 0.2427549766739993 10.090690420391546 22.246005800597697 0 0 0
63 7 5.1608721291 12.7573036193 19.0321313975 0 -1 0
64 4 7.7298401242 12.7552469327 19.1919110546 0 -1 0
88 7 6.4657152928 10.6840949194 19.114072039 0 0 0
113 7 6.4948923474 9.3059243254 21.3087635336 0 0 0
118 7 5.1094071082 11.3929533125 21.1240035481 0 0 0
119 7 7.7808540739 11.3681122082 21.1850014559 0 0 0
65 7 10.1214197541 12.764433440300001 19.1079326953 0 -1 0
89 7 8.9822866765 10.5841721845 19.1901950327 0 0 0
90 7 11.5142496975 10.4330242514 18.9703421542 0 0 0
114 6 9.0659269404 9.0482319511 21.5144737255 0 0 0
115 3 11.3983556033 9.4266528682 20.7139951194 0 0 0
120 6 10.5409884402 11.3351545328 21.1059296944 0 0 0
121 7 0.15969501533458008 1.5487195083855407 23.3129723102871 0 0 0
122 7 2.57176210244142 1.3829444863319518 23.23393386550514 0 0 0
126 7 1.2613096093279572 3.6643213175742573 23.206302277054125 0 0 0
127 6 3.7205897442543168 3.6186902174769204 23.041341139548898 0 0 0
151 7 0.03573583217207736 0.1721685695727605 25.41810256506395 0 0 0
152 7 2.4541238142863824 0.05444596143344041 25.1994139343958 0 0 0
156 7 1.3306737302277314 2.2857306899796535 25.3434194260805 0 0 0
157 7 3.7738268789158758 2.2362817177886796 25.28524930628902 0 0 0
123 7 5.043569692124262 1.351629438905492 23.24691258414604 0 0 0
124 7 7.574191699434725 1.3741137026673036 23.183992022182732 0 0 0
128 7 6.205819746264591 3.5549934345851883 23.13749531043138 0 0 0
153 1 4.912169626784392 0.012899783650409906 25.3451748177286 0 0 0
154 7 7.476164174635514 0.04864565766206992 25.32022519045208 0 0 0
158 4 6.220135133683568 2.2325038783656748 25.283942121912474 0 0 0
159 3 7.5911090561808425 2.9666551888441473 24.241397660944006 0 0 0
125 6 10.184946687646576 1.5101956918110642 23.25005243496598 0 0 0
129 7 8.827842190624567 3.671909463463007 23.122270115087705 0 0 0
130 7 11.253044614776078 3.8386955539195693 23.140602552750135 0 0 0
155 7 10.058606259528032 0.06941587017400275 25.38138516149842 0 0 0
160 7 11.319898071945694 2.3485061747230147 25.317368917233487 0 0 0
165 7 8.833692848105107 2.1829667662738266 25.351081715910276 0 0 0
131 7 0.11747679465143437 5.875193971409425 22.98135929142939 0 0 0
132 7 2.5916497586763865 5.841907575055579 23.266486504474194 0 0 0
136 7 1.2935085064830258 7.97110542745169 22.974949295920634 0 0 0
137 7 3.819282641453725 7.923507830016471 23.32651687091148 0 0 0
161 7 0.07943298175098737 4.480150487031589 25.18033807636995 0 0 0
162 7 2.547171259767503 4.405898803624103 25.24778339651761 0 0 0
166 7 1.2764809481398884 6.611620168310975 25.115335632100145 0 0 0
167 7 3.7337620909396847 6.575289753038623 25.38937720802313 0 0 0
133 1 5.033080627551823 5.8794139481305185 23.36014797089725 0 0 0
134 7 7.407354041930671 5.687168019822111 23.243189343773647 0 0 0
138 7 6.4105232076419085 7.902694548167636 23.315481214399625 0 0 0
163 7 4.985449582777202 4.352931926520145 25.25313508132984 0 0 0
164 7 7.528116625424739 4.420288689149839 25.40415023687198 0 0 0
168 7 6.2229541738806065 6.545013891749485 25.413239683416986 0 0 0
135 7 10.0113064396813 4.473520702136846 25.17131462634374 0 0 0
140 6 9.850031141919905 6.101362011306769 23.021548957359244 0 0 0
169 7 8.690241761338125 6.502989214297227 25.19536347150615 0 0 0
170 7 11.26516520260249 6.620674185806978 24.979705115808823 0 0 0
142 7 2.5980040389704806 10.012197108726568 23.200385775081074 0 0 0
146 2 1.634952799326371 11.920621597345775 23.184128174606926 0 0 0
147 7 3.750556520464155 12.144601439111417 23.20502798533536 0 0 0
171 7 0.012762686785392314 8.860075344078371 24.765843806409375 0 0 0
172 7 2.433877672194005 8.703503841631335 25.25778343812188 0 0 0
176 7 1.1719415674328872 10.990553940917255 24.87622075687139 0 0 0
177 7 3.7124291454351352 10.802204374967125 25.306519644898675 0 0 0
139 7 7.421725911175166 8.722966306568606 25.384067156664063 0 0 0
143 7 5.127967096642668 10.019469197990444 23.299273158001 0 0 0
144 7 7.700061241865667 9.98186833542873 23.397377859623553 0 0 0
148 6 6.3907096579081735 12.108508338498138 23.148595856400142 0 0 0
173 7 4.980679409085087 8.690002718001596 25.36271833361525 0 0 0
178 7 6.235851993577695 10.859097747264709 25.360957639751994 0 0 0
145 7 10.44452076216246 9.964467747775904 23.46479648124995 0 0 0
149 6 9.101924080558968 12.085169242053656 23.257984466927812 0 0 0
150 7 11.834488881381711 12.210974326005951 23.259072816604903 0 0 0
175 7 10.189596651679897 8.74413728502098 25.48275261796104 0 0 0
179 7 8.816521390336073 10.853998214767069 25.441688011067928 0 0 0
180 7 11.282833788364746 10.901792829704352 25.540694354128778 0 0 0
181 4 1.3008139604763755 0.903767401067112 27.308581958613914 0 0 0
182 7 3.704975867251523 0.896969865252845 27.402471204713624 0 0 0
186 7 0.0534237473016546 3.099715232978735 27.355923009661062 0 0 0
187 7 2.5029712556947277 3.0432309772916373 27.405715723556128 0 0 0
212 4 2.5312985725807966 1.7183402930055482 29.479115160937013 0 0 0
216 7 1.2141012317963233 3.930410769472377 29.393598132118743 0 0 0
217 7 3.7274835229050005 3.8648357007030016 29.46208778719274 0 0 0
183 7 6.202095627358984 0.8642042304761579 27.330176368470195 0 0 0
188 7 4.985495574096917 3.029453502729262 27.37045664140479 0 0 0
189 7 7.489797749750064 2.9260495903413015 27.34995991454686 0 0 0
213 7 4.987363203037559 1.7160559513481435 29.426807373975063 0 0 0
214 7 7.472059349373471 1.5931492252612358 29.366109257909045 0 0 0
218 7 6.5180586338911795 3.846787630466004 29.45019481595095 0 0 0
184 7 8.750351576019334 0.7598547488908994 27.368612463897364 0 0 0
185 7 11.262325342785996 0.8918866173948516 27.380956861380902 0 0 0
190 7 9.989515990120903 2.9790597594711867 27.309770796081327 0 0 0
211 6 12.430985664104346 1.771199792229062 29.451825432055347 -1 0 0
215 7 9.919488017718583 1.62518836950921 29.364210407499723 0 0 0
219 2 8.724909059277051 3.2634407747828744 28.998145398096213 0 0 0
220 7 10.880947367461921 3.9365215729448733 29.355754326131304 0 0 0
191 7 1.2731331721246542 5.237198294918273 27.26146116353162 0 0 0
192 7 3.7867605391766292 5.207661102642119 27.361495076677482 0 0 0
196 7 0.040918289670605804 7.372710715084103 27.01298302315362 0 0 0
197 7 2.48197743190895 7.389713788360016 27.35703644881569 0 0 0
222 7 2.419732237171242 6.028384338286267 29.386254580518525 0 0 0
226 7 1.0506023641959055 8.232559988764715 29.311986420335643 0 0 0
227 7 3.6489182441268913 8.164221985371912 29.441393612821724 0 0 0
193 1 6.2892726903499705 5.075313195110707 27.35410370410843 0 0 0
198 5 5.002701677635365 7.3728054966945 27.417242052208813 0 0 0
199 5 7.395099103916182 7.298253960171548 27.524348401377036 0 0 0
223 6 5.017468788779698 6.000419565512265 29.495541348219685 0 0 0
224 7 7.5644368318167965 6.084019693581155 29.546223055782974 0 0 0
228 7 6.1969444954461625 8.203549880411563 29.494254681085838 0 0 0
174 3 8.778998360335022 7.905084405836991 26.340191357671937 0 0 0
194 7 8.784449813368061 4.954596085417321 27.836368005690645 0 0 0
195 5 11.263247043940616 5.113562955957379 27.122351116409664 0 0 0
200 5 10.096459448698388 6.977155627327696 27.35252856788588 0 0 0
221 6 12.209954626503487 6.11394023392973 29.186310367416606 -1 0 0
229 7 9.671187021122625 7.804216018717825 29.457138071882945 0 0 0
201 7 1.2018157008305959 9.586241174072148 27.163626866805465 0 0 0
202 7 3.6854322965602955 9.499334605181529 27.37578196448791 0 0 0
206 7 0.031758519083202354 11.704051176223311 27.435908331216044 0 0 0
207 7 2.4778414650928924 11.70303696868685 27.319200655405485 0 0 0
231 7 0.02765635117914405 10.406263692485892 29.51784245937761 0 0 0
232 5 2.4664531490096397 10.318374396453054 29.362364789097956 0 0 0
236 7 1.2797672679971595 12.524787150823768 29.42721468872917 0 0 0
237 7 3.724572471815602 12.459356420735489 29.427602156643996 0 0 0
203 7 6.17056838824301 9.515237994427183 27.475697058750864 0 0 0
208 7 4.946116513369439 11.63264277188484 27.4266040287105 0 0 0
209 7 7.455714164942725 11.653897123726138 27.41595266154113 0 0 0
233 4 4.880520699561247 10.291365015925436 29.43907391996663 0 0 0
234 7 7.432541340014275 10.328448002421856 29.506475477923264 0 0 0
238 4 6.170346022025312 12.456363044914317 29.409187906900986 0 0 0
204 6 8.741500205223154 9.48278982095276 27.61273108450286 0 0 0
205 7 11.269719849363822 9.254782348703321 27.78687788045991 0 0 0
210 4 10.032039631153031 11.637830634880123 27.489946480536723 0 0 0
230 2 11.420422239197077 8.65287380472412 29.84836774118436 0 0 0
235 7 10.01440712351137 10.296733317916178 29.607065818273615 0 0 0
239 7 8.703208959884272 12.378875865905597 29.447023637795805 0 0 0
240 7 11.2132182486009 12.458950796720332 29.473362287471154 0 0 0
241 7 0.01769470750330912 0.32236070558072055 31.51278776370064 0 0 0
242 7 2.49343746906763 0.33255750249239385 31.47649195463048 0 0 0
246 7 1.2576434679995 2.524622565430771 31.495065597894744 0 0 0
247 7 3.6792160946553762 2.4924844791198892 31.544794490485483 0 0 0
271 7 1.2503930422063299 1.058865018429273 33.501160545628245 0 0 0
277 7 2.4237998535269663 3.2412151493289745 33.67248080549971 0 0 0
243 7 4.924699699214752 0.33207634887648574 31.471389491888512 0 0 0
244 7 7.479555353694845 0.32965389315553484 31.46014693461142 0 0 0
248 7 6.152846504107138 2.4830132874114588 31.488803111238504 0 0 0
273 6 6.2429690853769015 1.0775085365293207 33.53238306719782 0 0 0
278 7 4.94263030115213 3.2429169993841813 33.662141350516585 0 0 0
279 7 7.448299270249595 3.236039893986933 33.605475146007535 0 0 0
245 7 9.938619371183625 0.34034372014379904 31.453565342310828 0 0 0
249 6 8.664771573333699 2.6121524859940837 31.335686707617672 0 0 0
250 7 11.181385364868271 2.5108382059067726 31.481761259141184 0 0 0
274 7 8.732589297133245 1.0856137537896322 33.53096312506543 0 0 0
275 7 11.180222310429881 1.0812518338089183 33.49011377543021 0 0 0
276 7 12.391772520784734 3.310396478983323 33.518585823886916 -1 0 0
280 7 9.899825383431658 3.2463581814803213 33.576552928948985 0 0 0
252 7 2.4455138459744874 4.6306257831781465 31.505763861231223 0 0 0
256 7 1.2374672304824375 6.798603310252 31.42320059460594 0 0 0
257 7 3.662388169529465 6.764218456806717 31.519685030406446 0 0 0
281 7 1.2040956896256987 5.3898807604436225 33.57262214895977 0 0 0
282 7 3.6563878339225413 5.388016280576432 33.581056270318946 0 0 0
287 4 2.4758836000543396 7.513922088136035 33.59389036901102 0 0 0
253 7 4.930151727028388 4.604453943804854 31.561798644718674 0 0 0
254 7 7.39036910635168 4.6687338616183505 31.617714798526027 0 0 0
258 7 6.152695573221433 6.792575815229138 31.564789434519486 0 0 0
283 7 6.2057079180253725 5.367070044480283 33.6552693655006 0 0 0
288 7 4.907748869548359 7.503791374928928 33.591993555524745 0 0 0
225 6 8.735944475664157 6.701844292741797 31.520474866651906 0 0 0
251 7 12.401923743103021 4.70020229309163 31.361450475958677 -1 0 0
255 7 9.990869185474681 4.665498465522945 31.5347724677341 0 0 0
259 3 8.696850730108386 8.320784379585616 32.678934388140135 0 0 0
260 7 11.221354188801056 6.891174350122759 31.270689163790223 0 0 0
285 4 11.12262285402758 5.391764762891828 33.47453732036584 0 0 0
286 6 12.380590872294391 7.562386888636551 33.48784638853389 -1 0 0
261 7 0.06163522492992876 9.026929898569405 31.49678835203775 0 0 0
262 7 2.4567338703697827 8.929380404615578 31.5032829453844 0 0 0
266 7 1.2621939469343726 11.123518363373769 31.518867463549405 0 0 0
267 7 3.672963103426594 11.077095117821967 31.47318609470281 0 0 0
291 7 1.2394773004787398 9.71652790114716 33.59952476814518 0 0 0
292 7 3.678332028309375 9.632347232721578 33.56962332646333 0 0 0
297 7 2.3869746440191206 11.858261501790079 33.59007275535152 0 0 0
263 7 4.919181124632945 8.925761160905322 31.506011657536217 0 0 0
264 7 7.417531516810607 8.921297388946488 31.481475698152433 0 0 0
268 6 6.217377786148168 11.097054839460156 31.56640508211637 0 0 0
293 7 6.165871820179871 9.640696334686353 33.63691809574069 0 0 0
265 7 10.072201317589933 9.023817494642124 31.635174214165357 0 0 0
269 7 8.739000665076796 11.120067341569037 31.58502835841175 0 0 0
270 7 11.263479776232206 11.194388177739116 31.63847557959433 0 0 0
300 7 9.979837634252435 11.91847968835319 33.63008849300126 0 0 0
272 7 3.6820673431188053 1.120987622748785 33.649229655119704 0 0 0
302 7 2.494549715988696 1.8411328689693207 35.826149985294286 0 0 0
306 4 1.2754540882917504 4.0689169766881 35.6877665250966 0 0 0
307 7 3.68752809110799 4.007170622596816 35.67388327936187 0 0 0
303 6 5.011946963025767 1.8499604521921125 35.805274726639105 0 0 0
304 7 7.461575294301519 1.8044463445423207 35.73068582504291 0 0 0
308 7 6.252470773547109 3.9885494999483373 35.70329634961483 0 0 0
296 3 12.388007176341697 0.17761871645745358 34.49234859904689 -1 1 0
301 6 12.436276396689683 1.9549442844818665 35.62223152945724 -1 0 0
305 7 9.896224759369156 1.8344866803553521 35.67957990227163 0 0 0
309 7 8.666441582614063 3.957228380853517 35.727154807553404 0 0 0
310 7 11.115055317298273 4.058255760355873 35.60685658146056 0 0 0
312 7 2.463103703430944 6.157345204695378 35.66002406850076 0 0 0
316 7 1.1984507106718314 8.249896011746324 35.62040209898387 0 0 0
317 7 3.721217214237558 8.221032336113321 35.66980936025777 0 0 0
289 7 7.414744368928394 7.48875009281773 33.75037122506994 0 0 0
313 7 4.957420093777356 6.102719031683081 35.666566529519834 0 0 0
314 7 7.509327271346321 6.1225226950173885 35.74078210660187 0 0 0
318 7 6.191698091714757 8.284452149601696 35.749662904960516 0 0 0
284 4 8.705718465481429 5.318037105059089 33.68400943436352 0 0 0
290 5 9.934423029601325 7.462548041405366 33.79929374204328 0 0 0
311 7 12.430378111360445 6.094871941295084 35.644777697120375 -1 0 0
315 1 9.937995463300185 6.112614972914262 35.874080427452775 0 0 0
319 5 8.67072886124586 8.244226556940738 35.83425630319866 0 0 0
320 7 11.197010911572093 8.205247482176032 35.74350450297954 0 0 0
321 7 0.019557495516685144 10.362591425071193 35.8067178132506 0 0 0
322 7 2.515347449330652 10.331594292906138 35.6394661811438 0 0 0
326 6 1.2870972612981164 12.462547977025439 35.85283555852757 0 0 0
327 7 3.756438481768493 12.6029273960893 35.76023449414608 0 0 0
298 6 4.8431922207032185 11.815320703414496 33.65600647162678 0 0 0
299 7 7.48954636035588 11.843616072285764 33.66252636107293 0 0 0
323 7 4.937318644767134 10.390726318552748 35.766437044849354 0 0 0
324 1 7.359803885289356 10.425396739276907 35.76638491857716 0 0 0
328 7 6.223886715324115 12.575384444095397 35.71570621396292 0 0 0
294 7 8.696497037770866 9.780565348245492 33.71805320882392 0 0 0
295 7 11.26293547010457 9.788890071656771 33.66362642442021 0 0 0
325 6 10.012170461305791 10.408622829559743 35.73346666156181 0 0 0
329 7 8.686804121609857 12.587765166605708 35.70859643651208 0 0 0
330 7 11.161562338440731 12.583257451760819 35.82204169559745 0 0 0
332 7 2.435530885941132 0.42196120991286373 37.906605746317034 0 0 0
336 7 1.2517430513631522 2.6250528358351746 37.797041383189864 0 0 0
337 5 3.7270941581080175 2.5865551367547486 37.8456146316117 0 0 0
333 7 4.940775549684541 0.35654332299309194 37.8841332405711 0 0 0
334 4 7.428561442632466 0.37432219597325 37.661249677211885 0 0 0
338 7 6.183091884283133 2.5741652606013843 37.90462503951796 0 0 0
331 7 12.418053568584 0.43708072236405265 37.90475176471379 -1 0 0
335 5 9.837221300787018 0.37867262426767 37.74439550614245 0 0 0
339 7 8.610405601057872 2.4394151542346973 37.85066748131379 0 0 0
340 6 11.126429281634643 2.5753288097367126 37.72750667490185 0 0 0
342 7 2.483346859424942 4.6874905579860355 37.731582598904126 0 0 0
346 7 1.2421175180976354 6.85697665769474 37.679540741997116 0 0 0
347 7 3.7125497661988756 6.7920151804405995 37.81387472161599 0 0 0
361 8 4.102583054859493 5.623092964996378 38.901010236053196 0 0 0
343 4 4.911578403144991 4.601676872191466 37.67032804423505 0 0 0
344 7 7.410967601773826 4.648448101254307 37.769470360181415 0 0 0
348 6 6.223722230106323 6.850288303525663 37.718597769105635 0 0 0
341 7 12.413568747052068 4.668235716374682 37.664156444259426 -1 0 0
345 7 9.900043357603726 4.686763100288183 37.84452074380566 0 0 0
349 7 8.673094974373106 6.862444043546086 37.91512690258187 0 0 0
350 7 11.271191566049337 6.825349764377663 37.819544109520436 0 0 0
351 7 0.038287050555042806 8.944359375768512 37.8306573339217 0 0 0
352 4 2.477555900940064 8.893406526527471 37.569088376134445 0 0 0
356 7 1.2053717121867857 10.995879682215428 37.90664723094333 0 0 0
357 6 3.6568335799721097 11.16439904536018 37.75573100755598 0 0 0
353 7 4.8628971069608085 8.972803368968185 37.88839435766207 0 0 0
354 7 7.414052630882586 9.066933323042862 37.91496796775141 0 0 0
358 7 6.191040132261129 11.188689084385535 37.87172590947046 0 0 0
355 6 9.961511677034117 9.017504271876888 37.80960502316062 0 0 0
359 5 8.644576061055517 11.236831751673664 37.87538118799045 0 0 0
360 7 11.162472733166355 11.229737161967392 37.93261171957447 0 0 0

Velocities

1 0 0 0
2 0 0 0
6 0 0 0
7 0 0 0
3 0 0 0
8 0 0 0
9 0 0 0
5 0 0 0
10 0 0 0
12 0 0 0
13 0 0 0
14 0 0 0
15 0 0 0
21 0 0 0
26 0 0 0
27 0 0 0
28 0 0 0
29 0 0 0
31 0 0 0
32 0 0 0
36 0 0 0
37 0 0 0
61 0 0 0
33 0 0 0
34 0 0 0
38 0 0 0
4 0 0 0
35 0 0 0
39 0 0 0
40 0 0 0
11 0 0 0
16 0 0 0
17 0 0 0
41 0 0 0
42 0 0 0
46 0 0 0
47 0 0 0
18 0 0 0
19 0 0 0
43 0 0 0
44 0 0 0
48 0 0 0
20 0 0 0
45 0 0 0
49 0 0 0
50 0 0 0
22 0 0 0
51 0 0 0
52 0 0 0
56 0 0 0
57 0 0 0
23 0 0 0
53 0 0 0
54 0 0 0
58 0 0 0
24 0 0 0
25 0 0 0
30 0 0 0
55 0 0 0
59 0 0 0
60 0 0 0
66 0 0 0
67 0 0 0
71 0 0 0
72 0 0 0
91 0 0 0
92 0 0 0
96 0 0 0
97 0 0 0
68 0 0 0
73 0 0 0
74 0 0 0
93 0 0 0
98 0 0 0
99 0 0 0
69 0 0 0
70 0 0 0
75 0 0 0
94 0 0 0
95 0 0 0
100 0 0 0
76 0 0 0
77 0 0 0
81 0 0 0
82 0 0 0
101 0 0 0
102 0 0 0
107 0 0 0
78 0 0 0
83 0 0 0
84 0 0 0
103 0 0 0
108 0 0 0
109 0 0 0
79 0 0 0
80 0 0 0
85 0 0 0
104 0 0 0
105 0 0 0
106 0 0 0
110 0 0 0
62 0 0 0
86 0 0 0
87 0 0 0
111 0 0 0
112 0 0 0
116 0 0 0
117 0 0 0
141 0 0 0
63 0 0 0
64 0 0 0
88 0 0 0
113 0 0 0
118 0 0 0
119 0 0 0
65 0 0 0
89 0 0 0
90 0 0 0
114 0 0 0
115 0 0 0
120 0 0 0
121 0 0 0
122 0 0 0
126 0 0 0
127 0 0 0
151 0 0 0
152 0 0 0
156 0 0 0
157 0 0 0
123 0 0 0
124 0 0 0
128 0 0 0
153 0 0 0
154 0 0 0
158 0 0 0
159 0 0 0
125 0 0 0
129 0 0 0
130 0 0 0
155 0 0 0
160 0 0 0
165 0 0 0
131 0 0 0
132 0 0 0
136 0 0 0
137 0 0 0
161 0 0 0
162 0 0 0
166 0 0 0
167 0 0 0
133 0 0 0
134 0 0 0
138 0 0 0
163 0 0 0
164 0 0 0
168 0 0 0
135 0 0 0
140 0 0 0
169 0 0 0
170 0 0 0
142 0 0 0
146 0 0 0
147 0 0 0
171 0 0 0
172 0 0 0
176 0 0 0
177 0 0 0
139 0 0 0
143 0 0 0
144 0 0 0
148 0 0 0
173 0 0 0
178 0 0 0
145 0 0 0
149 0 0 0
150 0 0 0
175 0 0 0
179 0 0 0
180 0 0 0
181 0 0 0
182 0 0 0
186 0 0 0
187 0 0 0
212 0 0 0
216 0 0 0
217 0 0 0
183 0 0 0
188 0 0 0
189 0 0 0
213 0 0 0
214 0 0 0
218 0 0 0
184 0 0 0
185 0 0 0
190 0 0 0
211 0 0 0
215 0 0 0
219 0 0 0
220 0 0 0
191 0 0 0
192 0 0 0
196 0 0 0
197 0 0 0
222 0 0 0
226 0 0 0
227 0 0 0
193 0 0 0
198 0 0 0
199 0 0 0
223 0 0 0
224 0 0 0
228 0 0 0
174 0 0 0
194 0 0 0
195 0 0 0
200 0 0 0
221 0 0 0
229 0 0 0
201 0 0 0
202 0 0 0
206 0 0 0
207 0 0 0
231 0 0 0
232 0 0 0
236 0 0 0
237 0 0 0
203 0 0 0
208 0 0 0
209 0 0 0
233 0 0 0
234 0 0 0
238 0 0 0
204 0 0 0
205 0 0 0
210 0 0 0
230 0 0 0
235 0 0 0
239 0 0 0
240 0 0 0
241 0 0 0
242 0 0 0
246 0 0 0
247 0 0 0
271 0 0 0
277 0 0 0
243 0 0 0
244 0 0 0
248 0 0 0
273 0 0 0
278 0 0 0
279 0 0 0
245 0 0 0
249 0 0 0
250 0 0 0
274 0 0 0
275 0 0 0
276 0 0 0
280 0 0 0
252 0 0 0
256 0 0 0
257 0 0 0
281 0 0 0
282 0 0 0
287 0 0 0
253 0 0 0
254 0 0 0
258 0 0 0
283 0 0 0
288 0 0 0
225 0 0 0
251 0 0 0
255 0 0 0
259 0 0 0
260 0 0 0
285 0 0 0
286 0 0 0
261 0 0 0
262 0 0 0
266 0 0 0
267 0 0 0
291 0 0 0
292 0 0 0
297 0 0 0
263 0 0 0
264 0 0 0
268 0 0 0
293 0 0 0
265 0 0 0
269 0 0 0
270 0 0 0
300 0 0 0
272 0 0 0
302 0 0 0
306 0 0 0
307 0 0 0
303 0 0 0
304 0 0 0
308 0 0 0
296 0 0 0
301 0 0 0
305 0 0 0
309 0 0 0
310 0 0 0
312 0 0 0
316 0 0 0
317 0 0 0
289 0 0 0
313 0 0 0
314 0 0 0
318 0 0 0
284 0 0 0
290 0 0 0
311 0 0 0
315 0 0 0
319 0 0 0
320 0 0 0
321 0 0 0
322 0 0 0
326 0 0 0
327 0 0 0
298 0 0 0
299 0 0 0
323 0 0 0
324 0 0 0
328 0 0 0
294 0 0 0
295 0 0 0
325 0 0 0
329 0 0 0
330 0 0 0
332 0 0 0
336 0 0 0
337 0 0 0
333 0 0 0
334 0 0 0
338 0 0 0
331 0 0 0
335 0 0 0
339 0 0 0
340 0 0 0
342 0 0 0
346 0 0 0
347 0 0 0
361 0 0 0
343 0 0 0
344 0 0 0
348 0 0 0
341 0 0 0
345 0 0 0
349 0 0 0
350 0 0 0
351 0 0 0
352 0 0 0
356 0 0 0
357 0 0 0
353 0 0 0
354 0 0 0
358 0 0 0
355 0 0 0
359 0 0 0
360 0 0 0
