LAMMPS data file via write_data, version 11 Feb 2026, timestep = 174, units = metal

361 atoms
8 atom types

0 12.447907776 xlo xhi
0 12.9362452296 ylo yhi
0 52.3600831054 zlo zhi

Masses

1 26.9815
2 10.811
3 12.011
4 51.9961
5 55.845
6 95.95999999999999
7 58.6934
8 1.008

Atoms # atomic/kk

1 7 1.3660886857 0.4127282032 14.7778498687 0 0 0
2 7 3.8948488823 0.57850681 14.8302142171 0 0 0
6 4 0.3131714814 2.649521747 14.9242051316 0 0 0
7 7 2.6653881869 2.6954168046 14.8012833427 0 0 0
3 7 6.4427373715 0.5501398995 14.7849653846 0 0 0
8 1 5.1754332713 2.6847862655 14.6762022177 0 0 0
9 7 7.6844358063 2.7245584709 14.7858552838 0 0 0
5 7 11.3409460969 0.4573951861 14.8569263688 0 0 0
10 6 10.1191852886 2.7154350642 14.9140535989 0 0 0
12 7 3.8489022967 4.7762716369 14.8789708424 0 0 0
13 7 6.4363872094 4.8140060576 14.78809452 0 0 0
14 7 8.9281562533 4.9525466046 14.9366127415 0 0 0
15 7 11.4381369133 4.9302312278 14.9435002897 0 0 0
21 7 1.6312770473 9.1476985854 14.8975924158 0 0 0
26 6 0.1772691294 11.1479023416 14.904962735 0 0 0
27 7 2.7144259707 11.2961306122 14.8285648337 0 0 0
28 7 5.2196869812 11.2910483945 14.8348799374 0 0 0
29 7 7.7574605375 11.2868894224 14.8702247244 0 0 0
31 4 0.1302004534 1.2423491281 16.8228673608 0 0 0
32 7 2.600249764 1.270716605 16.8719582441 0 0 0
36 7 1.434193337 3.4408181295 17.0066709809 0 0 0
37 7 3.9077433117 3.368809117 16.8957187976 0 0 0
61 3 1.344383625 0.452129689 18.0728021561 0 0 0
33 7 5.1358189679 1.2897697261 16.8641552894 0 0 0
34 6 7.705246375 1.3324692746 16.9270869738 0 0 0
38 7 6.3942803661 3.4380873258 16.8448384757 0 0 0
4 4 8.9566370883 0.3821267746 15.0050483748 0 0 0
35 7 10.1783326396 1.2355549865 17.0073933446 0 0 0
39 7 8.9095299484 3.5244448702 16.9335089145 0 0 0
40 6 11.4213720439 3.4775484626 17.0922596763 0 0 0
11 7 1.4182487027 4.9592676138 15.0355295619 0 0 0
16 6 0.2159097658 7.2694640783 15.2059554176 0 0 0
17 5 2.862551008 7.0114402035 15.2825371571 0 0 0
41 7 0.2307718735 5.6288144986 17.0858947253 0 0 0
42 7 2.699979132 5.5226082142 17.1496323949 0 0 0
46 4 1.4268361806 7.6722738372 17.3644156332 0 0 0
47 4 3.9121546694 7.6793495238 17.1854023309 0 0 0
18 2 5.3374289629 7.5202556274 15.4509260099 0 0 0
19 7 7.3138393176 7.0676305294 14.9946073341 0 0 0
43 6 5.1951711377 5.6409108541 16.7377349695 0 0 0
44 7 7.7113564655 5.6358755274 17.0033808771 0 0 0
48 7 6.4678356005 7.7827491937 17.1504843555 0 0 0
20 7 10.1717681124 7.1765694145 15.0730184071 0 0 0
45 7 10.1701978275 5.6605515611 17.0406305227 0 0 0
49 7 8.8829964883 7.7158157921 17.1553877346 0 0 0
50 7 11.3155080332 7.7468804754 17.1969258242 0 0 0
22 7 4.0856471732 9.0566198857 14.9717274967 0 0 0
51 7 0.1272872509 9.68596725 16.8442035367 0 0 0
52 7 2.6746026568 9.7519228913 16.9929245234 0 0 0
56 4 1.345199944 11.8308982065 16.9564530699 0 0 0
57 6 3.8566935888 12.0157264004 16.9292822799 0 0 0
23 4 6.4658385855 9.3047539761 15.1601526348 0 0 0
53 7 5.1399180858 9.8452375089 17.0391060257 0 0 0
54 7 7.7212113513 9.8860564416 17.0892447304 0 0 0
58 6 6.4621474317 12.0031374721 16.8987675748 0 0 0
24 7 8.8592631937 9.1075737289 15.060182128 0 0 0
25 2 11.0267643648 9.0653815348 15.4596339889 0 0 0
30 7 10.2082674357 11.071005622 15.0044218365 0 0 0
55 7 10.1194426033 9.8032324941 17.1285234467 0 0 0
59 7 8.9530997531 11.9794401191 17.0547961192 0 0 0
60 7 11.3913466286 12.0014414146 16.9982994058 0 0 0
66 7 1.2609011533 1.9474243688 19.13850885 0 0 0
67 1 3.855861486 1.8901735236 19.000886285 0 0 0
71 7 0.2102227381 4.2044059061 19.2382136262 0 0 0
72 7 2.6594829786 4.0242561124 19.0903938166 0 0 0
91 4 1.248389381 0.2661947085 21.5185122835 0 0 0
92 7 3.8202799458 0.5304857683 21.1481523111 0 0 0
96 7 0.1023089618 2.8451613135 21.208855114 0 0 0
97 7 2.5198207304 2.586240112 21.1016644154 0 0 0
68 7 6.3391952327 1.9375763113 18.9629371893 0 0 0
73 4 5.0747439355 4.2029402596 18.9237204972 0 0 0
74 6 7.5488740376 4.1133413786 18.9955831098 0 0 0
93 7 6.3671279852 0.5707783785 21.0800301381 0 0 0
98 7 5.0252843651 2.6849858118 21.0347084721 0 0 0
99 7 7.5039415826 2.7454387777 21.0873818546 0 0 0
69 7 8.8763492112 1.9835428511 19.0681859123 0 0 0
70 7 11.3104593862 1.9740991757 19.1393410689 0 0 0
75 7 10.1033980676 4.2174417255 19.060967044 0 0 0
94 5 8.8607419655 0.6773822905 21.1291850033 0 0 0
95 4 11.3318504536 0.7576622576 21.210747998 0 0 0
100 7 10.0585799813 2.8628449885 21.1068527141 0 0 0
76 5 1.531599809 6.2342810961 19.1777907625 0 0 0
77 4 3.9486301697 6.1890283177 19.3484231645 0 0 0
81 7 0.4486254223 8.3431033807 20.0660909014 0 0 0
82 7 2.7320926224 8.4537594439 19.2149962609 0 0 0
101 7 1.8868035546 4.8946117909 21.1989754809 0 0 0
102 2 3.8196925074 4.3195087191 20.765787008 0 0 0
107 7 2.6185774712 7.1925669881 21.2039690306 0 0 0
78 4 6.4915319903 6.3304247411 19.2101694267 0 0 0
83 6 5.2526356303 8.4980665721 19.2560507886 0 0 0
84 7 7.7717620592 8.5159081295 19.221943399 0 0 0
103 7 5.9244813342 4.9311128018 21.1313312243 0 0 0
108 7 5.1502971954 7.1876387896 21.3068028508 0 0 0
109 4 7.6589732661 7.0691267501 21.2929675837 0 0 0
79 4 9.0541387194 6.4003424304 19.1764414516 0 0 0
80 7 11.5767547595 6.3491928323 19.0634894168 0 0 0
85 4 10.3283910626 8.3385621638 19.4882527342 0 0 0
104 7 8.5568660377 4.9093090064 21.0922418789 0 0 0
105 7 11.067467082 5.2557019314 21.0701342188 0 0 0
106 7 11.345568155899999 7.8259215778 21.9522064314 -1 0 0
110 3 9.7704013101 6.945295675 21.0240396746 0 0 0
62 7 2.6182361685 12.7136409347 19.1975965462 0 -1 0
86 7 1.4621281624 10.4686848504 19.165999464 0 0 0
87 7 3.9025565193 10.6441339739 19.0620412248 0 0 0
111 2 1.9743998906 9.1400987039 21.1380392301 0 0 0
112 7 3.9509405985 9.2886228932 21.2630871635 0 0 0
116 7 0.099926673 12.6403107226 19.3307453355 0 0 0
117 4 2.5481925494 11.3116211015 21.1730838791 0 0 0
141 6 0.2427140367181234 10.090717739678729 22.246006208292478 0 0 0
63 7 5.1608721291 12.7573036193 19.0321313975 0 -1 0
64 4 7.7298401242 12.7552469327 19.1919110546 0 -1 0
88 7 6.4657152928 10.6840949194 19.114072039 0 0 0
113 7 6.4948923474 9.3059243254 21.3087635336 0 0 0
118 7 5.1094071082 11.3929533125 21.1240035481 0 0 0
119 7 7.7808540739 11.3681122082 21.1850014559 0 0 0
65 7 10.1214197541 12.764433440300001 19.1079326953 0 -1 0
89 7 8.9822866765 10.5841721845 19.1901950327 0 0 0
90 7 11.5142496975 10.4330242514 18.9703421542 0 0 0
114 6 9.0659269404 9.0482319511 21.5144737255 0 0 0
115 3 11.3983556033 9.4266528682 20.7139951194 0 0 0
120 6 10.5409884402 11.3351545328 21.1059296944 0 0 0
121 7 0.15968413919935462 1.5486974535949125 23.31291895811609 0 0 0
122 7 2.5717672611682043 1.3829753871097565 23.233912497617148 0 0 0
126 7 1.261302427033667 3.6643284690973705 23.206245154379967 0 0 0
127 6 3.720603036982842 3.618690823293385 23.04133742855243 0 0 0
151 7 0.03575772903105844 0.17221730315464542 25.41807060724306 0 0 0
152 7 2.454134607596386 0.054560613082462246 25.199396462092817 0 0 0
156 7 1.3306629228242144 2.2858200316769985 25.343293346272276 0 0 0
157 7 3.7738356686226555 2.2363126616098508 25.285305828867912 0 0 0
123 7 5.043568404592847 1.3516280553596778 23.246964857330447 0 0 0
124 7 7.574171780114222 1.3740270435119504 23.184003634376992 0 0 0
128 7 6.2058427529643545 3.5549926149562086 23.137519529544388 0 0 0
153 1 4.912147546241007 0.012906917511465981 25.345309259066603 0 0 0
154 7 7.47611754141161 0.04858414477533304 25.320379360667815 0 0 0
158 4 6.220132523664098 2.2324618469765047 25.284007701117744 0 0 0
159 3 7.591106889147957 2.9665236802063824 24.241378844032155 0 0 0
125 6 10.184910238942166 1.510111103612045 23.250024511487695 0 0 0
129 7 8.827811990339038 3.6718636055498024 23.12224801698292 0 0 0
130 7 11.253015611001196 3.8386665665806206 23.1405326217405 0 0 0
155 7 10.058595637379378 0.06932535671703843 25.381408244198763 0 0 0
160 7 11.31987710204252 2.348511274916249 25.317228451050468 0 0 0
165 7 8.833696761620194 2.182844565953707 25.351056801407047 0 0 0
131 7 0.1174556816609322 5.875197286578414 22.981317627213254 0 0 0
132 7 2.5916683791227726 5.841921342212418 23.266421007959185 0 0 0
136 7 1.293525943506867 7.9711148785859205 22.974839826096815 0 0 0
137 7 3.819309753220674 7.923529848774288 23.326476314714846 0 0 0
161 7 0.07938339474372069 4.480240677737918 25.180192228678536 0 0 0
162 7 2.54716377876903 4.405954830822204 25.24769522030711 0 0 0
166 7 1.2764663957141074 6.611722343326503 25.115170307460048 0 0 0
167 7 3.7338062985152125 6.5753102489653505 25.389247449692366 0 0 0
133 1 5.033112894156004 5.87940718537216 23.360110065664557 0 0 0
134 7 7.4073969517288285 5.687206422063074 23.243206073095205 0 0 0
138 7 6.410577766544533 7.902727959639432 23.31549739259416 0 0 0
163 7 4.985476762192541 4.352903727221937 25.253112392027155 0 0 0
164 7 7.528227443668688 4.420246458056344 25.403995022903082 0 0 0
168 7 6.223026611337705 6.545032978459419 25.413108639525742 0 0 0
135 7 10.011297026279644 4.473531072490779 25.17121589220345 0 0 0
140 6 9.850000790076546 6.101366923006132 23.021556067449932 0 0 0
169 7 8.690313576558326 6.503110575659184 25.19552763857671 0 0 0
170 7 11.265088084709713 6.620797209519364 24.97962922428188 0 0 0
142 7 2.5980020101357204 10.01223028498108 23.200337104212576 0 0 0
146 2 1.6349463938494593 11.920649825904258 23.184081072443114 0 0 0
147 7 3.7505532682234 12.144637616100017 23.205031476964987 0 0 0
171 7 0.012728950637242465 8.860198315876824 24.765574327995626 0 0 0
172 7 2.433878219116208 8.703602702514685 25.257644584251413 0 0 0
176 7 1.1719617591826812 10.990646079496079 24.876171781577902 0 0 0
177 7 3.712424726777886 10.802311945264412 25.30648362443393 0 0 0
139 7 7.421757760582737 8.72302800848019 25.384255122925058 0 0 0
143 7 5.127973872575914 10.019489119545703 23.29928687887975 0 0 0
144 7 7.700077964920195 9.981855704739155 23.397481852289303 0 0 0
148 6 6.390685451016979 12.108484957933939 23.14864795016154 0 0 0
173 7 4.980720796358011 8.690060231731255 25.362680492644156 0 0 0
178 7 6.235820786166877 10.859118991739992 25.36111978921309 0 0 0
145 7 10.44445766809764 9.964408597376373 23.464971211250376 0 0 0
149 6 9.101867287442479 12.085081740158845 23.258073027013843 0 0 0
150 7 11.834427004627472 12.210956402078725 23.259108623807094 0 0 0
175 7 10.189759121444272 8.744262300978171 25.48326321781814 0 0 0
179 7 8.816503599450247 10.853979768096426 25.441973449627703 0 0 0
180 7 11.282901158291503 10.901853092818786 25.54085888989826 0 0 0
181 4 1.300805291207496 0.90400152691673 27.30850528262411 0 0 0
182 7 3.7049848731722066 0.897140735955705 27.402638867154707 0 0 0
186 7 0.05333571146247032 3.0998525320026564 27.355633159909672 0 0 0
187 7 2.502931559744616 3.0433977133028622 27.40561304587825 0 0 0
212 4 2.531373397570997 1.718675320335778 29.47916724216412 0 0 0
216 7 1.213866895697421 3.9307112488714275 29.39305037926319 0 0 0
217 7 3.7273990729794906 3.8649140518428613 29.462173428302126 0 0 0
183 7 6.2019899734848725 0.8641722109930299 27.330360970641 0 0 0
188 7 4.985508749618246 3.0294798611484275 27.370631916348266 0 0 0
189 7 7.489805122130093 2.9258838483698817 27.34984655480453 0 0 0
213 7 4.987352361377244 1.7162653395108667 29.42727885718681 0 0 0
214 7 7.4720034059977145 1.5929737378294766 29.36607369778485 0 0 0
218 7 6.518603818163399 3.8468196487819393 29.450137318272343 0 0 0
184 7 8.750333481586248 0.759703123937209 27.368668222375415 0 0 0
185 7 11.262295360157086 0.8918674046620925 27.380830643905874 0 0 0
190 7 9.989515847781535 2.9789949540489875 27.309642238795483 0 0 0
211 6 12.430812775574573 1.7714146371071098 29.4515568910567 -1 0 0
215 7 9.919547540764011 1.62503239187845 29.364058885035337 0 0 0
219 2 8.724918762257557 3.2634007450223925 28.997906953163085 0 0 0
220 7 10.880532940413532 3.936661479057381 29.355638419626047 0 0 0
191 7 1.2729888827758864 5.237458549093197 27.26115482172979 0 0 0
192 7 3.786791821608231 5.207677695864923 27.36130989801066 0 0 0
196 7 0.04078370550418317 7.373046775882236 27.012656942165762 0 0 0
197 7 2.4819586030030014 7.389911099770109 27.35664258849041 0 0 0
222 7 2.419928651647327 6.028532644164338 29.385597588518923 0 0 0
226 7 1.0507890368129789 8.232895504374884 29.31152166574052 0 0 0
227 7 3.6494748316387713 8.164345334137783 29.440682748438523 0 0 0
193 1 6.289465052480029 5.075149290820322 27.353771449999602 0 0 0
198 5 5.002807560632578 7.372843836852666 27.417031113366257 0 0 0
199 5 7.394991207367444 7.298176345055973 27.524409376181822 0 0 0
223 6 5.0181557049135534 6.000266587429161 29.4948665867351 0 0 0
224 7 7.565292940209097 6.084212764497581 29.546376558064427 0 0 0
228 7 6.197386884884144 8.203701170087736 29.49444791447906 0 0 0
174 3 8.779012144390771 7.905226007452636 26.340452242501637 0 0 0
194 7 8.784378272676975 4.954534042213318 27.83599232559921 0 0 0
195 5 11.263147147657602 5.11370697723955 27.122197762905742 0 0 0
200 5 10.096308724899062 6.977270125486591 27.353008690269007 0 0 0
221 6 12.209589257506478 6.1144057715040425 29.185995335578195 -1 0 0
229 7 9.671332508131467 7.804513822780236 29.457727196437364 0 0 0
201 7 1.2018066272823307 9.586518212399175 27.16338712045599 0 0 0
202 7 3.6854818491012016 9.499541633350615 27.375592713447134 0 0 0
206 7 0.03181004067160314 11.70424449656907 27.43601084404867 0 0 0
207 7 2.477901578949746 11.703318750388377 27.319150423514117 0 0 0
231 7 0.02788227575244734 10.406619310471964 29.517963572678134 0 0 0
232 5 2.4667770604580714 10.31887789530344 29.361966739023554 0 0 0
236 7 1.279917570227437 12.525204927506216 29.427192979792594 0 0 0
237 7 3.7247202731503064 12.459731568061166 29.427929660094243 0 0 0
203 7 6.170567564077073 9.515349813023565 27.47596286185831 0 0 0
208 7 4.946096307509253 11.632751499451327 27.426883074453627 0 0 0
209 7 7.4556449120603805 11.653892726777574 27.416359872758715 0 0 0
233 4 4.8807204875521615 10.291558578981082 29.439486770319025 0 0 0
234 7 7.432556757926072 10.328617717683365 29.50713249876402 0 0 0
238 4 6.170284869208956 12.45642779888679 29.409791630356708 0 0 0
204 6 8.741433362444036 9.482795390654163 27.61324310492398 0 0 0
205 7 11.26974735171364 9.254932167078351 27.78734205945964 0 0 0
210 4 10.032032997136858 11.637765737399238 27.490243301602117 0 0 0
230 2 11.420596100631593 8.653205441409984 29.848625271308652 0 0 0
235 7 10.014489268679016 10.296859212061097 29.60766441196866 0 0 0
239 7 8.703208310953432 12.378920210496863 29.4474884552908 0 0 0
240 7 11.213288987931389 12.459046371898653 29.47354194170731 0 0 0
241 7 0.01789613651389464 0.3227067075549951 31.5127680520615 0 0 0
242 7 2.493816772786033 0.333044398351748 31.476676960489403 0 0 0
246 7 1.257440477896088 2.5248165240863165 31.494382441769947 0 0 0
247 7 3.6791573276110845 2.4927400337460903 31.545875090289726 0 0 0
271 7 1.250842408113908 1.0592105157295106 33.50083123429509 0 0 0
277 7 2.422264574647596 3.2416373344374727 33.671512208625884 0 0 0
243 7 4.924801347012613 0.3325519132130962 31.472349759914152 0 0 0
244 7 7.479598707384586 0.3300664544048997 31.460830492906542 0 0 0
248 7 6.152828809680746 2.4833635543136836 31.489202730421674 0 0 0
273 6 6.242876982551434 1.0782713212977004 33.5329740039342 0 0 0
278 7 4.941929505591427 3.24370738854449 33.66378923466609 0 0 0
279 7 7.448843230032029 3.2360494418860677 33.603801980506795 0 0 0
245 7 9.93873630522918 0.34049665145275276 31.45390888109567 0 0 0
249 6 8.664952400813549 2.612415164279128 31.33495093882241 0 0 0
250 7 11.181406780306638 2.510807151157347 31.481970618796996 0 0 0
274 7 8.732934171515595 1.0857501074591607 33.53135366775656 0 0 0
275 7 11.18074161821335 1.080673889236667 33.49065823287137 0 0 0
276 7 12.391438547182547 3.310631328369343 33.51837820632934 -1 0 0
280 7 9.899910115302665 3.2465890154275883 33.57625077390876 0 0 0
252 7 2.445066502848294 4.630721378600231 31.50497926208658 0 0 0
256 7 1.2373186461232357 6.798735472746641 31.42227191479375 0 0 0
257 7 3.6624948648904536 6.764229243519718 31.518104212171465 0 0 0
281 7 1.2025101881426008 5.389680079347219 33.57200542800029 0 0 0
282 7 3.6555745818960306 5.387852031442516 33.57921075585734 0 0 0
287 4 2.4746632616306474 7.515075844842485 33.58919367017341 0 0 0
253 7 4.930139799260962 4.6044537851215175 31.561508260582706 0 0 0
254 7 7.390537084172408 4.669191959831501 31.617498399569367 0 0 0
258 7 6.152710629807959 6.793000345297076 31.564302434994563 0 0 0
283 7 6.204936104867802 5.367773102356227 33.65400787306884 0 0 0
288 7 4.906865497179585 7.503790057191346 33.59133020185687 0 0 0
225 6 8.735989930825273 6.702323158385252 31.521326810440655 0 0 0
251 7 12.401501986006528 4.700267122041021 31.360712850986005 -1 0 0
255 7 9.990684536884274 4.6657800910794665 31.53471968375406 0 0 0
259 3 8.697273366394226 8.321408877376031 32.679756155233655 0 0 0
260 7 11.22130529146185 6.891287056321693 31.27086699441947 0 0 0
285 4 11.122047262383585 5.3921533317519525 33.47475394955123 0 0 0
286 6 12.380310371788834 7.562959482093133 33.48753417065511 -1 0 0
261 7 0.06208026168162703 9.027349261519412 31.496693018685384 0 0 0
262 7 2.4571388387078894 8.930189919040364 31.501754338893715 0 0 0
266 7 1.2626408540776681 11.124105253359971 31.518788101168948 0 0 0
267 7 3.6734030347201423 11.077610831894107 31.473572395084943 0 0 0
291 7 1.2400327552046393 9.717647287565105 33.599160658122116 0 0 0
292 7 3.6784759663326656 9.632642568545439 33.569772810764974 0 0 0
297 7 2.387571677578094 11.859318445193397 33.59032678510457 0 0 0
263 7 4.919502278007241 8.926114212747516 31.506226478114023 0 0 0
264 7 7.417666259676118 8.921767172767769 31.4822731728153 0 0 0
268 6 6.217461827366336 11.097593576131555 31.567273419843904 0 0 0
293 7 6.165737698252458 9.641057239400281 33.6377451179299 0 0 0
265 7 10.072712016387573 9.024133042265516 31.636038658949747 0 0 0
269 7 8.73914781561111 11.120326484232153 31.585766008152216 0 0 0
270 7 11.26378601328142 11.194701161009087 31.638898738317526 0 0 0
300 7 9.98027491806723 11.918402264440024 33.6307579787203 0 0 0
272 7 3.6823992723262156 1.1221323692200766 33.65142607452145 0 0 0
302 7 2.496905552296396 1.8424381263419718 35.82931944317457 0 0 0
306 4 1.2709188725872576 4.069605607032278 35.6929791050822 0 0 0
307 7 3.6813633707452307 4.007766934241266 35.67320973326714 0 0 0
303 6 5.013827736981983 1.851961126679822 35.808008477394814 0 0 0
304 7 7.463832560390465 1.8038707676998647 35.73038143768591 0 0 0
308 7 6.254573614226224 3.9887646653429423 35.6987585263828 0 0 0
296 3 12.389356137696256 0.1770366929439165 34.4925132836026 -1 1 0
301 6 12.43882988683628 1.9549576900316423 35.621642327573305 -1 0 0
305 7 9.898526298785773 1.833893631683482 35.67937579038465 0 0 0
309 7 8.668555204433783 3.9564293036327656 35.72663265948294 0 0 0
310 7 11.114541197053503 4.057703507269696 35.60701522164806 0 0 0
312 7 2.459989135344508 6.160847671626478 35.6531217804848 0 0 0
316 7 1.1987339202876917 8.250813657823722 35.61939083683096 0 0 0
317 7 3.720316653901869 8.221841970616296 35.668737634171706 0 0 0
289 7 7.414166031704021 7.489402703123222 33.74993380683155 0 0 0
313 7 4.95556249181605 6.1024556710585856 35.66404816444206 0 0 0
314 7 7.5086813027846855 6.120686289661099 35.740904748862796 0 0 0
318 7 6.189365044017703 8.285789751762671 35.750192684505464 0 0 0
284 4 8.705082976792474 5.318660462477766 33.684967345083116 0 0 0
290 5 9.934052945328796 7.462807612684173 33.800702306760385 0 0 0
311 7 12.42662848238284 6.0956052990381 35.642464081442085 -1 0 0
315 1 9.937328107690368 6.112570105092575 35.87611936950168 0 0 0
319 5 8.66935621423303 8.243629477522003 35.83607926723416 0 0 0
320 7 11.197067309310626 8.205580322968057 35.7445848409696 0 0 0
321 7 0.02118008095287569 10.362767282896257 35.8075610289242 0 0 0
322 7 2.5162732742492966 10.332998426354177 35.63875053382492 0 0 0
326 6 1.2886863930138215 12.463584805280824 35.85371307407895 0 0 0
327 7 3.7577883507291916 12.60466243204672 35.76242094020828 0 0 0
298 6 4.843193039238204 11.815804004960036 33.65731735545085 0 0 0
299 7 7.4896093770139975 11.844168110730212 33.6634620429736 0 0 0
323 7 4.937821212509517 10.392968110282672 35.76871745927743 0 0 0
324 1 7.36080920748971 10.426497180693756 35.767921176231795 0 0 0
328 7 6.22487622276424 12.576643301178436 35.71651547213972 0 0 0
294 7 8.69685092032768 9.781193449907601 33.71895159373329 0 0 0
295 7 11.263540971225448 9.78939852296746 33.664553049301006 0 0 0
325 6 10.013165586900842 10.408053934422362 35.73511358414875 0 0 0
329 7 8.688737247225301 12.587188820031542 35.708710408322226 0 0 0
330 7 11.16363492873811 12.58282370594052 35.823054252081455 0 0 0
332 7 2.435979734318252 0.4221772941890928 37.90825003504493 0 0 0
336 7 1.255909601711661 2.62963992696512 37.795899367557205 0 0 0
337 5 3.731967677733336 2.5809870291741723 37.84653975199292 0 0 0
333 7 4.944099967456699 0.35478333768983217 37.88563828935928 0 0 0
334 4 7.432575769260612 0.3712647398455291 37.660889161145654 0 0 0
338 7 6.191464905245738 2.5676476231034977 37.90779810289231 0 0 0
331 7 12.421324214555085 0.4385538812134006 37.90536487192469 -1 0 0
335 5 9.839257424049208 0.37743339719624863 37.74437204058465 0 0 0
339 7 8.614782531546412 2.4380949601920867 37.851246573369245 0 0 0
340 6 11.128562797696945 2.574063967642988 37.72714664854945 0 0 0
342 7 2.50322698192795 4.695912893147705 37.765996316030915 0 0 0
346 7 1.2387066548036039 6.857146440703365 37.67503052039637 0 0 0
347 7 3.7170935248124355 6.801757084737242 37.81637034927584 0 0 0
361 8 3.8117454131151085 5.447602460107387 38.78883059276804 0 0 0
343 4 4.916473928046318 4.582820887237346 37.65533740548147 0 0 0
344 7 7.412012847176613 4.646397173158882 37.76727672036657 0 0 0
348 6 6.217630014628048 6.84862461202624 37.713613490767784 0 0 0
341 7 12.414355955178465 4.669120917656233 37.66320255781939 -1 0 0
345 7 9.901244156490844 4.685826479806087 37.84535447862217 0 0 0
349 7 8.670872071692715 6.861386550313513 37.91960787547865 0 0 0
350 7 11.27147248875757 6.823376224820224 37.82129209168459 0 0 0
351 7 0.04109592018481181 8.943481346809135 37.831636692494044 0 0 0
352 4 2.4817784169218364 8.896292078991333 37.56771443453139 0 0 0
356 7 1.206475381748711 10.995933773689739 37.907074036471705 0 0 0
357 6 3.6578464028396875 11.165239447426924 37.757765221300076 0 0 0
353 7 4.867038421348839 8.975436324853455 37.89804895637449 0 0 0
354 7 7.417255844709468 9.06725968762967 37.9202157587324 0 0 0
358 7 6.193870985630611 11.188053944493761 37.873310987147384 0 0 0
355 6 9.965188906736648 9.015621832677642 37.810220321869174 0 0 0
359 5 8.647485315031656 11.234588557424068 37.87687710754864 0 0 0
360 7 11.164387309388381 11.229985207729722 37.93419725192471 0 0 0

Velocities

1 0 0 0
2 0 0 0
6 0 0 0
7 0 0 0
3 0 0 0
8 0 0 0
9 0 0 0
5 0 0 0
10 0 0 0
12 0 0 0
13 0 0 0
14 0 0 0
15 0 0 0
21 0 0 0
26 0 0 0
27 0 0 0
28 0 0 0
29 0 0 0
31 0 0 0
32 0 0 0
36 0 0 0
37 0 0 0
61 0 0 0
33 0 0 0
34 0 0 0
38 0 0 0
4 0 0 0
35 0 0 0
39 0 0 0
40 0 0 0
11 0 0 0
16 0 0 0
17 0 0 0
41 0 0 0
42 0 0 0
46 0 0 0
47 0 0 0
18 0 0 0
19 0 0 0
43 0 0 0
44 0 0 0
48 0 0 0
20 0 0 0
45 0 0 0
49 0 0 0
50 0 0 0
22 0 0 0
51 0 0 0
52 0 0 0
56 0 0 0
57 0 0 0
23 0 0 0
53 0 0 0
54 0 0 0
58 0 0 0
24 0 0 0
25 0 0 0
30 0 0 0
55 0 0 0
59 0 0 0
60 0 0 0
66 0 0 0
67 0 0 0
71 0 0 0
72 0 0 0
91 0 0 0
92 0 0 0
96 0 0 0
97 0 0 0
68 0 0 0
73 0 0 0
74 0 0 0
93 0 0 0
98 0 0 0
99 0 0 0
69 0 0 0
70 0 0 0
75 0 0 0
94 0 0 0
95 0 0 0
100 0 0 0
76 0 0 0
77 0 0 0
81 0 0 0
82 0 0 0
101 0 0 0
102 0 0 0
107 0 0 0
78 0 0 0
83 0 0 0
84 0 0 0
103 0 0 0
108 0 0 0
109 0 0 0
79 0 0 0
80 0 0 0
85 0 0 0
104 0 0 0
105 0 0 0
106 0 0 0
110 0 0 0
62 0 0 0
86 0 0 0
87 0 0 0
111 0 0 0
112 0 0 0
116 0 0 0
117 0 0 0
141 0 0 0
63 0 0 0
64 0 0 0
88 0 0 0
113 0 0 0
118 0 0 0
119 0 0 0
65 0 0 0
89 0 0 0
90 0 0 0
114 0 0 0
115 0 0 0
120 0 0 0
121 0 0 0
122 0 0 0
126 0 0 0
127 0 0 0
151 0 0 0
152 0 0 0
156 0 0 0
157 0 0 0
123 0 0 0
124 0 0 0
128 0 0 0
153 0 0 0
154 0 0 0
158 0 0 0
159 0 0 0
125 0 0 0
129 0 0 0
130 0 0 0
155 0 0 0
160 0 0 0
165 0 0 0
131 0 0 0
132 0 0 0
136 0 0 0
137 0 0 0
161 0 0 0
162 0 0 0
166 0 0 0
167 0 0 0
133 0 0 0
134 0 0 0
138 0 0 0
163 0 0 0
164 0 0 0
168 0 0 0
135 0 0 0
140 0 0 0
169 0 0 0
170 0 0 0
142 0 0 0
146 0 0 0
147 0 0 0
171 0 0 0
172 0 0 0
176 0 0 0
177 0 0 0
139 0 0 0
143 0 0 0
144 0 0 0
148 0 0 0
173 0 0 0
178 0 0 0
145 0 0 0
149 0 0 0
150 0 0 0
175 0 0 0
179 0 0 0
180 0 0 0
181 0 0 0
182 0 0 0
186 0 0 0
187 0 0 0
212 0 0 0
216 0 0 0
217 0 0 0
183 0 0 0
188 0 0 0
189 0 0 0
213 0 0 0
214 0 0 0
218 0 0 0
184 0 0 0
185 0 0 0
190 0 0 0
211 0 0 0
215 0 0 0
219 0 0 0
220 0 0 0
191 0 0 0
192 0 0 0
196 0 0 0
197 0 0 0
222 0 0 0
226 0 0 0
227 0 0 0
193 0 0 0
198 0 0 0
199 0 0 0
223 0 0 0
224 0 0 0
228 0 0 0
174 0 0 0
194 0 0 0
195 0 0 0
200 0 0 0
221 0 0 0
229 0 0 0
201 0 0 0
202 0 0 0
206 0 0 0
207 0 0 0
231 0 0 0
232 0 0 0
236 0 0 0
237 0 0 0
203 0 0 0
208 0 0 0
209 0 0 0
233 0 0 0
234 0 0 0
238 0 0 0
204 0 0 0
205 0 0 0
210 0 0 0
230 0 0 0
235 0 0 0
239 0 0 0
240 0 0 0
241 0 0 0
242 0 0 0
246 0 0 0
247 0 0 0
271 0 0 0
277 0 0 0
243 0 0 0
244 0 0 0
248 0 0 0
273 0 0 0
278 0 0 0
279 0 0 0
245 0 0 0
249 0 0 0
250 0 0 0
274 0 0 0
275 0 0 0
276 0 0 0
280 0 0 0
252 0 0 0
256 0 0 0
257 0 0 0
281 0 0 0
282 0 0 0
287 0 0 0
253 0 0 0
254 0 0 0
258 0 0 0
283 0 0 0
288 0 0 0
225 0 0 0
251 0 0 0
255 0 0 0
259 0 0 0
260 0 0 0
285 0 0 0
286 0 0 0
261 0 0 0
262 0 0 0
266 0 0 0
267 0 0 0
291 0 0 0
292 0 0 0
297 0 0 0
263 0 0 0
264 0 0 0
268 0 0 0
293 0 0 0
265 0 0 0
269 0 0 0
270 0 0 0
300 0 0 0
272 0 0 0
302 0 0 0
306 0 0 0
307 0 0 0
303 0 0 0
304 0 0 0
308 0 0 0
296 0 0 0
301 0 0 0
305 0 0 0
309 0 0 0
310 0 0 0
312 0 0 0
316 0 0 0
317 0 0 0
289 0 0 0
313 0 0 0
314 0 0 0
318 0 0 0
284 0 0 0
290 0 0 0
311 0 0 0
315 0 0 0
319 0 0 0
320 0 0 0
321 0 0 0
322 0 0 0
326 0 0 0
327 0 0 0
298 0 0 0
299 0 0 0
323 0 0 0
324 0 0 0
328 0 0 0
294 0 0 0
295 0 0 0
325 0 0 0
329 0 0 0
330 0 0 0
332 0 0 0
336 0 0 0
337 0 0 0
333 0 0 0
334 0 0 0
338 0 0 0
331 0 0 0
335 0 0 0
339 0 0 0
340 0 0 0
342 0 0 0
346 0 0 0
347 0 0 0
361 0 0 0
343 0 0 0
344 0 0 0
348 0 0 0
341 0 0 0
345 0 0 0
349 0 0 0
350 0 0 0
351 0 0 0
352 0 0 0
356 0 0 0
357 0 0 0
353 0 0 0
354 0 0 0
358 0 0 0
355 0 0 0
359 0 0 0
360 0 0 0
