LAMMPS (11 Feb 2026 - Development - patch_11Feb2026-99-gb75dfcc930-modified)
/home/akinyemi.az/miniforge3/envs/mace-lammps/lib/python3.11/site-packages/e3nn/o3/_wigner.py:10: FutureWarning: You are using `torch.load` with `weights_only=False` (the current default value), which uses the default pickle module implicitly. It is possible to construct malicious pickle data which will execute arbitrary code during unpickling (See https://github.com/pytorch/pytorch/blob/main/SECURITY.md#untrusted-models for more details). In a future release, the default value for `weights_only` will be flipped to `True`. This limits the functions that could be executed during unpickling. Arbitrary objects will no longer be allowed to be loaded via this mode unless they are explicitly allowlisted by the user via `torch.serialization.add_safe_globals`. We recommend you start setting `weights_only=True` for any use case where you don't have full control of the loaded file. Please open an issue on GitHub for any issues related to this experimental feature.
  _Jd, _W3j_flat, _W3j_indices = torch.load(os.path.join(os.path.dirname(__file__), 'constants.pt'))
KOKKOS mode with Kokkos version 5.0.2 is enabled
  using double precision
  using view layout = legacy
  will use up to 1 GPU(s) per node
  using 1 OpenMP thread(s) per MPI task
Reading data file ...
  orthogonal box = (0.14794887 0.14794887 0.14794887) to (17.707051 17.707051 17.707051)
  1 by 1 by 1 MPI processor grid
  reading atoms ...
  500 atoms
  reading velocities ...
  500 velocities
  read_data CPU = 0.016 seconds

CITE-CITE-CITE-CITE-CITE-CITE-CITE-CITE-CITE-CITE-CITE-CITE-CITE

Your simulation uses code contributions which should be cited:
- KOKKOS package: https://doi.org/10.1145/3731599.3767498
The log file lists these citations in BibTeX format.

CITE-CITE-CITE-CITE-CITE-CITE-CITE-CITE-CITE-CITE-CITE-CITE-CITE

Neighbor list info ...
  update: every = 1 steps, delay = 0 steps, check = yes
  max neighbors/atom: 2000, page size: 100000
  master list distance cutoff = 7
  ghost atom cutoff = 7
  binsize = 7, bins = 3 3 3
  1 neighbor lists, perpetual/occasional/extra = 1 0 0
  (1) pair mliap/kk, perpetual
      attributes: full, newton on, kokkos_device
      pair build: full/bin/kk/device
      stencil: full/bin/3d
      bin: kk/device
Setting up Verlet run ...
  Unit style    : metal
  Current step  : 0
  Time step     : 0.0005
Per MPI rank memory allocation (min/avg/max) = 89.31 | 89.31 | 89.31 Mbytes
   Step          Time           Temp          PotEng         KinEng         Press          Volume           Lx             Ly             Lz      
         0   0              300           -2868.5426      19.350244      3817.672       5413.8588      17.559102      17.559102      17.559102    
       200   0.1            152.99455     -2859.0597      9.868273       10384.485      5413.8651      17.559109      17.559109      17.559109    
       400   0.2            152.5009      -2859.0285      9.8364322      9940.1563      5413.8843      17.55913       17.55913       17.55913     
       600   0.3            157.47124     -2859.3499      10.157023      9688.1282      5413.9163      17.559164      17.559164      17.559164    
       800   0.4            123.34133     -2857.1492      7.9556161      10910.906      5413.9609      17.559213      17.559213      17.559213    
      1000   0.5            120.96135     -2856.9968      7.8021051      10782.049      5414.0183      17.559275      17.559275      17.559275    
      1200   0.6            132.53008     -2857.7443      8.5482979      10701.632      5414.0884      17.55935       17.55935       17.55935     
      1400   0.7            141.01261     -2858.2929      9.0954282      10095.985      5414.171       17.55944       17.55944       17.55944     
      1600   0.8            146.35973     -2858.6394      9.4403214      10018.826      5414.2663      17.559543      17.559543      17.559543    
      1800   0.9            163.63779     -2859.7557      10.554771      9365.3509      5414.3741      17.559659      17.559659      17.559659    
      2000   1              162.4036      -2859.678       10.475164      9184.4592      5414.4944      17.559789      17.559789      17.559789    
      2200   1.1            139.68252     -2858.2142      9.0096362      10301.026      5414.6271      17.559933      17.559933      17.559933    
      2400   1.2            149.03715     -2858.8199      9.6130174      9532.2623      5414.7723      17.56009       17.56009       17.56009     
      2600   1.3            152.80353     -2859.0651      9.8559516      9431.9954      5414.9298      17.56026       17.56026       17.56026     
      2800   1.4            150.58766     -2858.9244      9.7130264      9680.5292      5415.0996      17.560444      17.560444      17.560444    
      3000   1.5            153.32859     -2859.1038      9.8898187      9236.9791      5415.2815      17.56064       17.56064       17.56064     
      3200   1.6            139.11587     -2858.1895      8.9730866      10005.184      5415.4755      17.56085       17.56085       17.56085     
      3400   1.7            167.71135     -2860.0367      10.817518      8758.4191      5415.6816      17.561073      17.561073      17.561073    
      3600   1.8            145.42422     -2858.6017      9.3799806      9579.4796      5415.8996      17.561308      17.561308      17.561308    
      3800   1.9            171.99717     -2860.3187      11.093957      8166.0461      5416.1294      17.561557      17.561557      17.561557    
      4000   2              144.09515     -2858.5217      9.294254       9576.5015      5416.3708      17.561818      17.561818      17.561818    
      4200   2.1            141.8138      -2858.3776      9.1471056      9287.734       5416.6239      17.562091      17.562091      17.562091    
      4400   2.2            157.24687     -2859.3762      10.142551      8351.6883      5416.8886      17.562377      17.562377      17.562377    
      4600   2.3            148.96596     -2858.8451      9.6084256      8911.9235      5417.1646      17.562675      17.562675      17.562675    
      4800   2.4            136.76551     -2858.0613      8.8214865      9169.7678      5417.4519      17.562986      17.562986      17.562986    
      5000   2.5            149.48299     -2858.8848      9.6417745      8536.8105      5417.7503      17.563308      17.563308      17.563308    
      5200   2.6            143.87627     -2858.5265      9.2801366      8842.2422      5418.0597      17.563643      17.563643      17.563643    
      5400   2.7            149.86945     -2858.9164      9.6667015      8441.097       5418.38        17.563989      17.563989      17.563989    
      5600   2.8            146.9015      -2858.7283      9.4752661      8441.055       5418.711       17.564347      17.564347      17.564347    
      5800   2.9            145.21466     -2858.6229      9.3664637      8331.9615      5419.0525      17.564715      17.564715      17.564715    
      6000   3              139.96044     -2858.2874      9.0275623      8328.9342      5419.4044      17.565096      17.565096      17.565096    
      6200   3.1            145.64636     -2858.6577      9.3943083      7860.1966      5419.7664      17.565487      17.565487      17.565487    
      6400   3.2            142.64395     -2858.4675      9.2006506      7859.0368      5420.1385      17.565889      17.565889      17.565889    
      6600   3.3            156.09565     -2859.3387      10.068296      7101.4315      5420.5203      17.566301      17.566301      17.566301    
      6800   3.4            161.40251     -2859.6846      10.410593      6883.9652      5420.9118      17.566724      17.566724      17.566724    
      7000   3.5            159.19722     -2859.5459      10.26835       6720.3644      5421.3127      17.567157      17.567157      17.567157    
      7200   3.6            154.06891     -2859.2186      9.9375697      6981.8505      5421.7229      17.5676        17.5676        17.5676      
      7400   3.7            144.11769     -2858.5802      9.2957079      7296.5041      5422.142       17.568053      17.568053      17.568053    
      7600   3.8            140.56895     -2858.3549      9.0668115      7120.2274      5422.5699      17.568515      17.568515      17.568515    
      7800   3.9            146.99852     -2858.7732      9.4815243      6469.304       5423.0065      17.568986      17.568986      17.568986    
      8000   4              147.42206     -2858.804       9.5088425      6563.8068      5423.4514      17.569467      17.569467      17.569467    
      8200   4.1            157.92082     -2859.4848      10.186021      5835.7213      5423.9046      17.569956      17.569956      17.569956    
      8400   4.2            159.76095     -2859.607       10.304711      5567.781       5424.3658      17.570454      17.570454      17.570454    
      8600   4.3            161.48757     -2859.7219      10.416079      5510.737       5424.8348      17.570961      17.570961      17.570961    
      8800   4.4            151.14223     -2859.058       9.7487968      5725.6779      5425.3113      17.571475      17.571475      17.571475    
      9000   4.5            148.36172     -2858.8821      9.5694517      5533.8976      5425.7951      17.571997      17.571997      17.571997    
      9200   4.6            150.32735     -2859.0124      9.6962363      5313.4083      5426.2861      17.572527      17.572527      17.572527    
      9400   4.7            131.6659      -2857.8119      8.4925575      5878.2472      5426.784       17.573065      17.573065      17.573065    
      9600   4.8            143.18096     -2858.5581      9.2352881      5072.4658      5427.2885      17.573609      17.573609      17.573609    
      9800   4.9            151.53172     -2859.1001      9.7739188      4691.7762      5427.7995      17.574161      17.574161      17.574161    
     10000   5              143.64699     -2858.5947      9.2653475      4797.9402      5428.3167      17.574719      17.574719      17.574719    
     10200   5.1            151.69208     -2859.1169      9.7842624      4306.7746      5428.8399      17.575284      17.575284      17.575284    
     10400   5.2            153.21675     -2859.2185      9.8826049      4148.575       5429.3688      17.575854      17.575854      17.575854    
     10600   5.3            145.09672     -2858.6978      9.3588562      4265.2467      5429.9032      17.576431      17.576431      17.576431    
     10800   5.4            155.97857     -2859.4028      10.060745      3524.2284      5430.4428      17.577013      17.577013      17.577013    
     11000   5.5            148.01022     -2858.8918      9.5467792      3742.6671      5430.9874      17.577601      17.577601      17.577601    
     11200   5.6            147.29783     -2858.8488      9.5008297      3440.5894      5431.5367      17.578193      17.578193      17.578193    
     11400   5.7            155.51963     -2859.3821      10.031142      3029.9974      5432.0905      17.578791      17.578791      17.578791    
     11600   5.8            159.06892     -2859.6138      10.260075      2441.2914      5432.6485      17.579393      17.579393      17.579393    
     11800   5.9            149.93024     -2859.027       9.670622       2747.9653      5433.2104      17.579999      17.579999      17.579999    
     12000   6              150.81845     -2859.087       9.7279127      2651.8189      5433.776       17.580609      17.580609      17.580609    
     12200   6.1            154.24295     -2859.3106      9.9487955      2087.8022      5434.345       17.581222      17.581222      17.581222    
     12400   6.2            147.13254     -2858.8544      9.4901685      2231.093       5434.9171      17.581839      17.581839      17.581839    
     12600   6.3            149.53793     -2859.012       9.645318       2080.7553      5435.4922      17.582459      17.582459      17.582459    
     12800   6.4            146.35827     -2858.8093      9.4402273      1788.1537      5436.0698      17.583082      17.583082      17.583082    
     13000   6.5            140.98191     -2858.4648      9.0934478      1885.1772      5436.6497      17.583708      17.583708      17.583708    
     13200   6.6            152.48092     -2859.2088      9.8351431      1188.6267      5437.2318      17.584335      17.584335      17.584335    
     13400   6.7            142.26615     -2858.552       9.176282       1375.9457      5437.8156      17.584964      17.584964      17.584964    
     13600   6.8            155.04452     -2859.3783      10.000498      579.84345      5438.4009      17.585595      17.585595      17.585595    
     13800   6.9            148.27874     -2858.9438      9.5640994      687.42177      5438.9875      17.586227      17.586227      17.586227    
     14000   7              137.97228     -2858.2809      8.8993239      954.63534      5439.575       17.586861      17.586861      17.586861    
     14200   7.1            149.35179     -2859.0167      9.6333121      322.38417      5440.1633      17.587495      17.587495      17.587495    
     14400   7.2            146.59405     -2858.8406      9.4554354      275.27366      5440.752       17.588129      17.588129      17.588129    
     14600   7.3            142.91229     -2858.6047      9.2179585      125.59215      5441.3409      17.588764      17.588764      17.588764    
     14800   7.4            139.71796     -2858.4002      9.0119218      75.891079      5441.9298      17.589398      17.589398      17.589398    
     15000   7.5            147.70348     -2858.9168      9.5269943     -697.24516      5442.5183      17.590032      17.590032      17.590032    
     15200   7.6            135.91423     -2858.1577      8.7665782     -226.13021      5443.1061      17.590665      17.590665      17.590665    
     15400   7.7            158.41303     -2859.6103      10.217769     -1463.4491      5443.6931      17.591298      17.591298      17.591298    
     15600   7.8            153.68345     -2859.3064      9.9127071     -1436.8274      5444.2788      17.591929      17.591929      17.591929    
     15800   7.9            147.61256     -2858.9158      9.5211302     -1261.8407      5444.863       17.592558      17.592558      17.592558    
     16000   8              150.86918     -2859.127       9.7311845     -1563.2181      5445.4455      17.593185      17.593185      17.593185    
     16200   8.1            151.32405     -2859.1573      9.7605242     -1810.9785      5446.026       17.59381       17.59381       17.59381     
     16400   8.2            153.13324     -2859.2749      9.8772186     -2233.5682      5446.6043      17.594433      17.594433      17.594433    
     16600   8.3            146.2241      -2858.83        9.4315734     -2206.539       5447.18        17.595053      17.595053      17.595053    
     16800   8.4            149.34243     -2859.0318      9.6327082     -2470.2086      5447.753       17.59567       17.59567       17.59567     
     17000   8.5            148.97838     -2859.009       9.6092262     -2815.274       5448.3228      17.596283      17.596283      17.596283    
     17200   8.6            138.44503     -2858.3301      8.9298171     -2543.8744      5448.8892      17.596893      17.596893      17.596893    
     17400   8.7            143.42343     -2858.6516      9.2509277     -2848.6176      5449.4521      17.597499      17.597499      17.597499    
     17600   8.8            146.08777     -2858.8239      9.42278       -3213.8201      5450.0109      17.5981        17.5981        17.5981      
     17800   8.9            139.29969     -2858.3864      8.9849432     -3096.8268      5450.5656      17.598697      17.598697      17.598697    
     18000   9              144.15647     -2858.6999      9.2982092     -3529.422       5451.1159      17.59929       17.59929       17.59929     
     18200   9.1            149.65202     -2859.0546      9.6526771     -4023.5708      5451.6615      17.599877      17.599877      17.599877    
     18400   9.2            144.66205     -2858.7328      9.3308196     -3977.9223      5452.2021      17.600459      17.600459      17.600459    
     18600   9.3            148.16155     -2858.9586      9.5565404     -4367.3223      5452.7374      17.601035      17.601035      17.601035    
     18800   9.4            156.79248     -2859.5153      10.113243     -4824.8114      5453.2673      17.601605      17.601605      17.601605    
     19000   9.5            147.36066     -2858.9068      9.5048824     -4569.8479      5453.7914      17.602169      17.602169      17.602169    
     19200   9.6            146.75491     -2858.8677      9.4658107     -4885.9862      5454.3096      17.602726      17.602726      17.602726    
     19400   9.7            146.19022     -2858.8311      9.429388      -4927.9977      5454.8215      17.603277      17.603277      17.603277    
     19600   9.8            147.7742      -2858.933       9.5315557     -5241.033       5455.3269      17.60382       17.60382       17.60382     
     19800   9.9            129.58701     -2857.7595      8.3584673     -4654.6002      5455.8256      17.604357      17.604357      17.604357    
     20000   10             143.78861     -2858.6753      9.2744822     -5488.3819      5456.3173      17.604886      17.604886      17.604886    
Loop time of 709.751 on 1 procs for 20000 steps with 500 atoms

Performance: 1.217 ns/day, 19.715 hours/ns, 28.179 timesteps/s, 14.089 katom-step/s
93.1% CPU use with 1 MPI tasks x 1 OpenMP threads

MPI task timing breakdown:
Section |  min time  |  avg time  |  max time  |%varavg| %total
---------------------------------------------------------------
Pair    | 705.98     | 705.98     | 705.98     |   0.0 | 99.47
Neigh   | 0          | 0          | 0          |   0.0 |  0.00
Comm    | 0.7981     | 0.7981     | 0.7981     |   0.0 |  0.11
Output  | 0.0070954  | 0.0070954  | 0.0070954  |   0.0 |  0.00
Modify  | 2.1124     | 2.1124     | 2.1124     |   0.0 |  0.30
Other   |            | 0.8492     |            |       |  0.12

Nlocal:            500 ave         500 max         500 min
Histogram: 1 0 0 0 0 0 0 0 0 0
Nghost:           1956 ave        1956 max        1956 min
Histogram: 1 0 0 0 0 0 0 0 0 0
Neighs:              0 ave           0 max           0 min
Histogram: 1 0 0 0 0 0 0 0 0 0
FullNghs:        67000 ave       67000 max       67000 min
Histogram: 1 0 0 0 0 0 0 0 0 0

Total # of neighbors = 67000
Ave neighs/atom = 134
Neighbor list builds = 0
Dangerous builds = 0
### Heating complete ###
Setting up Verlet run ...
  Unit style    : metal
  Current step  : 20000
  Time step     : 0.0005
Per MPI rank memory allocation (min/avg/max) = 95.58 | 95.58 | 95.58 Mbytes
   Step          Time           Temp          PotEng         KinEng         Press          Volume           Lx             Ly             Lz      
     20000   10             143.78861     -2858.6753      9.2744822     -5488.3819      5456.3173      17.604886      17.604886      17.604886    
     20200   10.1           145.96537     -2858.8157      9.4148849     -5585.9055      5456.3172      17.604885      17.604885      17.604885    
     20400   10.2           146.79925     -2858.8695      9.4686708     -5600.6768      5456.3168      17.604885      17.604885      17.604885    
     20600   10.3           154.25395     -2859.3504      9.949505      -5921.8497      5456.3162      17.604884      17.604884      17.604884    
     20800   10.4           149.42377     -2859.0387      9.6379546     -5578.6873      5456.3154      17.604883      17.604883      17.604883    
     21000   10.5           153.92411     -2859.329       9.9282304     -5858.4182      5456.3143      17.604882      17.604882      17.604882    
     21200   10.6           151.58854     -2859.1783      9.7775839     -5626.8203      5456.313       17.604881      17.604881      17.604881    
     21400   10.7           140.04511     -2858.4336      9.0330233     -5108.3356      5456.3114      17.604879      17.604879      17.604879    
     21600   10.8           147.53672     -2858.9168      9.5162384     -5582.9717      5456.3096      17.604877      17.604877      17.604877    
     21800   10.9           143.72063     -2858.6706      9.2700972     -5416.8806      5456.3076      17.604875      17.604875      17.604875    
     22000   11             133.06388     -2857.9831      8.5827283     -4945.7038      5456.3053      17.604873      17.604873      17.604873    
     22200   11.1           150.38392     -2859.1002      9.6998849     -5750.5557      5456.3028      17.60487       17.60487       17.60487     
     22400   11.2           142.96478     -2858.6215      9.2213447     -5270.7961      5456.3001      17.604867      17.604867      17.604867    
     22600   11.3           142.41581     -2858.586       9.1859356     -5251.3967      5456.2971      17.604864      17.604864      17.604864    
     22800   11.4           153.58371     -2859.3063      9.9062741     -5828.1635      5456.2939      17.60486       17.60486       17.60486     
     23000   11.5           149.7793      -2859.0608      9.6608865     -5616.4079      5456.2905      17.604857      17.604857      17.604857    
     23200   11.6           142.52647     -2858.5928      9.1930733     -5321.413       5456.2868      17.604853      17.604853      17.604853    
     23400   11.7           152.18402     -2859.2156      9.8159926     -5702.6342      5456.2829      17.604849      17.604849      17.604849    
     23600   11.8           138.87314     -2858.3568      8.9574302     -5124.1161      5456.2787      17.604844      17.604844      17.604844    
     23800   11.9           148.24784     -2858.9614      9.5621064     -5566.3727      5456.2743      17.604839      17.604839      17.604839    
     24000   12             151.01194     -2859.1395      9.7403926     -5537.7726      5456.2697      17.604834      17.604834      17.604834    
     24200   12.1           148.17614     -2858.9564      9.5574812     -5404.6288      5456.2648      17.604829      17.604829      17.604829    
     24400   12.2           148.47004     -2858.9752      9.5764384     -5533.5461      5456.2598      17.604824      17.604824      17.604824    
     24600   12.3           150.53149     -2859.108       9.7094032     -5559.1642      5456.2544      17.604818      17.604818      17.604818    
     24800   12.4           139.1706      -2858.3749      8.9766165     -5015.171       5456.2489      17.604812      17.604812      17.604812    
     25000   12.5           146.14329     -2858.8245      9.4263612     -5514.3456      5456.2431      17.604806      17.604806      17.604806    
     25200   12.6           140.02795     -2858.4297      9.0319165     -5176.3797      5456.2371      17.604799      17.604799      17.604799    
     25400   12.7           145.79753     -2858.8017      9.4040593     -5311.5796      5456.2308      17.604793      17.604793      17.604793    
     25600   12.8           150.59732     -2859.1111      9.7136494     -5584.3151      5456.2243      17.604786      17.604786      17.604786    
     25800   12.9           145.02646     -2858.7514      9.3543246     -5318.7385      5456.2176      17.604778      17.604778      17.604778    
     26000   13             148.25116     -2858.9592      9.5623204     -5438.8908      5456.2107      17.604771      17.604771      17.604771    
     26200   13.1           148.28086     -2858.9609      9.5642358     -5620.5393      5456.2035      17.604763      17.604763      17.604763    
     26400   13.2           144.10502     -2858.6912      9.2948911     -5344.0057      5456.196       17.604755      17.604755      17.604755    
     26600   13.3           143.52758     -2858.6537      9.2576454     -5282.2443      5456.1884      17.604747      17.604747      17.604747    
     26800   13.4           148.18478     -2858.9538      9.5580385     -5478.9995      5456.1805      17.604738      17.604738      17.604738    
     27000   13.5           143.30512     -2858.6387      9.2432968     -5264.1988      5456.1724      17.60473       17.60473       17.60473     
     27200   13.6           146.75205     -2858.8607      9.4656264     -5417.6325      5456.164       17.604721      17.604721      17.604721    
     27400   13.7           147.91976     -2858.9357      9.5409448     -5444.0074      5456.1554      17.604711      17.604711      17.604711    
     27600   13.8           143.87317     -2858.6743      9.2799363     -5202.3509      5456.1466      17.604702      17.604702      17.604702    
     27800   13.9           142.20024     -2858.5661      9.172031      -5278.3749      5456.1376      17.604692      17.604692      17.604692    
     28000   14             144.97744     -2858.7449      9.3511629     -5365.4957      5456.1283      17.604682      17.604682      17.604682    
     28200   14.1           145.2203      -2858.7602      9.3668276     -5353.5798      5456.1187      17.604672      17.604672      17.604672    
     28400   14.2           148.2705      -2858.9566      9.5635676     -5444.8184      5456.109       17.604662      17.604662      17.604662    
     28600   14.3           151.14839     -2859.1419      9.7491941     -5574.748       5456.099       17.604651      17.604651      17.604651    
     28800   14.4           147.9643      -2858.9361      9.5438176     -5407.9307      5456.0888      17.60464       17.60464       17.60464     
     29000   14.5           148.32244     -2858.9588      9.5669178     -5460.19        5456.0783      17.604629      17.604629      17.604629    
     29200   14.6           143.29799     -2858.6343      9.2428369     -5148.4093      5456.0676      17.604617      17.604617      17.604617    
     29400   14.7           150.49657     -2859.0982      9.7071512     -5455.3768      5456.0567      17.604605      17.604605      17.604605    
     29600   14.8           142.96173     -2858.6117      9.2211478     -5168.6789      5456.0456      17.604593      17.604593      17.604593    
     29800   14.9           151.7842      -2859.1804      9.7902039     -5637.3459      5456.0342      17.604581      17.604581      17.604581    
     30000   15             144.63597     -2858.7189      9.3291378     -5268.5204      5456.0226      17.604569      17.604569      17.604569    
     30200   15.1           147.54728     -2858.9062      9.5169191     -5352.4344      5456.0108      17.604556      17.604556      17.604556    
     30400   15.2           146.8073      -2858.8581      9.46919       -5350.2169      5455.9987      17.604543      17.604543      17.604543    
     30600   15.3           147.91983     -2858.9293      9.5409492     -5384.0255      5455.9864      17.60453       17.60453       17.60453     
     30800   15.4           148.30253     -2858.9536      9.5656334     -5385.3561      5455.9739      17.604516      17.604516      17.604516    
     31000   15.5           147.21564     -2858.883       9.4955286     -5284.2641      5455.9612      17.604503      17.604503      17.604503    
     31200   15.6           144.43613     -2858.7032      9.3162475     -5140.2978      5455.9482      17.604489      17.604489      17.604489    
     31400   15.7           143.20156     -2858.623       9.2366169     -5118.4022      5455.935       17.604474      17.604474      17.604474    
     31600   15.8           148.15804     -2858.9422      9.5563137     -5382.8867      5455.9216      17.60446       17.60446       17.60446     
     31800   15.9           153.19064     -2859.2663      9.8809208     -5597.3751      5455.9079      17.604445      17.604445      17.604445    
     32000   16             152.68994     -2859.2335      9.8486253     -5581.6766      5455.894       17.60443       17.60443       17.60443     
     32200   16.1           145.18388     -2858.7488      9.364478      -5123.9996      5455.8799      17.604415      17.604415      17.604415    
     32400   16.2           146.94981     -2858.8622      9.4783819     -5299.1754      5455.8656      17.6044        17.6044        17.6044      
     32600   16.3           153.94612     -2859.3129      9.92965       -5545.9595      5455.851       17.604384      17.604384      17.604384    
     32800   16.4           149.8476      -2859.0479      9.6652921     -5297.3482      5455.8362      17.604368      17.604368      17.604368    
     33000   16.5           146.12031     -2858.807       9.4248785     -5264.9645      5455.8212      17.604352      17.604352      17.604352    
     33200   16.6           140.94732     -2858.4727      9.0912167     -5016.5334      5455.806       17.604336      17.604336      17.604336    
     33400   16.7           145.65499     -2858.7757      9.3948652     -5160.4701      5455.7905      17.604319      17.604319      17.604319    
     33600   16.8           146.56519     -2858.8339      9.4535741     -5300.2629      5455.7748      17.604302      17.604302      17.604302    
     33800   16.9           150.63199     -2859.0956      9.7158859     -5441.2771      5455.7589      17.604285      17.604285      17.604285    
     34000   17             152.64682     -2859.2249      9.845844      -5450.3953      5455.7428      17.604268      17.604268      17.604268    
     34200   17.1           148.42042     -2858.9517      9.5732375     -5259.4476      5455.7264      17.60425       17.60425       17.60425     
     34400   17.2           146.38231     -2858.8196      9.4417777     -5120.2544      5455.7098      17.604232      17.604232      17.604232    
     34600   17.3           153.7242      -2859.2925      9.9153358     -5415.1025      5455.693       17.604214      17.604214      17.604214    
     34800   17.4           148.65719     -2858.965       9.5885098     -5267.361       5455.676       17.604196      17.604196      17.604196    
     35000   17.5           141.56648     -2858.5069      9.1311529     -4960.1327      5455.6587      17.604177      17.604177      17.604177    
     35200   17.6           145.08796     -2858.7334      9.3582914     -5054.2512      5455.6412      17.604158      17.604158      17.604158    
     35400   17.7           145.85988     -2858.7825      9.4080811     -5127.5337      5455.6235      17.604139      17.604139      17.604139    
     35600   17.8           141.36113     -2858.4916      9.1179077     -4935.2275      5455.6056      17.60412       17.60412       17.60412     
     35800   17.9           143.22657     -2858.6113      9.2382304     -5034.5748      5455.5875      17.604101      17.604101      17.604101    
     36000   18             148.91009     -2858.9772      9.6048215     -5241.528       5455.5691      17.604081      17.604081      17.604081    
     36200   18.1           145.2283      -2858.739       9.3673436     -5107.5815      5455.5505      17.604061      17.604061      17.604061    
     36400   18.2           145.16997     -2858.7345      9.3635811     -5149.8655      5455.5317      17.604041      17.604041      17.604041    
     36600   18.3           144.06956     -2858.6627      9.2926037     -4972.2883      5455.5126      17.60402       17.60402       17.60402     
     36800   18.4           147.03662     -2858.8534      9.4839812     -5196.8384      5455.4934      17.603999      17.603999      17.603999    
     37000   18.5           145.05597     -2858.7249      9.3562277     -5156.5088      5455.4739      17.603978      17.603978      17.603978    
     37200   18.6           149.96241     -2859.0406      9.672697      -5356.6035      5455.4542      17.603957      17.603957      17.603957    
     37400   18.7           149.77524     -2859.0278      9.6606249     -5278.3773      5455.4343      17.603936      17.603936      17.603936    
     37600   18.8           142.52664     -2858.5594      9.1930843     -4993.4794      5455.4141      17.603914      17.603914      17.603914    
     37800   18.9           145.70079     -2858.7634      9.3978195     -5051.1433      5455.3937      17.603892      17.603892      17.603892    
     38000   19             153.95796     -2859.2952      9.9304138     -5364.1449      5455.3731      17.60387       17.60387       17.60387     
     38200   19.1           149.85065     -2859.0294      9.6654888     -5217.1114      5455.3523      17.603848      17.603848      17.603848    
     38400   19.2           143.30062     -2858.6061      9.2430065     -4905.4153      5455.3313      17.603825      17.603825      17.603825    
     38600   19.3           150.75981     -2859.0864      9.7241304     -5273.1392      5455.31        17.603802      17.603802      17.603802    
     38800   19.4           145.81513     -2858.7666      9.4051946     -5003.3479      5455.2885      17.603779      17.603779      17.603779    
     39000   19.5           145.82615     -2858.7665      9.4059052     -4961.5453      5455.2668      17.603756      17.603756      17.603756    
     39200   19.6           153.78689     -2859.2791      9.919379      -5295.0432      5455.2449      17.603732      17.603732      17.603732    
     39400   19.7           152.85191     -2859.218       9.8590726     -5301.8021      5455.2228      17.603708      17.603708      17.603708    
     39600   19.8           144.5123      -2858.6791      9.321161      -4898.5924      5455.2005      17.603684      17.603684      17.603684    
     39800   19.9           148.83589     -2858.9572      9.6000359     -5131.4991      5455.1779      17.60366       17.60366       17.60366     
     40000   20             146.82687     -2858.8267      9.4704527     -4981.3546      5455.1551      17.603636      17.603636      17.603636    
     40200   20.1           143.36519     -2858.6024      9.2471712     -4865.4871      5455.1321      17.603611      17.603611      17.603611    
     40400   20.2           146.49903     -2858.8037      9.4493066     -4978.2709      5455.1089      17.603586      17.603586      17.603586    
     40600   20.3           145.74969     -2858.7545      9.4009732     -4990.1589      5455.0855      17.603561      17.603561      17.603561    
     40800   20.4           138.17465     -2858.2648      8.9123772     -4545.6631      5455.0619      17.603535      17.603535      17.603535    
     41000   20.5           154.09338     -2859.2908      9.9391485     -5282.7092      5455.038       17.60351       17.60351       17.60351     
     41200   20.6           153.4504      -2859.2484      9.8976756     -5207.3065      5455.014       17.603484      17.603484      17.603484    
     41400   20.7           151.77868     -2859.1396      9.7898481     -5195.9105      5454.9897      17.603458      17.603458      17.603458    
     41600   20.8           149.41307     -2858.986       9.6372643     -5066.4554      5454.9652      17.603431      17.603431      17.603431    
     41800   20.9           149.32583     -2858.9794      9.6316375     -5106.3375      5454.9405      17.603405      17.603405      17.603405    
     42000   21             145.16899     -2858.7103      9.3635179     -4799.0181      5454.9156      17.603378      17.603378      17.603378    
     42200   21.1           151.31759     -2859.1059      9.7601074     -5140.7334      5454.8905      17.603351      17.603351      17.603351    
     42400   21.2           149.55876     -2858.9915      9.6466613     -5066.2863      5454.8651      17.603324      17.603324      17.603324    
     42600   21.3           145.85092     -2858.7513      9.4075026     -4858.3657      5454.8396      17.603296      17.603296      17.603296    
     42800   21.4           146.81609     -2858.8125      9.4697571     -4838.7317      5454.8138      17.603268      17.603268      17.603268    
     43000   21.5           141.09531     -2858.4424      9.1007623     -4499.8631      5454.7879      17.60324       17.60324       17.60324     
     43200   21.6           151.67484     -2859.1239      9.7831504     -5090.7704      5454.7617      17.603212      17.603212      17.603212    
     43400   21.7           146.28332     -2858.775       9.4353932     -4783.4703      5454.7353      17.603184      17.603184      17.603184    
     43600   21.8           144.81964     -2858.6795      9.3409846     -4733.2707      5454.7087      17.603155      17.603155      17.603155    
     43800   21.9           148.61651     -2858.9234      9.5858858     -4945.4442      5454.6819      17.603126      17.603126      17.603126    
     44000   22             146.88999     -2858.8109      9.4745234     -4823.5785      5454.6549      17.603097      17.603097      17.603097    
     44200   22.1           145.19699     -2858.7006      9.3653238     -4692.9644      5454.6277      17.603068      17.603068      17.603068    
     44400   22.2           151.62251     -2859.1141      9.7797752     -5049.5112      5454.6002      17.603039      17.603039      17.603039    
     44600   22.3           151.55865     -2859.1088      9.7756562     -4992.3069      5454.5726      17.603009      17.603009      17.603009    
     44800   22.4           148.7404      -2858.9259      9.5938765     -4816.315       5454.5447      17.602979      17.602979      17.602979    
     45000   22.5           148.29105     -2858.8958      9.5648934     -4831.0092      5454.5167      17.602949      17.602949      17.602949    
     45200   22.6           141.10128     -2858.4309      9.1011473     -4482.2746      5454.4884      17.602918      17.602918      17.602918    
     45400   22.7           143.7591      -2858.6012      9.2725784     -4622.2408      5454.46        17.602888      17.602888      17.602888    
     45600   22.8           145.44954     -2858.7091      9.3816133     -4708.0458      5454.4313      17.602857      17.602857      17.602857    
     45800   22.9           145.77792     -2858.7291      9.4027944     -4684.6315      5454.4024      17.602826      17.602826      17.602826    
     46000   23             139.85067     -2858.3456      9.0204815     -4468.005       5454.3734      17.602795      17.602795      17.602795    
     46200   23.1           144.49893     -2858.6443      9.3202982     -4664.785       5454.3441      17.602763      17.602763      17.602763    
     46400   23.2           149.84104     -2858.9877      9.6648685     -4756.3885      5454.3146      17.602731      17.602731      17.602731    
     46600   23.3           144.49542     -2858.6417      9.3200719     -4567.2396      5454.2849      17.602699      17.602699      17.602699    
     46800   23.4           151.40026     -2859.0858      9.7654398     -4996.9655      5454.255       17.602667      17.602667      17.602667    
     47000   23.5           148.99513     -2858.9295      9.6103067     -4717.7504      5454.2249      17.602635      17.602635      17.602635    
     47200   23.6           149.77838     -2858.9788      9.6608273     -4858.154       5454.1946      17.602602      17.602602      17.602602    
     47400   23.7           148.50619     -2858.8955      9.5787701     -4792.9822      5454.1641      17.602569      17.602569      17.602569    
     47600   23.8           150.23494     -2859.0057      9.6902758     -4734.4831      5454.1334      17.602536      17.602536      17.602536    
     47800   23.9           146.42445     -2858.7587      9.4444958     -4646.2333      5454.1025      17.602503      17.602503      17.602503    
     48000   24             144.89644     -2858.6589      9.345938      -4482.2952      5454.0714      17.60247       17.60247       17.60247     
     48200   24.1           142.56629     -2858.5073      9.1956414     -4395.8474      5454.0401      17.602436      17.602436      17.602436    
     48400   24.2           147.57232     -2858.829       9.5185347     -4649.3777      5454.0086      17.602402      17.602402      17.602402    
     48600   24.3           145.16322     -2858.6723      9.3631453     -4576.5666      5453.9769      17.602368      17.602368      17.602368    
     48800   24.4           144.63088     -2858.6366      9.3288092     -4499.292       5453.945       17.602334      17.602334      17.602334    
     49000   24.5           150.37891     -2859.0061      9.6995616     -4741.303       5453.9129      17.602299      17.602299      17.602299    
     49200   24.6           146.55808     -2858.7583      9.453115      -4546.6936      5453.8806      17.602264      17.602264      17.602264    
     49400   24.7           149.99165     -2858.9785      9.674583      -4649.8203      5453.8481      17.60223       17.60223       17.60223     
     49600   24.8           154.17916     -2859.2473      9.9446809     -4857.0477      5453.8154      17.602194      17.602194      17.602194    
     49800   24.9           149.27469     -2858.9295      9.6283386     -4537.8136      5453.7826      17.602159      17.602159      17.602159    
     50000   25             145.71582     -2858.6987      9.3987889     -4348.7108      5453.7495      17.602123      17.602123      17.602123    
     50200   25.1           153.90285     -2859.2254      9.9268587     -4779.7632      5453.7162      17.602088      17.602088      17.602088    
     50400   25.2           146.92073     -2858.7737      9.4765064     -4531.1501      5453.6828      17.602052      17.602052      17.602052    
     50600   25.3           143.26193     -2858.5363      9.2405111     -4206.0776      5453.6491      17.602015      17.602015      17.602015    
     50800   25.4           147.87912     -2858.8327      9.5383234     -4472.9178      5453.6153      17.601979      17.601979      17.601979    
     51000   25.5           149.37251     -2858.9277      9.634648      -4521.6728      5453.5812      17.601942      17.601942      17.601942    
     51200   25.6           141.1781      -2858.3977      9.1061019     -4116.3783      5453.547       17.601906      17.601906      17.601906    
     51400   25.7           147.85538     -2858.827       9.5367919     -4402.7335      5453.5126      17.601869      17.601869      17.601869    
     51600   25.8           143.08611     -2858.5179      9.2291702     -4202.9032      5453.478       17.601831      17.601831      17.601831    
     51800   25.9           142.76445     -2858.4957      9.2084231     -4075.5392      5453.4432      17.601794      17.601794      17.601794    
     52000   26             152.73232     -2859.1372      9.8513585     -4558.9838      5453.4082      17.601756      17.601756      17.601756    
     52200   26.1           147.6635      -2858.8089      9.5244154     -4368.6151      5453.3731      17.601718      17.601718      17.601718    
     52400   26.2           150.30798     -2858.978       9.6949871     -4456.842       5453.3377      17.60168       17.60168       17.60168     
     52600   26.3           149.09652     -2858.8983      9.6168466     -4421.9671      5453.3022      17.601642      17.601642      17.601642    
     52800   26.4           149.80876     -2858.9428      9.6627865     -4383.4537      5453.2664      17.601604      17.601604      17.601604    
     53000   26.5           146.54274     -2858.7307      9.4521259     -4268.5303      5453.2305      17.601565      17.601565      17.601565    
     53200   26.6           145.85737     -2858.6849      9.4079188     -4161.0737      5453.1944      17.601526      17.601526      17.601526    
     53400   26.7           146.15689     -2858.7027      9.4272382     -4157.3992      5453.1582      17.601487      17.601487      17.601487    
     53600   26.8           153.9813      -2859.206       9.9319189     -4581.7284      5453.1217      17.601448      17.601448      17.601448    
     53800   26.9           140.6648      -2858.3454      9.0729939     -3953.4248      5453.0851      17.601409      17.601409      17.601409    
     54000   27             146.87088     -2858.7442      9.473291      -4099.595       5453.0482      17.601369      17.601369      17.601369    
     54200   27.1           149.72678     -2858.9269      9.6574989     -4402.8052      5453.0112      17.601329      17.601329      17.601329    
     54400   27.2           150.58655     -2858.9808      9.7129546     -4410.6946      5452.974       17.601289      17.601289      17.601289    
     54600   27.3           145.26295     -2858.6359      9.3695785     -4056.5566      5452.9367      17.601249      17.601249      17.601249    
     54800   27.4           152.46464     -2859.0989      9.8340928     -4502.9223      5452.8991      17.601208      17.601208      17.601208    
     55000   27.5           141.09711     -2858.364       9.1008785     -3867.8354      5452.8614      17.601168      17.601168      17.601168    
     55200   27.6           151.04504     -2859.0041      9.7425279     -4298.8566      5452.8234      17.601127      17.601127      17.601127    
     55400   27.7           149.77868     -2858.9209      9.6608466     -4234.0363      5452.7853      17.601086      17.601086      17.601086    
     55600   27.8           141.20218     -2858.366       9.1076553     -3777.3533      5452.7471      17.601045      17.601045      17.601045    
     55800   27.9           148.57139     -2858.8398      9.5829753     -4247.1563      5452.7086      17.601004      17.601004      17.601004    
     56000   28             147.53801     -2858.7715      9.5163212     -4124.8124      5452.67        17.600962      17.600962      17.600962    
     56200   28.1           151.37835     -2859.0176      9.7640263     -4224.7706      5452.6312      17.60092       17.60092       17.60092     
     56400   28.2           149.9591      -2858.9244      9.6724836     -4197.8726      5452.5922      17.600878      17.600878      17.600878    
     56600   28.3           147.57596     -2858.769       9.518769      -3999.4425      5452.553       17.600836      17.600836      17.600836    
     56800   28.4           142.78157     -2858.4581      9.2095271     -3721.5081      5452.5137      17.600794      17.600794      17.600794    
     57000   28.5           154.79584     -2859.2314      9.9844574     -4395.3033      5452.4742      17.600751      17.600751      17.600751    
     57200   28.6           148.69472     -2858.8362      9.5909302     -3962.6567      5452.4345      17.600709      17.600709      17.600709    
     57400   28.7           154.03235     -2859.1788      9.9352116     -4212.6244      5452.3947      17.600666      17.600666      17.600666    
     57600   28.8           150.87473     -2858.9734      9.7315424     -4155.7986      5452.3547      17.600623      17.600623      17.600623    
     57800   28.9           148.14826     -2858.7959      9.5556829     -3897.5648      5452.3145      17.600579      17.600579      17.600579    
     58000   29             148.75872     -2858.8335      9.595058      -3920.1618      5452.2742      17.600536      17.600536      17.600536    
     58200   29.1           155.74042     -2859.2822      10.045384     -4309.0598      5452.2336      17.600492      17.600492      17.600492    
     58400   29.2           147.53271     -2858.751       9.5159797     -3848.2913      5452.1929      17.600449      17.600449      17.600449    
     58600   29.3           147.03858     -2858.7174      9.484108      -3794.2186      5452.1521      17.600405      17.600405      17.600405    
     58800   29.4           150.64217     -2858.9481      9.7165423     -3989.7666      5452.1111      17.600361      17.600361      17.600361    
     59000   29.5           149.1614      -2858.8509      9.6210317     -3846.8438      5452.0699      17.600316      17.600316      17.600316    
     59200   29.6           152.00756     -2859.0327      9.8046112     -3965.0318      5452.0285      17.600272      17.600272      17.600272    
     59400   29.7           149.79247     -2858.888       9.6617362     -3956.7926      5451.987       17.600227      17.600227      17.600227    
     59600   29.8           147.91763     -2858.7653      9.540807      -3677.1382      5451.9453      17.600182      17.600182      17.600182    
     59800   29.9           154.06374     -2859.16        9.9372366     -4046.5282      5451.9035      17.600137      17.600137      17.600137    
     60000   30             152.3785      -2859.0495      9.8285368     -3848.2047      5451.8615      17.600092      17.600092      17.600092    
     60200   30.1           148.14502     -2858.7746      9.5554741     -3731.2193      5451.8194      17.600047      17.600047      17.600047    
     60400   30.2           151.7054      -2859.0025      9.7851215     -3786.2169      5451.777       17.600001      17.600001      17.600001    
     60600   30.3           146.13704     -2858.6414      9.4259578     -3571.7704      5451.7346      17.599955      17.599955      17.599955    
     60800   30.4           144.07013     -2858.5063      9.2926403     -3552.2674      5451.6919      17.59991       17.59991       17.59991     
     61000   30.5           145.04725     -2858.5675      9.3556657     -3507.7293      5451.6491      17.599863      17.599863      17.599863    
     61200   30.6           146.05201     -2858.6305      9.4204733     -3543.8035      5451.6062      17.599817      17.599817      17.599817    
     61400   30.7           141.85919     -2858.3581      9.1500331     -3275.6362      5451.5631      17.599771      17.599771      17.599771    
     61600   30.8           157.51651     -2859.3663      10.159943     -3994.412       5451.5199      17.599724      17.599724      17.599724    
     61800   30.9           149.14707     -2858.8245      9.6201075     -3524.0959      5451.4764      17.599678      17.599678      17.599678    
     62000   31             142.56573     -2858.3981      9.1956055     -3267.2986      5451.4329      17.599631      17.599631      17.599631    
     62200   31.1           155.10716     -2859.2052      10.004538     -3791.7891      5451.3892      17.599584      17.599584      17.599584    
     62400   31.2           149.89617     -2858.8672      9.6684248     -3605.2586      5451.3453      17.599537      17.599537      17.599537    
     62600   31.3           148.36215     -2858.7663      9.5694794     -3501.5958      5451.3013      17.599489      17.599489      17.599489    
     62800   31.4           146.4861      -2858.6434      9.4484722     -3424.5463      5451.2571      17.599442      17.599442      17.599442    
     63000   31.5           152.20689     -2859.0105      9.8174677     -3646.7042      5451.2128      17.599394      17.599394      17.599394    
     63200   31.6           146.42814     -2858.6358      9.4447342     -3393.1432      5451.1683      17.599346      17.599346      17.599346    
     63400   31.7           148.31855     -2858.7558      9.5666668     -3332.6777      5451.1237      17.599298      17.599298      17.599298    
     63600   31.8           153.40204     -2859.0818      9.8945563     -3581.0098      5451.079       17.59925       17.59925       17.59925     
     63800   31.9           148.52243     -2858.7651      9.5798174     -3401.0052      5451.0341      17.599202      17.599202      17.599202    
     64000   32             149.81206     -2858.8464      9.6629996     -3503.4022      5450.989       17.599153      17.599153      17.599153    
     64200   32.1           149.09673     -2858.7982      9.61686       -3375.147       5450.9438      17.599104      17.599104      17.599104    
     64400   32.2           147.65816     -2858.7035      9.5240715     -3292.3529      5450.8984      17.599056      17.599056      17.599056    
     64600   32.3           143.20848     -2858.4145      9.2370635     -3120.3036      5450.853       17.599007      17.599007      17.599007    
     64800   32.4           151.47208     -2858.9455      9.7700723     -3474.2887      5450.8073      17.598958      17.598958      17.598958    
     65000   32.5           147.46991     -2858.6854      9.5119293     -3213.5515      5450.7615      17.598908      17.598908      17.598908    
     65200   32.6           146.5484      -2858.6239      9.4524906     -3223.4664      5450.7156      17.598859      17.598859      17.598859    
     65400   32.7           152.68781     -2859.018       9.848488      -3478.4398      5450.6696      17.598809      17.598809      17.598809    
     65600   32.8           149.42953     -2858.8057      9.6383264     -3249.4397      5450.6234      17.59876       17.59876       17.59876     
     65800   32.9           149.83351     -2858.8298      9.664383      -3362.7252      5450.577       17.59871       17.59871       17.59871     
     66000   33             148.28114     -2858.7276      9.564254      -3156.3066      5450.5305      17.59866       17.59866       17.59866     
     66200   33.1           144.96248     -2858.5115      9.3501976     -3039.2227      5450.4839      17.598609      17.598609      17.598609    
     66400   33.2           144.9692      -2858.5099      9.3506314     -3059.8328      5450.4372      17.598559      17.598559      17.598559    
     66600   33.3           147.85969     -2858.6943      9.5370702     -3102.8243      5450.3903      17.598509      17.598509      17.598509    
     66800   33.4           153.23674     -2859.0391      9.883894      -3260.7522      5450.3432      17.598458      17.598458      17.598458    
     67000   33.5           154.8847      -2859.1433      9.9901887     -3447.9373      5450.2961      17.598407      17.598407      17.598407    
     67200   33.6           146.67091     -2858.6114      9.4603931     -3053.7539      5450.2488      17.598356      17.598356      17.598356    
     67400   33.7           151.22213     -2858.9029      9.7539505     -3276.0252      5450.2013      17.598305      17.598305      17.598305    
     67600   33.8           152.49943     -2858.9832      9.8363371     -3318.8408      5450.1538      17.598254      17.598254      17.598254    
     67800   33.9           148.1331      -2858.6994      9.5547053     -3044.7313      5450.1061      17.598203      17.598203      17.598203    
     68000   34             147.45692     -2858.6537      9.5110913     -3139.9571      5450.0582      17.598151      17.598151      17.598151    
     68200   34.1           144.09586     -2858.4348      9.2942999     -2857.7522      5450.0102      17.5981        17.5981        17.5981      
     68400   34.2           148.64246     -2858.726       9.5875596     -3030.2603      5449.9621      17.598048      17.598048      17.598048    
     68600   34.3           153.03206     -2859.007       9.870692      -3227.9807      5449.9139      17.597996      17.597996      17.597996    
     68800   34.4           147.93893     -2858.6763      9.5421815     -2950.1634      5449.8655      17.597944      17.597944      17.597944    
     69000   34.5           147.71938     -2858.66        9.5280198     -2921.2397      5449.817       17.597892      17.597892      17.597892    
     69200   34.6           149.53436     -2858.775       9.6450876     -3082.1908      5449.7684      17.597839      17.597839      17.597839    
     69400   34.7           149.94007     -2858.799       9.6712563     -2991.7971      5449.7196      17.597787      17.597787      17.597787    
     69600   34.8           146.99388     -2858.6068      9.4812244     -2865.921       5449.6708      17.597734      17.597734      17.597734    
     69800   34.9           151.70538     -2858.9085      9.7851204     -3166.2771      5449.6217      17.597681      17.597681      17.597681    
     70000   35             148.42987     -2858.6951      9.573847      -2890.7237      5449.5726      17.597629      17.597629      17.597629    
     70200   35.1           154.00882     -2859.0528      9.9336937     -3112.9287      5449.5233      17.597576      17.597576      17.597576    
     70400   35.2           148.70753     -2858.7086      9.5917562     -2890.1719      5449.4739      17.597522      17.597522      17.597522    
     70600   35.3           145.70056     -2858.5125      9.3978046     -2720.1155      5449.4244      17.597469      17.597469      17.597469    
     70800   35.4           152.00985     -2858.9173      9.8047585     -2966.5951      5449.3748      17.597416      17.597416      17.597416    
     71000   35.5           142.75855     -2858.3183      9.2080424     -2596.8036      5449.325       17.597362      17.597362      17.597362    
     71200   35.6           146.65089     -2858.5672      9.4591017     -2745.2171      5449.2752      17.597308      17.597308      17.597308    
     71400   35.7           149.16262     -2858.727       9.6211105     -2704.6819      5449.2252      17.597255      17.597255      17.597255    
     71600   35.8           150.37743     -2858.8031      9.6994663     -2824.7867      5449.175       17.597201      17.597201      17.597201    
     71800   35.9           140.70337     -2858.1769      9.0754816     -2392.3485      5449.1248      17.597147      17.597147      17.597147    
     72000   36             156.70928     -2859.2071      10.107876     -3049.0345      5449.0744      17.597092      17.597092      17.597092    
     72200   36.1           150.16029     -2858.7824      9.6854606     -2681.8303      5449.024       17.597038      17.597038      17.597038    
     72400   36.2           145.86618     -2858.5032      9.4084872     -2556.0082      5448.9734      17.596984      17.596984      17.596984    
     72600   36.3           149.2839      -2858.7214      9.6289326     -2677.9261      5448.9227      17.596929      17.596929      17.596929    
     72800   36.4           152.08426     -2858.8998      9.8095583     -2782.7183      5448.8718      17.596874      17.596874      17.596874    
     73000   36.5           152.66295     -2858.9348      9.8468846     -2828.7063      5448.8209      17.596819      17.596819      17.596819    
     73200   36.6           153.50557     -2858.9869      9.9012339     -2788.4048      5448.7698      17.596764      17.596764      17.596764    
     73400   36.7           149.27923     -2858.712       9.6286313     -2535.4565      5448.7187      17.596709      17.596709      17.596709    
     73600   36.8           149.47709     -2858.7225      9.641394      -2573.6297      5448.6674      17.596654      17.596654      17.596654    
     73800   36.9           146.51323     -2858.529       9.4502221     -2440.0895      5448.616       17.596599      17.596599      17.596599    
     74000   37             143.29651     -2858.3193      9.2427412     -2290.057       5448.5645      17.596543      17.596543      17.596543    
     74200   37.1           142.53504     -2858.2678      9.1936261     -2250.4231      5448.5129      17.596488      17.596488      17.596488    
     74400   37.2           148.24893     -2858.6341      9.5621762     -2528.8264      5448.4612      17.596432      17.596432      17.596432    
     74600   37.3           152.52471     -2858.9076      9.8379676     -2602.8504      5448.4094      17.596376      17.596376      17.596376    
     74800   37.4           147.54077     -2858.5838      9.5164998     -2338.1086      5448.3574      17.596321      17.596321      17.596321    
     75000   37.5           154.68949     -2859.0426      9.9775977     -2640.6349      5448.3054      17.596264      17.596264      17.596264    
     75200   37.6           150.9774      -2858.8009      9.738165      -2470.7575      5448.2533      17.596208      17.596208      17.596208    
     75400   37.7           151.19548     -2858.8126      9.7522315     -2477.2988      5448.201       17.596152      17.596152      17.596152    
     75600   37.8           143.27977     -2858.2996      9.2416615     -2093.1664      5448.1487      17.596096      17.596096      17.596096    
     75800   37.9           144.92148     -2858.4032      9.3475531     -2168.4853      5448.0962      17.596039      17.596039      17.596039    
     76000   38             145.69344     -2858.4507      9.3973454     -2242.5626      5448.0437      17.595983      17.595983      17.595983    
     76200   38.1           150.77025     -2858.7758      9.7248033     -2368.0306      5447.991       17.595926      17.595926      17.595926    
     76400   38.2           149.84466     -2858.7138      9.6651022     -2296.8165      5447.9383      17.595869      17.595869      17.595869    
     76600   38.3           155.06941     -2859.0484      10.002103     -2552.4247      5447.8854      17.595812      17.595812      17.595812    
     76800   38.4           149.02343     -2858.656       9.6121324     -2169.9638      5447.8325      17.595755      17.595755      17.595755    
     77000   38.5           151.50459     -2858.8138      9.7721694     -2439.4069      5447.7794      17.595698      17.595698      17.595698    
     77200   38.6           146.1364      -2858.4651      9.4259168     -2110.2424      5447.7263      17.595641      17.595641      17.595641    
     77400   38.7           149.03057     -2858.6494      9.6125927     -2206.2845      5447.6731      17.595584      17.595584      17.595584    
     77600   38.8           146.21524     -2858.4654      9.431002      -2089.1044      5447.6197      17.595526      17.595526      17.595526    
     77800   38.9           146.75834     -2858.4981      9.4660321     -2154.0426      5447.5663      17.595469      17.595469      17.595469    
     78000   39             149.40745     -2858.6665      9.6369018     -2082.4497      5447.5128      17.595411      17.595411      17.595411    
     78200   39.1           147.07736     -2858.5138      9.4866093     -1998.7159      5447.4591      17.595353      17.595353      17.595353    
     78400   39.2           151.06491     -2858.7687      9.7438097     -2210.5638      5447.4054      17.595296      17.595296      17.595296    
     78600   39.3           152.37201     -2858.8506      9.8281183     -2261.0935      5447.3516      17.595238      17.595238      17.595238    
     78800   39.4           149.72438     -2858.6774      9.6573439     -2010.4812      5447.2977      17.59518       17.59518       17.59518     
     79000   39.5           148.49087     -2858.5954      9.577782      -2061.3075      5447.2437      17.595121      17.595121      17.595121    
     79200   39.6           146.4506      -2858.4614      9.4461827     -1960.9977      5447.1897      17.595063      17.595063      17.595063    
     79400   39.7           150.35751     -2858.711       9.6981813     -2018.5161      5447.1355      17.595005      17.595005      17.595005    
     79600   39.8           144.3744      -2858.3226      9.312266      -1840.2305      5447.0813      17.594947      17.594947      17.594947    
     79800   39.9           148.94447     -2858.615       9.607039      -1956.2204      5447.0269      17.594888      17.594888      17.594888    
     80000   40             148.37809     -2858.576       9.5705076     -1814.9382      5446.9725      17.594829      17.594829      17.594829    
     80200   40.1           143.83429     -2858.2805      9.2774287     -1726.1585      5446.918       17.594771      17.594771      17.594771    
     80400   40.2           147.92525     -2858.542       9.5412991     -1873.0268      5446.8634      17.594712      17.594712      17.594712    
     80600   40.3           153.57771     -2858.9041      9.9058871     -1990.9684      5446.8087      17.594653      17.594653      17.594653    
     80800   40.4           147.98353     -2858.5408      9.5450578     -1811.3815      5446.754       17.594594      17.594594      17.594594    
     81000   40.5           155.02008     -2858.9923      9.9989213     -2045.8976      5446.6991      17.594535      17.594535      17.594535    
     81200   40.6           154.16307     -2858.9345      9.9436433     -1892.3531      5446.6442      17.594476      17.594476      17.594476    
     81400   40.7           150.95015     -2858.7248      9.7364075     -1751.298       5446.5893      17.594417      17.594417      17.594417    
     81600   40.8           159.02974     -2859.2436      10.257548     -2104.2164      5446.5342      17.594357      17.594357      17.594357    
     81800   40.9           155.36232     -2859.0045      10.020996     -1927.5053      5446.4791      17.594298      17.594298      17.594298    
     82000   41             148.94434     -2858.588       9.6070308     -1611.2081      5446.4238      17.594239      17.594239      17.594239    
     82200   41.1           148.77491     -2858.5747      9.5961026     -1649.2091      5446.3686      17.594179      17.594179      17.594179    
     82400   41.2           155.30088     -2858.9931      10.017033     -1829.1461      5446.3132      17.59412       17.59412       17.59412     
     82600   41.3           151.9141      -2858.7722      9.7985825     -1789.1389      5446.2578      17.59406       17.59406       17.59406     
     82800   41.4           142.4984      -2858.1623      9.1912627     -1296.6078      5446.2023      17.594         17.594         17.594       
     83000   41.5           148.17043     -2858.5258      9.5571129     -1577.3763      5446.1467      17.59394       17.59394       17.59394     
     83200   41.6           146.82865     -2858.4367      9.4705672     -1488.9901      5446.0911      17.59388       17.59388       17.59388     
     83400   41.7           154.7236      -2858.9435      9.9797982     -1852.5628      5446.0354      17.59382       17.59382       17.59382     
     83600   41.8           153.58372     -2858.8674      9.9062749     -1610.8171      5445.9796      17.59376       17.59376       17.59376     
     83800   41.9           156.85998     -2859.0763      10.117596     -1820.3957      5445.9238      17.5937        17.5937        17.5937      
     84000   42             155.65044     -2858.9958      10.03958      -1751.5099      5445.8679      17.59364       17.59364       17.59364     
     84200   42.1           154.7327      -2858.9341      9.9803847     -1738.2899      5445.8119      17.59358       17.59358       17.59358     
     84400   42.2           150.59936     -2858.665       9.7137814     -1554.8204      5445.7558      17.593519      17.593519      17.593519    
     84600   42.3           149.22662     -2858.574       9.6252381     -1497.9145      5445.6997      17.593459      17.593459      17.593459    
     84800   42.4           147.49463     -2858.4597      9.5135237     -1303.204       5445.6436      17.593398      17.593398      17.593398    
     85000   42.5           154.29643     -2858.896       9.952245      -1644.7492      5445.5873      17.593338      17.593338      17.593338    
     85200   42.6           148.78375     -2858.5379      9.5966725     -1326.6707      5445.531       17.593277      17.593277      17.593277    
     85400   42.7           154.5535      -2858.9076      9.968826      -1495.7052      5445.4747      17.593217      17.593217      17.593217    
     85600   42.8           151.96322     -2858.738       9.801751      -1405.5736      5445.4183      17.593156      17.593156      17.593156    
     85800   42.9           155.27809     -2858.9493      10.015563     -1545.0295      5445.3618      17.593095      17.593095      17.593095    
     86000   43             152.63194     -2858.7761      9.8448838     -1435.0669      5445.3053      17.593034      17.593034      17.593034    
     86200   43.1           151.20619     -2858.6816      9.7529223     -1248.7205      5445.2487      17.592973      17.592973      17.592973    
     86400   43.2           147.5077      -2858.4405      9.5143665     -1053.5477      5445.1921      17.592912      17.592912      17.592912    
     86600   43.3           157.95559     -2859.1119      10.188264     -1503.72        5445.1354      17.592851      17.592851      17.592851    
     86800   43.4           146.2824      -2858.3564      9.4353335     -954.84742      5445.0786      17.59279       17.59279       17.59279     
     87000   43.5           152.88223     -2858.7796      9.8610278     -1274.1678      5445.0218      17.592729      17.592729      17.592729    
     87200   43.6           145.51614     -2858.3019      9.3859091     -1017.5768      5444.965       17.592668      17.592668      17.592668    
     87400   43.7           150.17221     -2858.5998      9.6862298     -1203.9008      5444.9081      17.592606      17.592606      17.592606    
     87600   43.8           150.08107     -2858.5914      9.6803511     -1143.6281      5444.8511      17.592545      17.592545      17.592545    
     87800   43.9           152.28316     -2858.7309      9.8223874     -1182.7865      5444.7941      17.592484      17.592484      17.592484    
     88000   44             152.93329     -2858.7702      9.8643212     -1162.1892      5444.7371      17.592422      17.592422      17.592422    
     88200   44.1           158.22961     -2859.1094      10.205939     -1354.8677      5444.68        17.592361      17.592361      17.592361    
     88400   44.2           151.53752     -2858.6752      9.7742932     -996.55184      5444.6229      17.592299      17.592299      17.592299    
     88600   44.3           148.81843     -2858.4972      9.5989098     -935.24871      5444.5657      17.592238      17.592238      17.592238    
     88800   44.4           154.93019     -2858.889       9.9931229     -1216.6541      5444.5085      17.592176      17.592176      17.592176    
     89000   44.5           153.1168      -2858.7694      9.8761581     -1117.5081      5444.4512      17.592114      17.592114      17.592114    
     89200   44.6           149.70973     -2858.5472      9.6563989     -929.18734      5444.3939      17.592052      17.592052      17.592052    
     89400   44.7           142.65937     -2858.0898      9.2016454     -613.09856      5444.3365      17.591991      17.591991      17.591991    
     89600   44.8           155.56196     -2858.9196      10.033873     -1026.6292      5444.2791      17.591929      17.591929      17.591929    
     89800   44.9           154.65999     -2858.8589      9.9756949     -1044.1458      5444.2217      17.591867      17.591867      17.591867    
     90000   45             144.9129      -2858.2276      9.347         -609.29797      5444.1642      17.591805      17.591805      17.591805    
     90200   45.1           146.42292     -2858.3224      9.4443975     -632.22619      5444.1067      17.591743      17.591743      17.591743    
     90400   45.2           146.97378     -2858.3554      9.4799283     -541.56577      5444.0492      17.591681      17.591681      17.591681    
     90600   45.3           151.61593     -2858.6523      9.779351      -834.50288      5443.9916      17.591619      17.591619      17.591619    
     90800   45.4           153.22539     -2858.7536      9.8831623     -799.01926      5443.934       17.591557      17.591557      17.591557    
     91000   45.5           154.16378     -2858.8116      9.9436892     -765.8789       5443.8763      17.591495      17.591495      17.591495    
     91200   45.6           146.70007     -2858.3276      9.4622734     -584.35609      5443.8187      17.591433      17.591433      17.591433    
     91400   45.7           150.37306     -2858.562       9.6991846     -691.83344      5443.761       17.591371      17.591371      17.591371    
     91600   45.8           155.03028     -2858.8599      9.9995792     -802.84847      5443.7032      17.591309      17.591309      17.591309    
     91800   45.9           151.1867      -2858.6094      9.7516651     -589.01544      5443.6455      17.591246      17.591246      17.591246    
     92000   46             152.68585     -2858.7035      9.8483613     -562.75386      5443.5877      17.591184      17.591184      17.591184    
     92200   46.1           156.95536     -2858.9764      10.123748     -678.83899      5443.5299      17.591122      17.591122      17.591122    
     92400   46.2           152.2655      -2858.6713      9.8212487     -613.64787      5443.4721      17.59106       17.59106       17.59106     
     92600   46.3           147.23002     -2858.3439      9.4964561     -263.0519       5443.4142      17.590997      17.590997      17.590997    
     92800   46.4           152.50782     -2858.6819      9.8368783     -645.55914      5443.3563      17.590935      17.590935      17.590935    
     93000   46.5           149.81403     -2858.5056      9.6631266     -524.56591      5443.2985      17.590873      17.590873      17.590873    
     93200   46.6           142.27428     -2858.0166      9.1768064      29.220445      5443.2405      17.59081       17.59081       17.59081     
     93400   46.7           152.72687     -2858.6883      9.8510071     -450.70278      5443.1826      17.590748      17.590748      17.590748    
     93600   46.8           149.69987     -2858.4905      9.6557629     -214.74559      5443.1247      17.590685      17.590685      17.590685    
     93800   46.9           157.59507     -2858.9973      10.16501      -603.72457      5443.0667      17.590623      17.590623      17.590623    
     94000   47             144.11155     -2858.125       9.2953118      60.429376      5443.0087      17.59056       17.59056       17.59056     
     94200   47.1           153.78437     -2858.7464      9.9192171     -436.60404      5442.9507      17.590498      17.590498      17.590498    
     94400   47.2           145.94116     -2858.2379      9.4133235      2.577273       5442.8927      17.590435      17.590435      17.590435    
     94600   47.3           154.30423     -2858.7748      9.9527481     -392.05306      5442.8347      17.590373      17.590373      17.590373    
     94800   47.4           150.9672      -2858.557       9.7375069     -137.98203      5442.7767      17.59031       17.59031       17.59031     
     95000   47.5           152.9453      -2858.6821      9.8650964     -197.05891      5442.7187      17.590248      17.590248      17.590248    
     95200   47.6           154.23274     -2858.7626      9.9481371     -243.16291      5442.6606      17.590185      17.590185      17.590185    
     95400   47.7           144.04357     -2858.1028      9.2909274      258.85944      5442.6026      17.590123      17.590123      17.590123    
     95600   47.8           155.63996     -2858.8483      10.038904     -326.77538      5442.5445      17.59006       17.59006       17.59006     
     95800   47.9           144.71048     -2858.1407      9.3339436      203.90812      5442.4865      17.589998      17.589998      17.589998    
     96000   48             155.617       -2858.8417      10.037423     -254.28244      5442.4284      17.589935      17.589935      17.589935    
     96200   48.1           148.7467      -2858.396       9.5942827      133.44782      5442.3703      17.589873      17.589873      17.589873    
     96400   48.2           160.23727     -2859.1347      10.335434     -355.18886      5442.3123      17.58981       17.58981       17.58981     
     96600   48.3           148.93767     -2858.4032      9.6066007      222.65973      5442.2542      17.589748      17.589748      17.589748    
     96800   48.4           157.46151     -2858.9505      10.156395     -206.92988      5442.1961      17.589685      17.589685      17.589685    
     97000   48.5           156.19761     -2858.8665      10.074873     -183.01241      5442.1381      17.589623      17.589623      17.589623    
     97200   48.6           152.17717     -2858.6046      9.815551       40.785372      5442.08        17.58956       17.58956       17.58956     
     97400   48.7           148.34559     -2858.3549      9.5684109      171.45657      5442.022       17.589497      17.589497      17.589497    
     97600   48.8           153.88706     -2858.7098      9.9258406      22.710204      5441.9639      17.589435      17.589435      17.589435    
     97800   48.9           156.61435     -2858.8832      10.101753     -22.32399       5441.9059      17.589372      17.589372      17.589372    
     98000   49             154.8698      -2858.7681      9.989228       129.61488      5441.8478      17.58931       17.58931       17.58931     
     98200   49.1           153.6227      -2858.6852      9.9087889      193.36722      5441.7898      17.589247      17.589247      17.589247    
     98400   49.2           153.46753     -2858.6726      9.8987806      151.09208      5441.7318      17.589185      17.589185      17.589185    
     98600   49.3           150.8503      -2858.5012      9.7299668      254.75463      5441.6738      17.589122      17.589122      17.589122    
     98800   49.4           153.85373     -2858.6925      9.9236907      140.59281      5441.6158      17.58906       17.58906       17.58906     
     99000   49.5           145.90706     -2858.1773      9.4111242      560.30173      5441.5578      17.588997      17.588997      17.588997    
     99200   49.6           155.17079     -2858.7723      10.008642      195.55719      5441.4998      17.588935      17.588935      17.588935    
     99400   49.7           154.55996     -2858.7305      9.9692431      289.93435      5441.4418      17.588872      17.588872      17.588872    
     99600   49.8           153.3336      -2858.6488      9.8901421      396.36084      5441.3839      17.58881       17.58881       17.58881     
     99800   49.9           153.06374     -2858.6289      9.8727353      334.50839      5441.3259      17.588747      17.588747      17.588747    
    100000   50             151.98195     -2858.5566      9.8029594      404.77243      5441.268       17.588685      17.588685      17.588685    
    100200   50.1           155.12786     -2858.757       10.005873      272.01994      5441.2101      17.588623      17.588623      17.588623    
    100400   50.2           146.92471     -2858.2253      9.476763       646.41453      5441.1522      17.58856       17.58856       17.58856     
    100600   50.3           156.23782     -2858.8235      10.077466      286.31639      5441.0944      17.588498      17.588498      17.588498    
    100800   50.4           145.38401     -2858.1209      9.3773866      963.05662      5441.0365      17.588436      17.588436      17.588436    
    101000   50.5           152.38522     -2858.57        9.8289702      572.5539       5440.9787      17.588373      17.588373      17.588373    
    101200   50.6           156.71634     -2858.8469      10.108331      422.2353       5440.9209      17.588311      17.588311      17.588311    
    101400   50.7           154.41849     -2858.6961      9.9601179      498.86674      5440.8632      17.588249      17.588249      17.588249    
    101600   50.8           145.90598     -2858.1446      9.411054       871.05942      5440.8054      17.588187      17.588187      17.588187    
    101800   50.9           153.3656      -2858.6232      9.8922056      550.39142      5440.7477      17.588124      17.588124      17.588124    
    102000   51             149.65277     -2858.3812      9.6527252      861.48845      5440.69        17.588062      17.588062      17.588062    
    102200   51.1           154.85838     -2858.7145      9.9884913      520.42216      5440.6323      17.588         17.588         17.588       
    102400   51.2           156.658       -2858.8281      10.104569      545.27788      5440.5747      17.587938      17.587938      17.587938    
    102600   51.3           153.70928     -2858.6354      9.9143737      669.25714      5440.5171      17.587876      17.587876      17.587876    
    102800   51.4           154.27814     -2858.6696      9.9510655      653.19968      5440.4595      17.587814      17.587814      17.587814    
    103000   51.5           148.7275      -2858.309       9.5930448      895.68495      5440.402       17.587752      17.587752      17.587752    
    103200   51.6           153.28377     -2858.6004      9.8869279      678.35079      5440.3445      17.58769       17.58769       17.58769     
    103400   51.7           156.99862     -2858.8376      10.126538      590.69347      5440.287       17.587628      17.587628      17.587628    
    103600   51.8           148.85692     -2858.3099      9.6013924      1042.8211      5440.2296      17.587566      17.587566      17.587566    
    103800   51.9           150.13319     -2858.3897      9.6837127      1012.7675      5440.1722      17.587504      17.587504      17.587504    
    104000   52             160.77879     -2859.074       10.370363      467.272        5440.1148      17.587442      17.587442      17.587442    
    104200   52.1           149.92882     -2858.3716      9.6705305      1067.579       5440.0575      17.587381      17.587381      17.587381    
    104400   52.2           147.28172     -2858.1984      9.4997905      1084.6298      5440.0002      17.587319      17.587319      17.587319    
    104600   52.3           151.82463     -2858.4889      9.7928117      1029.0012      5439.9429      17.587257      17.587257      17.587257    
    104800   52.4           158.97591     -2858.9478      10.254076      661.98757      5439.8857      17.587196      17.587196      17.587196    
    105000   52.5           150.66793     -2858.4094      9.7182036      1038.5638      5439.8285      17.587134      17.587134      17.587134    
    105200   52.6           153.61621     -2858.5971      9.9083704      1048.2691      5439.7714      17.587072      17.587072      17.587072    
    105400   52.7           149.92355     -2858.3564      9.670191       1232.455       5439.7143      17.587011      17.587011      17.587011    
    105600   52.8           148.62831     -2858.2704      9.5866469      1222.457       5439.6573      17.586949      17.586949      17.586949    
    105800   52.9           149.59148     -2858.3301      9.6487717      1216.2684      5439.6003      17.586888      17.586888      17.586888    
    106000   53             151.32768     -2858.4396      9.7607582      1217.0608      5439.5433      17.586827      17.586827      17.586827    
    106200   53.1           149.91571     -2858.3461      9.6696853      1314.8615      5439.4864      17.586765      17.586765      17.586765    
    106400   53.2           158.98634     -2858.9287      10.254748      998.22333      5439.4296      17.586704      17.586704      17.586704    
    106600   53.3           153.36438     -2858.5635      9.8921273      1271.8501      5439.3728      17.586643      17.586643      17.586643    
    106800   53.4           162.4687      -2859.1484      10.479363      751.15133      5439.316       17.586582      17.586582      17.586582    
    107000   53.5           156.36371     -2858.7521      10.085586      1134.4998      5439.2593      17.58652       17.58652       17.58652     
    107200   53.6           155.39296     -2858.6871      10.022972      1088.8577      5439.2027      17.586459      17.586459      17.586459    
    107400   53.7           155.63712     -2858.7004      10.038721      1061.3053      5439.1461      17.586398      17.586398      17.586398    
    107600   53.8           152.22657     -2858.4779      9.8187372      1260.2127      5439.0895      17.586337      17.586337      17.586337    
    107800   53.9           148.48913     -2858.2344      9.5776696      1480.4275      5439.0331      17.586277      17.586277      17.586277    
    108000   54             151.99634     -2858.4582      9.8038872      1357.1398      5438.9766      17.586216      17.586216      17.586216    
    108200   54.1           144.40646     -2857.9661      9.3143338      1835.2595      5438.9203      17.586155      17.586155      17.586155    
    108400   54.2           148.56594     -2858.232       9.5826237      1508.3751      5438.8639      17.586094      17.586094      17.586094    
    108600   54.3           153.52154     -2858.5493      9.9022638      1300.178       5438.8077      17.586034      17.586034      17.586034    
    108800   54.4           145.70707     -2858.0427      9.3982241      1747.743       5438.7515      17.585973      17.585973      17.585973    
    109000   54.5           148.60083     -2858.227       9.5848739      1597.0399      5438.6954      17.585913      17.585913      17.585913    
    109200   54.6           156.84203     -2858.7562      10.116439      1300.7592      5438.6393      17.585852      17.585852      17.585852    
    109400   54.7           158.62986     -2858.8691      10.231755      1204.6357      5438.5833      17.585792      17.585792      17.585792    
    109600   54.8           157.07592     -2858.7664      10.131524      1324.0892      5438.5273      17.585731      17.585731      17.585731    
    109800   54.9           150.42889     -2858.3352      9.7027855      1750.2542      5438.4714      17.585671      17.585671      17.585671    
    110000   55             153.49914     -2858.5308      9.9008191      1481.1504      5438.4156      17.585611      17.585611      17.585611    
    110200   55.1           158.85604     -2858.8739      10.246343      1255.8256      5438.3598      17.585551      17.585551      17.585551    
    110400   55.2           153.05976     -2858.4977      9.872479       1551.368       5438.3041      17.585491      17.585491      17.585491    
    110600   55.3           148.82483     -2858.2221      9.5993223      1801.4808      5438.2485      17.585431      17.585431      17.585431    
    110800   55.4           147.39469     -2858.1274      9.5070771      1855.9893      5438.1929      17.585371      17.585371      17.585371    
    111000   55.5           157.02043     -2858.7459      10.127945      1429.4339      5438.1374      17.585311      17.585311      17.585311    
    111200   55.6           155.55173     -2858.6488      10.033213      1564.0307      5438.082       17.585252      17.585252      17.585252    
    111400   55.7           153.94122     -2858.5425      9.9293335      1672.4537      5438.0267      17.585192      17.585192      17.585192    
    111600   55.8           154.77455     -2858.5938      9.9830843      1674.0815      5437.9714      17.585132      17.585132      17.585132    
    111800   55.9           152.80287     -2858.4643      9.8559091      1714.0086      5437.9162      17.585073      17.585073      17.585073    
    112000   56             148.77183     -2858.2018      9.5959042      1892.2617      5437.861       17.585013      17.585013      17.585013    
    112200   56.1           158.55443     -2858.8305      10.22689       1419.1827      5437.8059      17.584954      17.584954      17.584954    
    112400   56.2           149.87541     -2858.2682      9.6670858      1914.7312      5437.7509      17.584895      17.584895      17.584895    
    112600   56.3           149.73866     -2858.257       9.6582654      1854.8458      5437.696       17.584835      17.584835      17.584835    
    112800   56.4           148.84665     -2858.1971      9.6007302      2049.5901      5437.6412      17.584776      17.584776      17.584776    
    113000   56.5           153.38685     -2858.4876      9.8935765      1740.4189      5437.5864      17.584717      17.584717      17.584717    
    113200   56.6           151.95333     -2858.3927      9.801113       1916.0467      5437.5317      17.584658      17.584658      17.584658    
    113400   56.7           161.10756     -2858.9808      10.391569      1584.4164      5437.4771      17.584599      17.584599      17.584599    
    113600   56.8           161.61444     -2859.0112      10.424263      1532.8867      5437.4225      17.584541      17.584541      17.584541    
    113800   56.9           152.49895     -2858.4208      9.836306       2066.1142      5437.3681      17.584482      17.584482      17.584482    
    114000   57             165.1242      -2859.2328      10.650645      1384.3809      5437.3137      17.584423      17.584423      17.584423    
    114200   57.1           155.76063     -2858.6264      10.046687      1782.3155      5437.2594      17.584365      17.584365      17.584365    
    114400   57.2           152.16106     -2858.3918      9.814512       2066.4573      5437.2052      17.584306      17.584306      17.584306    
    114600   57.3           154.46545     -2858.5382      9.9631468      1919.8949      5437.1511      17.584248      17.584248      17.584248    
    114800   57.4           151.21551     -2858.3261      9.753523       2125.8591      5437.0971      17.58419       17.58419       17.58419     
    115000   57.5           156.54147     -2858.6673      10.097052      1949.5763      5437.0431      17.584132      17.584132      17.584132    
    115200   57.6           151.15446     -2858.3175      9.7495855      2177.2473      5436.9892      17.584074      17.584074      17.584074    
    115400   57.7           153.15017     -2858.4439      9.8783101      2047.3863      5436.9355      17.584016      17.584016      17.584016    
    115600   57.8           150.30246     -2858.2578      9.6946311      2304.173       5436.8818      17.583958      17.583958      17.583958    
    115800   57.9           154.77743     -2858.5441      9.9832702      2020.9168      5436.8282      17.5839        17.5839        17.5839      
    116000   58             156.72247     -2858.6672      10.108727      1986.0748      5436.7747      17.583842      17.583842      17.583842    
    116200   58.1           159.08032     -2858.8169      10.26081       1983.6729      5436.7212      17.583785      17.583785      17.583785    
    116400   58.2           154.46159     -2858.5167      9.9628978      2137.0842      5436.6679      17.583727      17.583727      17.583727    
    116600   58.3           156.24785     -2858.6295      10.078113      2120.7967      5436.6147      17.58367       17.58367       17.58367     
    116800   58.4           161.49868     -2858.9659      10.416796      1870.1109      5436.5615      17.583612      17.583612      17.583612    
    117000   58.5           156.14798     -2858.6184      10.071672      2102.5921      5436.5085      17.583555      17.583555      17.583555    
    117200   58.6           149.83934     -2858.2091      9.6647589      2403.0069      5436.4555      17.583498      17.583498      17.583498    
    117400   58.7           158.22359     -2858.7476      10.20555       2035.9747      5436.4027      17.583441      17.583441      17.583441    
    117600   58.8           147.17589     -2858.0326      9.4929644      2493.9743      5436.3499      17.583384      17.583384      17.583384    
    117800   58.9           153.93404     -2858.4662      9.9288704      2274.6814      5436.2973      17.583328      17.583328      17.583328    
    118000   59             156.02991     -2858.5991      10.064056      2199.2653      5436.2447      17.583271      17.583271      17.583271    
    118200   59.1           152.47484     -2858.3674      9.8347507      2349.5685      5436.1922      17.583214      17.583214      17.583214    
    118400   59.2           157.40836     -2858.6834      10.152967      2224.7232      5436.1398      17.583158      17.583158      17.583158    
    118600   59.3           157.95411     -2858.7162      10.188168      2182.7727      5436.0876      17.583101      17.583101      17.583101    
    118800   59.4           153.14928     -2858.404       9.8782527      2409.6204      5436.0354      17.583045      17.583045      17.583045    
    119000   59.5           153.48704     -2858.4234      9.900039       2427.5988      5435.9833      17.582989      17.582989      17.582989    
    119200   59.6           153.36715     -2858.4134      9.892306       2420.8466      5435.9314      17.582933      17.582933      17.582933    
    119400   59.7           156.16382     -2858.5915      10.072693      2345.1392      5435.8795      17.582877      17.582877      17.582877    
    119600   59.8           155.11581     -2858.5215      10.005096      2439.7909      5435.8277      17.582821      17.582821      17.582821    
    119800   59.9           151.46858     -2858.284       9.7698461      2535.3019      5435.776       17.582766      17.582766      17.582766    
    120000   60             154.88861     -2858.5023      9.9904411      2432.4638      5435.7245      17.58271       17.58271       17.58271     
    120200   60.1           156.03522     -2858.5739      10.064398      2469.1186      5435.673       17.582654      17.582654      17.582654    
    120400   60.2           161.73972     -2858.9396      10.432343      2177.18        5435.6217      17.582599      17.582599      17.582599    
    120600   60.3           149.17812     -2858.1269      9.6221101      2798.3056      5435.5704      17.582544      17.582544      17.582544    
    120800   60.4           155.79814     -2858.5517      10.049107      2500.0792      5435.5193      17.582489      17.582489      17.582489    
    121000   60.5           161.83339     -2858.9387      10.438385      2125.5825      5435.4683      17.582434      17.582434      17.582434    
    121200   60.6           151.1885      -2858.2497      9.7517809      2807.3369      5435.4174      17.582379      17.582379      17.582379    
    121400   60.7           150.38775     -2858.1958      9.7001319      2773.2882      5435.3666      17.582324      17.582324      17.582324    
    121600   60.8           156.11877     -2858.5632      10.069788      2555.5984      5435.3159      17.582269      17.582269      17.582269    
    121800   60.9           152.98461     -2858.3587      9.8676318      2756.1923      5435.2653      17.582215      17.582215      17.582215    
    122000   61             153.89134     -2858.4148      9.9261167      2760.2313      5435.2148      17.58216       17.58216       17.58216     
    122200   61.1           151.64653     -2858.2678      9.7813243      2812.5147      5435.1645      17.582106      17.582106      17.582106    
    122400   61.2           156.37743     -2858.5706      10.086471      2614.935       5435.1142      17.582052      17.582052      17.582052    
    122600   61.3           156.41335     -2858.5707      10.088788      2663.6025      5435.0641      17.581998      17.581998      17.581998    
    122800   61.4           155.24283     -2858.4929      10.013288      2700.779       5435.0141      17.581944      17.581944      17.581944    
    123000   61.5           160.20871     -2858.8109      10.333592      2583.5556      5434.9642      17.58189       17.58189       17.58189     
    123200   61.6           158.40198     -2858.6921      10.217056      2688.7442      5434.9145      17.581837      17.581837      17.581837    
    123400   61.7           153.24999     -2858.3575      9.884749       2912.6417      5434.8648      17.581783      17.581783      17.581783    
    123600   61.8           154.92283     -2858.4631      9.9926483      2873.0358      5434.8153      17.58173       17.58173       17.58173     
    123800   61.9           151.61099     -2858.2471      9.7790323      3041.3415      5434.7659      17.581676      17.581676      17.581676    
    124000   62             162.89582     -2858.9728      10.506913      2459.4837      5434.7166      17.581623      17.581623      17.581623    
    124200   62.1           156.21243     -2858.5394      10.075829      2903.7844      5434.6675      17.58157       17.58157       17.58157     
    124400   62.2           152.58734     -2858.3033      9.8420071      3046.9468      5434.6184      17.581517      17.581517      17.581517    
    124600   62.3           161.67803     -2858.8874      10.428364      2626.4891      5434.5695      17.581465      17.581465      17.581465    
    124800   62.4           151.98985     -2858.2602      9.8034686      3181.7192      5434.5208      17.581412      17.581412      17.581412    
    125000   62.5           153.06166     -2858.327       9.8726014      3112.0295      5434.4721      17.58136       17.58136       17.58136     
    125200   62.6           155.51427     -2858.483       10.030797      2953.4414      5434.4236      17.581307      17.581307      17.581307    
    125400   62.7           148.20976     -2858.0095      9.5596502      3373.0909      5434.3752      17.581255      17.581255      17.581255    
    125600   62.8           149.52007     -2858.0917      9.6441659      3295.7227      5434.3269      17.581203      17.581203      17.581203    
    125800   62.9           165.35509     -2859.1109      10.665538      2678.1359      5434.2788      17.581151      17.581151      17.581151    
    126000   63             149.64346     -2858.0951      9.6521244      3353.7887      5434.2308      17.581099      17.581099      17.581099    
    126200   63.1           152.99275     -2858.3089      9.8681563      3210.626       5434.1829      17.581048      17.581048      17.581048    
    126400   63.2           160.8595      -2858.8141      10.375569      2860.8799      5434.1352      17.580996      17.580996      17.580996    
    126600   63.3           152.80047     -2858.292       9.8557542      3271.2704      5434.0876      17.580945      17.580945      17.580945    
    126800   63.4           155.16298     -2858.4421      10.008138      3156.2185      5434.0401      17.580894      17.580894      17.580894    
    127000   63.5           155.74336     -2858.4773      10.045574      3220.9252      5433.9928      17.580843      17.580843      17.580843    
    127200   63.6           154.9315      -2858.4226      9.9932078      3252.3099      5433.9456      17.580792      17.580792      17.580792    
    127400   63.7           154.05206     -2858.3637      9.9364828      3285.0399      5433.8985      17.580741      17.580741      17.580741    
    127600   63.8           152.66625     -2858.272       9.8470974      3384.5996      5433.8516      17.58069       17.58069       17.58069     
    127800   63.9           151.22155     -2858.1765      9.7539129      3488.6488      5433.8049      17.58064       17.58064       17.58064     
    128000   64             155.88935     -2858.4754      10.05499       3258.5009      5433.7582      17.58059       17.58059       17.58059     
    128200   64.1           156.17174     -2858.4913      10.073204      3221.7376      5433.7117      17.580539      17.580539      17.580539    
    128400   64.2           154.11217     -2858.3562      9.9403602      3401.1462      5433.6654      17.580489      17.580489      17.580489    
    128600   64.3           157.87528     -2858.5967      10.183084      3210.2102      5433.6191      17.58044       17.58044       17.58044     
    128800   64.4           155.04774     -2858.412       10.000705      3368.7652      5433.5731      17.58039       17.58039       17.58039     
    129000   64.5           157.5682      -2858.5723      10.163277      3389.6205      5433.5272      17.58034       17.58034       17.58034     
    129200   64.6           163.95355     -2858.982       10.575137      3026.8054      5433.4814      17.580291      17.580291      17.580291    
    129400   64.7           152.65034     -2858.2506      9.8460712      3532.5219      5433.4357      17.580242      17.580242      17.580242    
    129600   64.8           159.85352     -2858.713       10.310682      3262.7243      5433.3902      17.580193      17.580193      17.580193    
    129800   64.9           153.38013     -2858.2932      9.8931432      3521.0286      5433.3449      17.580144      17.580144      17.580144    
    130000   65             151.1108      -2858.1445      9.7467693      3664.675       5433.2997      17.580095      17.580095      17.580095    
    130200   65.1           160.31232     -2858.7358      10.340275      3238.9276      5433.2547      17.580047      17.580047      17.580047    
    130400   65.2           155.50979     -2858.4238      10.030508      3437.0241      5433.2098      17.579998      17.579998      17.579998    
    130600   65.3           157.16206     -2858.5281      10.137081      3407.0441      5433.165       17.57995       17.57995       17.57995     
    130800   65.4           152.0167      -2858.1939      9.8052007      3741.1226      5433.1204      17.579902      17.579902      17.579902    
    131000   65.5           151.5659      -2858.1626      9.7761235      3700.2925      5433.0759      17.579854      17.579854      17.579854    
    131200   65.6           157.94873     -2858.572       10.187821      3442.0734      5433.0316      17.579806      17.579806      17.579806    
    131400   65.7           158.1595      -2858.5834      10.201416      3440.8263      5432.9875      17.579758      17.579758      17.579758    
    131600   65.8           149.92852     -2858.0502      9.6705115      3903.3236      5432.9435      17.579711      17.579711      17.579711    
    131800   65.9           163.70367     -2858.9365      10.55902       3164.407       5432.8997      17.579664      17.579664      17.579664    
    132000   66             148.18453     -2857.9332      9.5580224      3972.4733      5432.856       17.579617      17.579617      17.579617    
    132200   66.1           156.19614     -2858.4477      10.074778      3665.9098      5432.8124      17.57957       17.57957       17.57957     
    132400   66.2           159.4345      -2858.6544      10.283655      3568.796       5432.7691      17.579523      17.579523      17.579523    
    132600   66.3           158.01522     -2858.5606      10.19211       3604.0305      5432.7258      17.579476      17.579476      17.579476    
    132800   66.4           160.31092     -2858.7064      10.340184      3497.9374      5432.6828      17.57943       17.57943       17.57943     
    133000   66.5           157.26501     -2858.5077      10.143721      3651.2525      5432.6399      17.579383      17.579383      17.579383    
    133200   66.6           153.05218     -2858.2337      9.8719898      3811.3628      5432.5971      17.579337      17.579337      17.579337    
    133400   66.7           156.61741     -2858.4614      10.10195       3643.765       5432.5545      17.579291      17.579291      17.579291    
    133600   66.8           153.0721      -2858.2305      9.873275       3820.6898      5432.5121      17.579246      17.579246      17.579246    
    133800   66.9           155.24085     -2858.3681      10.013161      3731.1113      5432.4698      17.5792        17.5792        17.5792      
    134000   67             157.8654      -2858.5352      10.182447      3691.3593      5432.4277      17.579155      17.579155      17.579155    
    134200   67.1           151.61035     -2858.1295      9.7789906      3937.1589      5432.3857      17.579109      17.579109      17.579109    
    134400   67.2           160.85295     -2858.7234      10.375146      3580.5483      5432.3439      17.579064      17.579064      17.579064    
    134600   67.3           160.1202      -2858.6739      10.327883      3720.3833      5432.3023      17.579019      17.579019      17.579019    
    134800   67.4           153.39673     -2858.238       9.894214       3925.5487      5432.2608      17.578975      17.578975      17.578975    
    135000   67.5           160.96223     -2858.7237      10.382195      3709.8522      5432.2195      17.57893       17.57893       17.57893     
    135200   67.6           157.40405     -2858.492       10.152689      3831.4969      5432.1784      17.578886      17.578886      17.578886    
    135400   67.7           151.25651     -2858.0931      9.7561678      3989.6712      5432.1374      17.578841      17.578841      17.578841    
    135600   67.8           157.64917     -2858.5032      10.1685        3869.272       5432.0966      17.578797      17.578797      17.578797    
    135800   67.9           158.28732     -2858.5422      10.20966       3832.3501      5432.056       17.578754      17.578754      17.578754    
    136000   68             153.93254     -2858.259       9.9287742      3959.7702      5432.0155      17.57871       17.57871       17.57871     
    136200   68.1           159.66376     -2858.6265      10.298442      3889.7665      5431.9752      17.578666      17.578666      17.578666    
    136400   68.2           155.81832     -2858.3762      10.050408      3954.729       5431.935       17.578623      17.578623      17.578623    
    136600   68.3           154.98138     -2858.3199      9.996425       3950.3145      5431.8951      17.57858       17.57858       17.57858     
    136800   68.4           156.85219     -2858.4384      10.117093      3925.9866      5431.8553      17.578537      17.578537      17.578537    
    137000   68.5           155.40697     -2858.3429      10.023876      3962.7153      5431.8156      17.578494      17.578494      17.578494    
    137200   68.6           158.94645     -2858.5689      10.252175      3856.2633      5431.7762      17.578452      17.578452      17.578452    
    137400   68.7           153.36872     -2858.2069      9.8924071      4146.8081      5431.7369      17.578409      17.578409      17.578409    
    137600   68.8           157.47125     -2858.4693      10.157024      4026.249       5431.6978      17.578367      17.578367      17.578367    
    137800   68.9           162.00837     -2858.7598      10.449672      3807.3644      5431.6588      17.578325      17.578325      17.578325    
    138000   69             148.11461     -2857.8613      9.5535126      4445.043       5431.62        17.578283      17.578283      17.578283    
    138200   69.1           155.64219     -2858.3446      10.039047      4101.9572      5431.5814      17.578242      17.578242      17.578242    
    138400   69.2           158.15254     -2858.5043      10.200967      4035.9943      5431.543       17.5782        17.5782        17.5782      
    138600   69.3           147.0654      -2857.7868      9.4858376      4514.2247      5431.5048      17.578159      17.578159      17.578159    
    138800   69.4           158.30373     -2858.5095      10.210719      4071.6277      5431.4667      17.578118      17.578118      17.578118    
    139000   69.5           158.11199     -2858.4949      10.198352      4057.459       5431.4288      17.578077      17.578077      17.578077    
    139200   69.6           152.6913      -2858.143       9.8487127      4300.2226      5431.3911      17.578036      17.578036      17.578036    
    139400   69.7           155.68505     -2858.3339      10.041812      4285.5762      5431.3535      17.577996      17.577996      17.577996    
    139600   69.8           158.65243     -2858.5231      10.233211      4068.5409      5431.3162      17.577956      17.577956      17.577956    
    139800   69.9           156.07884     -2858.3548      10.067212      4172.9154      5431.279       17.577915      17.577915      17.577915    
    140000   70             156.28969     -2858.3661      10.080812      4263.6683      5431.242       17.577876      17.577876      17.577876    
    140200   70.1           154.43284     -2858.2441      9.9610433      4311.6986      5431.2052      17.577836      17.577836      17.577836    
    140400   70.2           161.84753     -2858.7201      10.439297      3997.1599      5431.1685      17.577796      17.577796      17.577796    
    140600   70.3           159.42543     -2858.5616      10.28307       4107.6958      5431.1321      17.577757      17.577757      17.577757    
    140800   70.4           150.93827     -2858.0119      9.7356409      4439.6783      5431.0958      17.577718      17.577718      17.577718    
    141000   70.5           160.92604     -2858.6539      10.37986       4069.2255      5431.0597      17.577679      17.577679      17.577679    
    141200   70.6           157.20412     -2858.4116      10.139793      4345.6212      5431.0237      17.57764       17.57764       17.57764     
    141400   70.7           154.08253     -2858.208       9.9384485      4439.5164      5430.988       17.577601      17.577601      17.577601    
    141600   70.8           159.31883     -2858.5435      10.276194      4153.5273      5430.9524      17.577563      17.577563      17.577563    
    141800   70.9           153.54172     -2858.1686      9.903566       4556.3345      5430.9171      17.577525      17.577525      17.577525    
    142000   71             154.74607     -2858.244       9.981247       4415.5139      5430.8819      17.577487      17.577487      17.577487    
    142200   71.1           156.38131     -2858.3472      10.086721      4390.6655      5430.8469      17.577449      17.577449      17.577449    
    142400   71.2           158.4549      -2858.4788      10.22047       4343.3142      5430.8121      17.577412      17.577412      17.577412    
    142600   71.3           154.98854     -2858.2529      9.9968866      4433.2846      5430.7774      17.577374      17.577374      17.577374    
    142800   71.4           159.69853     -2858.5545      10.300685      4322.389       5430.743       17.577337      17.577337      17.577337    
    143000   71.5           163.02307     -2858.7666      10.51512       4251.9142      5430.7088      17.5773        17.5773        17.5773      
    143200   71.6           151.84879     -2858.0436      9.7943702      4671.6207      5430.6747      17.577264      17.577264      17.577264    
    143400   71.7           152.75608     -2858.0998      9.8528912      4675.0392      5430.6409      17.577227      17.577227      17.577227    
    143600   71.8           167.91525     -2859.0755      10.83067       3969.1947      5430.6072      17.577191      17.577191      17.577191    
    143800   71.9           157.88491     -2858.4261      10.183705      4516.1599      5430.5737      17.577155      17.577155      17.577155    
    144000   72             159.27951     -2858.5139      10.273658      4421.4301      5430.5404      17.577119      17.577119      17.577119    
    144200   72.1           158.31254     -2858.4492      10.211287      4578.6776      5430.5073      17.577083      17.577083      17.577083    
    144400   72.2           158.14208     -2858.4359      10.200293      4561.5275      5430.4744      17.577047      17.577047      17.577047    
    144600   72.3           156.12637     -2858.3037      10.070277      4637.5718      5430.4417      17.577012      17.577012      17.577012    
    144800   72.4           158.21635     -2858.4362      10.205083      4645.7664      5430.4092      17.576977      17.576977      17.576977    
    145000   72.5           159.26801     -2858.5018      10.272916      4463.0043      5430.3769      17.576942      17.576942      17.576942    
    145200   72.6           154.79294     -2858.2108      9.9842702      4721.5811      5430.3448      17.576908      17.576908      17.576908    
    145400   72.7           164.38279     -2858.8272      10.602824      4330.9792      5430.3129      17.576873      17.576873      17.576873    
    145600   72.8           159.65168     -2858.5197      10.297663      4574.0431      5430.2812      17.576839      17.576839      17.576839    
    145800   72.9           161.09323     -2858.6104      10.390644      4525.9257      5430.2497      17.576805      17.576805      17.576805    
    146000   73             161.82017     -2858.655       10.437533      4373.5315      5430.2184      17.576771      17.576771      17.576771    
    146200   73.1           157.02997     -2858.3438      10.12856       4698.4913      5430.1873      17.576738      17.576738      17.576738    
    146400   73.2           156.0011      -2858.2751      10.062198      4827.8687      5430.1564      17.576704      17.576704      17.576704    
    146600   73.3           153.60828     -2858.1185      9.9078588      4921.4655      5430.1256      17.576671      17.576671      17.576671    
    146800   73.4           156.88462     -2858.3276      10.119185      4742.6828      5430.0951      17.576638      17.576638      17.576638    
    147000   73.5           154.57814     -2858.1765      9.9704157      4834.648       5430.0648      17.576605      17.576605      17.576605    
    147200   73.6           150.41249     -2857.9055      9.7017278      5073.2573      5430.0347      17.576573      17.576573      17.576573    
    147400   73.7           157.89962     -2858.3862      10.184654      4654.768       5430.0048      17.576541      17.576541      17.576541    
    147600   73.8           157.18098     -2858.3376      10.138301      4742.8142      5429.9751      17.576509      17.576509      17.576509    
    147800   73.9           158.42375     -2858.4155      10.218461      4668.9354      5429.9456      17.576477      17.576477      17.576477    
    148000   74             156.71561     -2858.303       10.108284      4861.6529      5429.9163      17.576445      17.576445      17.576445    
    148200   74.1           168.64288     -2859.0701      10.877603      4352.9699      5429.8872      17.576414      17.576414      17.576414    
    148400   74.2           158.16598     -2858.392       10.201834      4807.5008      5429.8583      17.576383      17.576383      17.576383    
    148600   74.3           158.61564     -2858.4187      10.230837      4758.3723      5429.8297      17.576352      17.576352      17.576352    
    148800   74.4           157.01645     -2858.3133      10.127689      4905.5837      5429.8012      17.576321      17.576321      17.576321    
    149000   74.5           159.33359     -2858.4605      10.277146      4725.2489      5429.7729      17.57629       17.57629       17.57629     
    149200   74.6           157.04988     -2858.3109      10.129845      4820.3623      5429.7448      17.57626       17.57626       17.57626     
    149400   74.7           155.38775     -2858.2013      10.022636      4991.5681      5429.717       17.57623       17.57623       17.57623     
    149600   74.8           156.24994     -2858.2547      10.078248      4870.4834      5429.6893      17.5762        17.5762        17.5762      
    149800   74.9           151.54349     -2857.9488      9.774678       5188.7771      5429.6619      17.576171      17.576171      17.576171    
    150000   75             165.49726     -2858.8466      10.674708      4514.1817      5429.6346      17.576141      17.576141      17.576141    
    150200   75.1           152.95062     -2858.0349      9.8654394      5176.8799      5429.6076      17.576112      17.576112      17.576112    
    150400   75.2           152.99824     -2858.0357      9.868511       5156.8138      5429.5808      17.576083      17.576083      17.576083    
    150600   75.3           154.80531     -2858.15        9.9850681      5019.1689      5429.5542      17.576055      17.576055      17.576055    
    150800   75.4           162.76412     -2858.6611      10.498418      4647.0987      5429.5278      17.576026      17.576026      17.576026    
    151000   75.5           144.693       -2857.4931      9.3328158      5601.573       5429.5016      17.575998      17.575998      17.575998    
    151200   75.6           154.30448     -2858.1108      9.9527644      5078.7925      5429.4756      17.57597       17.57597       17.57597     
    151400   75.7           157.40419     -2858.3085      10.152698      4870.916       5429.4499      17.575942      17.575942      17.575942    
    151600   75.8           153.91031     -2858.0808      9.9273399      5103.923       5429.4243      17.575914      17.575914      17.575914    
    151800   75.9           157.52311     -2858.3115      10.160369      4962.4293      5429.399       17.575887      17.575887      17.575887    
    152000   76             162.10768     -2858.605       10.456077      4702.1984      5429.3738      17.57586       17.57586       17.57586     
    152200   76.1           161.71703     -2858.5774      10.43088       4768.0041      5429.3489      17.575833      17.575833      17.575833    
    152400   76.2           157.9567      -2858.3326      10.188335      4916.6207      5429.3242      17.575806      17.575806      17.575806    
    152600   76.3           157.62131     -2858.3086      10.166703      5046.9522      5429.2997      17.57578       17.57578       17.57578     
    152800   76.4           157.11277     -2858.2735      10.133901      5041.5676      5429.2754      17.575754      17.575754      17.575754    
    153000   76.5           153.04876     -2858.0091      9.8717693      5194.9066      5429.2514      17.575728      17.575728      17.575728    
    153200   76.6           159.06033     -2858.3945      10.25952       4982.3842      5429.2275      17.575702      17.575702      17.575702    
    153400   76.7           156.89058     -2858.2522      10.11957       5190.7588      5429.2039      17.575676      17.575676      17.575676    
    153600   76.8           158.28286     -2858.3397      10.209373      5084.0335      5429.1804      17.575651      17.575651      17.575651    
    153800   76.9           161.32465     -2858.5336      10.405571      4951.3207      5429.1572      17.575626      17.575626      17.575626    
    154000   77             163.08685     -2858.645       10.519235      4893.879       5429.1342      17.575601      17.575601      17.575601    
    154200   77.1           151.98454     -2857.9265      9.803126       5401.4959      5429.1115      17.575577      17.575577      17.575577    
    154400   77.2           155.30078     -2858.1381      10.017026      5294.2459      5429.0889      17.575552      17.575552      17.575552    
    154600   77.3           162.50418     -2858.6005      10.481652      4903.154       5429.0666      17.575528      17.575528      17.575528    
    154800   77.4           160.10317     -2858.4432      10.326784      4973.577       5429.0445      17.575504      17.575504      17.575504    
    155000   77.5           156.92998     -2858.2362      10.122111      5244.333       5429.0226      17.575481      17.575481      17.575481    
    155200   77.6           157.40241     -2858.2643      10.152583      5218.8188      5429.0009      17.575457      17.575457      17.575457    
    155400   77.7           162.40321     -2858.5846      10.475139      4887.9464      5428.9794      17.575434      17.575434      17.575434    
    155600   77.8           150.94365     -2857.843       9.7359879      5517.648       5428.9582      17.575411      17.575411      17.575411    
    155800   77.9           160.9376      -2858.4854      10.380606      5004.6714      5428.9372      17.575389      17.575389      17.575389    
    156000   78             155.9168      -2858.1592      10.05676       5243.5743      5428.9164      17.575366      17.575366      17.575366    
    156200   78.1           167.36789     -2858.8956      10.795365      4710.4807      5428.8958      17.575344      17.575344      17.575344    
    156400   78.2           154.14581     -2858.0403      9.9425297      5425.3514      5428.8754      17.575322      17.575322      17.575322    
    156600   78.3           158.96144     -2858.3486      10.253142      5168.1998      5428.8553      17.5753        17.5753        17.5753      
    156800   78.4           159.17865     -2858.3603      10.267152      5246.0488      5428.8354      17.575279      17.575279      17.575279    
    157000   78.5           161.99648     -2858.5397      10.448905      5039.2437      5428.8157      17.575258      17.575258      17.575258    
    157200   78.6           155.92781     -2858.1459      10.057471      5447.5513      5428.7963      17.575237      17.575237      17.575237    
    157400   78.7           157.15554     -2858.2227      10.13666       5318.3092      5428.777       17.575216      17.575216      17.575216    
    157600   78.8           158.16629     -2858.2856      10.201854      5281.3516      5428.758       17.575195      17.575195      17.575195    
    157800   78.9           159.74193     -2858.3849      10.303484      5232.601       5428.7392      17.575175      17.575175      17.575175    
    158000   79             161.98535     -2858.5273      10.448186      5098.6301      5428.7207      17.575155      17.575155      17.575155    
    158200   79.1           154.32188     -2858.0305      9.9538869      5538.9247      5428.7023      17.575135      17.575135      17.575135    
    158400   79.2           159.14036     -2858.339       10.264682      5306.6123      5428.6842      17.575116      17.575116      17.575116    
    158600   79.3           166.34815     -2858.8016      10.729591      4967.8045      5428.6663      17.575096      17.575096      17.575096    
    158800   79.4           158.59711     -2858.2992      10.229642      5412.709       5428.6487      17.575077      17.575077      17.575077    
    159000   79.5           164.13811     -2858.6543      10.587041      5178.9862      5428.6313      17.575059      17.575059      17.575059    
    159200   79.6           169.29457     -2858.9846      10.919637      4906.7871      5428.6141      17.57504       17.57504       17.57504     
    159400   79.7           162.4419      -2858.5402      10.477635      5080.4231      5428.5971      17.575022      17.575022      17.575022    
    159600   79.8           153.76309     -2857.978       9.9178445      5507.5756      5428.5804      17.575004      17.575004      17.575004    
    159800   79.9           155.22916     -2858.0702      10.012407      5517.3922      5428.5639      17.574986      17.574986      17.574986    
    160000   80             162.03105     -2858.5066      10.451134      4985.16        5428.5476      17.574968      17.574968      17.574968    
    160200   80.1           149.34181     -2857.6857      9.6326683      5677.069       5428.5315      17.574951      17.574951      17.574951    
    160400   80.2           158.17406     -2858.253       10.202355      5338.2848      5428.5157      17.574934      17.574934      17.574934    
    160600   80.3           155.27576     -2858.0637      10.015412      5463.9268      5428.5001      17.574917      17.574917      17.574917    
    160800   80.4           162.58119     -2858.5326      10.486619      5135.7679      5428.4847      17.5749        17.5749        17.5749      
    161000   80.5           156.64054     -2858.147       10.103442      5463.3355      5428.4695      17.574884      17.574884      17.574884    
    161200   80.6           156.21152     -2858.1169      10.07577       5475.2077      5428.4546      17.574868      17.574868      17.574868    
    161400   80.7           157.51378     -2858.1986      10.159767      5325.0046      5428.4399      17.574852      17.574852      17.574852    
    161600   80.8           157.82811     -2858.2164      10.180042      5390.6399      5428.4254      17.574836      17.574836      17.574836    
    161800   80.9           164.72077     -2858.6587      10.624624      5084.7585      5428.4112      17.574821      17.574821      17.574821    
    162000   81             155.69163     -2858.0739      10.042237      5526.9821      5428.3971      17.574806      17.574806      17.574806    
    162200   81.1           158.90614     -2858.2789      10.249575      5389.3598      5428.3834      17.574791      17.574791      17.574791    
    162400   81.2           161.15676     -2858.4217      10.394742      5345.4113      5428.3698      17.574776      17.574776      17.574776    
    162600   81.3           162.31074     -2858.4937      10.469174      5247.2573      5428.3565      17.574762      17.574762      17.574762    
    162800   81.4           159.23112     -2858.2927      10.270537      5348.188       5428.3434      17.574748      17.574748      17.574748    
    163000   81.5           155.18194     -2858.0291      10.009361      5578.9272      5428.3305      17.574734      17.574734      17.574734    
    163200   81.6           160.61996     -2858.3775      10.360118      5262.4652      5428.3178      17.57472       17.57472       17.57472     
    163400   81.7           160.66395     -2858.3779      10.362955      5335.3362      5428.3054      17.574707      17.574707      17.574707    
    163600   81.8           158.6159      -2858.2434      10.230854      5534.6464      5428.2933      17.574694      17.574694      17.574694    
    163800   81.9           156.62842     -2858.1128      10.10266       5617.6316      5428.2813      17.574681      17.574681      17.574681    
    164000   82             150.80637     -2857.7349      9.7271334      5731.9386      5428.2696      17.574668      17.574668      17.574668    
    164200   82.1           154.02167     -2857.9398      9.9345229      5710.0201      5428.2581      17.574656      17.574656      17.574656    
    164400   82.2           156.59524     -2858.1035      10.10052       5589.2443      5428.2469      17.574644      17.574644      17.574644    
    164600   82.3           162.76417     -2858.499       10.498421      5230.8638      5428.2359      17.574632      17.574632      17.574632    
    164800   82.4           159.00678     -2858.2542      10.256067      5467.3354      5428.2251      17.57462       17.57462       17.57462     
    165000   82.5           156.883       -2858.1148      10.119081      5480.8462      5428.2145      17.574609      17.574609      17.574609    
    165200   82.6           158.34444     -2858.2067      10.213345      5424.0981      5428.2042      17.574598      17.574598      17.574598    
    165400   82.7           163.23034     -2858.5194      10.528489      5285.756       5428.1941      17.574587      17.574587      17.574587    
    165600   82.8           157.10252     -2858.1217      10.13324       5547.0852      5428.1843      17.574576      17.574576      17.574576    
    165800   82.9           161.87507     -2858.4272      10.441074      5323.141       5428.1747      17.574566      17.574566      17.574566    
    166000   83             158.01351     -2858.1756      10.192         5604.6287      5428.1653      17.574556      17.574556      17.574556    
    166200   83.1           164.39364     -2858.5847      10.603523      5293.2195      5428.1561      17.574546      17.574546      17.574546    
    166400   83.2           164.49426     -2858.5888      10.610014      5321.1009      5428.1472      17.574536      17.574536      17.574536    
    166600   83.3           159.85008     -2858.2868      10.31046       5487.7218      5428.1385      17.574527      17.574527      17.574527    
    166800   83.4           151.20286     -2857.7266      9.7527074      5900.9731      5428.1301      17.574518      17.574518      17.574518    
    167000   83.5           160.38802     -2858.3167      10.345158      5559.8474      5428.1219      17.574509      17.574509      17.574509    
    167200   83.6           160.10663     -2858.2961      10.327008      5517.885       5428.1139      17.5745        17.5745        17.5745      
    167400   83.7           155.34219     -2857.9863      10.019697      5707.4342      5428.1061      17.574492      17.574492      17.574492    
    167600   83.8           157.68994     -2858.1353      10.171129      5737.2244      5428.0986      17.574484      17.574484      17.574484    
    167800   83.9           161.34801     -2858.3689      10.407077      5436.5724      5428.0914      17.574476      17.574476      17.574476    
    168000   84             158.62447     -2858.1907      10.231407      5663.3138      5428.0844      17.574468      17.574468      17.574468    
    168200   84.1           162.2192      -2858.4202      10.46327       5531.9619      5428.0776      17.574461      17.574461      17.574461    
    168400   84.2           154.24223     -2857.9032      9.9487495      5662.9375      5428.071       17.574454      17.574454      17.574454    
    168600   84.3           163.14259     -2858.4749      10.52283       5352.3347      5428.0647      17.574447      17.574447      17.574447    
    168800   84.4           160.52391     -2858.3035      10.353923      5599.8161      5428.0587      17.574441      17.574441      17.574441    
    169000   84.5           155.54193     -2857.9797      10.032581      5744.4749      5428.0528      17.574434      17.574434      17.574434    
    169200   84.6           157.52478     -2858.1051      10.160476      5668.6261      5428.0472      17.574428      17.574428      17.574428    
    169400   84.7           160.68927     -2858.3068      10.364588      5708.5059      5428.0419      17.574423      17.574423      17.574423    
    169600   84.8           166.06396     -2858.6511      10.71126       5331.0885      5428.0368      17.574417      17.574417      17.574417    
    169800   84.9           154.44226     -2857.8989      9.9616513      5937.7289      5428.0319      17.574412      17.574412      17.574412    
    170000   85             162.51623     -2858.4173      10.482429      5521.9308      5428.0273      17.574407      17.574407      17.574407    
    170200   85.1           162.11089     -2858.3887      10.456284      5497.9485      5428.0229      17.574402      17.574402      17.574402    
    170400   85.2           158.66092     -2858.1637      10.233758      5516.6767      5428.0187      17.574398      17.574398      17.574398    
    170600   85.3           154.38983     -2857.8857      9.9582695      5871.4729      5428.0148      17.574393      17.574393      17.574393    
    170800   85.4           162.21208     -2858.3878      10.462811      5448.9112      5428.0112      17.574389      17.574389      17.574389    
    171000   85.5           159.18574     -2858.1902      10.267609      5526.2019      5428.0077      17.574386      17.574386      17.574386    
    171200   85.6           156.99362     -2858.0462      10.126216      5666.7923      5428.0045      17.574382      17.574382      17.574382    
    171400   85.7           159.81294     -2858.2256      10.308064      5610.283       5428.0016      17.574379      17.574379      17.574379    
    171600   85.8           166.87182     -2858.6785      10.763368      5319.4383      5427.9989      17.574376      17.574376      17.574376    
    171800   85.9           160.65622     -2858.2751      10.362456      5597.9336      5427.9964      17.574373      17.574373      17.574373    
    172000   86             157.85839     -2858.0921      10.181994      5692.0773      5427.9941      17.574371      17.574371      17.574371    
    172200   86.1           156.32166     -2857.9905      10.082874      5867.0704      5427.9921      17.574369      17.574369      17.574369    
    172400   86.2           160.80685     -2858.2774      10.372172      5558.3536      5427.9904      17.574367      17.574367      17.574367    
    172600   86.3           152.08758     -2857.7125      9.8097728      5959.9981      5427.9888      17.574365      17.574365      17.574365    
    172800   86.4           163.86311     -2858.4696      10.569304      5419.6775      5427.9876      17.574364      17.574364      17.574364    
    173000   86.5           154.83778     -2857.8849      9.9871628      5795.3163      5427.9865      17.574363      17.574363      17.574363    
    173200   86.6           152.67156     -2857.7426      9.8474396      5906.1712      5427.9857      17.574362      17.574362      17.574362    
    173400   86.7           165.43348     -2858.5634      10.670594      5405.8673      5427.9852      17.574361      17.574361      17.574361    
    173600   86.8           160.24726     -2858.2263      10.336078      5623.5801      5427.9848      17.574361      17.574361      17.574361    
    173800   86.9           159.14973     -2858.1531      10.265287      5572.7192      5427.9848      17.574361      17.574361      17.574361    
    174000   87             160.89207     -2858.2629      10.377669      5637.9671      5427.9849      17.574361      17.574361      17.574361    
    174200   87.1           157.15525     -2858.0194      10.136641      5740.2416      5427.9853      17.574361      17.574361      17.574361    
    174400   87.2           156.44707     -2857.9712      10.090963      5722.5153      5427.9859      17.574362      17.574362      17.574362    
    174600   87.3           166.83838     -2858.639       10.761211      5182.8535      5427.9868      17.574363      17.574363      17.574363    
    174800   87.4           158.05343     -2858.0698      10.194575      5776.3012      5427.9879      17.574364      17.574364      17.574364    
    175000   87.5           165.92617     -2858.5751      10.702373      5359.2591      5427.9893      17.574366      17.574366      17.574366    
    175200   87.6           168.21115     -2858.7201      10.849756      5235.604       5427.9908      17.574367      17.574367      17.574367    
    175400   87.7           162.05742     -2858.3206      10.452835      5581.1733      5427.9927      17.574369      17.574369      17.574369    
    175600   87.8           163.92525     -2858.4386      10.573312      5500.6139      5427.9947      17.574372      17.574372      17.574372    
    175800   87.9           156.37945     -2857.9493      10.086601      5602.1153      5427.997       17.574374      17.574374      17.574374    
    176000   88             144.10019     -2857.1547      9.2945791      6347.0003      5427.9996      17.574377      17.574377      17.574377    
    176200   88.1           158.28629     -2858.0673      10.209594      5725.4728      5428.0023      17.57438       17.57438       17.57438     
    176400   88.2           153.92547     -2857.7835      9.9283177      5665.4017      5428.0054      17.574383      17.574383      17.574383    
    176600   88.3           152.65507     -2857.699       9.8463761      5981.2433      5428.0086      17.574387      17.574387      17.574387    
    176800   88.4           162.75529     -2858.348       10.497848      5606.6536      5428.0121      17.57439       17.57439       17.57439     
    177000   88.5           155.02672     -2857.8469      9.9993494      5804.6304      5428.0159      17.574394      17.574394      17.574394    
    177200   88.6           162.60054     -2858.3329      10.487867      5610.6454      5428.0198      17.574399      17.574399      17.574399    
    177400   88.7           166.25103     -2858.5659      10.723327      5483.8278      5428.0241      17.574403      17.574403      17.574403    
    177600   88.8           163.05876     -2858.3575      10.517422      5444.6394      5428.0285      17.574408      17.574408      17.574408    
    177800   88.9           157.65499     -2858.0063      10.168875      5786.8305      5428.0332      17.574413      17.574413      17.574413    
    178000   89             164.07574     -2858.418       10.583018      5576.3222      5428.0381      17.574418      17.574418      17.574418    
    178200   89.1           161.25433     -2858.2335      10.401035      5529.3137      5428.0433      17.574424      17.574424      17.574424    
    178400   89.2           159.66185     -2858.1282      10.298319      5683.1469      5428.0487      17.57443       17.57443       17.57443     
    178600   89.3           157.11291     -2857.9612      10.13391       5895.6632      5428.0544      17.574436      17.574436      17.574436    
    178800   89.4           163.63587     -2858.3795      10.554647      5576.7845      5428.0603      17.574442      17.574442      17.574442    
    179000   89.5           153.49616     -2857.7228      9.9006271      6079.4826      5428.0665      17.574449      17.574449      17.574449    
    179200   89.6           160.86948     -2858.1959      10.376212      5679.0614      5428.0729      17.574456      17.574456      17.574456    
    179400   89.7           165.06958     -2858.4643      10.647122      5511.0149      5428.0795      17.574463      17.574463      17.574463    
    179600   89.8           158.63044     -2858.0464      10.231793      5848.1614      5428.0864      17.574471      17.574471      17.574471    
    179800   89.9           164.75596     -2858.439       10.626894      5478.9518      5428.0935      17.574478      17.574478      17.574478    
    180000   90             167.07019     -2858.5857      10.776163      5454.874       5428.1009      17.574486      17.574486      17.574486    
    180200   90.1           166.12755     -2858.5223      10.715362      5479.7946      5428.1085      17.574494      17.574494      17.574494    
    180400   90.2           148.993       -2857.4145      9.6101694      6224.8217      5428.1163      17.574503      17.574503      17.574503    
    180600   90.3           160.52538     -2858.1558      10.354018      5692.8382      5428.1245      17.574512      17.574512      17.574512    
    180800   90.4           164.89669     -2858.4353      10.635971      5643.7078      5428.1328      17.574521      17.574521      17.574521    
    181000   90.5           152.24658     -2857.6167      9.8200279      6073.8039      5428.1414      17.57453       17.57453       17.57453     
    181200   90.6           154.18051     -2857.7389      9.9447681      5979.1734      5428.1502      17.574539      17.574539      17.574539    
    181400   90.7           157.49171     -2857.9499      10.158343      5888.8072      5428.1593      17.574549      17.574549      17.574549    
    181600   90.8           160.19998     -2858.1221      10.333029      5678.1262      5428.1686      17.574559      17.574559      17.574559    
    181800   90.9           155.86838     -2857.8401      10.053637      5883.989       5428.1782      17.57457       17.57457       17.57457     
    182000   91             164.2385      -2858.3774      10.593517      5560.26        5428.188       17.57458       17.57458       17.57458     
    182200   91.1           167.69057     -2858.5975      10.816178      5351.7767      5428.1981      17.574591      17.574591      17.574591    
    182400   91.2           153.16039     -2857.6576      9.8789698      6035.1478      5428.2084      17.574602      17.574602      17.574602    
    182600   91.3           166.25149     -2858.4995      10.723356      5489.7309      5428.2189      17.574614      17.574614      17.574614    
    182800   91.4           165.52004     -2858.4497      10.676177      5584.7168      5428.2297      17.574625      17.574625      17.574625    
    183000   91.5           164.14496     -2858.3585      10.587483      5562.8887      5428.2407      17.574637      17.574637      17.574637    
    183200   91.6           161.86347     -2858.2087      10.440325      5627.482       5428.252       17.574649      17.574649      17.574649    
    183400   91.7           159.54666     -2858.0566      10.290889      5844.6304      5428.2635      17.574662      17.574662      17.574662    
    183600   91.8           160.84451     -2858.1378      10.374602      5616.0907      5428.2753      17.574674      17.574674      17.574674    
    183800   91.9           156.57264     -2857.8596      10.099063      5823.0334      5428.2873      17.574687      17.574687      17.574687    
    184000   92             165.43674     -2858.4288      10.670804      5438.2014      5428.2995      17.574701      17.574701      17.574701    
    184200   92.1           160.74924     -2858.1239      10.368457      5696.6372      5428.312       17.574714      17.574714      17.574714    
    184400   92.2           159.09975     -2858.0149      10.262063      5674.9206      5428.3247      17.574728      17.574728      17.574728    
    184600   92.3           166.879       -2858.5141      10.763831      5277.3607      5428.3377      17.574742      17.574742      17.574742    
    184800   92.4           158.58142     -2857.9762      10.22863       5669.2273      5428.3509      17.574756      17.574756      17.574756    
    185000   92.5           158.13351     -2857.9448      10.19974       5697.675       5428.3643      17.57477       17.57477       17.57477     
    185200   92.6           151.92119     -2857.5414      9.79904        6014.4029      5428.378       17.574785      17.574785      17.574785    
    185400   92.7           165.7365      -2858.43        10.690139      5343.7565      5428.3919      17.5748        17.5748        17.5748      
    185600   92.8           159.38328     -2858.0176      10.280351      5587.9311      5428.406       17.574816      17.574816      17.574816    
    185800   92.9           154.1128      -2857.675       9.9404011      5995.1271      5428.4204      17.574831      17.574831      17.574831    
    186000   93             159.9773      -2858.0506      10.318666      5642.9522      5428.435       17.574847      17.574847      17.574847    
    186200   93.1           165.1955      -2858.3847      10.655244      5282.5779      5428.4499      17.574863      17.574863      17.574863    
    186400   93.2           164.16943     -2858.3159      10.589062      5458.4079      5428.465       17.574879      17.574879      17.574879    
    186600   93.3           164.30453     -2858.3219      10.597776      5425.9518      5428.4803      17.574896      17.574896      17.574896    
    186800   93.4           157.64826     -2857.8899      10.168441      5697.8351      5428.4959      17.574913      17.574913      17.574913    
    187000   93.5           165.39895     -2858.3873      10.668367      5336.339       5428.5117      17.57493       17.57493       17.57493     
    187200   93.6           169.98725     -2858.6807      10.964316      5101.7864      5428.5278      17.574947      17.574947      17.574947    
    187400   93.7           168.0326      -2858.5519      10.838239      5174.4004      5428.5441      17.574964      17.574964      17.574964    
    187600   93.8           158.72744     -2857.949       10.238049      5684.8073      5428.5606      17.574982      17.574982      17.574982    
    187800   93.9           155.52206     -2857.7397      10.031299      5722.5083      5428.5773      17.575         17.575         17.575       
    188000   94             159.0246      -2857.963       10.257216      5542.3528      5428.5943      17.575019      17.575019      17.575019    
    188200   94.1           167.03677     -2858.4772      10.774007      5178.4268      5428.6115      17.575037      17.575037      17.575037    
    188400   94.2           162.16809     -2858.1605      10.459974      5321.5165      5428.629       17.575056      17.575056      17.575056    
    188600   94.3           155.7082      -2857.7411      10.043306      5650.2122      5428.6466      17.575075      17.575075      17.575075    
    188800   94.4           163.84804     -2858.2636      10.568331      5399.7961      5428.6645      17.575094      17.575094      17.575094    
    189000   94.5           159.01459     -2857.9492      10.25657       5435.0899      5428.6827      17.575114      17.575114      17.575114    
    189200   94.6           157.37239     -2857.8406      10.150647      5497.3559      5428.701       17.575134      17.575134      17.575134    
    189400   94.7           157.42727     -2857.8415      10.154187      5629.1603      5428.7196      17.575154      17.575154      17.575154    
    189600   94.8           155.98101     -2857.7456      10.060902      5597.5118      5428.7385      17.575174      17.575174      17.575174    
    189800   94.9           153.91325     -2857.6095      9.9275296      5670.505       5428.7575      17.575195      17.575195      17.575195    
    190000   95             169.10914     -2858.5871      10.907677      5127.0975      5428.7768      17.575216      17.575216      17.575216    
    190200   95.1           165.89007     -2858.3768      10.700044      5244.0118      5428.7963      17.575237      17.575237      17.575237    
    190400   95.2           159.81775     -2857.9824      10.308374      5545.9887      5428.8161      17.575258      17.575258      17.575258    
    190600   95.3           164.13978     -2858.2586      10.587149      5384.1643      5428.8361      17.57528       17.57528       17.57528     
    190800   95.4           164.68267     -2858.291       10.622166      5312.5825      5428.8563      17.575301      17.575301      17.575301    
    191000   95.5           162.59464     -2858.1536      10.487487      5350.4475      5428.8767      17.575323      17.575323      17.575323    
    191200   95.6           162.70506     -2858.1581      10.494609      5348.1183      5428.8974      17.575346      17.575346      17.575346    
    191400   95.7           164.12771     -2858.2472      10.58637       5294.5006      5428.9183      17.575368      17.575368      17.575368    
    191600   95.8           166.57313     -2858.4023      10.744102      5086.6135      5428.9394      17.575391      17.575391      17.575391    
    191800   95.9           162.38019     -2858.1291      10.473654      5318.3399      5428.9608      17.575414      17.575414      17.575414    
    192000   96             165.80565     -2858.3474      10.694599      5217.3728      5428.9824      17.575437      17.575437      17.575437    
    192200   96.1           157.53891     -2857.8115      10.161388      5579.7752      5429.0042      17.575461      17.575461      17.575461    
    192400   96.2           157.7463      -2857.8222      10.174765      5510.5688      5429.0262      17.575485      17.575485      17.575485    
    192600   96.3           162.61255     -2858.1334      10.488642      5349.1485      5429.0485      17.575509      17.575509      17.575509    
    192800   96.4           152.17252     -2857.4573      9.8152512      5741.5404      5429.071       17.575533      17.575533      17.575533    
    193000   96.5           153.4946      -2857.5399      9.9005261      5633.5718      5429.0938      17.575558      17.575558      17.575558    
    193200   96.6           155.61415     -2857.674       10.037239      5575.7471      5429.1167      17.575582      17.575582      17.575582    
    193400   96.7           161.30825     -2858.0386      10.404513      5395.7995      5429.1399      17.575607      17.575607      17.575607    
    193600   96.8           159.89632     -2857.9448      10.313443      5376.7724      5429.1633      17.575633      17.575633      17.575633    
    193800   96.9           166.19901     -2858.3487      10.719971      5160.6556      5429.187       17.575658      17.575658      17.575658    
    194000   97             166.44096     -2858.3616      10.735577      5099.3046      5429.2108      17.575684      17.575684      17.575684    
    194200   97.1           158.43073     -2857.8422      10.218911      5611.5104      5429.2349      17.57571       17.57571       17.57571     
    194400   97.2           169.29451     -2858.5404      10.919634      5002.7718      5429.2593      17.575736      17.575736      17.575736    
    194600   97.3           163.43816     -2858.1599      10.541894      5293.6695      5429.2838      17.575763      17.575763      17.575763    
    194800   97.4           154.62546     -2857.5887      9.9734676      5661.3517      5429.3086      17.575789      17.575789      17.575789    
    195000   97.5           159.07994     -2857.8734      10.260785      5384.2252      5429.3336      17.575816      17.575816      17.575816    
    195200   97.6           158.88913     -2857.8584      10.248478      5359.6379      5429.3588      17.575844      17.575844      17.575844    
    195400   97.7           167.67762     -2858.4226      10.815343      5031.2388      5429.3843      17.575871      17.575871      17.575871    
    195600   97.8           162.66461     -2858.0965      10.491999      5237.652       5429.41        17.575899      17.575899      17.575899    
    195800   97.9           161.45176     -2858.0156      10.41377       5270.1488      5429.4359      17.575927      17.575927      17.575927    
    196000   98             164.50131     -2858.2096      10.610468      5275.4762      5429.462       17.575955      17.575955      17.575955    
    196200   98.1           164.80851     -2858.2267      10.630283      5195.6174      5429.4884      17.575983      17.575983      17.575983    
    196400   98.2           162.45239     -2858.072       10.478311      5204.2068      5429.5149      17.576012      17.576012      17.576012    
    196600   98.3           159.8865      -2857.9038      10.312809      5293.6617      5429.5417      17.576041      17.576041      17.576041    
    196800   98.4           162.20328     -2858.0505      10.462243      5227.6064      5429.5688      17.57607       17.57607       17.57607     
    197000   98.5           156.7392      -2857.6953      10.109806      5373.7915      5429.596       17.5761        17.5761        17.5761      
    197200   98.6           162.92788     -2858.0918      10.50898       5088.6198      5429.6235      17.576129      17.576129      17.576129    
    197400   98.7           163.08449     -2858.0992      10.519082      5156.6499      5429.6512      17.576159      17.576159      17.576159    
    197600   98.8           152.82547     -2857.4347      9.8573667      5509.6665      5429.6791      17.576189      17.576189      17.576189    
    197800   98.9           161.38799     -2857.9844      10.409656      5004.2982      5429.7072      17.57622       17.57622       17.57622     
    198000   99             164.37027     -2858.174       10.602016      5099.1262      5429.7356      17.57625       17.57625       17.57625     
    198200   99.1           167.1765      -2858.3523      10.78302       4840.4368      5429.7641      17.576281      17.576281      17.576281    
    198400   99.2           164.35271     -2858.1674      10.600883      4942.0242      5429.7929      17.576312      17.576312      17.576312    
    198600   99.3           167.49765     -2858.3675      10.803734      4937.0219      5429.8219      17.576343      17.576343      17.576343    
    198800   99.4           168.26002     -2858.414       10.852908      4848.1063      5429.8511      17.576375      17.576375      17.576375    
    199000   99.5           161.03902     -2857.9455      10.387147      5099.263       5429.8805      17.576407      17.576407      17.576407    
    199200   99.6           164.96566     -2858.196       10.640419      4927.0092      5429.9102      17.576439      17.576439      17.576439    
    199400   99.7           160.96919     -2857.9355      10.382644      5074.5571      5429.94        17.576471      17.576471      17.576471    
    199600   99.8           155.79549     -2857.5991      10.048935      5333.958       5429.9701      17.576503      17.576503      17.576503    
    199800   99.9           160.52718     -2857.9015      10.354133      5103.7432      5430.0004      17.576536      17.576536      17.576536    
    200000   100            162.09284     -2857.9998      10.45512       4983.4596      5430.0309      17.576569      17.576569      17.576569    
    200200   100.1          170.34948     -2858.5296      10.98768       4702.4997      5430.0616      17.576602      17.576602      17.576602    
    200400   100.2          163.69038     -2858.0974      10.558163      4929.2607      5430.0925      17.576635      17.576635      17.576635    
    200600   100.3          163.7248      -2858.0968      10.560382      4895.1956      5430.1237      17.576669      17.576669      17.576669    
    200800   100.4          164.63355     -2858.1527      10.618997      4970.666       5430.155       17.576703      17.576703      17.576703    
    201000   100.5          163.89008     -2858.102       10.571043      4841.7532      5430.1866      17.576737      17.576737      17.576737    
    201200   100.6          157.9655      -2857.7171      10.188903      5051.0706      5430.2184      17.576771      17.576771      17.576771    
    201400   100.7          156.91359     -2857.6464      10.121054      5250.6298      5430.2503      17.576806      17.576806      17.576806    
    201600   100.8          162.1603      -2857.9822      10.459471      4917.3761      5430.2825      17.57684       17.57684       17.57684     
    201800   100.9          162.91731     -2858.0282      10.508299      4875.9608      5430.315       17.576875      17.576875      17.576875    
    202000   101            166.74003     -2858.2721      10.754868      4842.8058      5430.3476      17.576911      17.576911      17.576911    
    202200   101.1          166.10839     -2858.2286      10.714126      4800.3127      5430.3804      17.576946      17.576946      17.576946    
    202400   101.2          163.97814     -2858.0884      10.576723      4858.1637      5430.4134      17.576982      17.576982      17.576982    
    202600   101.3          155.45907     -2857.5361      10.027236      5307.199       5430.4467      17.577018      17.577018      17.577018    
    202800   101.4          167.37007     -2858.3017      10.795505      4628.4113      5430.4802      17.577054      17.577054      17.577054    
    203000   101.5          155.25706     -2857.5176      10.014207      5227.4936      5430.5138      17.57709       17.57709       17.57709     
    203200   101.6          162.30265     -2857.9692      10.468652      4878.3081      5430.5477      17.577126      17.577126      17.577126    
    203400   101.7          169.13288     -2858.4071      10.909208      4523.2155      5430.5818      17.577163      17.577163      17.577163    
    203600   101.8          162.72655     -2857.9911      10.495995      4961.6672      5430.6161      17.5772        17.5772        17.5772      
    203800   101.9          171.51829     -2858.5554      11.063069      4423.8627      5430.6506      17.577237      17.577237      17.577237    
    204000   102            169.25791     -2858.4068      10.917273      4628.1277      5430.6853      17.577275      17.577275      17.577275    
    204200   102.1          156.96777     -2857.6113      10.124548      5141.6087      5430.7202      17.577313      17.577313      17.577313    
    204400   102.2          164.94216     -2858.1229      10.638903      4715.9082      5430.7554      17.577351      17.577351      17.577351    
    204600   102.3          159.05887     -2857.7406      10.259426      4969.9979      5430.7907      17.577389      17.577389      17.577389    
    204800   102.4          167.7314      -2858.2973      10.818811      4467.2652      5430.8262      17.577427      17.577427      17.577427    
    205000   102.5          159.93843     -2857.7918      10.316159      4909.9245      5430.862       17.577466      17.577466      17.577466    
    205200   102.6          161.13993     -2857.8665      10.393657      4846.266       5430.8979      17.577504      17.577504      17.577504    
    205400   102.7          171.50976     -2858.5327      11.062519      4375.5598      5430.9341      17.577543      17.577543      17.577543    
    205600   102.8          167.6906      -2858.2835      10.81618       4567.6711      5430.9704      17.577583      17.577583      17.577583    
    205800   102.9          160.94914     -2857.8458      10.381351      4835.1232      5431.007       17.577622      17.577622      17.577622    
    206000   103            159.56068     -2857.7535      10.291794      4903.8591      5431.0437      17.577662      17.577662      17.577662    
    206200   103.1          166.03199     -2858.1682      10.709198      4580.335       5431.0807      17.577701      17.577701      17.577701    
    206400   103.2          160.36978     -2857.8001      10.343981      4745.7116      5431.1178      17.577742      17.577742      17.577742    
    206600   103.3          166.00314     -2858.1607      10.707337      4495.0865      5431.1552      17.577782      17.577782      17.577782    
    206800   103.4          165.34184     -2858.1152      10.664683      4553.0255      5431.1927      17.577822      17.577822      17.577822    
    207000   103.5          165.0384      -2858.0929      10.645111      4542.6573      5431.2305      17.577863      17.577863      17.577863    
    207200   103.6          162.39544     -2857.9196      10.474638      4699.1862      5431.2685      17.577904      17.577904      17.577904    
    207400   103.7          171.39181     -2858.4971      11.054911      4285.2494      5431.3066      17.577945      17.577945      17.577945    
    207600   103.8          163.66737     -2857.9961      10.556679      4641.5311      5431.345       17.577987      17.577987      17.577987    
    207800   103.9          165.03958     -2858.0818      10.645187      4525.1209      5431.3835      17.578028      17.578028      17.578028    
    208000   104            155.45208     -2857.4605      10.026785      4992.9163      5431.4223      17.57807       17.57807       17.57807     
    208200   104.1          166.27649     -2858.156       10.724969      4406.5242      5431.4612      17.578112      17.578112      17.578112    
    208400   104.2          155.84686     -2857.4803      10.052249      4938.5999      5431.5003      17.578154      17.578154      17.578154    
    208600   104.3          164.32784     -2858.0246      10.599279      4477.2067      5431.5397      17.578197      17.578197      17.578197    
    208800   104.4          167.9008      -2858.2523      10.829738      4396.5254      5431.5792      17.578239      17.578239      17.578239    
    209000   104.5          163.7801      -2857.9837      10.56395       4612.5089      5431.6189      17.578282      17.578282      17.578282    
    209200   104.6          164.21906     -2858.0092      10.592262      4519.7355      5431.6589      17.578325      17.578325      17.578325    
    209400   104.7          164.82019     -2858.0452      10.631036      4399.1334      5431.699       17.578369      17.578369      17.578369    
    209600   104.8          161.9988      -2857.8603      10.449054      4612.6032      5431.7393      17.578412      17.578412      17.578412    
    209800   104.9          158.0997      -2857.606       10.197559      4688.1612      5431.7798      17.578456      17.578456      17.578456    
    210000   105            160.65757     -2857.7682      10.362544      4612.3817      5431.8205      17.5785        17.5785        17.5785      
    210200   105.1          161.96158     -2857.8494      10.446654      4535.153       5431.8614      17.578544      17.578544      17.578544    
    210400   105.2          167.96149     -2858.2337      10.833653      4270.2979      5431.9024      17.578588      17.578588      17.578588    
    210600   105.3          165.08253     -2858.0451      10.647957      4385.6208      5431.9437      17.578633      17.578633      17.578633    
    210800   105.4          169.2313      -2858.3099      10.915556      4231.4038      5431.9852      17.578677      17.578677      17.578677    
    211000   105.5          166.18048     -2858.1103      10.718776      4191.1221      5432.0268      17.578722      17.578722      17.578722    
    211200   105.6          155.79703     -2857.4376      10.049035      4777.2463      5432.0687      17.578767      17.578767      17.578767    
    211400   105.7          167.91448     -2858.2165      10.83062       4191.7369      5432.1107      17.578813      17.578813      17.578813    
    211600   105.8          164.71771     -2858.0075      10.624426      4339.4156      5432.1529      17.578858      17.578858      17.578858    
    211800   105.9          162.41027     -2857.8557      10.475594      4424.7036      5432.1953      17.578904      17.578904      17.578904    
    212000   106            173.74327     -2858.584       11.206582      3878.2001      5432.2379      17.57895       17.57895       17.57895     
    212200   106.1          166.12153     -2858.0895      10.714974      4290.6952      5432.2806      17.578996      17.578996      17.578996    
    212400   106.2          161.1754      -2857.7676      10.395944      4425.4146      5432.3236      17.579042      17.579042      17.579042    
    212600   106.3          160.5518      -2857.7245      10.355722      4493.3168      5432.3667      17.579089      17.579089      17.579089    
    212800   106.4          165.63479     -2858.0496      10.683578      4151.3766      5432.4101      17.579136      17.579136      17.579136    
    213000   106.5          152.3396      -2857.1891      9.826028       4897.2657      5432.4536      17.579183      17.579183      17.579183    
    213200   106.6          165.52883     -2858.0371      10.676744      4196.8755      5432.4973      17.57923       17.57923       17.57923     
    213400   106.7          166.55355     -2858.1003      10.742839      4214.8364      5432.5412      17.579277      17.579277      17.579277    
    213600   106.8          159.03673     -2857.6125      10.257998      4565.3719      5432.5852      17.579325      17.579325      17.579325    
    213800   106.9          165.58176     -2858.0319      10.680158      4142.4559      5432.6295      17.579372      17.579372      17.579372    
    214000   107            167.86922     -2858.1766      10.827701      4098.6135      5432.6739      17.57942       17.57942       17.57942     
    214200   107.1          164.01749     -2857.9253      10.579261      4288.1147      5432.7185      17.579468      17.579468      17.579468    
    214400   107.2          164.87835     -2857.978       10.634788      4179.8738      5432.7633      17.579517      17.579517      17.579517    
    214600   107.3          168.13314     -2858.1851      10.844724      4041.8141      5432.8083      17.579565      17.579565      17.579565    
    214800   107.4          159.65332     -2857.6352      10.297769      4432.5585      5432.8535      17.579614      17.579614      17.579614    
    215000   107.5          162.57606     -2857.8209      10.486288      4214.6956      5432.8988      17.579663      17.579663      17.579663    
    215200   107.6          161.40166     -2857.7423      10.410538      4289.3099      5432.9443      17.579712      17.579712      17.579712    
    215400   107.7          156.97516     -2857.4539      10.125025      4436.9034      5432.99        17.579761      17.579761      17.579761    
    215600   107.8          159.3484      -2857.6041      10.278101      4292.3712      5433.0359      17.579811      17.579811      17.579811    
    215800   107.9          158.60198     -2857.5531      10.229956      4401.194       5433.0819      17.57986       17.57986       17.57986     
    216000   108            166.69977     -2858.0725      10.75227       4066.7798      5433.1282      17.57991       17.57991       17.57991     
    216200   108.1          172.5002      -2858.4439      11.126403      3728.526       5433.1746      17.57996       17.57996       17.57996     
    216400   108.2          162.198       -2857.7764      10.461903      4300.7248      5433.2211      17.58001       17.58001       17.58001     
    216600   108.3          164.85857     -2857.9452      10.633512      4067.2116      5433.2679      17.580061      17.580061      17.580061    
    216800   108.4          166.64573     -2858.0576      10.748785      3925.024       5433.3148      17.580111      17.580111      17.580111    
    217000   108.5          155.47805     -2857.3343      10.028461      4388.7401      5433.3619      17.580162      17.580162      17.580162    
    217200   108.6          158.99268     -2857.5582      10.255157      4281.052       5433.4092      17.580213      17.580213      17.580213    
    217400   108.7          166.32196     -2858.0281      10.727901      3866.8077      5433.4567      17.580264      17.580264      17.580264    
    217600   108.8          157.55541     -2857.4597      10.162452      4349.9123      5433.5043      17.580316      17.580316      17.580316    
    217800   108.9          165.59318     -2857.9753      10.680895      3936.6778      5433.5521      17.580367      17.580367      17.580367    
    218000   109            163.21892     -2857.8193      10.527753      4005.4351      5433.6         17.580419      17.580419      17.580419    
    218200   109.1          156.81704     -2857.4034      10.114826      4218.6362      5433.6482      17.580471      17.580471      17.580471    
    218400   109.2          162.62115     -2857.7749      10.489196      3951.6088      5433.6965      17.580523      17.580523      17.580523    /home/akinyemi.az/miniforge3/envs/mace-lammps/lib/python3.11/tempfile.py:934: ResourceWarning: Implicitly cleaning up <TemporaryDirectory '/tmp/tmpvg3mzsul'>
  _warnings.warn(warn_message, ResourceWarning)

    218600   109.3          168.26244     -2858.1359      10.853064      3740.6928      5433.745       17.580575      17.580575      17.580575    
    218800   109.4          167.83712     -2858.1056      10.82563       3780.1227      5433.7936      17.580628      17.580628      17.580628    
    219000   109.5          168.82259     -2858.1663      10.889194      3762.3101      5433.8424      17.58068       17.58068       17.58068     
    219200   109.6          170.67328     -2858.2828      11.008565      3663.5281      5433.8914      17.580733      17.580733      17.580733    
    219400   109.7          164.07382     -2857.8542      10.582895      3889.2344      5433.9405      17.580786      17.580786      17.580786    
    219600   109.8          161.12558     -2857.6611      10.392731      3901.8149      5433.9898      17.580839      17.580839      17.580839    
    219800   109.9          162.75533     -2857.7633      10.497851      3832.2545      5434.0393      17.580893      17.580893      17.580893    
    220000   110            151.35608     -2857.0251      9.7625901      4331.8867      5434.0889      17.580946      17.580946      17.580946    
Loop time of 6216.53 on 1 procs for 200000 steps with 500 atoms

Performance: 1.390 ns/day, 17.268 hours/ns, 32.172 timesteps/s, 16.086 katom-step/s
99.2% CPU use with 1 MPI tasks x 1 OpenMP threads

MPI task timing breakdown:
Section |  min time  |  avg time  |  max time  |%varavg| %total
---------------------------------------------------------------
Pair    | 6031.9     | 6031.9     | 6031.9     |   0.0 | 97.03
Neigh   | 0          | 0          | 0          |   0.0 |  0.00
Comm    | 6.9135     | 6.9135     | 6.9135     |   0.0 |  0.11
Output  | 0.221      | 0.221      | 0.221      |   0.0 |  0.00
Modify  | 170.1      | 170.1      | 170.1      |   0.0 |  2.74
Other   |            | 7.444      |            |       |  0.12

Nlocal:            500 ave         500 max         500 min
Histogram: 1 0 0 0 0 0 0 0 0 0
Nghost:           2085 ave        2085 max        2085 min
Histogram: 1 0 0 0 0 0 0 0 0 0
Neighs:              0 ave           0 max           0 min
Histogram: 1 0 0 0 0 0 0 0 0 0
FullNghs:        67778 ave       67778 max       67778 min
Histogram: 1 0 0 0 0 0 0 0 0 0

Total # of neighbors = 67778
Ave neighs/atom = 135.556
Neighbor list builds = 0
Dangerous builds = 0
### NPT complete at 300 K ###
NPT_RESULT: a0_at_300K = 3.51618924848595 Angstrom
Total wall time: 1:55:48
NPT at 300 K finished at: Thu Apr 30 11:27:09 AM EDT 2026
