LAMMPS data file via write_data, version 11 Feb 2026, timestep = 220251, units = metal

360 atoms
8 atom types

0 12.447907776 xlo xhi
0 12.9362452296 ylo yhi
0 52.3600831054 zlo zhi

Masses

1 26.9815
2 10.811
3 12.011
4 51.9961
5 55.845
6 95.95999999999999
7 58.6934
8 1.008

Atoms # atomic/kk

1 7 1.2447907776 0.7186802905 15 0 0 0
2 7 3.7343723328 0.7186802905 15 0 0 0
6 7 0 2.8747211621 15 0 0 0
7 7 2.4895815552 2.8747211621 15 0 0 0
31 2 0 1.4373605811 17.0327348278 0 0 0
32 4 2.4895815552 1.4373605811 17.0327348278 0 0 0
36 6 1.2447907776 3.5934014527 17.0327348278 0 0 0
37 7 3.7343723328 3.5934014527 17.0327348278 0 0 0
3 7 6.223953888 0.7186802905 15 0 0 0
8 7 4.9791631104 2.8747211621 15 0 0 0
9 7 7.4687446656 2.8747211621 15 0 0 0
33 7 4.9791631104 1.4373605811 17.0327348278 0 0 0
34 3 7.4687446656 1.4373605811 17.0327348278 0 0 0
38 7 6.223953888 3.5934014527 17.0327348278 0 0 0
4 7 8.7135354432 0.7186802905 15 0 0 0
5 7 11.2031169984 0.7186802905 15 0 0 0
10 7 9.9583262208 2.8747211621 15 0 0 0
35 7 9.9583262208 1.4373605811 17.0327348278 0 0 0
39 6 8.7135354432 3.5934014527 17.0327348278 0 0 0
40 7 11.2031169984 3.5934014527 17.0327348278 0 0 0
11 4 1.2447907776 5.0307620337 15 0 0 0
12 6 3.7343723328 5.0307620337 15 0 0 0
16 7 0 7.1868029053 15 0 0 0
17 3 2.4895815552 7.1868029053 15 0 0 0
41 4 0 5.7494423243 17.0327348278 0 0 0
42 4 2.4895815552 5.7494423243 17.0327348278 0 0 0
46 7 1.2447907776 7.9054831959 17.0327348278 0 0 0
47 2 3.7343723328 7.9054831959 17.0327348278 0 0 0
13 7 6.223953888 5.0307620337 15 0 0 0
18 7 4.9791631104 7.1868029053 15 0 0 0
19 4 7.4687446656 7.1868029053 15 0 0 0
43 7 4.9791631104 5.7494423243 17.0327348278 0 0 0
44 7 7.4687446656 5.7494423243 17.0327348278 0 0 0
48 7 6.223953888 7.9054831959 17.0327348278 0 0 0
14 7 8.7135354432 5.0307620337 15 0 0 0
15 7 11.2031169984 5.0307620337 15 0 0 0
20 6 9.9583262208 7.1868029053 15 0 0 0
45 7 9.9583262208 5.7494423243 17.0327348278 0 0 0
49 6 8.7135354432 7.9054831959 17.0327348278 0 0 0
50 7 11.2031169984 7.9054831959 17.0327348278 0 0 0
21 6 1.2447907776 9.3428437769 15 0 0 0
22 7 3.7343723328 9.3428437769 15 0 0 0
26 7 0 11.4988846485 15 0 0 0
27 7 2.4895815552 11.4988846485 15 0 0 0
51 4 0 10.0615240675 17.0327348278 0 0 0
52 7 2.4895815552 10.0615240675 17.0327348278 0 0 0
56 4 1.2447907776 12.2175649391 17.0327348278 0 0 0
57 7 3.7343723328 12.2175649391 17.0327348278 0 0 0
23 4 6.223953888 9.3428437769 15 0 0 0
28 4 4.9791631104 11.4988846485 15 0 0 0
29 7 7.4687446656 11.4988846485 15 0 0 0
53 4 4.9791631104 10.0615240675 17.0327348278 0 0 0
54 7 7.4687446656 10.0615240675 17.0327348278 0 0 0
58 7 6.223953888 12.2175649391 17.0327348278 0 0 0
24 7 8.7135354432 9.3428437769 15 0 0 0
25 7 11.2031169984 9.3428437769 15 0 0 0
30 7 9.9583262208 11.4988846485 15 0 0 0
55 1 9.9583262208 10.0615240675 17.0327348278 0 0 0
59 7 8.7135354432 12.2175649391 17.0327348278 0 0 0
60 7 11.2031169984 12.2175649391 17.0327348278 0 0 0
61 7 0 0 19.0654696555 0 0 0
62 7 2.4895815552 0 19.0654696555 0 0 0
66 7 1.2447907776 2.1560408716 19.0654696555 0 0 0
67 7 3.7343723328 2.1560408716 19.0654696555 0 0 0
91 2 1.2447907776 0.7186802905 21.0982044833 0 0 0
92 7 3.7343723328 0.7186802905 21.0982044833 0 0 0
96 7 0 2.8747211621 21.0982044833 0 0 0
97 7 2.4895815552 2.8747211621 21.0982044833 0 0 0
63 7 4.9791631104 0 19.0654696555 0 0 0
64 7 7.4687446656 0 19.0654696555 0 0 0
68 7 6.223953888 2.1560408716 19.0654696555 0 0 0
93 7 6.223953888 0.7186802905 21.0982044833 0 0 0
98 6 4.9791631104 2.8747211621 21.0982044833 0 0 0
99 7 7.4687446656 2.8747211621 21.0982044833 0 0 0
65 7 9.9583262208 0 19.0654696555 0 0 0
69 6 8.7135354432 2.1560408716 19.0654696555 0 0 0
70 7 11.2031169984 2.1560408716 19.0654696555 0 0 0
94 7 8.7135354432 0.7186802905 21.0982044833 0 0 0
95 7 11.2031169984 0.7186802905 21.0982044833 0 0 0
100 6 9.9583262208 2.8747211621 21.0982044833 0 0 0
71 7 0 4.3120817432 19.0654696555 0 0 0
72 7 2.4895815552 4.3120817432 19.0654696555 0 0 0
76 7 1.2447907776 6.4681226148 19.0654696555 0 0 0
77 7 3.7343723328 6.4681226148 19.0654696555 0 0 0
101 4 1.2447907776 5.0307620337 21.0982044833 0 0 0
102 5 3.7343723328 5.0307620337 21.0982044833 0 0 0
106 7 0 7.1868029053 21.0982044833 0 0 0
107 4 2.4895815552 7.1868029053 21.0982044833 0 0 0
73 7 4.9791631104 4.3120817432 19.0654696555 0 0 0
74 6 7.4687446656 4.3120817432 19.0654696555 0 0 0
78 7 6.223953888 6.4681226148 19.0654696555 0 0 0
103 7 6.223953888 5.0307620337 21.0982044833 0 0 0
108 7 4.9791631104 7.1868029053 21.0982044833 0 0 0
109 7 7.4687446656 7.1868029053 21.0982044833 0 0 0
75 7 9.9583262208 4.3120817432 19.0654696555 0 0 0
79 7 8.7135354432 6.4681226148 19.0654696555 0 0 0
80 7 11.2031169984 6.4681226148 19.0654696555 0 0 0
104 5 8.7135354432 5.0307620337 21.0982044833 0 0 0
105 7 11.2031169984 5.0307620337 21.0982044833 0 0 0
110 7 9.9583262208 7.1868029053 21.0982044833 0 0 0
81 7 0 8.6241634864 19.0654696555 0 0 0
82 7 2.4895815552 8.6241634864 19.0654696555 0 0 0
86 6 1.2447907776 10.780204358 19.0654696555 0 0 0
87 7 3.7343723328 10.780204358 19.0654696555 0 0 0
111 6 1.2447907776 9.3428437769 21.0982044833 0 0 0
112 7 3.7343723328 9.3428437769 21.0982044833 0 0 0
116 1 0 11.4988846485 21.0982044833 0 0 0
117 7 2.4895815552 11.4988846485 21.0982044833 0 0 0
83 7 4.9791631104 8.6241634864 19.0654696555 0 0 0
84 7 7.4687446656 8.6241634864 19.0654696555 0 0 0
88 6 6.223953888 10.780204358 19.0654696555 0 0 0
113 4 6.223953888 9.3428437769 21.0982044833 0 0 0
118 7 4.9791631104 11.4988846485 21.0982044833 0 0 0
119 7 7.4687446656 11.4988846485 21.0982044833 0 0 0
85 7 9.9583262208 8.6241634864 19.0654696555 0 0 0
89 4 8.7135354432 10.780204358 19.0654696555 0 0 0
90 7 11.2031169984 10.780204358 19.0654696555 0 0 0
114 4 8.7135354432 9.3428437769 21.0982044833 0 0 0
115 6 11.2031169984 9.3428437769 21.0982044833 0 0 0
120 7 9.9583262208 11.4988846485 21.0982044833 0 0 0
121 7 12.438390017056072 1.4824031590099083 23.227875127850314 -1 0 0
152 7 2.5283141567860477 0.12688991822718612 25.34527018833702 0 0 0
127 7 3.6780951540481177 3.7510939408548287 23.269944540227094 0 0 0
156 7 1.2343085504607556 2.2806992859377604 25.311690351545437 0 0 0
157 7 3.8729504831524864 2.4251073909789285 25.433775207830475 0 0 0
122 7 2.456095448851309 1.590418107849907 23.233732589505824 0 0 0
126 7 1.1810951489545152 3.6857655343675995 23.259372932771775 0 0 0
158 4 6.365592384552609 2.2757288016877064 25.220954775852764 0 0 0
153 7 5.067868741774077 0.0492437551068825 25.28249594182867 0 0 0
154 7 7.664676061185889 0.12405788637387091 25.436792271482567 0 0 0
123 7 4.947847842495788 1.6404625574238563 23.259323986582714 0 0 0
124 7 7.454167447235476 1.4419841858488915 23.26724141822342 0 0 0
128 7 6.27041654306983 3.689145097206462 23.191710604056052 0 0 0
125 7 9.94730616228267 1.5180364584375947 23.269984352692035 0 0 0
129 4 8.671695344595026 3.5575985520446967 23.252402224521738 0 0 0
130 7 11.134844790278748 3.715110543373327 23.20432928820559 0 0 0
159 7 8.731302851533178 2.3084429185318323 25.36947907072974 0 0 0
160 7 11.204412843563668 2.369639105569444 25.35061499225811 0 0 0
151 7 0.027070068591477536 0.2107956633375431 25.233321271008396 0 0 0
132 7 2.561148427681932 5.836877967606116 23.08283234188594 0 0 0
136 7 1.2807983055673173 8.015268199752768 23.22908894715795 0 0 0
137 6 3.823176764230559 8.162050833584424 23.191419018848524 0 0 0
166 7 1.352409150331309 6.728102399161363 25.184393844425493 0 0 0
167 7 3.8026425146927343 6.574380240188895 25.163974053403262 0 0 0
131 7 0.06330504166599887 5.910794305922259 23.155034149710097 0 0 0
161 6 12.42343585009741 4.509653342872363 25.22955741165311 -1 0 0
162 7 2.5349315893548603 4.483945906835917 25.274726938859338 0 0 0
164 7 7.480937208548851 4.550550197500749 25.177854138822372 0 0 0
163 7 5.063116641623243 4.43105402948789 25.211895385560496 0 0 0
133 5 5.051462130483645 5.925377347565328 23.136778405379864 0 0 0
134 7 7.51072803318084 5.867161562027689 23.126187144691293 0 0 0
138 4 6.35786401650984 7.935378067913085 23.230441414066895 0 0 0
168 7 6.219490943450606 6.582668406698575 25.21708185235496 0 0 0
165 7 9.900966993476416 4.51177395165311 25.34886636719101 0 0 0
135 6 10.010203577513206 5.888129591775248 23.199801097820906 0 0 0
139 7 8.814471797332779 7.96537541168307 23.12414378555544 0 0 0
140 7 11.269891604836893 8.051774744560163 23.297208871893883 0 0 0
169 1 8.67485191384392 6.703986796268147 25.493818884715832 0 0 0
170 7 11.24591145527902 6.522318807823796 25.368937658038295 0 0 0
172 7 2.5792354529107038 8.848560862221222 25.35030075741131 0 0 0
142 7 2.5541499019445495 10.271498460306137 23.131381397615115 0 0 0
146 7 1.2943206438898172 12.442967553087218 22.99459857791799 0 0 0
147 7 3.780713443046632 12.424641352529148 23.228844815037267 0 0 0
176 1 1.2529037217865864 10.972071656705806 25.312999189171066 0 0 0
177 7 3.79227563215401 10.874207674113114 25.18502260798448 0 0 0
141 7 0.060150625192012475 10.094179301609413 23.241782020043157 0 0 0
171 7 0.09826496806081324 8.700370348531763 25.260135743926277 0 0 0
173 7 5.039616712517482 8.71930932376148 25.251536862830243 0 0 0
174 7 7.485656143443177 8.708809053288936 25.232876880055215 0 0 0
143 7 5.193329736229715 10.189383229564324 23.287448503730115 0 0 0
144 7 7.633326530046215 10.186134940253906 23.203258364918067 0 0 0
148 7 6.2787867069624 12.363666158110192 23.25381609014373 0 0 0
178 6 6.358898747309477 10.937496781711092 25.333791316462243 0 0 0
175 7 10.04394382771067 8.674747034360736 25.306329421995233 0 0 0
150 3 12.435968903325787 11.752123548748695 23.92899365855569 0 0 0
145 5 9.972728378839056 10.128800633570865 23.217573896872025 0 0 0
149 1 8.753107127160325 12.336956067323545 23.289591151557524 0 0 0
179 7 8.907811514170714 10.869167993753296 25.423794964207374 0 0 0
180 4 11.188691244994873 10.832728263953584 25.11014698599287 0 0 0
181 7 1.1419165023302829 0.7521489236994701 27.279703473915234 0 0 0
182 7 3.618439902871232 0.908083755158256 27.543792746640417 0 0 0
187 6 2.309100178639389 2.926696130316419 27.545102307998476 0 0 0
216 7 0.9675439823762871 4.271397339271815 29.495162587102204 0 0 0
217 7 3.584947333300582 3.7727128961659124 29.558606917591227 0 0 0
211 7 0.2802171874024225 1.8125318180598455 29.292112563479336 0 0 0
212 7 2.4842851592748287 1.2552256245143851 29.901934700731587 0 0 0
183 6 6.173096894786777 0.8522218778256732 27.401399811381136 0 0 0
188 7 5.04840176773993 3.0136207434924405 27.41032481287074 0 0 0
189 7 7.427867663861898 3.0717707730692045 27.43543596908424 0 0 0
213 7 4.8820410785470045 1.4834655086890016 29.62682758842605 0 0 0
214 7 7.588613140663684 1.3725512899740424 29.595207342880745 0 0 0
218 4 6.322754247687736 3.352792392934038 29.537651185610983 0 0 0
186 7 12.344404058816343 3.2228976117806325 27.427727096390466 -1 0 0
184 7 8.638892547404716 0.9480600344454508 27.483740768986582 0 0 0
185 7 11.13747922639931 0.9176691004123358 27.301227300202928 0 0 0
190 7 9.853731968176618 3.064586215740377 27.448816221132248 0 0 0
215 7 9.977183454517315 1.5398273206739965 29.402754596923906 0 0 0
219 7 8.643851087576785 3.6368618997311097 29.540053450689193 0 0 0
220 7 11.056957410468561 3.6245864233826075 29.544963706165014 0 0 0
191 7 1.1932852847013664 5.260805724971569 27.284091935469334 0 0 0
192 6 3.686294226895073 5.2718581526373365 27.382087456422802 0 0 0
197 7 2.5739410431347007 7.3188201569093225 27.256612936992763 0 0 0
222 4 2.4897147605475536 6.005249497701708 29.52539337017122 0 0 0
226 7 1.1363212761097097 7.998835247300519 29.525034753843915 0 0 0
227 7 3.7561325356044355 7.881540559538061 29.429522958536317 0 0 0
221 2 0.40660026030449103 6.202380916121869 28.972311195714166 0 0 0
196 7 0.03281305065035235 7.383473019090422 27.376051298647774 0 0 0
193 7 6.276000664787244 5.231308230765953 27.2338840783414 0 0 0
198 5 5.036038482222255 7.273522045757505 27.39669687227555 0 0 0
199 7 7.432599354640593 7.283965945429215 27.361255846997462 0 0 0
223 3 5.12674697824675 4.597291736379137 28.726167279598574 0 0 0
224 6 7.107434126175202 5.59775715035763 29.500921533074855 0 0 0
228 7 6.107862136805275 7.943365259889112 29.688012746143226 0 0 0
194 7 8.746813018258633 5.200154684899866 27.44823511178952 0 0 0
195 7 11.237492989587881 5.3870215218156785 27.791937028851972 0 0 0
200 7 10.068407446122432 7.319087791657669 27.39278439990155 0 0 0
225 7 9.59115780950843 5.919758622584035 29.5536260292868 0 0 0
229 5 8.580826853622536 7.862322386408277 29.409043838136416 0 0 0
230 7 11.280169356390894 7.747615011729121 29.464183853384824 0 0 0
201 7 1.1974541890487458 9.440351309886806 27.357337777886872 0 0 0
202 7 3.638881876672091 9.402646269281435 27.487576267269795 0 0 0
207 7 2.341846816743539 11.53773679439303 27.36407731951785 0 0 0
232 7 2.3618648517628875 10.037085384593349 29.451278511547304 0 0 0
236 7 1.2367036198802115 12.250231706654471 29.340605923507155 0 0 0
237 7 3.6130832527595964 12.159452919235568 29.504048025001136 0 0 0
203 6 6.247853054092513 9.431158252819555 27.558193922208478 0 0 0
208 6 4.783822765422694 11.543988100536163 27.41402455095967 0 0 0
209 7 7.434775627885421 11.70385330997453 27.663317424493144 0 0 0
233 7 4.897585632636315 10.197296490128357 29.617113111050987 0 0 0
238 6 6.207704838526577 12.361601540513988 29.856256304410447 0 0 0
206 7 12.350124292903152 11.456557114807373 27.344504455280607 -1 0 0
231 7 12.267203029120648 10.105977275566168 29.46416606860277 -1 0 0
155 3 11.083259288247554 12.362410037404148 26.35496714075857 0 -1 0
204 7 8.595132795291011 9.47037960244675 27.325195508845205 0 0 0
205 4 11.140777537145182 9.407402220379323 27.355680248342132 0 0 0
210 7 9.955413489967261 11.524534273739224 27.555020542855342 0 0 0
235 7 9.915424180694167 9.79873008866858 29.32586379940836 0 0 0
239 7 8.98245634617015 12.170107802512684 29.688458147556258 0 0 0
240 7 11.356918664116474 12.511238302509932 29.418145765664278 0 0 0
241 6 0.4647342218228926 0.6417782704338906 31.538646695098347 0 0 0
247 1 3.671443901851069 2.2947086243974795 31.796865225937736 0 0 0
252 7 2.043377913409769 4.182467125997917 31.709232187091537 0 0 0
251 3 1.0960794313750617 2.4839627927457233 32.434697454912836 0 0 0
279 7 7.382715277035026 2.880872494664597 33.68437013159527 0 0 0
248 7 6.224735198034524 2.041422981437839 31.586999445030024 0 0 0
246 7 12.15600572034884 3.3170566894317437 31.447182356335233 -1 0 0
250 3 11.412934216841716 1.6990153541046062 30.677145742880946 0 0 0
245 7 10.32783782641602 0.4629019307662223 31.676905593787858 0 0 0
249 7 8.775630471519374 2.2851626379982437 31.682040974113107 0 0 0
257 7 3.448913624222688 6.437160862246671 31.667114024111704 0 0 0
256 7 0.8455998776622384 6.343185781613346 31.25234115721734 0 0 0
287 7 2.361601541846935 7.323668691553823 33.621932139871085 0 0 0
281 5 0.9972148499098964 5.1746022560649525 33.74594936397293 0 0 0
262 7 2.1849057755812233 8.63961697096401 31.577981976908266 0 0 0
282 6 3.5788618209482617 5.017288848677803 33.68393484896872 0 0 0
263 4 4.774895391762847 8.540268687297669 31.647412818061863 0 0 0
258 7 6.038506492941476 6.509360674972414 31.716049206767686 0 0 0
253 7 4.875929331143593 4.423166543025453 31.456661085610502 0 0 0
254 7 7.3571272201416456 4.356982852073812 31.694479015972444 0 0 0
259 7 8.481738121914999 6.5224269804910735 31.687960507532114 0 0 0
260 7 10.975896942945312 6.60007313484153 31.580358664374806 0 0 0
286 7 12.31014337706474 7.349017194651725 33.46614411256906 -1 0 0
284 7 8.462884003583635 5.257452364505216 33.72661138019928 0 0 0
255 7 9.932280421421096 4.380651248459285 31.59679096053188 0 0 0
266 7 0.9796748630878059 10.800829190708606 31.422533022428368 0 0 0
267 7 3.6095594199347096 10.628997078440582 31.560888967560373 0 0 0
242 2 2.386504773713104 12.335086944693996 31.098179536601755 0 -1 0
297 6 2.2736676271882588 11.54575743681901 33.34677791620444 0 0 0
291 5 0.9970899364946626 9.517053076387093 33.74931662025426 0 0 0
264 7 7.154779247865577 8.612420805216296 31.79415621306747 0 0 0
268 7 6.024758939799583 10.884151422693053 31.79246100795234 0 0 0
244 6 7.884442197369838 12.802120744493797 31.828646960283105 0 -1 0
269 2 8.249289288271882 10.525060142259628 32.03209192366666 0 0 0
243 7 4.480713707004378 0.006621244212114519 31.84559764896614 0 0 0
234 7 7.55345436058035 10.066494423389031 29.81195006798965 0 0 0
265 7 9.499896207717821 8.818943740388006 31.51295791949107 0 0 0
296 7 12.106830606324689 11.761011912424681 33.33466781798229 -1 0 0
261 5 12.093451498335572 8.71286024391433 31.518984036409407 -1 0 0
270 6 10.721159392565719 10.980707518771496 31.25030405406328 0 0 0
295 7 11.024744493512477 9.504956735267493 33.53765777621024 0 0 0
300 7 9.495485233512317 11.604677792530838 33.37561996032185 0 0 0
302 7 2.4967704219743756 1.62745009057467 36.0591696298735 0 0 0
306 7 1.1467213541714645 3.7155003548410765 35.95676484710282 0 0 0
307 7 3.596242812221255 3.8694528241113977 36.049190674666534 0 0 0
271 7 1.1720668155887184 0.7690564243979149 33.80792388376901 0 0 0
272 7 3.6258931505257546 0.7700754129664574 33.96567794461626 0 0 0
277 4 2.3128576829622287 2.9268921272531143 33.98950269385251 0 0 0
303 6 4.938771981991713 1.6450404253840039 35.911252226247086 0 0 0
304 7 7.348800878653796 1.5654740311847164 35.83572428570677 0 0 0
308 7 6.116102587643923 3.7631302290787625 35.764346719355345 0 0 0
273 7 6.043214346813988 0.6518991660251331 33.6300079305012 0 0 0
278 7 4.985199491433972 2.9519201466879985 33.5966126237389 0 0 0
276 7 12.299201859395186 2.95000170874583 33.71340094737093 -1 0 0
301 6 0.00807158326963986 1.4729306121073946 35.9393895374967 0 0 0
305 4 9.771302859458327 1.6163975125606758 35.94062678009288 0 0 0
309 7 8.522862375272032 3.6708455713051724 35.68262939129031 0 0 0
310 7 11.124859071168242 3.7640404025864997 35.82161462226603 0 0 0
275 7 11.013611378120915 0.7773956084489436 33.916812575255676 0 0 0
280 7 9.879809194843315 3.116537406643362 33.71802539319824 0 0 0
274 4 8.630580593870816 1.0022190734031704 33.803215094746356 0 0 0
312 4 2.234343649790818 5.955122300449663 35.7244553756491 0 0 0
316 7 1.1015094805783834 8.032449858511367 35.598979637525076 0 0 0
317 7 3.6615037602418954 8.069446280192041 35.853584377783996 0 0 0
289 7 7.3909467699959865 7.354741950940492 33.76698670137463 0 0 0
288 7 4.832927313235501 7.364666153662119 33.72348254613252 0 0 0
283 7 6.102208620751306 5.123195252547244 33.73821828127138 0 0 0
313 7 4.796668312000076 5.913540453606463 35.914086246790795 0 0 0
314 7 7.259435762005916 5.854009556650652 35.80636303504512 0 0 0
318 7 6.160660075894292 8.057800757524092 35.866608771402674 0 0 0
311 7 12.250382332072856 5.875416078254473 35.75378201543138 -1 0 0
285 7 11.128083050070863 5.213746870262185 33.67175990421462 0 0 0
290 7 9.779415075775972 7.317860581629947 33.59809243613981 0 0 0
315 7 9.763831106489567 5.809494116033127 35.70106030643079 0 0 0
319 7 8.7642769630688 8.090986782767509 35.774211677695675 0 0 0
320 7 11.118763621798408 8.104575229306798 35.555413742131094 0 0 0
292 7 3.487551424156969 9.41053375760565 33.688479898377246 0 0 0
322 7 2.401174069994431 10.040661644778178 35.741032695943844 0 0 0
326 7 0.9247064936934561 11.98199962615426 35.72248422266566 0 0 0
327 1 3.436384401316932 12.29152493799898 35.83353623015007 0 0 0
298 7 4.741882194222097 11.54932188931099 33.92224597268612 0 0 0
293 5 5.99579092307328 9.451766330318575 33.851641622606905 0 0 0
299 4 7.112249888343266 11.398158278296206 33.73208433978073 0 0 0
323 4 4.832362056047431 10.195419511730055 35.97817077704368 0 0 0
324 7 7.362384507168952 10.221746471688558 35.88900600127358 0 0 0
328 7 6.082375402160079 12.278276814968029 35.77813229157203 0 0 0
294 7 8.485537463442455 9.43792865775654 33.69822941527855 0 0 0
351 6 12.354155295002682 9.72064210821604 36.78515959082711 -1 0 0
321 2 11.813907489286006 10.733358888162842 34.93280820716676 -1 0 0
329 7 8.570292143356726 12.441926721635273 35.616189535188404 0 0 0
325 7 9.851933894944809 10.189821428562372 35.74635067729704 0 0 0
330 7 10.985786972905393 12.285225469943295 36.10058896917203 0 0 0
336 7 1.2158423040398354 2.5403593954508175 37.9187036233715 0 0 0
337 7 3.6240048968221745 2.397699572971542 38.018222395997945 0 0 0
332 7 2.4149147098628125 0.2756927493455489 38.11427324524975 0 0 0
338 7 6.207943578335151 2.4614011965515963 37.98462753875053 0 0 0
334 7 7.3883276862412695 0.31762350844715853 37.89475299423141 0 0 0
333 6 4.865594864763932 0.0732869759064378 38.01631662920467 0 0 0
339 7 8.663167163419041 2.345017968944829 37.813557411186494 0 0 0
340 7 11.125507008303893 2.519972522341041 37.99470880567299 0 0 0
335 7 9.86488253634774 0.36303318290915637 38.10363427341152 0 0 0
331 6 12.348335175346534 0.23411769482981037 38.116138720561146 -1 0 0
342 5 2.301212541098235 4.789422262405556 37.868370220565694 0 0 0
346 7 1.0112529429633297 6.864956921119239 37.61029684449145 0 0 0
347 4 3.747636876760504 6.7394869860239845 37.91798035963401 0 0 0
341 7 12.239323762652615 4.704005938558994 37.9401113882578 -1 0 0
344 5 7.350595420643892 4.542728184685478 37.680510583304496 0 0 0
343 7 4.881389210715473 4.492453639187583 38.04627451983917 0 0 0
348 5 6.16981124102145 6.588658992776614 37.85799933165248 0 0 0
345 7 9.714907194156714 4.620013584280139 37.647186712696666 0 0 0
349 7 8.62817953025605 6.706858464728948 37.7110662451948 0 0 0
350 7 11.021245804024495 6.839684968578194 37.721325629152915 0 0 0
352 7 2.414658783852379 8.691939348789532 37.91483094601981 0 0 0
356 7 1.2291028930087444 11.175178850024098 38.11303871685797 0 0 0
357 7 3.550981244316967 10.87126533400367 37.86410054567268 0 0 0
354 7 7.579050779572457 8.784570613405668 38.0155537679152 0 0 0
353 7 5.06381470039733 8.699727201384432 37.92932055113443 0 0 0
358 7 6.225289024456179 10.912147209450156 37.96352007527909 0 0 0
355 7 10.007953982910058 8.860094406944294 37.82492757613395 0 0 0
359 6 8.686054454042697 11.08529645790809 37.81931217187735 0 0 0
360 7 11.136365357528291 10.942863892634959 38.65352910862071 0 0 0

Velocities

1 0 0 0
2 0 0 0
6 0 0 0
7 0 0 0
31 0 0 0
32 0 0 0
36 0 0 0
37 0 0 0
3 0 0 0
8 0 0 0
9 0 0 0
33 0 0 0
34 0 0 0
38 0 0 0
4 0 0 0
5 0 0 0
10 0 0 0
35 0 0 0
39 0 0 0
40 0 0 0
11 0 0 0
12 0 0 0
16 0 0 0
17 0 0 0
41 0 0 0
42 0 0 0
46 0 0 0
47 0 0 0
13 0 0 0
18 0 0 0
19 0 0 0
43 0 0 0
44 0 0 0
48 0 0 0
14 0 0 0
15 0 0 0
20 0 0 0
45 0 0 0
49 0 0 0
50 0 0 0
21 0 0 0
22 0 0 0
26 0 0 0
27 0 0 0
51 0 0 0
52 0 0 0
56 0 0 0
57 0 0 0
23 0 0 0
28 0 0 0
29 0 0 0
53 0 0 0
54 0 0 0
58 0 0 0
24 0 0 0
25 0 0 0
30 0 0 0
55 0 0 0
59 0 0 0
60 0 0 0
61 0 0 0
62 0 0 0
66 0 0 0
67 0 0 0
91 0 0 0
92 0 0 0
96 0 0 0
97 0 0 0
63 0 0 0
64 0 0 0
68 0 0 0
93 0 0 0
98 0 0 0
99 0 0 0
65 0 0 0
69 0 0 0
70 0 0 0
94 0 0 0
95 0 0 0
100 0 0 0
71 0 0 0
72 0 0 0
76 0 0 0
77 0 0 0
101 0 0 0
102 0 0 0
106 0 0 0
107 0 0 0
73 0 0 0
74 0 0 0
78 0 0 0
103 0 0 0
108 0 0 0
109 0 0 0
75 0 0 0
79 0 0 0
80 0 0 0
104 0 0 0
105 0 0 0
110 0 0 0
81 0 0 0
82 0 0 0
86 0 0 0
87 0 0 0
111 0 0 0
112 0 0 0
116 0 0 0
117 0 0 0
83 0 0 0
84 0 0 0
88 0 0 0
113 0 0 0
118 0 0 0
119 0 0 0
85 0 0 0
89 0 0 0
90 0 0 0
114 0 0 0
115 0 0 0
120 0 0 0
121 1.0508929528177307 -0.8226518258476113 1.4935634491778371
152 0.8779020800662328 1.826401552042987 0.40544168804883796
127 -3.6810854026915787 0.1472037160433401 -0.0036483776081529663
156 -0.9602357074744381 -1.6797517127158905 0.6143283097099914
157 -0.6356716650891499 -0.5891511021365802 0.3839993480459197
122 -3.3856605079822573 1.418953944262434 -1.8179513954317346
126 -0.8690080813654193 -0.9213491514126669 -1.5851030183000498
158 0.2883921796148016 -1.436561070019559 2.329804438013537
153 -0.389871229930168 2.4544020859840545 -1.0672647580724803
154 2.891478177259729 1.5572287999733072 -1.8438456541226533
123 1.3188039012041812 0.02284737114151828 -1.206024769647801
124 0.7967561933252592 1.508816709804922 0.7206867578316414
128 -4.805624557836973 -0.7374066328254449 1.2738104456909851
125 -1.674016663717499 -0.34876870953979844 1.2536533648016555
129 1.2780909726540433 -0.5319812725734212 2.092511288239619
130 0.14953356039990456 2.459977493552671 0.1882515470145019
159 3.4108115295921086 2.6339241400627054 -3.2892823923595698
160 2.2974169198526733 -0.10327805544481924 -1.5489678325569702
151 -0.6050493379924774 -2.7596093511388724 -0.1991866813565356
132 -1.0211751781865743 2.435047839117989 -1.5925594974955688
136 2.894660669852367 3.955176127739882 0.2585080134783033
137 0.23914311325477197 -0.01771010990722895 -1.628590730279664
166 -0.6943177532819091 -1.9174908468928007 1.7505951588264792
167 -0.27931444230098923 -2.6728111055888917 -0.9208657296174714
131 -0.029429069977359397 -0.589932369569797 0.8558514723848362
161 1.090469988422847 0.258492531255456 0.07881058051977818
162 0.10411254229436763 -0.13590457923441382 1.9026590523763027
164 0.9030138216558975 -2.6941911521766913 2.0680550876630823
163 0.023890096677454026 0.46801969168229407 -1.749450140104297
133 -0.7727350245419428 -1.3965117855392895 -0.8355799404896345
134 -0.8527722946720503 -0.15750240513850033 -3.269210355878964
138 -5.119489088379149 1.8652696589186866 -2.1252085152576528
168 -2.036418569854612 0.27540206160706765 -0.060774155391462435
165 0.333017290615484 1.4007248039676368 0.24856127551059237
135 2.645210330582496 -1.7573901266889882 -1.4162930077115856
139 -1.895348309456051 4.550263181234992 0.9364703222621036
140 -1.4591627550942239 0.8793785935305403 3.325429532846348
169 -0.02541797931525624 -0.7470582780106284 0.7733005537408874
170 -0.846419064095824 -0.3621887022270223 3.7954433498419364
172 1.7059214447562128 0.14850534788586645 0.21377282693741737
142 -0.498768992163104 -0.20113549689772067 0.7707215183358517
146 0.762741165124525 -4.138829709012014 -1.5902167370362912
147 3.6190044336321967 -0.0022489928001584955 0.5377402467160466
176 4.480104291492626 1.4279496628079769 2.7869327484919197
177 -0.5396937608229491 -2.1569532944354965 -2.360439584612044
141 -0.4460402253721858 -0.9905026215119276 -3.3512554599120596
171 -1.6399137380148705 0.05432354139962747 1.0418360987344815
173 -0.5026536993704194 -1.3387489153579843 0.04502188177986706
174 -1.7762181856110328 -1.2153206293000625 0.839620306105642
143 -1.138462566531805 0.33871719358405045 0.42962905166734894
144 -4.0985979085276725 1.533198393127261 3.4070881013489487
148 -0.7165446037410164 4.12697135568719 1.4214992289072985
178 -3.466002902068528 -0.4390848155633999 0.6780239187414333
175 -2.1528244820461326 -1.0166334403322794 -0.5565334242227558
150 11.124214792678702 -3.216281779735107 6.246332056316863
145 0.35320929526993616 0.2241426584963617 1.1865012285023564
149 -2.9043854464051706 0.3410015219381766 -4.6211743898446445
179 -2.381781039539221 -0.6027382232730252 -2.6957583047377254
180 0.39058553770169124 2.802615153562772 -2.4037854072075366
181 -0.3853351249639309 0.8473483348196805 -0.3540212198223378
182 -0.9017615723273845 -0.8419921128370697 -0.36197376489160477
187 -0.7853248861717044 0.6439763506851511 2.734190378442282
216 2.558453196700354 -4.167839759638237 1.1742148583130319
217 -1.0929363188742862 -0.9104075103397362 -4.9666693175306635
211 0.7170855978881543 -1.8428351327467092 1.1642391579289073
212 -2.863854997199621 -0.6470221594462603 -1.7717166020453654
183 0.32497569467455134 -0.4474644820721126 0.9902836784168934
188 0.3621474726375344 1.1278866540833659 0.31193664766218665
189 2.585492442637434 -0.052973550564399306 0.22075964436441364
213 3.8274510520994878 3.0746762761061897 1.6046260519182258
214 0.4299267307393441 4.47877626065645 0.26835940070347286
218 -0.5118138323367163 4.9303321472478725 -3.9533305258790357
186 1.8793347798719588 3.1753201890341125 0.620082883021861
184 -2.237409210597478 -1.8712896637417231 -2.5403542571785467
185 -1.9364098677238955 -0.9870048550486401 0.1894938535095482
190 4.419712183994867 -0.08545478930407814 -1.7312015847617541
215 -1.7385596704436939 -3.018441300338516 -0.3871874250023251
219 0.00779927347519265 -1.1471095079471625 0.18792584839506832
220 -1.0680201537220613 -2.910623595630872 2.3671415953055366
191 -4.377143190097309 -1.9981194433497742 -0.2917724354380218
192 -1.587510670451358 -0.31110167992280546 3.6370090329024385
197 -0.7187342043303555 0.6729996259684453 -0.22027291677180405
222 -3.034045820361906 0.9587159358469262 2.056673963072705
226 1.860028761749615 0.5474664321416955 0.5862184715336635
227 -1.7660160641794933 0.37601548446248023 -1.108040609306916
221 -1.1572488218606103 3.320488574410205 -5.044244119338092
196 -0.24404734693196334 2.1465417627057963 4.044378117088894
193 -0.3445415958380768 1.3208434247408645 2.8608440499149963
198 0.9037599331818073 -0.5110728842726827 0.15772800478361473
199 -0.8185099650030364 1.2873400457974116 0.1985270682409612
223 5.215881546086953 0.5811746265327759 -1.3459240252464604
224 1.440350385149147 -2.0992646896237184 0.6278488450957634
228 1.8500868872398124 -1.3643632175730374 -2.9681292594015276
194 -0.8242931860019178 1.7038778755229147 -1.7845326798492414
195 1.3449405452658907 0.7167575530003943 2.9080129911506645
200 0.314221896272992 -0.4905024960209152 -2.015485778768923
225 -0.8708407579649344 0.3074273092712546 1.2594346574356565
229 1.2813456637476384 1.5853986509048033 2.5417414527938362
230 -1.907664908196339 2.3056752148275574 -2.2208584983391284
201 1.1432803551437056 0.04222602800934149 -4.4709641115908445
202 -1.8053699052688543 -2.288267204929605 -1.7467029429177547
207 -1.5016039036886488 -2.4754043951459734 3.41334503989514
232 1.680957084224939 0.336742829563784 0.7896347143657779
236 1.2015715195173933 2.5026466836961636 1.6987896952670047
237 1.5690894307986005 2.696522630882647 0.5943968109258934
203 -2.0234803215431256 -0.31059246588725786 -2.194872365609992
208 1.6093699905771197 -1.0198970424308293 2.08325551473065
209 1.027313784177785 0.836025194032798 -2.1198479893739677
233 -3.12176050784669 -5.073615243060929 3.464006538269165
238 -1.4562516465201336 3.5494587205277925 -0.7225932400558429
206 -0.6165007381329235 1.1754557807009418 -3.2524423837306817
231 -0.9978086769348251 2.708465632825211 -0.2205870094645476
155 -0.5885055465121963 1.480627766647121 -1.1268870798085826
204 1.31602609659302 1.7655902173743272 1.4576821780965004
205 3.439022119012547 1.8682126130748833 3.2800606678268354
210 -2.799607426884227 0.1379122389582975 2.08711957551345
235 -1.4790338031398607 2.44464293066006 5.463396848494899
239 -0.9013259521796301 -0.29148528504436805 -1.2714648455650466
240 -2.847949239610191 -0.4970507445108463 -0.10185985861248091
241 1.4059208174491666 -2.1228480047116185 -0.7342019979301736
247 -1.4871478108995737 -0.5067363044491912 3.9449041586682867
252 -0.08898788286984134 -2.1007475443084105 -0.10561952830692146
251 3.1863538527586583 -8.337952914584593 1.9558821075627213
279 0.023806872423083218 -2.732238736426167 -1.9718720357471753
248 -0.9569845122137673 1.8378496114891312 1.3980380275192041
246 -1.369279707329944 -1.9586057064613849 2.69260242108307
250 1.5598760696876752 8.447367437478505 3.407590239770145
245 -2.988318130428664 2.9906108621920744 -0.805180836334171
249 2.418489073881145 -2.409251477865205 2.1115732300633403
257 -2.964298333480689 -1.5875038300563862 1.6835882912467288
256 0.5532748948285029 2.084441928719836 -1.5342783470665267
287 0.09325526683547648 4.383970520582852 2.4954480693834005
281 -1.9216341344673367 -3.889281565660362 -0.39252263325949
262 -3.8169705718134765 0.13224341239616172 -0.44334808547913146
282 0.06028984197092609 -0.003269485496880435 2.4092921629266835
263 -3.2642017594705246 -0.16521895686893723 0.989276477548021
258 -0.567118884683785 1.1169955676001884 0.08211441209660529
253 -4.218539385509924 4.7357519122391665 1.086258982503905
254 -1.862617194204335 0.606225756184511 -0.6344740962398706
259 -0.7999182667809601 -7.07700170202131 0.19124267179225418
260 -1.1386516519962548 -0.5854846313395939 -2.1096073457948874
286 -0.3714772985144841 0.7437614607492539 -3.0183990791707522
284 -0.15952326368166006 2.302413229011999 -3.811882069199631
255 -1.0491328246388685 -1.9264058373523092 -1.6147657780647187
266 3.950641908992241 -6.01721312396608 0.9185650928726512
267 2.272105257923283 -4.376979568717075 0.36229399612940877
242 -7.2311875727784045 2.251546958957367 2.757954251119829
297 -0.07088715779102078 -2.504254295302691 -0.1183865336706776
291 0.8086839892200757 1.1195883110840925 2.9880944891522097
264 -1.5059570448609993 1.7333501487033784 0.9270297500197813
268 2.7133242135262687 -1.911273157443666 -1.2931634348316985
244 1.0288405144218151 0.37754749652549086 -2.0763911211384403
269 0.08777030269899821 4.821598193106692 -0.0799719411559897
243 1.2279080828342532 0.6098793036379525 -1.0954756109416786
234 0.03363317512441096 4.059017016653353 -3.643899698333243
265 0.8033639759536623 -0.6999058691603381 -4.41186061243671
296 -1.480085276016178 2.712787806914021 -2.578834574312032
261 -3.3208484343540063 2.0158961058218665 -1.1357551987338188
270 0.722534155810399 3.5897935780593877 0.5955354669250377
295 1.6176872302558534 0.32715354732179003 -0.03449463028274377
300 -0.6584595130106115 -5.09228536895214 -1.6442254281524171
302 0.5635156123250654 4.913376251074929 -0.5702174771126023
306 -3.8678767896695017 -2.3627344107369006 0.8329246763194613
307 -0.16123570935607803 -3.837587696729473 -6.237250426765789
271 1.2277375258677792 -0.971291472295925 -1.0686724175554416
272 0.9245004004044577 -0.3849199290805929 0.6532562324576352
277 3.361070607043424 2.4983442296555265 -0.584027012650983
303 1.9160215127741385 -0.38086942737746277 -0.06688661497785339
304 1.2973410561355234 1.399674739899572 3.6795672336963228
308 -0.3067742183603479 3.1316146768826254 1.3074727256806684
273 -1.225716057265997 2.1228497221311238 -3.161736884399004
278 -1.5890462622811046 1.584982956974441 1.6994274930228377
276 1.5819586030016939 0.05022370570947358 5.741138818421169
301 -1.0381977077866187 -1.368700491164942 -1.4560051530360612
305 -1.9624139188718346 3.192972329683786 -1.7873874410268449
309 2.800184259465561 -1.1544204090252226 2.427368694272699
310 3.9349996353630776 3.10331268572912 2.5362097016768193
275 4.927193438839813 -2.535152876332273 -0.33515339539245775
280 0.9246800591610771 -1.1598679520879553 -1.7192129833171925
274 -0.4881212406060777 -2.7295204141720486 -0.4019257127063221
312 -0.18415373763229745 1.1707087587227734 2.613008655475423
316 0.6269549225897443 -1.1221219473763546 -2.0363909502405626
317 2.2109270574417184 -0.7266957643673382 4.936002515216144
289 0.3441611134359959 -1.560640421615848 0.40488834840623933
288 -0.22935666909695904 -0.9702066636027074 -2.6872719531264164
283 1.363253894235162 -0.039435555140285544 2.194692923098528
313 -2.691486355724878 -1.0196962611223863 0.9233144310058291
314 -2.6606589853419034 1.2833995346718294 1.1623727261089043
318 -1.3167812227400453 0.06614781655947186 -1.128995321081758
311 1.3858408132674749 -0.12890164779951466 -0.054447732088739556
285 -1.2296525300590766 2.387528531607826 -0.222019412523967
290 1.8131945922739805 0.14581104406240622 -0.7178006369715718
315 2.1686643565356274 2.944836445612913 0.10660504042046762
319 -0.11961589029562729 1.0686367571598892 0.18682064357247
320 0.4105893124419356 3.9054105785527806 0.6187599653526786
292 -1.7404348343675333 1.585207304727585 1.2205687577003832
322 -0.5463405138381773 -0.3808013081639345 -1.3052326987234981
326 -4.6837291207404945 -3.2027774189521274 -0.9869725295567945
327 -3.5616272931583217 -4.8211737136132555 2.496889965838526
298 0.9015388751044247 -1.460328461214897 -4.571542620247608
293 0.6659738226950466 -3.217195913097583 -4.273599453091677
299 2.935855364604661 3.1282520973798973 0.8543010601364315
323 0.19722310525925607 -2.301232860278059 -1.8709360051973865
324 -0.13168461566435966 -0.7700464360272937 3.7793073170451112
328 1.344276227985373 -0.22507600888493923 0.4733635294660226
294 3.7705513246588827 -4.022052129434769 -4.48577783276638
351 1.1299897282948657 0.40272070190910497 -0.3845560230568027
321 4.681769656073826 4.117343228158689 6.589704299717862
329 -1.1761226077691633 0.8800576960273535 1.989499587720186
325 2.642372157451709 0.20404861506716698 -1.8532213565588602
330 3.028923178322986 1.5845365314633895 4.313517871720855
336 -0.13391281938549054 0.3520255113725719 3.3464997737042452
337 -1.852350200353195 -1.551231849220686 1.8351022343357242
332 -1.4144616550909852 -0.6506612388014114 -1.2551145989042871
338 2.1512061335351986 -0.40317315301291834 -2.3938966846136704
334 -0.3264516475775108 1.692195344165679 2.048347659921746
333 -1.1813476534317817 1.6129481765074436 0.41326537025853205
339 -2.625972295970733 1.5605336301312562 2.8359793176984187
340 1.45296652554684 0.41812203472113585 -2.268152912844647
335 1.8556167221931763 1.0519164308329936 1.9909475306373716
331 0.938700975021782 -0.05043597777638836 2.3653824225951667
342 -3.347582727895626 2.6560586537950472 2.5503310566378183
346 3.0837034628864446 1.6733327754439575 0.5396825706393406
347 -3.7321660181660685 1.3895211584958833 -6.324379509438688
341 3.832650211045148 -2.2854731442961826 -3.665718706581508
344 -3.4633872278137097 -3.0128871099949075 -1.8739230923993826
343 0.9619696578690917 0.3103834923024574 3.4129739605307163
348 -1.348586490944739 4.412568878091274 -2.092976332872893
345 0.9926597818409435 0.08728776239026395 1.7641336644069419
349 2.157288390925787 -0.10789700268169401 1.0886239029636045
350 2.8537862054967387 1.6231624215495364 -2.9897641660581904
352 -1.5735977835333224 2.160483778894788 -4.680436127525182
356 -2.472249009188691 -0.11127057562718554 -1.7625710686977007
357 2.7522902674268943 0.46271527704199994 1.4878343412671626
354 -2.861997678020202 2.9918137306131416 0.10820638771638642
353 0.2840009331869938 -1.6052074030844492 -0.2646893750364523
358 2.31170033311299 -1.8178483956898666 -2.8960158548880326
355 -1.614861468970699 -1.8003422973443566 2.781131537439041
359 2.5271972358002652 -1.9434766740276346 -1.1335101886971035
360 -3.1651172936555643 0.27829784050226425 -2.929068253865269
