LAMMPS data file via write_data, version 11 Feb 2026, timestep = 160, units = metal

362 atoms
8 atom types

0 12.447907776 xlo xhi
0 12.9362452296 ylo yhi
0 52.3600831054 zlo zhi

Masses

1 26.9815
2 10.811
3 12.011
4 51.9961
5 55.845
6 95.95999999999999
7 58.6934
8 1.008

Atoms # atomic/kk

1 7 1.1086396148 0.8238952239 14.6426922023 0 0 0
2 7 3.5471343336 0.7395335012 14.871234386 0 0 0
3 5 6.0078676259 0.8686407987 14.9379629485 0 0 0
9 7 7.2788535501 3.0640220019 14.8933255481 0 0 0
4 6 8.6288306499 0.9726777284 14.9465292271 0 0 0
5 7 11.0166657815 1.2545859852 14.462185843 0 0 0
6 7 12.2589269084 3.4796698319 14.6436173361 -1 0 0
10 7 9.8010491064 3.3811752536 14.7232418618 0 0 0
16 4 0.2088210039 7.6755010248 14.6124933176 0 0 0
14 7 8.5674489817 5.6407896945 14.8940844167 0 0 0
20 7 10.2211045052 7.6596027589 13.9898991603 0 0 0
22 7 3.610373107 9.5144836344 14.9195551574 0 0 0
23 7 6.5780972576 9.0887184884 14.8519316175 0 0 0
28 7 4.8108809413 11.6121516556 14.8195270296 0 0 0
29 6 7.367231219 11.5008487837 14.91782041 0 0 0
24 7 9.0453001328 9.6697876004 14.6565743814 0 0 0
25 7 11.9383484477 9.881069104 14.7117678872 0 0 0
30 7 9.9168873716 11.8590596898 14.5793216095 0 0 0
7 7 2.2193953999 2.9728500197 15.1075253696 0 0 0
32 7 2.3007347054 1.2559092051 16.9314161347 0 0 0
36 7 1.1302176568 3.970815991 17.0633808883 0 0 0
37 7 3.5632306505 3.6482393404 17.0938709956 0 0 0
8 7 4.7729768947 2.987062043 15.0212450448 0 0 0
33 7 4.8223049021 1.5376409109 16.9833232412 0 0 0
34 7 7.3500778893 1.7133877606 16.9470405328 0 0 0
38 5 6.069117304 3.7439443331 16.9708736093 0 0 0
31 6 12.386219104799999 1.8909398074 16.4863359014 -1 0 0
35 7 9.9140298749 1.715478849 16.9052297957 0 0 0
39 7 8.6283984622 3.8662108601 16.8148783652 0 0 0
40 7 11.0647218132 3.955003173 16.9654790194 0 0 0
11 7 1.1274429739 5.4348248704 15.02657255 0 0 0
12 7 3.5454893745 5.1484301269 15.1223888282 0 0 0
17 7 2.4213938077 7.5074035459 15.0919313227 0 0 0
42 7 2.3658179571 6.0776235781 17.1126279314 0 0 0
46 7 0.8115056045 8.4158303638 16.8607807232 0 0 0
47 7 3.8090203672 8.0118125883 17.0275882163 0 0 0
13 7 6.0393477666 5.1880382219 15.0089948966 0 0 0
18 7 4.8885947937 7.3042396007 14.9775518825 0 0 0
19 2 6.8364131559 6.9772702952 15.3169162839 0 0 0
43 7 4.8476474244 5.8131449488 17.0777174527 0 0 0
44 7 7.335870267 5.8825604918 17.0239797454 0 0 0
48 7 6.2187986206 7.9949292893 17.0187297279 0 0 0
15 6 11.0406850303 5.6409501915 15.0861198888 0 0 0
41 7 12.3094633449 6.1121138848 17.1287305796 -1 0 0
45 7 9.8008713052 6.1130703554 17.1803358866 0 0 0
49 7 8.46338372 7.8603330448 16.0228251814 0 0 0
50 7 10.8992923253 8.1189701904 16.2152009694 0 0 0
85 6 9.8240777484 8.5199599345 18.4504339488 0 0 0
21 2 1.5418583372 9.475362831 15.2110238362 0 0 0
26 7 0.3078831513 10.8047678302 16.8299290746 0 0 0
27 7 2.0256175022 11.4793023205 15.1517201735 0 0 0
52 7 2.6074497237 10.0833716822 17.0438096361 0 0 0
56 2 0.9204864727 12.7073503164 16.3551042429 0 0 0
57 7 3.6970838387 12.2282442958 16.930234305 0 0 0
61 6 0.0986144827 12.916682194500002 18.5768523005 0 -1 0
53 7 5.1216974796 10.1130267858 16.7799750525 0 0 0
54 7 7.6874988361 10.0463406157 16.9223732033 0 0 0
58 6 6.2880266331 12.3411492991 17.0129749655 0 0 0
51 3 11.614116572799999 9.3729725562 17.4998846509 -1 0 0
55 7 10.2370730939 10.4108452062 16.6467540708 0 0 0
59 7 8.8363457455 12.3734982112 16.8913130049 0 0 0
60 7 11.292217469 12.6252539098 16.3512541665 0 0 0
62 7 2.5564411836 0.0388266273 19.1443975889 0 0 0
66 6 1.3470064681 2.2344630793 19.0674232497 0 0 0
67 5 3.7914440546 2.1871145112 19.1055969823 0 0 0
91 4 1.3582984766 0.7899794953 21.2538020252 0 0 0
92 7 3.7891788865 0.7457920151 21.134190557 0 0 0
96 7 0.0767185896 2.8690963203 21.1781030865 0 0 0
97 7 2.598624758 2.8670467195 21.2105118031 0 0 0
63 5 5.0079853727 0.1227469224 19.0650281438 0 0 0
64 7 7.4905473649 0.1128471653 19.094190674 0 0 0
68 7 6.18612372 2.1801121332 19.0509951616 0 0 0
93 7 6.3165349128 0.7447778163 21.2084219863 0 0 0
98 7 5.0414075149 2.8814020057 21.1533943318 0 0 0
99 5 7.4961628395 2.8482059571 21.1435811835 0 0 0
65 7 10.0750196461 0.1090619719 18.9656760164 0 0 0
69 7 8.7260092259 2.1914736971 18.9640587651 0 0 0
70 7 11.2852555806 2.2952854263 18.9089505748 0 0 0
94 7 8.7722700389 0.757917834 21.1793518688 0 0 0
95 7 11.3577392918 0.7288723089 21.0321203731 0 0 0
100 6 10.0395980627 2.8457305316 21.0206976268 0 0 0
72 7 2.443316402 4.4257713536 19.1175347307 0 0 0
76 7 1.1608000255 6.5020877719 19.1912197893 0 0 0
77 7 3.7538160436 6.5031673538 19.1453647292 0 0 0
82 6 2.4281120239 8.5416065229 19.0250298677 0 0 0
101 7 1.2035267346 5.035364728 21.2333873799 0 0 0
102 6 3.7330461648 5.0513266964 21.2274951742 0 0 0
107 7 2.4674514368 7.1760118769 21.2386063586 0 0 0
73 7 4.934941019 4.314145042 19.0775231122 0 0 0
74 6 7.4639762218 4.3206347482 19.0273071841 0 0 0
78 7 6.1652197389 6.5285796973 19.1061751607 0 0 0
103 7 6.2734017159 5.0619278917 21.1575206991 0 0 0
108 7 5.0142732334 7.2260915066 21.2083684049 0 0 0
109 7 7.4215228356 7.2703959844 21.2407219411 0 0 0
71 1 12.3229062799 4.4594437587 19.196683556 -1 0 0
75 5 9.8560956742 4.3694864476 19.0114883881 0 0 0
79 7 8.608321218 6.5220343075 19.2866528606 0 0 0
80 7 11.0874839619 6.5149008094 19.2843590445 0 0 0
81 4 12.365005094899999 8.5879468459 19.1889253448 -1 0 0
104 7 8.7338263622 5.0662699386 21.2169403674 0 0 0
105 3 10.08378242677306 4.427867049511858 22.263724700576724 0 0 0
106 7 12.436900947 7.1420045272 21.2746849184 -1 0 0
110 7 9.8966630327 7.1986323278 21.2726862371 0 0 0
86 7 1.2989785249 10.7621360637 19.1712644252 0 0 0
87 1 3.8409360869 10.8851887182 19.0103401064 0 0 0
111 7 1.196267672 9.3390428985 21.2173288302 0 0 0
112 6 3.7428708498 9.3440537093 21.2395239989 0 0 0
116 1 0.0536017817 11.5534184789 21.177259775 0 0 0
117 7 2.516993915 11.5446767222 21.1758430981 0 0 0
83 7 4.9636201621 8.7332241248 19.0339830552 0 0 0
84 7 7.4176266925 8.6435141762 19.0121662557 0 0 0
88 7 6.2701006334 10.8268644307 19.0226042234 0 0 0
113 7 6.235757118 9.4018758354 21.0350287945 0 0 0
118 7 5.0365269699 11.5644673281 21.1440855688 0 0 0
119 4 7.4672330555 11.5805736189 21.0779288321 0 0 0
89 6 8.7778696089 10.875345332 18.980659339 0 0 0
90 4 11.2801420612 10.8135255713 18.8922615739 0 0 0
114 7 8.7021416263 9.3483934202 20.9351444746 0 0 0
115 6 11.1152174581 9.2955902507 21.1685966034 0 0 0
120 7 10.0140360149 11.5628658314 21.1235962559 0 0 0
121 7 0.07850652823120138 1.4136250314895515 23.257686604011333 0 0 0
122 7 2.566934897176708 1.4104314902422124 23.318184256220217 0 0 0
126 6 1.3500374431069622 3.610004342232783 23.261618844672103 0 0 0
127 7 3.8511817280779175 3.5945427527031155 23.36705759703263 0 0 0
152 7 2.6520669968444914 0.01666126669022383 25.37579434844082 0 0 0
156 1 1.484514361226673 2.146321126526814 25.502880904469816 0 0 0
157 7 3.9728131285727035 2.1437677207113413 25.445696783316524 0 0 0
162 7 2.601710960607707 4.273723306547957 25.429424237558727 0 0 0
123 7 5.007769310103457 1.436154456092068 23.201145745798613 0 0 0
124 7 7.413125393985254 1.527192491387912 23.480185111764783 0 0 0
128 7 6.305734675320239 3.672920765213743 23.171873644868928 0 0 0
153 7 5.197400988928823 0.0705490030113196 25.33178087664486 0 0 0
154 7 7.608734998267549 0.01689215339168955 25.45940498219554 0 0 0
158 2 5.797590900546393 2.4886196994063545 24.64425958933 0 0 0
163 7 5.117977394206191 4.256504149434503 25.424589148499223 0 0 0
164 5 7.477471315668127 4.069621642904747 25.345309507824737 0 0 0
125 7 10.06191626860134 1.4519765919827838 23.302109314239203 0 0 0
129 7 8.757311101059674 3.5693955532414234 23.330133292371872 0 0 0
130 4 11.360387356778066 3.648656824354133 23.383632678396157 0 0 0
155 4 10.132931924053738 0.07983260284273097 25.519481850485082 0 0 0
159 7 8.886661034756909 2.1131716266200704 25.424067196252814 0 0 0
160 7 11.410642650665796 2.1749937528573025 25.392520968415266 0 0 0
165 7 10.067617633941525 4.237486647041721 25.398189870696754 0 0 0
131 7 0.07354197648546971 5.799774817926455 23.386053478917677 0 0 0
132 7 2.5468688474288568 5.801993653620732 23.36579111487596 0 0 0
136 7 1.3109899111192667 7.927786935713472 23.296315154436964 0 0 0
137 7 3.786953305757392 7.96927026441826 23.322316813828312 0 0 0
161 4 0.11304178354400389 4.358765669128369 25.454491217332123 0 0 0
166 7 1.3409064176738759 6.429424164666425 25.4243901128854 0 0 0
167 7 3.8127858735636377 6.441204657373964 25.4500984549167 0 0 0
172 7 2.626051305965997 8.615639466623236 25.395814936605532 0 0 0
133 6 5.0710859631241005 5.855706693522066 23.385802936421527 0 0 0
134 7 7.560977663100545 5.7921149807461 23.30237369684955 0 0 0
138 7 6.31470209452382 8.00078384141508 23.340126696865127 0 0 0
168 7 6.368101375637613 6.398960563957752 25.4315402164698 0 0 0
173 7 5.115897440724299 8.556727699384505 25.354487421069752 0 0 0
135 7 10.065742957068963 5.852709246371433 23.373871787644354 0 0 0
139 4 8.701359357896386 7.961175323320926 23.212265257332458 0 0 0
140 4 11.290117549961439 7.913883310490054 23.29500280842584 0 0 0
169 7 8.77659253730393 6.348664712057606 25.37159902806416 0 0 0
170 7 11.293660917403441 6.425175157302619 25.43463279028861 0 0 0
175 6 9.896495532935768 8.58160263623043 25.500875473977555 0 0 0
141 7 0.023442384506509772 10.098537145554488 23.328366880257512 0 0 0
142 7 2.505272069821813 10.112638011355282 23.29937921985257 0 0 0
146 7 1.3030590325222209 12.247119147731782 23.314493158802 0 0 0
147 7 3.817205356410288 12.246477169662848 23.230999180402684 0 0 0
151 4 0.09704952074657028 12.89190532273982 25.371400748085367 0 -1 0
171 6 0.11581313371797551 8.634523019543257 25.410428487391297 0 0 0
176 7 1.3467622376466717 10.817793325142242 25.43185183383454 0 0 0
177 6 3.8885834068670664 10.820034288210799 25.315517772806505 0 0 0
143 7 5.076772956713687 10.114914806672417 23.23511358602356 0 0 0
144 7 7.5119553526579 10.10217567142457 22.904760696477638 0 0 0
148 4 6.232395078482337 12.286284988562105 23.262414606589616 0 0 0
178 6 6.646618465949424 10.529418648871559 25.239184138682795 0 0 0
145 7 9.998972355872512 10.102907943443151 23.299830824926524 0 0 0
149 6 8.72375723725439 12.302887088115078 23.291371243900848 0 0 0
150 7 11.260978972661768 12.241779683261871 23.333676298426752 0 0 0
174 3 8.421440707167017 9.518001361984368 24.40607840491104 0 0 0
179 5 9.014445031064918 10.942731606226463 25.55889938712471 0 0 0
180 5 11.346458605572328 10.89105142778616 25.481108016084093 0 0 0
181 7 1.3895362119243067 0.6755931624373435 27.48524457087091 0 0 0
182 7 3.878128305214227 0.7093818049919566 27.446003828858984 0 0 0
186 7 0.17436586441979732 2.872593400473642 27.47947548726923 0 0 0
187 7 2.6623380046695937 2.8597409354399663 27.565357983353334 0 0 0
211 7 0.21067855150971385 1.4579349081406952 29.577504175112892 0 0 0
212 7 2.711645717407843 1.3707252723800238 29.580786070417 0 0 0
216 7 1.4126249541903082 3.5654743267640105 29.584981923751624 0 0 0
217 4 3.826947658771102 3.578663401537921 29.603199222356075 0 0 0
183 7 6.316838102017666 0.7243667228029501 27.570514525208967 0 0 0
188 7 5.086666944147918 2.879360030159988 27.57798405911005 0 0 0
189 7 7.602238679228111 2.8022757813188033 27.449651456588857 0 0 0
213 5 5.139581254473354 1.4307179421641165 29.602322272370124 0 0 0
214 7 7.620744194544279 1.3646111734663142 29.585135096409328 0 0 0
218 7 6.368130345558935 3.541361336945706 29.54304637296968 0 0 0
184 7 8.896830710847283 0.7328392759562224 27.550702034946532 0 0 0
185 4 11.389745253134368 0.7365040429465193 27.517989030651172 0 0 0
190 7 10.151999710071802 2.847358960842879 27.47519896958231 0 0 0
215 7 10.13000002870134 1.4179280885924173 29.618463935306124 0 0 0
219 7 8.843218110786927 3.5240585641041604 29.51877289892709 0 0 0
220 7 11.37255289886149 3.5740118107324093 29.51153819457545 0 0 0
191 7 1.393571848628178 5.018721999637443 27.470392864631616 0 0 0
192 7 3.8363230845509824 4.994627514241344 27.489978026107803 0 0 0
196 7 0.13906064574461288 7.174183986357107 27.487510487400396 0 0 0
197 7 2.582585394487115 7.198103325275545 27.481931678538537 0 0 0
221 7 0.12290370541549885 5.739855529232438 29.56504065564536 0 0 0
222 7 2.593824231243529 5.7349165631132 29.555755763007003 0 0 0
226 7 1.3650893440839378 7.912262226158327 29.54972920982109 0 0 0
227 7 3.8636398901680646 7.915424928061502 29.47765448547008 0 0 0
193 7 6.374204729341102 4.980448508265086 27.415808494039407 0 0 0
198 7 5.106923959387463 7.17497657000401 27.421082743387807 0 0 0
199 7 7.619934243840016 7.197474202316434 27.446122787142215 0 0 0
223 6 5.15733809930071 5.722910635418902 29.49759158793702 0 0 0
224 7 7.648470639860323 5.7473436455063025 29.57823666000604 0 0 0
228 7 6.396464216472029 7.916434476414085 29.498928410882097 0 0 0
194 6 8.850776944386203 5.0112195591993425 27.48275462958516 0 0 0
195 7 11.364225835598601 5.010978534236812 27.498377894671165 0 0 0
200 7 10.124838654316836 7.173383802412404 27.527067593399025 0 0 0
225 7 10.104365228628726 5.755605048180292 29.596142195951437 0 0 0
229 7 8.848741204353502 7.896248239302553 29.515102768169587 0 0 0
230 7 11.370951801340375 7.944292257355967 29.513402910668077 0 0 0
201 5 1.380156516634945 9.338332636863624 27.51402122111092 0 0 0
202 7 3.8758317752570397 9.32301907133003 27.39625117766386 0 0 0
206 4 0.18977432960728868 11.493641582653359 27.51701125337785 0 0 0
207 7 2.613397755331302 11.468634317154311 27.45155000524083 0 0 0
231 7 0.16519083139182647 10.09170112544092 29.56069538942752 0 0 0
232 7 2.6336675802603486 10.032550300160437 29.43276212955186 0 0 0
236 7 1.4723313053430995 12.19524487181132 29.553651612004945 0 0 0
203 7 6.375288548326389 9.294901685878306 27.40791724015013 0 0 0
208 7 5.144869322583208 11.504034869548825 27.353519352266314 0 0 0
209 6 7.5941633448570105 11.54028716229529 27.630981421888347 0 0 0
233 7 5.149630527147087 10.05714816269245 29.34158484595435 0 0 0
234 7 7.605354749666129 10.096349813205267 29.655111047299314 0 0 0
238 7 6.224967928641637 12.24368614593036 29.679934031075963 0 0 0
204 7 8.840390419331046 9.381156287020215 27.603475385461483 0 0 0
205 7 11.348913007386681 9.432457537312962 27.530251006321965 0 0 0
210 7 10.158773922822911 11.570245539930621 27.565749112634094 0 0 0
235 7 10.088044232714683 10.191404194233119 29.58554445602087 0 0 0
239 4 8.88631610453478 12.267158948541164 29.722504878402116 0 0 0
240 7 11.396822469952687 12.281143294477541 29.55061578646724 0 0 0
237 3 4.033721742790693 0.311241212026018 30.558757725063813 0 1 0
241 7 0.2022344833319417 0.11668058111521264 31.62394455506491 0 0 0
242 7 2.5681416269993567 0.15545752923053657 31.74016660776904 0 0 0
246 4 1.3454328709048635 2.2586843264957666 31.658582319475194 0 0 0
247 7 3.884294654825013 2.1636449110631917 31.64505909714026 0 0 0
244 7 7.631390947991744 0.0173461631563693 31.708314813038626 0 0 0
248 7 6.410557210853156 2.163277627986484 31.646895383465075 0 0 0
249 7 8.855444258174984 2.1205880610479477 31.673151979776804 0 0 0
250 7 11.386060005304051 2.1579469939935385 31.648980167349354 0 0 0
255 1 10.10886846391131 4.239627643122369 31.494779907041345 0 0 0
251 7 0.1496968634736369 4.344412647318928 31.644980616820064 0 0 0
252 7 2.635577178098338 4.3336340597218515 31.66896125785012 0 0 0
256 7 1.3322810697486307 6.519317874993519 31.6326176243373 0 0 0
257 6 3.794574798245971 6.514410820027847 31.66896123688803 0 0 0
286 7 0.09918320480905468 7.297878961478831 33.61829239395633 0 0 0
253 7 5.114436508352911 4.322223115516369 31.630019990215985 0 0 0
254 7 7.624056085345227 4.326615765841146 31.585448359783047 0 0 0
258 7 6.3547103701698475 6.509342091256721 31.626626391691346 0 0 0
264 7 7.592836771663351 8.594281284546357 31.618261089288083 0 0 0
259 4 8.823204097943902 6.48048521362416 31.622262093441755 0 0 0
260 7 11.31777227986418 6.509447410480319 31.586769789676325 0 0 0
284 5 8.889053399757184 5.133778679588986 33.57052588868851 0 0 0
285 4 11.353061080616197 5.173977210289853 33.63203118041897 0 0 0
290 7 10.086968420281472 7.277203564860225 33.58729104300417 0 0 0
261 7 0.17887274474485343 8.727654251984506 31.646498769337246 0 0 0
262 7 2.66593692781682 8.733906134539215 31.532305697660963 0 0 0
266 7 1.5659757071964484 10.848462105742795 31.56577362969615 0 0 0
267 4 3.91887510787185 11.296038694142577 30.85095043366543 0 0 0
292 7 3.9638167460657523 9.38690937386308 33.503548041646916 0 0 0
243 7 5.173153898864591 12.917001951949972 32.09661742336506 0 -1 0
263 1 5.095846990467908 8.77220229973487 31.42791597072047 0 0 0
268 7 6.263158598781717 10.774657533651041 31.576289223614484 0 0 0
293 4 6.45659126003315 9.329487268383993 33.648466121598474 0 0 0
245 7 10.11443780399452 12.903990368278146 31.862473424675965 0 -1 0
265 6 10.105170526602203 8.701730649048065 31.531792203923718 0 0 0
269 7 8.777210838547726 10.81842132515475 31.73804043388296 0 0 0
270 7 11.42907324742667 10.924965057712955 31.605824756439304 0 0 0
296 3 11.075703313734664 11.852997604748879 33.32492358336928 -1 0 0
271 7 1.4816795348046836 0.9222188109751095 33.77198165737505 0 0 0
272 7 3.9276306160665886 0.9717863217732096 33.92168877000095 0 0 0
276 7 0.18428467955780103 3.0131880060983716 33.72472571278164 0 0 0
277 7 2.649028198069391 3.0967172707838193 33.79559167070489 0 0 0
301 7 0.19919169047384735 1.5735911851788205 35.750390691711196 0 0 0
302 7 2.623439628337988 1.685114888867617 35.857666680645586 0 0 0
306 4 1.4089305674949897 3.853308297640056 35.9455779305355 0 0 0
307 7 3.9974345111823415 3.7472883921131666 35.833856491846625 0 0 0
273 7 6.469510771293135 0.9867629691337555 33.89961766715524 0 0 0
278 1 5.222978047732851 3.0147759688432427 33.73317033602053 0 0 0
279 7 7.730771661687262 3.0560696046554066 33.72117938111592 0 0 0
303 7 5.253968423943171 1.6810152186173914 35.937050570409674 0 0 0
304 4 7.77475335993513 1.6415440233515426 35.92033269463598 0 0 0
308 7 6.534958003299913 3.7266609521968923 35.79816337594967 0 0 0
274 7 8.847224057894397 0.9185168236295169 33.83170119000997 0 0 0
275 4 11.449900262903329 0.8203342106342926 33.70365671388437 0 0 0
280 7 10.211392104542547 3.0184595286713938 33.70139503023466 0 0 0
305 7 10.238456201057238 1.5896532414831417 35.71346838460581 0 0 0
309 7 9.014644914748532 3.6877573218106847 35.768201365025384 0 0 0
310 4 11.576532146547141 3.9521668979047733 35.86423925653258 0 0 0
281 7 1.329157110269279 5.200325138616118 33.85646177078491 0 0 0
282 4 3.8486921581563993 5.156459127501082 33.77752318812799 0 0 0
287 7 2.6390196557676835 7.306109920275422 33.74816638375899 0 0 0
312 7 2.7255478106535778 5.812719039622437 35.79534135973597 0 0 0
316 7 1.2230492712905179 7.631573697531485 35.784118022751684 0 0 0
317 7 3.942893929540784 8.060318987700592 35.740056385420935 0 0 0
283 7 6.383913661473599 5.115828463778564 33.668689234436464 0 0 0
288 7 5.1898646799544 7.286057535282912 33.6748034182246 0 0 0
289 7 7.636164552027915 7.2043501565157095 33.716265524522946 0 0 0
313 7 5.266937653617504 5.922682502564633 35.72800072427545 0 0 0
314 7 7.711840964642273 5.842191476089089 35.74658112268515 0 0 0
318 4 6.557033617599473 8.12095525396781 35.81968568130657 0 0 0
311 2 12.384942194313222 6.014455072853344 35.31746122544806 -1 0 0
315 7 10.131171950656741 5.824652758949356 35.57249916546594 0 0 0
319 7 8.956671645521146 7.979612705561873 35.827500961751554 0 0 0
320 7 11.354281774706472 7.952393271656552 35.582019219711896 0 0 0
350 7 11.686072463889577 6.287163985278643 37.27966753772596 0 0 0
355 3 10.445784060582449 7.931605515203842 37.26297702434766 0 0 0
291 7 1.4717962906997688 9.444175877545105 33.720603278963445 0 0 0
297 6 3.0271773968382565 11.589178653082518 33.66736616835381 0 0 0
321 6 0.21936363222318345 10.087374348727284 35.89680143927739 0 0 0
322 7 2.7111129705617105 10.203365525497567 35.75433429976548 0 0 0
326 7 0.5108804374639986 11.673258987741894 33.66362974715166 0 0 0
327 6 3.9285139163021348 12.519830269301387 36.099587681706055 0 0 0
356 4 1.409315086416652 12.375334785780666 35.83364010921923 0 0 0
298 2 5.205804125184209 12.302341059154603 34.200529465958276 0 0 0
299 7 6.99315601255079 11.589585911594579 33.67328373780308 0 0 0
323 6 5.2383294399165905 10.2510446591536 35.56537741772782 0 0 0
324 7 7.912505758961068 10.36214518875865 35.69921688963759 0 0 0
328 7 6.474431859386907 12.528292378335474 35.90861786369207 0 0 0
294 7 8.774497083746164 9.30320235562485 33.683582157404224 0 0 0
295 6 11.273527734305137 9.71757957761051 33.752854231704234 0 0 0
300 7 9.377818358468105 11.559943910203833 34.150273630982426 0 0 0
325 7 10.263752727951298 9.873497146408901 37.00434405285254 0 0 0
329 3 9.531823886788375 11.425633671414012 36.17023636974865 0 0 0
330 4 11.264473160653125 12.094771973531758 35.551783922410266 0 0 0
335 5 9.914970727690077 12.931281879104521 37.36581058957132 0 -1 0
332 7 2.489205499477176 0.12082813610148622 38.02517661624011 0 0 0
336 7 1.3400552625915982 2.206837498093873 37.82909035538342 0 0 0
337 7 3.8833685298960785 2.212698787167173 37.86113634887794 0 0 0
341 7 0.2257301260021264 4.274577059743175 38.065348872350064 0 0 0
333 7 5.226600687865827 0.18125805175282797 38.11275744569437 0 0 0
334 7 7.65891309430714 0.08504836640158796 37.995527788295604 0 0 0
338 7 6.542614902933621 2.277814544247934 37.89646312272813 0 0 0
339 7 8.997796437506116 2.2098445590474753 37.857162257623216 0 0 0
340 7 11.374479349225343 2.2102053263588672 37.72014585814443 0 0 0
342 7 2.7185365654940687 4.312241093993023 37.90213087186151 0 0 0
346 7 1.5168468285817627 6.447738281873433 37.98340187231441 0 0 0
347 6 3.982701039103016 6.48143340270726 37.796742706830415 0 0 0
343 7 5.319969399925431 4.37509963800803 37.845760393854825 0 0 0
344 7 7.840800356207297 4.447589159594052 37.865329282798385 0 0 0
348 6 6.64567148422251 6.705478530388619 37.85883147733482 0 0 0
361 8 5.369673103954006 5.733752456136393 38.93880745599552 0 0 0
345 4 10.246368607822259 4.346388256355981 37.79189931246193 0 0 0
349 7 9.260974041882905 6.678648083380675 37.91252761572482 0 0 0
351 7 12.24966901655285 8.588011124453965 37.82831075117218 -1 0 0
362 8 8.71185075593745 5.464548710014645 38.88643074670807 0 0 0
352 6 2.500072679878104 8.682807011212864 37.68339592228555 0 0 0
357 7 3.852024784045852 10.83345528380519 37.94798798433937 0 0 0
360 7 1.3992785738715114 10.918559581883295 37.87903617899438 1 0 0
353 7 5.128027237172381 8.730169059166709 37.81394905469799 0 0 0
354 7 7.971926309045364 8.969493719226197 37.805317612730136 0 0 0
358 6 6.432978510186807 10.871449384769166 37.78435365408629 0 0 0
331 7 12.397698783837031 12.901133757878537 37.60919031308913 -1 -1 0
359 2 8.60587889683071 11.200580798142033 37.39428261146125 0 0 0

Velocities

1 0 0 0
2 0 0 0
3 0 0 0
9 0 0 0
4 0 0 0
5 0 0 0
6 0 0 0
10 0 0 0
16 0 0 0
14 0 0 0
20 0 0 0
22 0 0 0
23 0 0 0
28 0 0 0
29 0 0 0
24 0 0 0
25 0 0 0
30 0 0 0
7 0 0 0
32 0 0 0
36 0 0 0
37 0 0 0
8 0 0 0
33 0 0 0
34 0 0 0
38 0 0 0
31 0 0 0
35 0 0 0
39 0 0 0
40 0 0 0
11 0 0 0
12 0 0 0
17 0 0 0
42 0 0 0
46 0 0 0
47 0 0 0
13 0 0 0
18 0 0 0
19 0 0 0
43 0 0 0
44 0 0 0
48 0 0 0
15 0 0 0
41 0 0 0
45 0 0 0
49 0 0 0
50 0 0 0
85 0 0 0
21 0 0 0
26 0 0 0
27 0 0 0
52 0 0 0
56 0 0 0
57 0 0 0
61 0 0 0
53 0 0 0
54 0 0 0
58 0 0 0
51 0 0 0
55 0 0 0
59 0 0 0
60 0 0 0
62 0 0 0
66 0 0 0
67 0 0 0
91 0 0 0
92 0 0 0
96 0 0 0
97 0 0 0
63 0 0 0
64 0 0 0
68 0 0 0
93 0 0 0
98 0 0 0
99 0 0 0
65 0 0 0
69 0 0 0
70 0 0 0
94 0 0 0
95 0 0 0
100 0 0 0
72 0 0 0
76 0 0 0
77 0 0 0
82 0 0 0
101 0 0 0
102 0 0 0
107 0 0 0
73 0 0 0
74 0 0 0
78 0 0 0
103 0 0 0
108 0 0 0
109 0 0 0
71 0 0 0
75 0 0 0
79 0 0 0
80 0 0 0
81 0 0 0
104 0 0 0
105 0 0 0
106 0 0 0
110 0 0 0
86 0 0 0
87 0 0 0
111 0 0 0
112 0 0 0
116 0 0 0
117 0 0 0
83 0 0 0
84 0 0 0
88 0 0 0
113 0 0 0
118 0 0 0
119 0 0 0
89 0 0 0
90 0 0 0
114 0 0 0
115 0 0 0
120 0 0 0
121 0 0 0
122 0 0 0
126 0 0 0
127 0 0 0
152 0 0 0
156 0 0 0
157 0 0 0
162 0 0 0
123 0 0 0
124 0 0 0
128 0 0 0
153 0 0 0
154 0 0 0
158 0 0 0
163 0 0 0
164 0 0 0
125 0 0 0
129 0 0 0
130 0 0 0
155 0 0 0
159 0 0 0
160 0 0 0
165 0 0 0
131 0 0 0
132 0 0 0
136 0 0 0
137 0 0 0
161 0 0 0
166 0 0 0
167 0 0 0
172 0 0 0
133 0 0 0
134 0 0 0
138 0 0 0
168 0 0 0
173 0 0 0
135 0 0 0
139 0 0 0
140 0 0 0
169 0 0 0
170 0 0 0
175 0 0 0
141 0 0 0
142 0 0 0
146 0 0 0
147 0 0 0
151 0 0 0
171 0 0 0
176 0 0 0
177 0 0 0
143 0 0 0
144 0 0 0
148 0 0 0
178 0 0 0
145 0 0 0
149 0 0 0
150 0 0 0
174 0 0 0
179 0 0 0
180 0 0 0
181 0 0 0
182 0 0 0
186 0 0 0
187 0 0 0
211 0 0 0
212 0 0 0
216 0 0 0
217 0 0 0
183 0 0 0
188 0 0 0
189 0 0 0
213 0 0 0
214 0 0 0
218 0 0 0
184 0 0 0
185 0 0 0
190 0 0 0
215 0 0 0
219 0 0 0
220 0 0 0
191 0 0 0
192 0 0 0
196 0 0 0
197 0 0 0
221 0 0 0
222 0 0 0
226 0 0 0
227 0 0 0
193 0 0 0
198 0 0 0
199 0 0 0
223 0 0 0
224 0 0 0
228 0 0 0
194 0 0 0
195 0 0 0
200 0 0 0
225 0 0 0
229 0 0 0
230 0 0 0
201 0 0 0
202 0 0 0
206 0 0 0
207 0 0 0
231 0 0 0
232 0 0 0
236 0 0 0
203 0 0 0
208 0 0 0
209 0 0 0
233 0 0 0
234 0 0 0
238 0 0 0
204 0 0 0
205 0 0 0
210 0 0 0
235 0 0 0
239 0 0 0
240 0 0 0
237 0 0 0
241 0 0 0
242 0 0 0
246 0 0 0
247 0 0 0
244 0 0 0
248 0 0 0
249 0 0 0
250 0 0 0
255 0 0 0
251 0 0 0
252 0 0 0
256 0 0 0
257 0 0 0
286 0 0 0
253 0 0 0
254 0 0 0
258 0 0 0
264 0 0 0
259 0 0 0
260 0 0 0
284 0 0 0
285 0 0 0
290 0 0 0
261 0 0 0
262 0 0 0
266 0 0 0
267 0 0 0
292 0 0 0
243 0 0 0
263 0 0 0
268 0 0 0
293 0 0 0
245 0 0 0
265 0 0 0
269 0 0 0
270 0 0 0
296 0 0 0
271 0 0 0
272 0 0 0
276 0 0 0
277 0 0 0
301 0 0 0
302 0 0 0
306 0 0 0
307 0 0 0
273 0 0 0
278 0 0 0
279 0 0 0
303 0 0 0
304 0 0 0
308 0 0 0
274 0 0 0
275 0 0 0
280 0 0 0
305 0 0 0
309 0 0 0
310 0 0 0
281 0 0 0
282 0 0 0
287 0 0 0
312 0 0 0
316 0 0 0
317 0 0 0
283 0 0 0
288 0 0 0
289 0 0 0
313 0 0 0
314 0 0 0
318 0 0 0
311 0 0 0
315 0 0 0
319 0 0 0
320 0 0 0
350 0 0 0
355 0 0 0
291 0 0 0
297 0 0 0
321 0 0 0
322 0 0 0
326 0 0 0
327 0 0 0
356 0 0 0
298 0 0 0
299 0 0 0
323 0 0 0
324 0 0 0
328 0 0 0
294 0 0 0
295 0 0 0
300 0 0 0
325 0 0 0
329 0 0 0
330 0 0 0
335 0 0 0
332 0 0 0
336 0 0 0
337 0 0 0
341 0 0 0
333 0 0 0
334 0 0 0
338 0 0 0
339 0 0 0
340 0 0 0
342 0 0 0
346 0 0 0
347 0 0 0
343 0 0 0
344 0 0 0
348 0 0 0
361 0 0 0
345 0 0 0
349 0 0 0
351 0 0 0
362 0 0 0
352 0 0 0
357 0 0 0
360 0 0 0
353 0 0 0
354 0 0 0
358 0 0 0
331 0 0 0
359 0 0 0
