LAMMPS (11 Feb 2026 - Development - patch_11Feb2026-99-gb75dfcc930-modified)
/home/akinyemi.az/miniforge3/envs/mace-lammps/lib/python3.11/site-packages/e3nn/o3/_wigner.py:10: FutureWarning: You are using `torch.load` with `weights_only=False` (the current default value), which uses the default pickle module implicitly. It is possible to construct malicious pickle data which will execute arbitrary code during unpickling (See https://github.com/pytorch/pytorch/blob/main/SECURITY.md#untrusted-models for more details). In a future release, the default value for `weights_only` will be flipped to `True`. This limits the functions that could be executed during unpickling. Arbitrary objects will no longer be allowed to be loaded via this mode unless they are explicitly allowlisted by the user via `torch.serialization.add_safe_globals`. We recommend you start setting `weights_only=True` for any use case where you don't have full control of the loaded file. Please open an issue on GitHub for any issues related to this experimental feature.
  _Jd, _W3j_flat, _W3j_indices = torch.load(os.path.join(os.path.dirname(__file__), 'constants.pt'))
KOKKOS mode with Kokkos version 5.0.2 is enabled
  using double precision
  using view layout = legacy
  will use up to 1 GPU(s) per node
  using 1 OpenMP thread(s) per MPI task
Reading data file ...
  orthogonal box = (-0.0035990984 -0.0035990984 -0.0035990984) to (17.858599 17.858599 17.858599)
  1 by 1 by 1 MPI processor grid
  reading atoms ...
  500 atoms
  reading velocities ...
  500 velocities
  read_data CPU = 0.013 seconds

CITE-CITE-CITE-CITE-CITE-CITE-CITE-CITE-CITE-CITE-CITE-CITE-CITE

Your simulation uses code contributions which should be cited:
- KOKKOS package: https://doi.org/10.1145/3731599.3767498
The log file lists these citations in BibTeX format.

CITE-CITE-CITE-CITE-CITE-CITE-CITE-CITE-CITE-CITE-CITE-CITE-CITE

Neighbor list info ...
  update: every = 1 steps, delay = 0 steps, check = yes
  max neighbors/atom: 2000, page size: 100000
  master list distance cutoff = 7
  ghost atom cutoff = 7
  binsize = 7, bins = 3 3 3
  1 neighbor lists, perpetual/occasional/extra = 1 0 0
  (1) pair mliap/kk, perpetual
      attributes: full, newton on, kokkos_device
      pair build: full/bin/kk/device
      stencil: full/bin/3d
      bin: kk/device
Setting up Verlet run ...
  Unit style    : metal
  Current step  : 0
  Time step     : 0.0005
Per MPI rank memory allocation (min/avg/max) = 80.54 | 80.54 | 80.54 Mbytes
   Step          Time           Temp          PotEng         KinEng         Press          Volume           Lx             Ly             Lz      
         0   0              300           -3365.6745      19.350244      3626.6098      5699.0795      17.862198      17.862198      17.862198    
       200   0.1            150.51873     -3356.0319      9.7085805      8796.5246      5699.0865      17.862206      17.862206      17.862206    
       400   0.2            162.14842     -3356.7826      10.458705      10854.78       5699.1076      17.862228      17.862228      17.862228    
       600   0.3            153.61342     -3356.2328      9.9081906      10290.476      5699.1441      17.862266      17.862266      17.862266    
       800   0.4            143.46677     -3355.5793      9.2537231      10541.465      5699.1951      17.862319      17.862319      17.862319    
      1000   0.5            153.61576     -3356.2351      9.9083416      10655.298      5699.2607      17.862388      17.862388      17.862388    
      1200   0.6            145.43474     -3355.7087      9.3806586      9146.8815      5699.3408      17.862471      17.862471      17.862471    
      1400   0.7            153.87616     -3356.2548      9.9251372      9861.3246      5699.4346      17.862569      17.862569      17.862569    
      1600   0.8            147.43121     -3355.8407      9.5094326      10193.636      5699.5423      17.862682      17.862682      17.862682    
      1800   0.9            153.26118     -3356.2186      9.8854709      9061.9236      5699.6644      17.862809      17.862809      17.862809    
      2000   1              147.36705     -3355.8403      9.5052942      9471.5918      5699.7998      17.862951      17.862951      17.862951    
      2200   1.1            150.48008     -3356.0431      9.7060877      9542.5639      5699.948       17.863106      17.863106      17.863106    
      2400   1.2            147.05541     -3355.8244      9.4851934      9193.2405      5700.1092      17.863274      17.863274      17.863274    
      2600   1.3            150.05192     -3356.0199      9.6784706      9654.6253      5700.2832      17.863456      17.863456      17.863456    
      2800   1.4            157.48833     -3356.5022      10.158126      8930.4099      5700.4707      17.863652      17.863652      17.863652    
      3000   1.5            151.99992     -3356.1508      9.8041185      10972.41       5700.6719      17.863862      17.863862      17.863862    
      3200   1.6            155.78425     -3356.3976      10.04821       9005.2884      5700.888       17.864087      17.864087      17.864087    
      3400   1.7            146.93503     -3355.8296      9.4774287      8514.137       5701.118       17.864328      17.864328      17.864328    
      3600   1.8            150.36997     -3356.0539      9.6989855      8652.0844      5701.3607      17.864581      17.864581      17.864581    
      3800   1.9            148.54394     -3355.939       9.5812046      9095.9023      5701.6157      17.864847      17.864847      17.864847    
      4000   2              149.7644      -3356.0207      9.6599252      8299.783       5701.8828      17.865127      17.865127      17.865127    
      4200   2.1            152.79071     -3356.2192      9.8551247      9102.0011      5702.1625      17.865419      17.865419      17.865419    
      4400   2.2            146.72934     -3355.8314      9.4641619      9495.6469      5702.4555      17.865725      17.865725      17.865725    
      4600   2.3            154.05042     -3356.3071      9.9363771      9991.0544      5702.7618      17.866044      17.866044      17.866044    
      4800   2.4            153.24388     -3356.2587      9.8843545      9608.1559      5703.0826      17.86638       17.86638       17.86638     
      5000   2.5            151.18036     -3356.1291      9.7512557      9126.7531      5703.4174      17.866729      17.866729      17.866729    
      5200   2.6            151.15817     -3356.1315      9.749825       9569.9424      5703.7653      17.867092      17.867092      17.867092    
      5400   2.7            148.58971     -3355.9695      9.5841572      8921.6456      5704.1266      17.86747       17.86747       17.86747     
      5600   2.8            147.69325     -3355.9155      9.5263347      8802.0645      5704.5012      17.867861      17.867861      17.867861    
      5800   2.9            153.39081     -3356.2867      9.8938317      8552.8904      5704.8885      17.868265      17.868265      17.868265    
      6000   3              151.70036     -3356.1814      9.7847966      7124.1327      5705.2874      17.868682      17.868682      17.868682    
      6200   3.1            151.68393     -3356.184       9.7837365      7800.8756      5705.6975      17.86911       17.86911       17.86911     
      6400   3.2            148.15748     -3355.9604      9.5562779      7944.5344      5706.1188      17.869549      17.869549      17.869549    
      6600   3.3            143.33326     -3355.6533      9.2451116      9165.6446      5706.5521      17.870002      17.870002      17.870002    
      6800   3.4            144.83514     -3355.7541      9.3419845      7865.4362      5706.9979      17.870467      17.870467      17.870467    
      7000   3.5            143.55888     -3355.6755      9.2596646      5634.6275      5707.4539      17.870943      17.870943      17.870943    
      7200   3.6            145.3811      -3355.7964      9.3771991      6650.5209      5707.9187      17.871428      17.871428      17.871428    
      7400   3.7            143.94912     -3355.7078      9.2848349      7128.781       5708.3926      17.871923      17.871923      17.871923    
      7600   3.8            148.14452     -3355.9824      9.5554421      8077.0895      5708.8765      17.872428      17.872428      17.872428    
      7800   3.9            143.4708      -3355.6849      9.2539833      6596.1021      5709.3713      17.872944      17.872944      17.872944    
      8000   4              150.15364     -3356.1196      9.6850318      5838.1544      5709.8756      17.87347       17.87347       17.87347     
      8200   4.1            154.82946     -3356.4251      9.9866257      5918.0999      5710.3886      17.874006      17.874006      17.874006    
      8400   4.2            152.3563      -3356.2698      9.8271049      7171.0197      5710.9113      17.874551      17.874551      17.874551    
      8600   4.3            148.10268     -3355.9993      9.5527429      7050.8093      5711.4442      17.875107      17.875107      17.875107    
      8800   4.4            145.21031     -3355.8165      9.3661832      4953.9992      5711.986       17.875672      17.875672      17.875672    
      9000   4.5            145.37561     -3355.831       9.3768451      6513.4302      5712.5362      17.876246      17.876246      17.876246    
      9200   4.6            153.37994     -3356.3515      9.8931306      5827.1552      5713.096       17.87683       17.87683       17.87683     
      9400   4.7            149.48186     -3356.1035      9.6417012      5463.3858      5713.6639      17.877422      17.877422      17.877422    
      9600   4.8            146.13522     -3355.8911      9.4258407      4535.6894      5714.2391      17.878022      17.878022      17.878022    
      9800   4.9            152.18259     -3356.2844      9.8159004      3224.2472      5714.8206      17.878629      17.878629      17.878629    
     10000   5              147.32012     -3355.9741      9.5022672      4020.6571      5715.4078      17.879241      17.879241      17.879241    
     10200   5.1            159.23724     -3356.7462      10.270931      5213.3122      5716.001       17.879859      17.879859      17.879859    
     10400   5.2            150.44827     -3356.1828      9.7040354      4397.6674      5716.6014      17.880485      17.880485      17.880485    
     10600   5.3            146.93047     -3355.959       9.4771347      3729.4228      5717.2074      17.881117      17.881117      17.881117    
     10800   5.4            144.03288     -3355.7755      9.2902375      4430.6163      5717.8194      17.881755      17.881755      17.881755    
     11000   5.5            147.39953     -3355.9964      9.5073893      5532.4545      5718.4381      17.8824        17.8824        17.8824      
     11200   5.6            146.07879     -3355.9143      9.4222007      3352.8159      5719.0634      17.883052      17.883052      17.883052    
     11400   5.7            148.622       -3356.0815      9.5862395      2501.26        5719.6935      17.883709      17.883709      17.883709    
     11600   5.8            151.37746     -3356.2622      9.7639694      3228.2349      5720.3286      17.88437       17.88437       17.88437     
     11800   5.9            142.44921     -3355.6895      9.1880895      4580.092       5720.9684      17.885037      17.885037      17.885037    
     12000   6              149.43399     -3356.1435      9.638614       3918.6892      5721.6142      17.88571       17.88571       17.88571     
     12200   6.1            142.94894     -3355.7284      9.2203228      3907.4289      5722.2656      17.886389      17.886389      17.886389    
     12400   6.2            139.10935     -3355.4837      8.9726659      2909.7748      5722.9221      17.887073      17.887073      17.887073    
     12600   6.3            153.95808     -3356.4444      9.9304212      1625.8082      5723.5828      17.887761      17.887761      17.887761    
     12800   6.4            157.2432      -3356.6592      10.142314      2463.4439      5724.2474      17.888454      17.888454      17.888454    
     13000   6.5            159.71659     -3356.8212      10.30185       1849.1893      5724.9157      17.88915       17.88915       17.88915     
     13200   6.6            149.93895     -3356.1932      9.671184       1668.0503      5725.5872      17.889849      17.889849      17.889849    
     13400   6.7            153.83542     -3356.4467      9.9225095      2350.145       5726.261       17.890551      17.890551      17.890551    
     13600   6.8            142.944       -3355.7472      9.2200042      2922.0622      5726.9383      17.891256      17.891256      17.891256    
     13800   6.9            151.10968     -3356.2763      9.7466973      79.175341      5727.6195      17.891966      17.891966      17.891966    
     14000   7              152.87043     -3356.392       9.8602667      204.1823       5728.3021      17.892676      17.892676      17.892676    
     14200   7.1            145.98274     -3355.9492      9.416005       889.64039      5728.9854      17.893388      17.893388      17.893388    
     14400   7.2            151.46823     -3356.3052      9.7698239      1541.6457      5729.6694      17.8941        17.8941        17.8941      
     14600   7.3            149.65532     -3356.1904      9.6528899      449.19366      5730.3552      17.894814      17.894814      17.894814    
     14800   7.4            143.19471     -3355.7755      9.2361749      441.03282      5731.0421      17.895529      17.895529      17.895529    
     15000   7.5            146.69631     -3356.0032      9.4620314      680.40038      5731.7298      17.896244      17.896244      17.896244    
     15200   7.6            151.8462      -3356.3371      9.794203       441.54322      5732.418       17.896961      17.896961      17.896961    
     15400   7.7            152.67127     -3356.3922      9.8474208      454.96412      5733.1069      17.897678      17.897678      17.897678    
     15600   7.8            147.04578     -3356.0307      9.4845725     -857.24124      5733.7961      17.898395      17.898395      17.898395    
     15800   7.9            147.16902     -3356.0399      9.4925213     -769.79207      5734.4842      17.899111      17.899111      17.899111    
     16000   8              140.56794     -3355.6151      9.066746      -575.68671      5735.1711      17.899825      17.899825      17.899825    
     16200   8.1            146.86191     -3356.0222      9.4727126     -1448.0038      5735.8565      17.900538      17.900538      17.900538    
     16400   8.2            149.53182     -3356.1955      9.6449236     -1700.6109      5736.5403      17.90125       17.90125       17.90125     
     16600   8.3            145.47643     -3355.9349      9.3833478     -525.58431      5737.2222      17.901959      17.901959      17.901959    
     16800   8.4            146.90827     -3356.0288      9.475703      -515.80499      5737.9032      17.902667      17.902667      17.902667    
     17000   8.5            145.63512     -3355.9474      9.3935838     -2252.396       5738.5832      17.903374      17.903374      17.903374    
     17200   8.6            145.10466     -3355.9136      9.3593683     -2641.8877      5739.2597      17.904078      17.904078      17.904078    
     17400   8.7            148.27299     -3356.1184      9.5637283     -1594.8864      5739.9323      17.904777      17.904777      17.904777    
     17600   8.8            150.62315     -3356.2701      9.7153153     -3036.355       5740.6013      17.905473      17.905473      17.905473    
     17800   8.9            149.66074     -3356.2084      9.6532391     -3103.3501      5741.2657      17.906164      17.906164      17.906164    
     18000   9              140.33254     -3355.6073      9.051563      -1957.3542      5741.9264      17.90685       17.90685       17.90685     
     18200   9.1            142.46916     -3355.7454      9.1893766     -3134.2127      5742.5839      17.907534      17.907534      17.907534    
     18400   9.2            147.55811     -3356.0734      9.5176182     -4481.0771      5743.2365      17.908212      17.908212      17.908212    
     18600   9.3            150.13187     -3356.2395      9.6836274     -2548.53        5743.8831      17.908884      17.908884      17.908884    
     18800   9.4            145.13233     -3355.9167      9.3611531     -4716.438       5744.5248      17.909551      17.909551      17.909551    
     19000   9.5            146.17576     -3355.9838      9.4284555     -3785.5694      5745.1603      17.910212      17.910212      17.910212    
     19200   9.6            142.5328      -3355.7484      9.1934816     -4121.3625      5745.7899      17.910866      17.910866      17.910866    
     19400   9.7            148.07741     -3356.1057      9.551113      -4525.6767      5746.4126      17.911513      17.911513      17.911513    
     19600   9.8            145.21336     -3355.921       9.3663795     -2937.9176      5747.0294      17.912154      17.912154      17.912154    
     19800   9.9            145.00395     -3355.9073      9.3528723     -4986.1006      5747.6412      17.912789      17.912789      17.912789    
     20000   10             151.90518     -3356.3519      9.7980074     -3952.702       5748.246       17.913418      17.913418      17.913418    
Loop time of 597.122 on 1 procs for 20000 steps with 500 atoms

Performance: 1.447 ns/day, 16.587 hours/ns, 33.494 timesteps/s, 16.747 katom-step/s
99.0% CPU use with 1 MPI tasks x 1 OpenMP threads

MPI task timing breakdown:
Section |  min time  |  avg time  |  max time  |%varavg| %total
---------------------------------------------------------------
Pair    | 593.75     | 593.75     | 593.75     |   0.0 | 99.43
Neigh   | 0          | 0          | 0          |   0.0 |  0.00
Comm    | 0.69282    | 0.69282    | 0.69282    |   0.0 |  0.12
Output  | 0.005324   | 0.005324   | 0.005324   |   0.0 |  0.00
Modify  | 1.8872     | 1.8872     | 1.8872     |   0.0 |  0.32
Other   |            | 0.7915     |            |       |  0.13

Nlocal:            500 ave         500 max         500 min
Histogram: 1 0 0 0 0 0 0 0 0 0
Nghost:           2002 ave        2002 max        2002 min
Histogram: 1 0 0 0 0 0 0 0 0 0
Neighs:              0 ave           0 max           0 min
Histogram: 1 0 0 0 0 0 0 0 0 0
FullNghs:        66574 ave       66574 max       66574 min
Histogram: 1 0 0 0 0 0 0 0 0 0

Total # of neighbors = 66574
Ave neighs/atom = 133.148
Neighbor list builds = 0
Dangerous builds = 0
### Heating complete ###
Setting up Verlet run ...
  Unit style    : metal
  Current step  : 20000
  Time step     : 0.0005
Per MPI rank memory allocation (min/avg/max) = 87.6 | 87.6 | 87.6 Mbytes
   Step          Time           Temp          PotEng         KinEng         Press          Volume           Lx             Ly             Lz      
     20000   10             151.90518     -3356.3519      9.7980074     -3952.702       5748.246       17.913418      17.913418      17.913418    
     20200   10.1           151.61345     -3356.3331      9.7791906     -4246.7733      5748.2459      17.913417      17.913417      17.913417    
     20400   10.2           151.3565      -3356.3165      9.7626171     -5974.8464      5748.2455      17.913417      17.913417      17.913417    
     20600   10.3           149.9195      -3356.2238      9.6699297     -4821.6358      5748.245       17.913416      17.913416      17.913416    
     20800   10.4           150.23024     -3356.2438      9.6899723     -5053.5845      5748.2442      17.913416      17.913416      17.913416    
     21000   10.5           147.79977     -3356.087       9.533205      -3767.3476      5748.2431      17.913415      17.913415      17.913415    
     21200   10.6           148.97139     -3356.1625      9.6087756     -6317.8636      5748.2419      17.913413      17.913413      17.913413    
     21400   10.7           149.72496     -3356.211       9.6573815     -5647.3679      5748.2403      17.913412      17.913412      17.913412    
     21600   10.8           143.51028     -3355.8101      9.2565296     -6023.84        5748.2385      17.91341       17.91341       17.91341     
     21800   10.9           150.05058     -3356.2319      9.6783841     -6038.0524      5748.2364      17.913408      17.913408      17.913408    
     22000   11             146.36524     -3355.9942      9.4406771     -5977.5466      5748.2341      17.913405      17.913405      17.913405    
     22200   11.1           150.68322     -3356.2725      9.7191904     -4660.4138      5748.2316      17.913403      17.913403      17.913403    
     22400   11.2           150.44486     -3356.2571      9.7038156     -4100.9833      5748.2288      17.9134        17.9134        17.9134      
     22600   11.3           144.7161      -3355.8874      9.3343059     -4591.7067      5748.2258      17.913397      17.913397      17.913397    
     22800   11.4           148.61124     -3356.1385      9.5855455     -5124.517       5748.2226      17.913393      17.913393      17.913393    
     23000   11.5           143.21273     -3355.7902      9.2373375     -5298.6986      5748.2191      17.91339       17.91339       17.91339     
     23200   11.6           148.59676     -3356.1374      9.5846117     -5073.3442      5748.2154      17.913386      17.913386      17.913386    
     23400   11.7           144.07413     -3355.8455      9.2928983     -3654.8115      5748.2114      17.913382      17.913382      17.913382    
     23600   11.8           147.12598     -3356.0422      9.4897452     -4728.2386      5748.2073      17.913377      17.913377      17.913377    
     23800   11.9           144.079       -3355.8454      9.2932127     -5634.725       5748.2029      17.913373      17.913373      17.913373    
     24000   12             149.16232     -3356.1732      9.6210907     -4566.868       5748.1983      17.913368      17.913368      17.913368    
     24200   12.1           145.75053     -3355.9529      9.4010279     -3154.523       5748.1935      17.913363      17.913363      17.913363    
     24400   12.2           151.73767     -3356.339       9.7872032     -6463.9489      5748.1885      17.913358      17.913358      17.913358    
     24600   12.3           143.13903     -3355.7841      9.232584      -5049.4117      5748.1832      17.913352      17.913352      17.913352    
     24800   12.4           147.50809     -3356.0657      9.5143914     -4126.6085      5748.1777      17.913347      17.913347      17.913347    
     25000   12.5           151.73868     -3356.3384      9.7872684     -5863.4552      5748.172       17.913341      17.913341      17.913341    
     25200   12.6           149.84348     -3356.2159      9.6650264     -6290.845       5748.1659      17.913334      17.913334      17.913334    
     25400   12.7           157.24664     -3356.6933      10.142536     -4573.1009      5748.1596      17.913328      17.913328      17.913328    
     25600   12.8           145.36716     -3355.9267      9.3763001     -4645.8715      5748.1531      17.913321      17.913321      17.913321    
     25800   12.9           150.70022     -3356.2704      9.7202867     -5671.5657      5748.1464      17.913314      17.913314      17.913314    
     26000   13             149.51388     -3356.1936      9.6437668     -6232.5125      5748.1394      17.913307      17.913307      17.913307    
     26200   13.1           147.43959     -3356.0595      9.5099731     -3712.4546      5748.1321      17.913299      17.913299      17.913299    
     26400   13.2           149.45063     -3356.189       9.6396874     -2901.2703      5748.1246      17.913291      17.913291      17.913291    
     26600   13.3           147.465       -3356.0606      9.5116122     -4551.5526      5748.117       17.913283      17.913283      17.913283    
     26800   13.4           146.51602     -3355.9991      9.4504025     -4634.2989      5748.1091      17.913275      17.913275      17.913275    
     27000   13.5           148.46141     -3356.1242      9.5758818     -4866.6754      5748.1011      17.913267      17.913267      17.913267    
     27200   13.6           152.89386     -3356.4099      9.8617779     -5323.8551      5748.0928      17.913258      17.913258      17.913258    
     27400   13.7           149.78363     -3356.2089      9.661166      -4114.1723      5748.0843      17.91325       17.91325       17.91325     
     27600   13.8           144.22682     -3355.8502      9.3027471     -5143.5831      5748.0756      17.91324       17.91324       17.91324     
     27800   13.9           148.83789     -3356.1472      9.6001648     -5084.1977      5748.0665      17.913231      17.913231      17.913231    
     28000   14             149.8163      -3356.2101      9.6632728     -2719.8496      5748.0573      17.913222      17.913222      17.913222    
     28200   14.1           148.45596     -3356.1219      9.57553       -4278.4752      5748.0479      17.913212      17.913212      17.913212    
     28400   14.2           146.40019     -3355.989       9.4429311     -5201.3629      5748.0383      17.913202      17.913202      17.913202    
     28600   14.3           149.3426      -3356.1783      9.6327187     -5458.4176      5748.0285      17.913192      17.913192      17.913192    
     28800   14.4           152.88898     -3356.4067      9.8614633     -6133.7115      5748.0183      17.913181      17.913181      17.913181    
     29000   14.5           147.21648     -3356.0404      9.4955826     -4338.0158      5748.0079      17.91317       17.91317       17.91317     
     29200   14.6           149.69468     -3356.1998      9.6554285     -4476.9486      5747.9972      17.913159      17.913159      17.913159    
     29400   14.7           148.60053     -3356.1288      9.5848551     -2955.5916      5747.9864      17.913148      17.913148      17.913148    
     29600   14.8           158.73388     -3356.7821      10.238464     -3980.3807      5747.9753      17.913136      17.913136      17.913136    
     29800   14.9           151.59078     -3356.3209      9.7777284     -4294.3008      5747.9641      17.913125      17.913125      17.913125    
     30000   15             154.99987     -3356.5403      9.9976173     -3788.2656      5747.9526      17.913113      17.913113      17.913113    
     30200   15.1           151.50905     -3356.3147      9.772457      -4925.949       5747.941       17.913101      17.913101      17.913101    
     30400   15.2           145.51978     -3355.9278      9.3861442     -5085.0229      5747.9291      17.913088      17.913088      17.913088    
     30600   15.3           144.10502     -3355.8361      9.2948907     -3758.6785      5747.917       17.913076      17.913076      17.913076    
     30800   15.4           147.94478     -3356.0833      9.5425585     -4146.6881      5747.9047      17.913063      17.913063      17.913063    
     31000   15.5           148.06631     -3356.0907      9.5503971     -5611.0014      5747.8921      17.91305       17.91305       17.91305     
     31200   15.6           143.43256     -3355.7913      9.2515167     -4716.3354      5747.8794      17.913037      17.913037      17.913037    
     31400   15.7           151.18227     -3356.2907      9.751379      -4925.6684      5747.8664      17.913023      17.913023      17.913023    
     31600   15.8           152.15228     -3356.3527      9.8139457     -3755.4323      5747.8532      17.913009      17.913009      17.913009    
     31800   15.9           144.12736     -3355.8345      9.2963316     -5759.9967      5747.8398      17.912996      17.912996      17.912996    
     32000   16             153.62589     -3356.4467      9.9089945     -6371.5137      5747.8261      17.912981      17.912981      17.912981    
     32200   16.1           142.02018     -3355.6975      9.1604172     -5262.5305      5747.8122      17.912967      17.912967      17.912967    
     32400   16.2           142.65198     -3355.7377      9.2011687     -5588.1121      5747.7979      17.912952      17.912952      17.912952    
     32600   16.3           149.05226     -3356.15        9.6139916     -5300.8633      5747.7835      17.912937      17.912937      17.912937    
     32800   16.4           146.21163     -3355.9662      9.430769      -5144.4204      5747.7687      17.912922      17.912922      17.912922    
     33000   16.5           147.10856     -3356.0235      9.4886216     -5969.2583      5747.7537      17.912906      17.912906      17.912906    
     33200   16.6           145.88772     -3355.9441      9.4098767     -5679.5331      5747.7385      17.91289       17.91289       17.91289     
     33400   16.7           148.26574     -3356.0969      9.5632607     -5338.9809      5747.723       17.912874      17.912874      17.912874    
     33600   16.8           146.5516      -3355.9858      9.4526974     -6320.2114      5747.7072      17.912858      17.912858      17.912858    
     33800   16.9           150.722       -3356.2541      9.7216912     -6177.7087      5747.6911      17.912841      17.912841      17.912841    
     34000   17             148.80464     -3356.1298      9.5980202     -6023.8996      5747.6747      17.912824      17.912824      17.912824    
     34200   17.1           149.3587      -3356.165       9.6337577     -5857.6697      5747.6581      17.912807      17.912807      17.912807    
     34400   17.2           143.73771     -3355.8017      9.2711993     -5912.7433      5747.6412      17.912789      17.912789      17.912789    
     34600   17.3           150.66347     -3356.2479      9.7179161     -6684.5589      5747.624       17.912771      17.912771      17.912771    
     34800   17.4           143.59549     -3355.7912      9.2620255     -5109.3037      5747.6065      17.912753      17.912753      17.912753    
     35000   17.5           143.26988     -3355.7696      9.2410236     -5664.5849      5747.5887      17.912735      17.912735      17.912735    
     35200   17.6           142.93569     -3355.7474      9.2194681     -5952.955       5747.5706      17.912716      17.912716      17.912716    
     35400   17.7           154.31068     -3356.4804      9.9531645     -5197.5634      5747.5523      17.912697      17.912697      17.912697    
     35600   17.8           152.75613     -3356.3794      9.8528946     -6413.0207      5747.5337      17.912678      17.912678      17.912678    
     35800   17.9           141.49208     -3355.6521      9.1263539     -4263.6178      5747.5149      17.912658      17.912658      17.912658    
     36000   18             148.69151     -3356.1159      9.5907233     -5065.2         5747.4958      17.912638      17.912638      17.912638    
     36200   18.1           146.88325     -3355.9984      9.4740892     -5849.8477      5747.4765      17.912618      17.912618      17.912618    
     36400   18.2           152.56238     -3356.3641      9.8403975     -5888.6273      5747.457       17.912598      17.912598      17.912598    
     36600   18.3           146.75736     -3355.9889      9.4659689     -5482.7213      5747.4371      17.912577      17.912577      17.912577    
     36800   18.4           144.85428     -3355.8654      9.3432187     -6920.7983      5747.417       17.912556      17.912556      17.912556    
     37000   18.5           141.93222     -3355.6761      9.1547437     -3345.7864      5747.3966      17.912535      17.912535      17.912535    
     37200   18.6           150.75512     -3356.2445      9.7238276     -5683.2372      5747.376       17.912514      17.912514      17.912514    
     37400   18.7           146.22881     -3355.9518      9.4318772     -5520.4687      5747.3551      17.912492      17.912492      17.912492    
     37600   18.8           146.08145     -3355.9415      9.422372      -4632.7953      5747.3339      17.91247       17.91247       17.91247     
     37800   18.9           146.13847     -3355.9444      9.4260501     -4555.5325      5747.3125      17.912448      17.912448      17.912448    
     38000   19             146.13423     -3355.9432      9.4257767     -4989.289       5747.2908      17.912425      17.912425      17.912425    
     38200   19.1           153.36657     -3356.409       9.8922685     -5870.1791      5747.2689      17.912402      17.912402      17.912402    
     38400   19.2           151.61978     -3356.2955      9.7795991     -7383.1719      5747.2467      17.912379      17.912379      17.912379    
     38600   19.3           143.0274      -3355.7405      9.2253832     -3867.805       5747.2242      17.912356      17.912356      17.912356    
     38800   19.4           146.94917     -3355.9925      9.4783406     -5762.5696      5747.2014      17.912332      17.912332      17.912332    
     39000   19.5           143.09729     -3355.7432      9.2298913     -3637.5425      5747.1785      17.912309      17.912309      17.912309    
     39200   19.6           147.64358     -3356.0357      9.5231311     -7415.4146      5747.1553      17.912284      17.912284      17.912284    
     39400   19.7           146.979       -3355.9919      9.4802652     -5839.7483      5747.1317      17.91226       17.91226       17.91226     
     39600   19.8           147.78405     -3356.043       9.5321912     -6447.176       5747.1079      17.912235      17.912235      17.912235    
     39800   19.9           152.39513     -3356.3396      9.8296094     -6438.2016      5747.0838      17.91221       17.91221       17.91221     
     40000   20             148.50248     -3356.0876      9.5785303     -3800.7335      5747.0593      17.912185      17.912185      17.912185    
     40200   20.1           152.32235     -3356.333       9.8249156     -4000.6294      5747.0347      17.912159      17.912159      17.912159    
     40400   20.2           147.35019     -3356.0114      9.5042071     -5404.2293      5747.0098      17.912133      17.912133      17.912133    
     40600   20.3           153.43683     -3356.4031      9.8968005     -5688.9585      5746.9847      17.912107      17.912107      17.912107    
     40800   20.4           145.06977     -3355.8625      9.3571182     -4794.4063      5746.9594      17.912081      17.912081      17.912081    
     41000   20.5           151.71879     -3356.2904      9.7859854     -6317.8142      5746.9337      17.912054      17.912054      17.912054    
     41200   20.6           148.78128     -3356.1         9.5965134     -5992.8789      5746.9078      17.912027      17.912027      17.912027    
     41400   20.7           151.50126     -3356.2746      9.7719543     -4594.0675      5746.8816      17.912         17.912         17.912       
     41600   20.8           148.64923     -3356.0896      9.5879963     -7083.1081      5746.8551      17.911973      17.911973      17.911973    
     41800   20.9           148.93166     -3356.1069      9.6062132     -5146.4585      5746.8283      17.911945      17.911945      17.911945    
     42000   21             147.42329     -3356.0086      9.5089221     -2690.8776      5746.8013      17.911917      17.911917      17.911917    
     42200   21.1           155.50443     -3356.5289      10.030162     -3969.2221      5746.7741      17.911888      17.911888      17.911888    
     42400   21.2           153.53917     -3356.4011      9.9034009     -6074.4417      5746.7467      17.91186       17.91186       17.91186     
     42600   21.3           151.67758     -3356.28        9.7833274     -6081.2972      5746.719       17.911831      17.911831      17.911831    
     42800   21.4           147.76046     -3356.0263      9.5306699     -5430.5092      5746.6911      17.911802      17.911802      17.911802    
     43000   21.5           146.4958      -3355.9437      9.4490982     -4310.0047      5746.6628      17.911773      17.911773      17.911773    
     43200   21.6           148.99463     -3356.1039      9.610275      -4588.625       5746.6343      17.911743      17.911743      17.911743    
     43400   21.7           145.71409     -3355.8912      9.398677      -5283.5741      5746.6056      17.911713      17.911713      17.911713    
     43600   21.8           151.34973     -3356.2537      9.7621808     -5008.2405      5746.5766      17.911683      17.911683      17.911683    
     43800   21.9           149.98055     -3356.1643      9.6738676     -3513.697       5746.5474      17.911653      17.911653      17.911653    
     44000   22             147.11053     -3355.9781      9.4887484     -4719.6849      5746.518       17.911622      17.911622      17.911622    
     44200   22.1           148.08378     -3356.0398      9.5515241     -6440.8667      5746.4884      17.911592      17.911592      17.911592    
     44400   22.2           144.08757     -3355.7809      9.2937656     -6496.6656      5746.4584      17.91156       17.91156       17.91156     
     44600   22.3           146.29024     -3355.9219      9.4358393     -4014.4287      5746.4282      17.911529      17.911529      17.911529    
     44800   22.4           149.80179     -3356.1474      9.6623372     -4632.2632      5746.3977      17.911497      17.911497      17.911497    
     45000   22.5           152.31532     -3356.3084      9.8244616     -4906.2775      5746.367       17.911465      17.911465      17.911465    
     45200   22.6           145.75104     -3355.8838      9.4010607     -5139.8888      5746.3361      17.911433      17.911433      17.911433    
     45400   22.7           152.39769     -3356.3114      9.8297748     -5368.3945      5746.3049      17.911401      17.911401      17.911401    
     45600   22.8           154.86559     -3356.4695      9.9889562     -4894.2747      5746.2735      17.911368      17.911368      17.911368    
     45800   22.9           151.82918     -3356.2725      9.7931056     -5439.9725      5746.2419      17.911335      17.911335      17.911335    
     46000   23             149.62552     -3356.1291      9.6509673     -5880.1618      5746.21        17.911302      17.911302      17.911302    
     46200   23.1           143.77146     -3355.7503      9.2733761     -3870.9538      5746.1778      17.911269      17.911269      17.911269    
     46400   23.2           155.1853      -3356.4854      10.009578     -5450.4983      5746.1454      17.911235      17.911235      17.911235    
     46600   23.3           151.81117     -3356.2665      9.7919438     -4012.8676      5746.1128      17.911201      17.911201      17.911201    
     46800   23.4           151.48108     -3356.2441      9.770653      -4973.4241      5746.08        17.911167      17.911167      17.911167    
     47000   23.5           147.27783     -3355.9717      9.4995394     -5027.3083      5746.0469      17.911133      17.911133      17.911133    
     47200   23.6           145.03576     -3355.8259      9.3549246     -3735.6481      5746.0136      17.911098      17.911098      17.911098    
     47400   23.7           143.4777      -3355.7241      9.2544282     -3806.0167      5745.98        17.911063      17.911063      17.911063    
     47600   23.8           150.26454     -3356.1607      9.6921852     -6081.6052      5745.9462      17.911028      17.911028      17.911028    
     47800   23.9           143.12196     -3355.6987      9.2314827     -4969.6881      5745.9121      17.910993      17.910993      17.910993    
     48000   24             146.35541     -3355.9061      9.4400426     -4559.0022      5745.8778      17.910957      17.910957      17.910957    
     48200   24.1           156.81979     -3356.5799      10.115004     -5821.0738      5745.8433      17.910921      17.910921      17.910921    
     48400   24.2           151.2703      -3356.2206      9.7570572     -4241.7809      5745.8085      17.910885      17.910885      17.910885    
     48600   24.3           145.82748     -3355.8682      9.4059911     -4587.6151      5745.7734      17.910849      17.910849      17.910849    
     48800   24.4           154.80899     -3356.4462      9.9853058     -5288.6754      5745.7382      17.910812      17.910812      17.910812    
     49000   24.5           148.77276     -3356.0556      9.5959636     -5905.7621      5745.7027      17.910775      17.910775      17.910775    
     49200   24.6           146.41457     -3355.9022      9.443859      -4822.8821      5745.667       17.910738      17.910738      17.910738    
     49400   24.7           150.3561      -3356.1552      9.6980908     -4942.9891      5745.631       17.910701      17.910701      17.910701    
     49600   24.8           146.50349     -3355.9053      9.4495944     -3975.9415      5745.5947      17.910663      17.910663      17.910663    
     49800   24.9           156.1827      -3356.5283      10.073911     -5434.9464      5745.5583      17.910625      17.910625      17.910625    
     50000   25             151.81601     -3356.2454      9.7922558     -5231.6756      5745.5216      17.910587      17.910587      17.910587    
     50200   25.1           143.58151     -3355.7128      9.2611239     -4840.3945      5745.4847      17.910549      17.910549      17.910549    
     50400   25.2           145.29895     -3355.8223      9.3719002     -4192.3284      5745.4475      17.91051       17.91051       17.91051     
     50600   25.3           144.58745     -3355.775       9.3260079     -6402.0333      5745.4102      17.910471      17.910471      17.910471    
     50800   25.4           149.24101     -3356.0738      9.6261663     -4006.821       5745.3726      17.910432      17.910432      17.910432    
     51000   25.5           145.23381     -3355.8139      9.3676988     -3845.4788      5745.3347      17.910393      17.910393      17.910393    
     51200   25.6           150.22932     -3356.1347      9.689913      -4468.5758      5745.2967      17.910353      17.910353      17.910353    
     51400   25.7           152.75687     -3356.2963      9.8529422     -4900.0098      5745.2585      17.910314      17.910314      17.910314    
     51600   25.8           152.1018      -3356.2527      9.8106896     -5233.7431      5745.22        17.910274      17.910274      17.910274    
     51800   25.9           148.68771     -3356.0311      9.5904782     -5609.7697      5745.1813      17.910233      17.910233      17.910233    
     52000   26             153.18868     -3356.32        9.8807941     -5861.4614      5745.1423      17.910193      17.910193      17.910193    
     52200   26.1           151.39434     -3356.2028      9.7650577     -5462.7719      5745.1031      17.910152      17.910152      17.910152    
     52400   26.2           146.91377     -3355.9123      9.4760574     -4570.035       5745.0636      17.910111      17.910111      17.910111    
     52600   26.3           153.08363     -3356.3089      9.8740185     -4025.4667      5745.024       17.91007       17.91007       17.91007     
     52800   26.4           150.10069     -3356.115       9.6816161     -5587.7595      5744.9841      17.910029      17.910029      17.910029    
     53000   26.5           142.78035     -3355.6413      9.2094488     -5369.0771      5744.944       17.909987      17.909987      17.909987    
     53200   26.6           144.7517      -3355.767       9.336602      -4131.9037      5744.9037      17.909945      17.909945      17.909945    
     53400   26.7           154.32907     -3356.3832      9.9543504     -5592.2036      5744.8631      17.909903      17.909903      17.909903    
     53600   26.8           147.0238      -3355.9106      9.4831546     -5067.4341      5744.8223      17.90986       17.90986       17.90986     
     53800   26.9           146.42709     -3355.8706      9.4446661     -4561.3014      5744.7813      17.909818      17.909818      17.909818    
     54000   27             145.0607      -3355.7809      9.3565332     -4736.9028      5744.7401      17.909775      17.909775      17.909775    
     54200   27.1           146.76106     -3355.8891      9.4662079     -4425.5535      5744.6986      17.909732      17.909732      17.909732    
     54400   27.2           153.99088     -3356.3539      9.932537      -5590.4974      5744.657       17.909689      17.909689      17.909689    
     54600   27.3           149.39063     -3356.0556      9.635817      -6117.26        5744.615       17.909645      17.909645      17.909645    
     54800   27.4           149.81483     -3356.0815      9.663178      -4519.0545      5744.5728      17.909601      17.909601      17.909601    
     55000   27.5           147.25301     -3355.9146      9.4979387     -4624.7657      5744.5304      17.909557      17.909557      17.909557    
     55200   27.6           151.75348     -3356.2034      9.788223      -3611.604       5744.4878      17.909513      17.909513      17.909513    
     55400   27.7           157.04777     -3356.5433      10.129709     -5437.4593      5744.445       17.909468      17.909468      17.909468    
     55600   27.8           157.54246     -3356.5737      10.161617     -4709.484       5744.4019      17.909423      17.909423      17.909423    
     55800   27.9           146.71433     -3355.8736      9.4631933     -5137.5746      5744.3586      17.909379      17.909379      17.909379    
     56000   28             140.80717     -3355.4909      9.0821767     -3881.2108      5744.3151      17.909333      17.909333      17.909333    
     56200   28.1           143.54185     -3355.6658      9.2585659     -4952.5833      5744.2714      17.909288      17.909288      17.909288    
     56400   28.2           147.8494      -3355.942       9.5364065     -4996.9982      5744.2274      17.909242      17.909242      17.909242    
     56600   28.3           147.30345     -3355.9052      9.501192      -5632.6281      5744.1832      17.909196      17.909196      17.909196    
     56800   28.4           151.85512     -3356.1971      9.7947788     -4036.269       5744.1388      17.90915       17.90915       17.90915     
     57000   28.5           149.52773     -3356.0453      9.6446598     -4256.7818      5744.0942      17.909104      17.909104      17.909104    
     57200   28.6           153.01101     -3356.2683      9.8693347     -4661.4491      5744.0495      17.909057      17.909057      17.909057    
     57400   28.7           158.07666     -3356.5934      10.196073     -5204.9965      5744.0045      17.909011      17.909011      17.909011    
     57600   28.8           151.34215     -3356.1573      9.7616914     -3674.558       5743.9594      17.908964      17.908964      17.908964    
     57800   28.9           153.28614     -3356.281       9.8870803     -4211.9815      5743.914       17.908916      17.908916      17.908916    
     58000   29             149.90169     -3356.061       9.6687811     -4067.1012      5743.8684      17.908869      17.908869      17.908869    
     58200   29.1           152.77595     -3356.2447      9.8541727     -4228.1425      5743.8227      17.908821      17.908821      17.908821    
     58400   29.2           142.0853      -3355.5533      9.1646173     -3106.3944      5743.7767      17.908774      17.908774      17.908774    
     58600   29.3           147.498       -3355.9008      9.5137409     -4522.7416      5743.7306      17.908726      17.908726      17.908726    
     58800   29.4           150.01413     -3356.0614      9.6760335     -5995.4415      5743.6843      17.908678      17.908678      17.908678    
     59000   29.5           143.45435     -3355.6366      9.2529224     -4794.268       5743.6378      17.908629      17.908629      17.908629    
     59200   29.6           151.34634     -3356.1439      9.7619622     -4139.2275      5743.591       17.908581      17.908581      17.908581    
     59400   29.7           149.51916     -3356.0243      9.6441075     -3055.6976      5743.544       17.908532      17.908532      17.908532    
     59600   29.8           152.29278     -3356.2014      9.8230083     -3923.8885      5743.4969      17.908483      17.908483      17.908483    
     59800   29.9           143.72136     -3355.6467      9.2701443     -4266.3197      5743.4496      17.908434      17.908434      17.908434    
     60000   30             150.31771     -3356.0705      9.6956146     -4844.8919      5743.402       17.908384      17.908384      17.908384    
     60200   30.1           144.96601     -3355.7235      9.3504254     -4667.3769      5743.3543      17.908335      17.908335      17.908335    
     60400   30.2           152.47649     -3356.2062      9.8348576     -4013.448       5743.3064      17.908285      17.908285      17.908285    
     60600   30.3           155.54031     -3356.402       10.032476     -5625.4823      5743.2582      17.908235      17.908235      17.908235    
     60800   30.4           151.72161     -3356.1539      9.7861674     -3387.9489      5743.2098      17.908185      17.908185      17.908185    
     61000   30.5           159.66711     -3356.6645      10.298658     -4060.3855      5743.1613      17.908134      17.908134      17.908134    
     61200   30.6           144.59075     -3355.6901      9.3262205     -3262.6767      5743.1126      17.908083      17.908083      17.908083    
     61400   30.7           152.66393     -3356.2092      9.8469475     -3928.8785      5743.0637      17.908033      17.908033      17.908033    
     61600   30.8           152.56296     -3356.2008      9.8404351     -3108.8493      5743.0146      17.907982      17.907982      17.907982    
     61800   30.9           150.18218     -3356.0453      9.6868725     -3150.4577      5742.9654      17.90793       17.90793       17.90793     
     62000   31             151.86775     -3356.1522      9.7955935     -5199.8496      5742.916       17.907879      17.907879      17.907879    
     62200   31.1           143.71562     -3355.6245      9.2697744     -5556.7705      5742.8663      17.907828      17.907828      17.907828    
     62400   31.2           150.01175     -3356.0288      9.6758799     -4012.6062      5742.8164      17.907776      17.907776      17.907776    
     62600   31.3           149.21919     -3355.9758      9.6247592     -3565.1003      5742.7663      17.907724      17.907724      17.907724    
     62800   31.4           151.40495     -3356.1149      9.7657423     -1923.5825      5742.7161      17.907671      17.907671      17.907671    
     63000   31.5           148.04697     -3355.8964      9.5491501     -3268.8613      5742.6657      17.907619      17.907619      17.907619    
     63200   31.6           152.03018     -3356.1513      9.8060702     -3844.6852      5742.6151      17.907566      17.907566      17.907566    
     63400   31.7           154.09013     -3356.2823      9.9389389     -3600.5554      5742.5644      17.907514      17.907514      17.907514    
     63600   31.8           149.94412     -3356.013       9.6715176     -4055.8335      5742.5135      17.907461      17.907461      17.907461    
     63800   31.9           151.07608     -3356.0841      9.7445297     -5251.3528      5742.4624      17.907408      17.907408      17.907408    
     64000   32             150.2387      -3356.0281      9.6905179     -4750.8187      5742.411       17.907354      17.907354      17.907354    
     64200   32.1           153.24316     -3356.22        9.884308      -3818.4068      5742.3594      17.907301      17.907301      17.907301    
     64400   32.2           155.26132     -3356.3482      10.014481     -3797.3665      5742.3076      17.907247      17.907247      17.907247    
     64600   32.3           145.9466      -3355.7454      9.4136742     -3036.6068      5742.2557      17.907193      17.907193      17.907193    
     64800   32.4           156.07876     -3356.3971      10.067207     -2128.946       5742.2036      17.907139      17.907139      17.907139    
     65000   32.5           150.91186     -3356.0617      9.7339377     -3183.5702      5742.1515      17.907084      17.907084      17.907084    
     65200   32.6           157.58237     -3356.49        10.164191     -4258.8008      5742.0991      17.90703       17.90703       17.90703     
     65400   32.7           148.70323     -3355.9153      9.5914793     -4747.765       5742.0466      17.906975      17.906975      17.906975    
     65600   32.8           153.98324     -3356.2538      9.9320438     -4225.558       5741.9938      17.906921      17.906921      17.906921    
     65800   32.9           153.97078     -3356.251       9.9312406     -4144.3341      5741.9409      17.906866      17.906866      17.906866    
     66000   33             149.7532      -3355.977       9.6592029     -3373.351       5741.8878      17.90681       17.90681       17.90681     
     66200   33.1           152.77926     -3356.1701      9.8543864     -4911.3104      5741.8345      17.906755      17.906755      17.906755    
     66400   33.2           151.76681     -3356.1029      9.7890828     -3151.3314      5741.781       17.906699      17.906699      17.906699    
     66600   33.3           157.90958     -3356.497       10.185296     -2469.4551      5741.7273      17.906644      17.906644      17.906644    
     66800   33.4           147.23026     -3355.8061      9.4964713     -3272.8188      5741.6736      17.906588      17.906588      17.906588    
     67000   33.5           156.10321     -3356.3764      10.068784     -3956.0792      5741.6196      17.906532      17.906532      17.906532    
     67200   33.6           154.3328      -3356.2601      9.954591      -4435.7942      5741.5655      17.906475      17.906475      17.906475    
     67400   33.7           155.6851      -3356.3453      10.041816     -3951.8218      5741.5112      17.906419      17.906419      17.906419    
     67600   33.8           157.25386     -3356.4445      10.143002     -4622.0483      5741.4568      17.906362      17.906362      17.906362    
     67800   33.9           148.91872     -3355.9048      9.6053787     -2786.2614      5741.4021      17.906305      17.906305      17.906305    
     68000   34             154.7149      -3356.2766      9.9792367     -4442.8644      5741.3473      17.906248      17.906248      17.906248    
     68200   34.1           150.79319     -3356.0215      9.7262835     -2210.4878      5741.2923      17.906191      17.906191      17.906191    
     68400   34.2           152.73577     -3356.1446      9.8515813     -3835.734       5741.2371      17.906134      17.906134      17.906134    
     68600   34.3           153.76004     -3356.2087      9.9176477     -4106.0233      5741.1818      17.906076      17.906076      17.906076    
     68800   34.4           149.78857     -3355.9504      9.6614845     -2631.2999      5741.1262      17.906019      17.906019      17.906019    
     69000   34.5           157.37428     -3356.4375      10.150769     -4253.0085      5741.0706      17.905961      17.905961      17.905961    
     69200   34.6           159.89532     -3356.5981      10.313378     -3701.6144      5741.0147      17.905903      17.905903      17.905903    
     69400   34.7           144.01498     -3355.5715      9.2890835     -2725.3267      5740.9587      17.905844      17.905844      17.905844    
     69600   34.8           158.25608     -3356.4881      10.207645     -3645.9412      5740.9025      17.905786      17.905786      17.905786    
     69800   34.9           149.60166     -3355.9276      9.6494287     -3381.8785      5740.8463      17.905728      17.905728      17.905728    
     70000   35             149.97229     -3355.9494      9.6733347     -3593.1461      5740.7898      17.905669      17.905669      17.905669    
     70200   35.1           157.7296      -3356.4476      10.173687     -2258.5836      5740.7333      17.90561       17.90561       17.90561     
     70400   35.2           147.79849     -3355.8047      9.5331226     -1568.7141      5740.6765      17.905551      17.905551      17.905551    
     70600   35.3           152.18684     -3356.0856      9.8161751     -3028.6648      5740.6197      17.905492      17.905492      17.905492    
     70800   35.4           147.9814      -3355.8122      9.5449205     -4222.3486      5740.5627      17.905433      17.905433      17.905433    
     71000   35.5           148.27571     -3355.829       9.5639034     -4987.2946      5740.5055      17.905373      17.905373      17.905373    
     71200   35.6           157.87907     -3356.4464      10.183328     -5256.0186      5740.4481      17.905314      17.905314      17.905314    
     71400   35.7           152.34499     -3356.0873      9.8263759     -3027.6813      5740.3905      17.905254      17.905254      17.905254    
     71600   35.8           147.72514     -3355.787       9.5283918     -4064.3645      5740.3327      17.905194      17.905194      17.905194    
     71800   35.9           152.21286     -3356.0743      9.8178534     -2203.0752      5740.2748      17.905133      17.905133      17.905133    
     72000   36             156.45478     -3356.3457      10.09146      -3776.161       5740.2168      17.905073      17.905073      17.905073    
     72200   36.1           158.99602     -3356.5074      10.255373     -5937.1993      5740.1586      17.905013      17.905013      17.905013    
     72400   36.2           155.51481     -3356.2807      10.030832     -3850.0422      5740.1002      17.904952      17.904952      17.904952    
     72600   36.3           151.57456     -3356.0243      9.7766824     -2528.0642      5740.0415      17.904891      17.904891      17.904891    
     72800   36.4           149.2988      -3355.8752      9.6298939     -4084.5573      5739.9828      17.90483       17.90483       17.90483     
     73000   36.5           154.78986     -3356.2271      9.9840717     -1209.2577      5739.9239      17.904769      17.904769      17.904769    
     73200   36.6           148.59497     -3355.8254      9.5844965     -3473.4838      5739.8649      17.904707      17.904707      17.904707    
     73400   36.7           152.56024     -3356.0788      9.8402597     -2502.5779      5739.8057      17.904646      17.904646      17.904646    
     73600   36.8           154.59761     -3356.208       9.9716717     -1242.995       5739.7465      17.904584      17.904584      17.904584    
     73800   36.9           147.25093     -3355.7318      9.4978045     -3121.5679      5739.6871      17.904522      17.904522      17.904522    
     74000   37             148.18845     -3355.79        9.5582754     -2803.8163      5739.6276      17.90446       17.90446       17.90446     
     74200   37.1           155.38029     -3356.2516      10.022155     -3416.501       5739.5679      17.904398      17.904398      17.904398    
     74400   37.2           148.10906     -3355.7803      9.5531545     -1891.8186      5739.5081      17.904336      17.904336      17.904336    
     74600   37.3           148.4902      -3355.8026      9.5777385     -2307.9368      5739.4481      17.904274      17.904274      17.904274    
     74800   37.4           155.51342     -3356.2533      10.030742     -2421.1236      5739.388       17.904211      17.904211      17.904211    
     75000   37.5           152.21339     -3356.0381      9.817887      -2774.8219      5739.3279      17.904149      17.904149      17.904149    
     75200   37.6           149.69646     -3355.8734      9.6555431     -3134.2148      5739.2676      17.904086      17.904086      17.904086    
     75400   37.7           152.74856     -3356.068       9.8524061     -2975.7093      5739.2072      17.904023      17.904023      17.904023    
     75600   37.8           153.66869     -3356.125       9.9117554     -3621.3563      5739.1466      17.90396       17.90396       17.90396     
     75800   37.9           153.52373     -3356.1134      9.902405      -2476.0941      5739.0858      17.903897      17.903897      17.903897    
     76000   38             160.16204     -3356.5393      10.330582     -3870.6465      5739.0249      17.903834      17.903834      17.903834    
     76200   38.1           158.32151     -3356.4182      10.211866     -3395.7691      5738.9639      17.90377       17.90377       17.90377     
     76400   38.2           148.87682     -3355.8067      9.6026757     -2690.0119      5738.9028      17.903707      17.903707      17.903707    
     76600   38.3           157.13465     -3356.337       10.135313     -2972.0326      5738.8415      17.903643      17.903643      17.903643    
     76800   38.4           155.55566     -3356.2328      10.033466     -2765.495       5738.7801      17.903579      17.903579      17.903579    
     77000   38.5           167.86481     -3357.0244      10.827416     -1642.8762      5738.7186      17.903515      17.903515      17.903515    
     77200   38.6           146.69855     -3355.6566      9.4621754     -2087.1081      5738.6571      17.903451      17.903451      17.903451    
     77400   38.7           148.19361     -3355.7507      9.558608      -1776.7593      5738.5954      17.903387      17.903387      17.903387    
     77600   38.8           148.33625     -3355.7575      9.5678089     -2309.198       5738.5336      17.903323      17.903323      17.903323    
     77800   38.9           149.80646     -3355.85        9.6626382     -3223.4151      5738.4717      17.903258      17.903258      17.903258    
     78000   39             151.66342     -3355.9675      9.7824138     -4347.4355      5738.4097      17.903194      17.903194      17.903194    
     78200   39.1           160.90004     -3356.561       10.378183     -2491.0902      5738.3475      17.903129      17.903129      17.903129    
     78400   39.2           149.69441     -3355.8357      9.6554107     -1285.9607      5738.2851      17.903064      17.903064      17.903064    
     78600   39.3           155.96503     -3356.2377      10.059871     -2950.1656      5738.2228      17.903         17.903         17.903       
     78800   39.4           153.59105     -3356.0822      9.9067476     -3084.6252      5738.1602      17.902935      17.902935      17.902935    
     79000   39.5           153.04858     -3356.0449      9.8717576     -3436.1909      5738.0976      17.902869      17.902869      17.902869    
     79200   39.6           153.71198     -3356.0854      9.9145477     -2334.4461      5738.0348      17.902804      17.902804      17.902804    
     79400   39.7           149.43979     -3355.8073      9.6389876     -399.6198       5737.9718      17.902739      17.902739      17.902739    
     79600   39.8           155.45692     -3356.193       10.027098     -1782.9684      5737.9088      17.902673      17.902673      17.902673    
     79800   39.9           147.74516     -3355.6932      9.5296827     -2508.953       5737.8457      17.902607      17.902607      17.902607    
     80000   40             154.44943     -3356.1232      9.9621138     -3314.2626      5737.7825      17.902542      17.902542      17.902542    
     80200   40.1           148.62496     -3355.7451      9.5864309     -2257.8318      5737.7191      17.902476      17.902476      17.902476    
     80400   40.2           156.52111     -3356.2521      10.095739     -2884.8064      5737.6556      17.90241       17.90241       17.90241     
     80600   40.3           142.98309     -3355.3764      9.2225252     -3134.1961      5737.5919      17.902343      17.902343      17.902343    
     80800   40.4           157.82842     -3356.3317      10.180061     -3131.9231      5737.5281      17.902277      17.902277      17.902277    
     81000   40.5           152.60831     -3355.9925      9.8433598     -1383.6576      5737.4641      17.902211      17.902211      17.902211    
     81200   40.6           150.83456     -3355.8756      9.7289517     -2237.0945      5737.4001      17.902144      17.902144      17.902144    
     81400   40.7           149.43997     -3355.7831      9.6389995     -2245.5078      5737.3359      17.902077      17.902077      17.902077    
     81600   40.8           157.63591     -3356.3094      10.167644     -2813.4627      5737.2717      17.90201       17.90201       17.90201     
     81800   40.9           159.7468      -3356.4431      10.303798     -2277.4943      5737.2073      17.901943      17.901943      17.901943    
     82000   41             150.88327     -3355.869       9.7320938     -2747.3689      5737.1428      17.901876      17.901876      17.901876    
     82200   41.1           150.9202      -3355.8689      9.7344755     -1784.7789      5737.0783      17.901809      17.901809      17.901809    
     82400   41.2           154.91672     -3356.1242      9.9922544     -2001.8738      5737.0136      17.901742      17.901742      17.901742    
     82600   41.3           149.21913     -3355.7542      9.6247551     -2400.297       5736.9489      17.901675      17.901675      17.901675    
     82800   41.4           158.78956     -3356.3692      10.242056     -1586.7706      5736.884       17.901607      17.901607      17.901607    
     83000   41.5           153.30535     -3356.0129      9.8883197     -2802.7047      5736.819       17.90154       17.90154       17.90154     
     83200   41.6           148.05054     -3355.6714      9.5493798     -1488.2206      5736.7539      17.901472      17.901472      17.901472    
     83400   41.7           153.51221     -3356.0212      9.9016623     -927.77036      5736.6888      17.901404      17.901404      17.901404    
     83600   41.8           153.56198     -3356.0219      9.9048726     -1891.969       5736.6236      17.901336      17.901336      17.901336    
     83800   41.9           154.0603      -3356.0516      9.9370143     -1812.7026      5736.5584      17.901268      17.901268      17.901268    
     84000   42             153.1687      -3355.9916      9.8795053     -651.85414      5736.493       17.9012        17.9012        17.9012      
     84200   42.1           149.84686     -3355.7747      9.6652445     -2008.7929      5736.4276      17.901132      17.901132      17.901132    
     84400   42.2           157.60188     -3356.2725      10.165449     -2383.139       5736.3621      17.901064      17.901064      17.901064    
     84600   42.3           153.0145      -3355.9742      9.8695597     -170.09664      5736.2965      17.900996      17.900996      17.900996    
     84800   42.4           153.82408     -3356.0238      9.9217784     -495.22187      5736.2308      17.900928      17.900928      17.900928    
     85000   42.5           153.23911     -3355.9836      9.8840472     -2034.6619      5736.1651      17.900859      17.900859      17.900859    
     85200   42.6           145.79251     -3355.5007      9.4037352     -2491.0636      5736.0993      17.900791      17.900791      17.900791    
     85400   42.7           157.21088     -3356.2348      10.14023      -3721.0356      5736.0334      17.900722      17.900722      17.900722    
     85600   42.8           143.80962     -3355.3678      9.2758376     -898.13266      5735.9674      17.900654      17.900654      17.900654    
     85800   42.9           155.21625     -3356.1013      10.011574     -1132.7226      5735.9013      17.900585      17.900585      17.900585    
     86000   43             146.14121     -3355.5132      9.4262268     -1222.0325      5735.8351      17.900516      17.900516      17.900516    
     86200   43.1           159.08732     -3356.3459      10.261261     -1673.0753      5735.7688      17.900447      17.900447      17.900447    
     86400   43.2           151.46689     -3355.8518      9.7697372     -1505.2954      5735.7025      17.900378      17.900378      17.900378    
     86600   43.3           156.5676      -3356.1783      10.098737     -920.84631      5735.6361      17.900309      17.900309      17.900309    
     86800   43.4           153.65127     -3355.9876      9.910632      -2158.3576      5735.5696      17.90024       17.90024       17.90024     
     87000   43.5           147.47067     -3355.5865      9.5119781     -2040.1349      5735.503       17.900171      17.900171      17.900171    
     87200   43.6           151.81521     -3355.8642      9.7922042     -363.79147      5735.4364      17.900101      17.900101      17.900101    
     87400   43.7           156.76468     -3356.181       10.11145      -132.72748      5735.3697      17.900032      17.900032      17.900032    
     87600   43.8           152.49793     -3355.9031      9.8362405     -2509.7736      5735.303       17.899963      17.899963      17.899963    
     87800   43.9           155.34549     -3356.0844      10.01991      -3261.221       5735.2362      17.899893      17.899893      17.899893    
     88000   44             153.53295     -3355.9649      9.9030003     -299.62012      5735.1692      17.899823      17.899823      17.899823    
     88200   44.1           156.13989     -3356.1306      10.071149     -1252.7852      5735.1022      17.899754      17.899754      17.899754    
     88400   44.2           154.50927     -3356.0228      9.9659733     -1360.3008      5735.0351      17.899684      17.899684      17.899684    
     88600   44.3           151.44389     -3355.8226      9.7682541     -1220.7242      5734.968       17.899614      17.899614      17.899614    
     88800   44.4           150.81481     -3355.7794      9.7276777     -1702.2343      5734.9008      17.899544      17.899544      17.899544    
     89000   44.5           144.93817     -3355.3978      9.3486295     -142.50633      5734.8336      17.899474      17.899474      17.899474    
     89200   44.6           148.36419     -3355.6163      9.5696108     -2028.8893      5734.7663      17.899404      17.899404      17.899404    
     89400   44.7           157.6782      -3356.2146      10.170372     -2167.8352      5734.6989      17.899334      17.899334      17.899334    
     89600   44.8           154.52409     -3356.0086      9.9669291     -1137.5814      5734.6314      17.899264      17.899264      17.899264    
     89800   44.9           154.24813     -3355.9883      9.9491294     -1305.5266      5734.5639      17.899194      17.899194      17.899194    
     90000   45             147.89309     -3355.5758      9.5392241     -83.148799      5734.4963      17.899123      17.899123      17.899123    
     90200   45.1           159.24374     -3356.3054      10.27135      -1517.4079      5734.4287      17.899053      17.899053      17.899053    
     90400   45.2           148.21501     -3355.5915      9.5599886     -889.9658       5734.3611      17.898983      17.898983      17.898983    
     90600   45.3           156.38497     -3356.116       10.086958     -879.45402      5734.2934      17.898912      17.898912      17.898912    
     90800   45.4           144.74811     -3355.3627      9.3363704     -1701.2678      5734.2256      17.898842      17.898842      17.898842    
     91000   45.5           154.80333     -3356.0088      9.9849406     -1545.5744      5734.1578      17.898771      17.898771      17.898771    
     91200   45.6           152.15936     -3355.8357      9.8144021     -753.61224      5734.0898      17.8987        17.8987        17.8987      
     91400   45.7           155.36829     -3356.0402      10.021381     -1826.3131      5734.0219      17.89863       17.89863       17.89863     
     91600   45.8           158.9919      -3356.2714      10.255107     -441.22337      5733.9539      17.898559      17.898559      17.898559    
     91800   45.9           157.42628     -3356.1678      10.154123     -2547.2414      5733.8858      17.898488      17.898488      17.898488    
     92000   46             154.9318      -3356.0044      9.9932268     -2176.79        5733.8177      17.898417      17.898417      17.898417    
     92200   46.1           153.81857     -3355.9301      9.9214229     -1023.0792      5733.7495      17.898346      17.898346      17.898346    
     92400   46.2           149.57011     -3355.6535      9.6473937     -1509.8181      5733.6813      17.898275      17.898275      17.898275    
     92600   46.3           144.54844     -3355.3271      9.3234918     -916.76147      5733.613       17.898204      17.898204      17.898204    
     92800   46.4           157.64363     -3356.1692      10.168142      223.64668      5733.5446      17.898133      17.898133      17.898133    
     93000   46.5           149.01812     -3355.6102      9.6117898     -1504.2317      5733.4763      17.898062      17.898062      17.898062    
     93200   46.6           153.9238      -3355.9242      9.9282098     -147.16698      5733.4079      17.897991      17.897991      17.897991    
     93400   46.7           161.4176      -3356.405       10.411566     -824.96152      5733.3394      17.89792       17.89792       17.89792     
     93600   46.8           158.18226     -3356.1936      10.202884     -465.98369      5733.271       17.897848      17.897848      17.897848    
     93800   46.9           152.95993     -3355.8543      9.8660398      698.51375      5733.2025      17.897777      17.897777      17.897777    
     94000   47             157.25845     -3356.1291      10.143298     -1662.3022      5733.1339      17.897706      17.897706      17.897706    
     94200   47.1           154.47703     -3355.9471      9.9638941     -455.42302      5733.0653      17.897634      17.897634      17.897634    
     94400   47.2           158.98982     -3356.2357      10.254972     -698.93321      5732.9967      17.897563      17.897563      17.897563    
     94600   47.3           156.80406     -3356.0921      10.11399       96.524278      5732.928       17.897491      17.897491      17.897491    
     94800   47.4           155.94716     -3356.0341      10.058719      720.97543      5732.8594      17.89742       17.89742       17.89742     
     95000   47.5           152.04362     -3355.7798      9.8069368     -838.38414      5732.7908      17.897349      17.897349      17.897349    
     95200   47.6           150.21613     -3355.6595      9.6890623      30.641952      5732.7222      17.897277      17.897277      17.897277    
     95400   47.7           152.33768     -3355.7937      9.8259042     -1847.5336      5732.6535      17.897206      17.897206      17.897206    
     95600   47.8           152.45529     -3355.7988      9.8334901      378.81614      5732.5848      17.897134      17.897134      17.897134    
     95800   47.9           154.45042     -3355.9249      9.9621774     -705.62481      5732.5161      17.897063      17.897063      17.897063    
     96000   48             149.52928     -3355.6048      9.6447603      4.2209186      5732.4474      17.896991      17.896991      17.896991    
     96200   48.1           158.55473     -3356.1845      10.226909     -644.84632      5732.3787      17.89692       17.89692       17.89692     
     96400   48.2           156.39201     -3356.0424      10.087412      1405.4438      5732.3099      17.896848      17.896848      17.896848    
     96600   48.3           155.30025     -3355.9694      10.016993     -1270.4129      5732.2412      17.896777      17.896777      17.896777    
     96800   48.4           152.91518     -3355.8131      9.8631531     -1905.6968      5732.1724      17.896705      17.896705      17.896705    
     97000   48.5           154.41517     -3355.9073      9.9599037      655.90008      5732.1035      17.896633      17.896633      17.896633    
     97200   48.6           154.54788     -3355.9133      9.9684639     -691.96791      5732.0347      17.896562      17.896562      17.896562    
     97400   48.7           156.11527     -3356.012       10.069562     -56.671754      5731.9659      17.89649       17.89649       17.89649     
     97600   48.8           153.77851     -3355.8586      9.9188385      204.75794      5731.897       17.896418      17.896418      17.896418    
     97800   48.9           157.74261     -3356.1117      10.174526      209.00787      5731.8281      17.896347      17.896347      17.896347    
     98000   49             161.07798     -3356.3243      10.389661     -38.4189        5731.7593      17.896275      17.896275      17.896275    
     98200   49.1           151.81052     -3355.7239      9.7919021      68.297999      5731.6904      17.896203      17.896203      17.896203    
     98400   49.2           154.66433     -3355.9056      9.9759748     -2861.7405      5731.6216      17.896132      17.896132      17.896132    
     98600   49.3           151.41601     -3355.6936      9.7664559     -304.90624      5731.5526      17.89606       17.89606       17.89606     
     98800   49.4           159.02356     -3356.1818      10.257149      730.08723      5731.4837      17.895988      17.895988      17.895988    
     99000   49.5           153.06152     -3355.7946      9.8725925      80.775822      5731.4148      17.895917      17.895917      17.895917    
     99200   49.6           152.93309     -3355.7838      9.8643088     -1156.4327      5731.3459      17.895845      17.895845      17.895845    
     99400   49.7           151.36854     -3355.6803      9.7633935      520.37288      5731.2769      17.895773      17.895773      17.895773    
     99600   49.8           149.17609     -3355.5364      9.6219793      603.09181      5731.208       17.895701      17.895701      17.895701    
     99800   49.9           152.5114      -3355.749       9.8371092      8.6087373      5731.1391      17.89563       17.89563       17.89563     
    100000   50             148.97505     -3355.5184      9.6090114      349.11555      5731.0701      17.895558      17.895558      17.895558    
    100200   50.1           149.33933     -3355.5394      9.6325082      1951.962       5731.0012      17.895486      17.895486      17.895486    
    100400   50.2           156.20099     -3355.9794      10.075091     -690.41662      5730.9323      17.895414      17.895414      17.895414    
    100600   50.3           157.24543     -3356.0442      10.142458      1135.3218      5730.8633      17.895343      17.895343      17.895343    
    100800   50.4           154.20529     -3355.8456      9.9463664     -287.13171      5730.7944      17.895271      17.895271      17.895271    
    101000   50.5           158.08589     -3356.0934      10.196668      708.97756      5730.7256      17.895199      17.895199      17.895199    
    101200   50.6           154.45928     -3355.857       9.9627488     -812.48391      5730.6567      17.895128      17.895128      17.895128    
    101400   50.7           155.04018     -3355.8919      10.000217      530.60546      5730.5878      17.895056      17.895056      17.895056    
    101600   50.8           149.93035     -3355.5598      9.6706292     -777.20798      5730.519       17.894984      17.894984      17.894984    
    101800   50.9           144.9887      -3355.2386      9.3518892      960.83645      5730.4501      17.894912      17.894912      17.894912    
    102000   51             153.51078     -3355.7858      9.9015698      1060.141       5730.3812      17.894841      17.894841      17.894841    
    102200   51.1           155.22136     -3355.8935      10.011903     -138.45101      5730.3123      17.894769      17.894769      17.894769    
    102400   51.2           153.70761     -3355.7934      9.914266       648.27534      5730.2435      17.894697      17.894697      17.894697    
    102600   51.3           154.60332     -3355.8487      9.9720396      140.99162      5730.1747      17.894626      17.894626      17.894626    
    102800   51.4           149.70543     -3355.5302      9.656122       1247.6951      5730.106       17.894554      17.894554      17.894554    
    103000   51.5           153.11719     -3355.7478      9.8761834      765.10863      5730.0372      17.894483      17.894483      17.894483    
    103200   51.6           154.51186     -3355.8351      9.9661404      1258.6257      5729.9685      17.894411      17.894411      17.894411    
    103400   51.7           156.8956      -3355.9864      10.119894     -582.05484      5729.8999      17.89434       17.89434       17.89434     
    103600   51.8           156.37118     -3355.9501      10.086068     -1446.5096      5729.8313      17.894268      17.894268      17.894268    
    103800   51.9           155.71295     -3355.9052      10.043612      2167.3608      5729.7626      17.894197      17.894197      17.894197    
    104000   52             147.6009      -3355.3794      9.5203778      256.25118      5729.694       17.894125      17.894125      17.894125    
    104200   52.1           155.67907     -3355.8979      10.041427      1089.0741      5729.6254      17.894054      17.894054      17.894054    
    104400   52.2           160.37942     -3356.1987      10.344603      936.12455      5729.5568      17.893983      17.893983      17.893983    
    104600   52.3           154.43315     -3355.8126      9.9610636      1295.8257      5729.4883      17.893911      17.893911      17.893911    
    104800   52.4           152.74742     -3355.7013      9.8523324      585.9125       5729.4199      17.89384       17.89384       17.89384     
    105000   52.5           158.43668     -3356.0658      10.219294     -28.569159      5729.3514      17.893769      17.893769      17.893769    
    105200   52.6           161.62421     -3356.269       10.424893      110.77968      5729.283       17.893698      17.893698      17.893698    
    105400   52.7           161.12265     -3356.2341      10.392542      2479.1311      5729.2146      17.893626      17.893626      17.893626    
    105600   52.8           153.80258     -3355.7594      9.9203911      992.86829      5729.1463      17.893555      17.893555      17.893555    
    105800   52.9           156.07993     -3355.9038      10.067282      2195.0681      5729.078       17.893484      17.893484      17.893484    
    106000   53             155.60513     -3355.8706      10.036658     -1164.4238      5729.0098      17.893413      17.893413      17.893413    
    106200   53.1           158.78029     -3356.0731      10.241458      17.078469      5728.9416      17.893342      17.893342      17.893342    
    106400   53.2           160.35966     -3356.1725      10.343328     -35.242616      5728.8734      17.893271      17.893271      17.893271    
    106600   53.3           158.66207     -3356.0605      10.233832      296.29017      5728.8052      17.8932        17.8932        17.8932      
    106800   53.4           151.70247     -3355.6091      9.7849323      949.71815      5728.7371      17.893129      17.893129      17.893129    
    107000   53.5           153.52802     -3355.7245      9.9026821     -136.28472      5728.669       17.893058      17.893058      17.893058    
    107200   53.6           165.18964     -3356.4742      10.654866      1004.8705      5728.6009      17.892987      17.892987      17.892987    
    107400   53.7           157.57258     -3355.9804      10.163559      1490.4821      5728.5328      17.892917      17.892917      17.892917    
    107600   53.8           155.00046     -3355.812       9.9976556      140.0375       5728.4649      17.892846      17.892846      17.892846    
    107800   53.9           156.89916     -3355.932       10.120123      218.37124      5728.397       17.892775      17.892775      17.892775    
    108000   54             150.21212     -3355.4982      9.6888041      973.5315       5728.3291      17.892704      17.892704      17.892704    
    108200   54.1           149.19944     -3355.4304      9.623485       1752.6937      5728.2613      17.892634      17.892634      17.892634    
    108400   54.2           154.5654      -3355.7741      9.969594       1965.0695      5728.1935      17.892563      17.892563      17.892563    
    108600   54.3           161.60964     -3356.2261      10.423953      0.72878909     5728.1257      17.892493      17.892493      17.892493    
    108800   54.4           148.08625     -3355.3513      9.5516834      1276.7902      5728.058       17.892422      17.892422      17.892422    
    109000   54.5           157.27116     -3355.9413      10.144117      160.50502      5727.9903      17.892352      17.892352      17.892352    
    109200   54.6           153.51628     -3355.6966      9.9019245      1873.5262      5727.9226      17.892281      17.892281      17.892281    
    109400   54.7           159.41256     -3356.0746      10.28224       976.50691      5727.855       17.892211      17.892211      17.892211    
    109600   54.8           151.89358     -3355.5871      9.7972594      623.60272      5727.7874      17.89214       17.89214       17.89214     
    109800   54.9           154.57236     -3355.7575      9.970043       1423.9059      5727.7199      17.89207       17.89207       17.89207     
    110000   55             157.54276     -3355.9467      10.161636      1581.1016      5727.6524      17.892         17.892         17.892       
    110200   55.1           158.60626     -3356.0128      10.230233      2545.7074      5727.585       17.89193       17.89193       17.89193     
    110400   55.2           150.55768     -3355.4911      9.7110928     -223.85547      5727.5176      17.891859      17.891859      17.891859    
    110600   55.3           158.08888     -3355.9746      10.196861      1207.4241      5727.4503      17.891789      17.891789      17.891789    
    110800   55.4           154.18793     -3355.7205      9.9452465      2299.5375      5727.3831      17.891719      17.891719      17.891719    
    111000   55.5           157.79608     -3355.9508      10.177976      1406.95        5727.3159      17.891649      17.891649      17.891649    
    111200   55.6           147.15275     -3355.2618      9.4914718      2107.7639      5727.2488      17.891579      17.891579      17.891579    
    111400   55.7           150.64828     -3355.4849      9.7169367      287.62158      5727.1817      17.89151       17.89151       17.89151     
    111600   55.8           156.9998      -3355.8922      10.126615      513.94973      5727.1147      17.89144       17.89144       17.89144     
    111800   55.9           153.74954     -3355.68        9.9169703      2286.395       5727.0477      17.89137       17.89137       17.89137     
    112000   56             161.41772     -3356.1723      10.411574      1200.8114      5726.9809      17.891301      17.891301      17.891301    
    112200   56.1           163.50852     -3356.3048      10.546433      1023.0412      5726.9141      17.891231      17.891231      17.891231    
    112400   56.2           159.72573     -3356.0583      10.302439      1011.5117      5726.8474      17.891162      17.891162      17.891162    
    112600   56.3           159.41497     -3356.036       10.282395      427.15092      5726.7807      17.891092      17.891092      17.891092    
    112800   56.4           150.37012     -3355.45        9.698995       2807.898       5726.7141      17.891023      17.891023      17.891023    
    113000   56.5           158.94057     -3356.0005      10.251796      2848.0256      5726.6476      17.890953      17.890953      17.890953    
    113200   56.6           152.81093     -3355.6026      9.8564293      606.24658      5726.5811      17.890884      17.890884      17.890884    
    113400   56.7           154.46181     -3355.7068      9.9629124      1976.9657      5726.5148      17.890815      17.890815      17.890815    
    113600   56.8           148.74648     -3355.3356      9.5942691      2029.3728      5726.4484      17.890746      17.890746      17.890746    
    113800   56.9           151.67497     -3355.5222      9.7831591      1232.15        5726.3822      17.890677      17.890677      17.890677    
    114000   57             148.67142     -3355.326       9.5894277      2092.671       5726.3161      17.890608      17.890608      17.890608    
    114200   57.1           155.82585     -3355.7851      10.050894      902.73337      5726.25        17.890539      17.890539      17.890539    
    114400   57.2           159.76966     -3356.0371      10.305273      1361.5661      5726.1839      17.890471      17.890471      17.890471    
    114600   57.3           156.73384     -3355.839       10.10946       1423           5726.118       17.890402      17.890402      17.890402    
    114800   57.4           165.1693      -3356.3807      10.653554      3238.1434      5726.0521      17.890333      17.890333      17.890333    
    115000   57.5           156.62313     -3355.8269      10.102319      2645.7798      5725.9864      17.890265      17.890265      17.890265    
    115200   57.6           152.68509     -3355.5705      9.8483122      516.31326      5725.9208      17.890197      17.890197      17.890197    
    115400   57.7           156.26985     -3355.7995      10.079532      1385.7008      5725.8552      17.890128      17.890128      17.890128    
    115600   57.8           160.47323     -3356.0682      10.350654      1466.6225      5725.7896      17.89006       17.89006       17.89006     
    115800   57.9           156.37318     -3355.8014      10.086197      1249.2747      5725.7242      17.889992      17.889992      17.889992    
    116000   58             154.76282     -3355.6951      9.9823277      3142.9662      5725.6588      17.889924      17.889924      17.889924    
    116200   58.1           159.54251     -3356.0011      10.290621      1891.287       5725.5936      17.889856      17.889856      17.889856    
    116400   58.2           152.39052     -3355.5373      9.8293126      2587.8304      5725.5284      17.889788      17.889788      17.889788    
    116600   58.3           164.28374     -3356.3021      10.596435      2420.2948      5725.4634      17.88972       17.88972       17.88972     
    116800   58.4           150.34467     -3355.4005      9.6973533      3433.8872      5725.3984      17.889652      17.889652      17.889652    
    117000   58.5           156.73763     -3355.8106      10.109705      1749.278       5725.3335      17.889585      17.889585      17.889585    
    117200   58.6           160.63149     -3356.0594      10.360861      1498.1184      5725.2687      17.889517      17.889517      17.889517    
    117400   58.7           156.64275     -3355.7997      10.103585      1708.7064      5725.2041      17.88945       17.88945       17.88945     
    117600   58.8           151.63702     -3355.4744      9.7807111      2387.7824      5725.1396      17.889383      17.889383      17.889383    
    117800   58.9           152.58309     -3355.5331      9.841733       1047.507       5725.0751      17.889316      17.889316      17.889316    
    118000   59             158.6274      -3355.9207      10.231596      2985.7658      5725.0107      17.889249      17.889249      17.889249    
    118200   59.1           158.82687     -3355.9311      10.244462      126.52406      5724.9464      17.889182      17.889182      17.889182    
    118400   59.2           151.43858     -3355.4522      9.7679115      2434.1101      5724.8822      17.889115      17.889115      17.889115    
    118600   59.3           155.73735     -3355.7272      10.045185      1913.1583      5724.8181      17.889048      17.889048      17.889048    
    118800   59.4           154.39514     -3355.6382      9.9586117      1893.3328      5724.7541      17.888981      17.888981      17.888981    
    119000   59.5           163.69574     -3356.2358      10.558508      1418.4773      5724.6902      17.888915      17.888915      17.888915    
    119200   59.6           150.40807     -3355.3763      9.7014427      2384.6568      5724.6264      17.888848      17.888848      17.888848    
    119400   59.7           156.35475     -3355.7575      10.085008      2522.9613      5724.5627      17.888782      17.888782      17.888782    
    119600   59.8           157.95169     -3355.8582      10.188013      2190.415       5724.4991      17.888716      17.888716      17.888716    
    119800   59.9           158.88106     -3355.9158      10.247957      1564.2236      5724.4356      17.88865       17.88865       17.88865     
    120000   60             157.83984     -3355.8464      10.180798      2277.9954      5724.3722      17.888584      17.888584      17.888584    
    120200   60.1           154.6673      -3355.6393      9.9761665      3313.2862      5724.3089      17.888518      17.888518      17.888518    
    120400   60.2           162.45273     -3356.1392      10.478333      2754.329       5724.2458      17.888452      17.888452      17.888452    
    120600   60.3           153.40505     -3355.5532      9.8947504      1803.8054      5724.1827      17.888386      17.888386      17.888386    
    120800   60.4           157.55531     -3355.8186      10.162446      3316.7937      5724.1197      17.888321      17.888321      17.888321    
    121000   60.5           160.93316     -3356.0342      10.38032       937.64736      5724.0569      17.888255      17.888255      17.888255    
    121200   60.6           162.53541     -3356.1352      10.483666      1840.3363      5723.9942      17.88819       17.88819       17.88819     
    121400   60.7           155.28512     -3355.6652      10.016017      1766.4952      5723.9315      17.888125      17.888125      17.888125    
    121600   60.8           160.28121     -3355.9851      10.338268      2401.5469      5723.869       17.888059      17.888059      17.888059    
    121800   60.9           156.4092      -3355.7329      10.088521      2736.0637      5723.8066      17.887994      17.887994      17.887994    
    122000   61             162.00499     -3356.0915      10.449454      3313.3519      5723.7443      17.88793       17.88793       17.88793     
    122200   61.1           162.38744     -3356.114       10.474122      437.75721      5723.6822      17.887865      17.887865      17.887865    
    122400   61.2           150.68981     -3355.3571      9.7196152      2064.6242      5723.6201      17.8878        17.8878        17.8878      
    122600   61.3           152.94955     -3355.5005      9.8653702      3405.1596      5723.5582      17.887736      17.887736      17.887736    
    122800   61.4           157.70338     -3355.8049      10.171996      2380.8081      5723.4964      17.887671      17.887671      17.887671    
    123000   61.5           163.25135     -3356.1603      10.529844      2566.8173      5723.4347      17.887607      17.887607      17.887607    
    123200   61.6           162.12497     -3356.0855      10.457193      2112.0034      5723.3732      17.887543      17.887543      17.887543    
    123400   61.7           154.54603     -3355.5942      9.9683443      2768.9484      5723.3117      17.887479      17.887479      17.887479    
    123600   61.8           161.36616     -3356.0318      10.408248      3283.7787      5723.2504      17.887415      17.887415      17.887415    
    123800   61.9           158.99748     -3355.8767      10.255467      3317.6363      5723.1892      17.887351      17.887351      17.887351    
    124000   62             157.82154     -3355.7985      10.179618      2124.2387      5723.1281      17.887288      17.887288      17.887288    
    124200   62.1           158.5666      -3355.8442      10.227675      3160.255       5723.0672      17.887224      17.887224      17.887224    
    124400   62.2           152.68861     -3355.4628      9.8485395      2467.5086      5723.0064      17.887161      17.887161      17.887161    
    124600   62.3           152.04961     -3355.4192      9.8073235      3356.5939      5722.9457      17.887098      17.887098      17.887098    
    124800   62.4           153.72965     -3355.5253      9.9156871      1454.5629      5722.8852      17.887034      17.887034      17.887034    
    125000   62.5           157.43476     -3355.762       10.15467       3639.6851      5722.8248      17.886972      17.886972      17.886972    
    125200   62.6           156.58912     -3355.7051      10.100125      3051.2555      5722.7645      17.886909      17.886909      17.886909    
    125400   62.7           157.20577     -3355.7425      10.1399        3193.2631      5722.7043      17.886846      17.886846      17.886846    
    125600   62.8           152.91561     -3355.4635      9.8631808      2040.4913      5722.6443      17.886784      17.886784      17.886784    
    125800   62.9           155.79584     -3355.647       10.048958      3582.0592      5722.5845      17.886721      17.886721      17.886721    
    126000   63             160.5242      -3355.9496      10.353941      1879.9673      5722.5248      17.886659      17.886659      17.886659    
    126200   63.1           159.28771     -3355.8677      10.274187      1672.3247      5722.4651      17.886597      17.886597      17.886597    
    126400   63.2           160.24097     -3355.9269      10.335673      3700.7127      5722.4056      17.886535      17.886535      17.886535    
    126600   63.3           157.12016     -3355.7232      10.134378      2821.8315      5722.3463      17.886473      17.886473      17.886473    
    126800   63.4           156.64109     -3355.69        10.103478      2712.0956      5722.2871      17.886411      17.886411      17.886411    
    127000   63.5           153.63927     -3355.4941      9.9098579      2279.5191      5722.228       17.88635       17.88635       17.88635     
    127200   63.6           155.77427     -3355.6295      10.047567      2591.3047      5722.169       17.886288      17.886288      17.886288    
    127400   63.7           159.46371     -3355.8652      10.285539      4071.61        5722.1102      17.886227      17.886227      17.886227    
    127600   63.8           160.6511      -3355.9395      10.362127      4690.7708      5722.0516      17.886166      17.886166      17.886166    
    127800   63.9           158.43786     -3355.7944      10.21937       2067.952       5721.9931      17.886105      17.886105      17.886105    
    128000   64             162.88678     -3356.0791      10.50633       1874.5763      5721.9348      17.886044      17.886044      17.886044    
    128200   64.1           159.65215     -3355.8682      10.297694      2794.9165      5721.8766      17.885984      17.885984      17.885984    
    128400   64.2           163.41495     -3356.1086      10.540397      4025.4213      5721.8185      17.885923      17.885923      17.885923    
    128600   64.3           154.12615     -3355.507       9.941262       4330.8752      5721.7606      17.885863      17.885863      17.885863    
    128800   64.4           155.80377     -3355.613       10.049469      3135.6789      5721.7028      17.885803      17.885803      17.885803    
    129000   64.5           159.80331     -3355.8687      10.307443      4827.1287      5721.6453      17.885743      17.885743      17.885743    
    129200   64.6           156.41433     -3355.6478      10.088851      2421.855       5721.5879      17.885683      17.885683      17.885683    
    129400   64.7           164.61698     -3356.1746      10.617929      2852.6836      5721.5306      17.885623      17.885623      17.885623    
    129600   64.8           158.34972     -3355.768       10.213686      3914.1661      5721.4735      17.885564      17.885564      17.885564    
    129800   64.9           153.64739     -3355.4624      9.9103816      3600.7672      5721.4165      17.885504      17.885504      17.885504    
    130000   65             158.20942     -3355.7544      10.204636      2411.1971      5721.3597      17.885445      17.885445      17.885445    
    130200   65.1           159.73576     -3355.8505      10.303086      3231.9947      5721.303       17.885386      17.885386      17.885386    
    130400   65.2           155.30478     -3355.5625      10.017285      3528.4567      5721.2465      17.885327      17.885327      17.885327    
    130600   65.3           155.60617     -3355.5797      10.036724      4342.395       5721.1901      17.885268      17.885268      17.885268    
    130800   65.4           159.46413     -3355.8262      10.285566      2206.2254      5721.1339      17.88521       17.88521       17.88521     
    131000   65.5           158.51768     -3355.7629      10.224519      2443.1159      5721.0779      17.885151      17.885151      17.885151    
    131200   65.6           153.68607     -3355.449       9.9128762      5102.0944      5721.0219      17.885093      17.885093      17.885093    
    131400   65.7           160.29273     -3355.8728      10.339011      2459.0558      5720.9661      17.885035      17.885035      17.885035    
    131600   65.8           156.15479     -3355.6035      10.072111      4134.4489      5720.9105      17.884977      17.884977      17.884977    
    131800   65.9           156.29282     -3355.6102      10.081014      4523.0391      5720.8551      17.884919      17.884919      17.884919    
    132000   66             148.43284     -3355.1008      9.5740387      5138.2727      5720.7999      17.884862      17.884862      17.884862    
    132200   66.1           157.59228     -3355.6894      10.16483       2237.524       5720.7449      17.884804      17.884804      17.884804    
    132400   66.2           154.3315      -3355.4768      9.9545073      4833.0153      5720.69        17.884747      17.884747      17.884747    
    132600   66.3           159.867       -3355.8316      10.311551      3163.8722      5720.6353      17.88469       17.88469       17.88469     
    132800   66.4           149.48458     -3355.1596      9.6418766      3611.1681      5720.5807      17.884633      17.884633      17.884633    
    133000   66.5           160.64362     -3355.8772      10.361644      1964.1193      5720.5262      17.884576      17.884576      17.884576    
    133200   66.6           159.48045     -3355.7999      10.286618      4169.8409      5720.4719      17.88452       17.88452       17.88452     
    133400   66.7           164.47963     -3356.12        10.60907       3252.0336      5720.4178      17.884463      17.884463      17.884463    
    133600   66.8           161.36574     -3355.9169      10.408221      3126.6733      5720.3638      17.884407      17.884407      17.884407    
    133800   66.9           160.60767     -3355.8657      10.359325      1638.5743      5720.3101      17.884351      17.884351      17.884351    
    134000   67             162.48316     -3355.9844      10.480296      4754.6929      5720.2564      17.884295      17.884295      17.884295    
    134200   67.1           157.66483     -3355.6713      10.169509      2834.3262      5720.203       17.88424       17.88424       17.88424     
    134400   67.2           168.05443     -3356.3392      10.839647      4559.1997      5720.1497      17.884184      17.884184      17.884184    
    134600   67.3           156.00579     -3355.5597      10.0625        4909.6219      5720.0966      17.884129      17.884129      17.884129    
    134800   67.4           160.82217     -3355.8681      10.37316       3734.1081      5720.0438      17.884074      17.884074      17.884074    
    135000   67.5           156.9624      -3355.6168      10.124203      3637.4747      5719.9911      17.884019      17.884019      17.884019    
    135200   67.6           154.46225     -3355.4532      9.9629408      3959.3745      5719.9385      17.883964      17.883964      17.883964    
    135400   67.7           159.43255     -3355.7716      10.283529      3070.1322      5719.8862      17.883909      17.883909      17.883909    
    135600   67.8           155.50351     -3355.5159      10.030103      4846.2503      5719.834       17.883855      17.883855      17.883855    
    135800   67.9           157.43491     -3355.6382      10.154679      3518.9279      5719.782       17.883801      17.883801      17.883801    
    136000   68             159.2827      -3355.7551      10.273864      3415.5026      5719.7302      17.883747      17.883747      17.883747    
    136200   68.1           158.42033     -3355.6973      10.21824       3309.0074      5719.6785      17.883693      17.883693      17.883693    
    136400   68.2           159.27341     -3355.7499      10.273265      4959.3619      5719.627       17.883639      17.883639      17.883639    
    136600   68.3           157.77831     -3355.6512      10.176829      3877.5337      5719.5757      17.883586      17.883586      17.883586    
    136800   68.4           161.67207     -3355.9         10.42798       3641.8552      5719.5247      17.883533      17.883533      17.883533    
    137000   68.5           156.57518     -3355.5689      10.099226      3756.2122      5719.4738      17.88348       17.88348       17.88348     
    137200   68.6           156.8649      -3355.5853      10.117913      4474.6816      5719.4231      17.883427      17.883427      17.883427    
    137400   68.7           162.66306     -3355.9571      10.4919        6269.8588      5719.3725      17.883374      17.883374      17.883374    
    137600   68.8           159.38858     -3355.7435      10.280693      4383.5207      5719.3222      17.883322      17.883322      17.883322    
    137800   68.9           158.7048      -3355.6972      10.236588      3708.4772      5719.2721      17.883269      17.883269      17.883269    
    138000   69             148.84742     -3355.0591      9.6007794      5289.813       5719.2221      17.883217      17.883217      17.883217    
    138200   69.1           152.63256     -3355.3009      9.844924       5378.5512      5719.1724      17.883165      17.883165      17.883165    
    138400   69.2           154.11085     -3355.394       9.940275       3422.7685      5719.1228      17.883114      17.883114      17.883114    
    138600   69.3           154.42679     -3355.412       9.9606533      3343.8487      5719.0735      17.883062      17.883062      17.883062    
    138800   69.4           154.81153     -3355.4346      9.9854694      3517.1584      5719.0243      17.883011      17.883011      17.883011    
    139000   69.5           167.20125     -3356.2316      10.784616      4309.656       5718.9753      17.88296       17.88296       17.88296     
    139200   69.6           157.49549     -3355.6031      10.158587      6058.2895      5718.9265      17.882909      17.882909      17.882909    
    139400   69.7           163.28636     -3355.9744      10.532103      2741.6512      5718.878       17.882859      17.882859      17.882859    
    139600   69.8           156.60965     -3355.5414      10.10145       3338.301       5718.8296      17.882808      17.882808      17.882808    
    139800   69.9           165.57666     -3356.1176      10.679829      4530.8433      5718.7813      17.882758      17.882758      17.882758    
    140000   70             158.29125     -3355.6453      10.209914      5680.3922      5718.7333      17.882708      17.882708      17.882708    
    140200   70.1           157.97871     -3355.6228      10.189755      5710.8978      5718.6855      17.882658      17.882658      17.882658    
    140400   70.2           155.54209     -3355.4633      10.032591      4644.3225      5718.638       17.882608      17.882608      17.882608    
    140600   70.3           154.03039     -3355.3635      9.9350855      3671.5844      5718.5906      17.882559      17.882559      17.882559    
    140800   70.4           160.10579     -3355.7531      10.326954      4396.3157      5718.5435      17.88251       17.88251       17.88251     
    141000   70.5           157.17827     -3355.562       10.138126      4422.3437      5718.4966      17.882461      17.882461      17.882461    
    141200   70.6           157.67619     -3355.5918      10.170242      2542.8895      5718.4499      17.882412      17.882412      17.882412    
    141400   70.7           160.29055     -3355.7582      10.338871      3010.7982      5718.4034      17.882364      17.882364      17.882364    
    141600   70.8           159.63492     -3355.7136      10.296582      4901.5771      5718.357       17.882316      17.882316      17.882316    
    141800   70.9           157.57469     -3355.5784      10.163695      4529.7601      5718.3108      17.882267      17.882267      17.882267    
    142000   71             155.04722     -3355.413       10.000672      5675.791       5718.2649      17.88222       17.88222       17.88222     
    142200   71.1           160.28552     -3355.7486      10.338546      5175.7641      5718.2192      17.882172      17.882172      17.882172    
    142400   71.2           162.23395     -3355.872       10.464222      3348.438       5718.1738      17.882125      17.882125      17.882125    
    142600   71.3           158.48802     -3355.6281      10.222606      3215.0843      5718.1285      17.882077      17.882077      17.882077    
    142800   71.4           165.12245     -3356.0537      10.650532      3480.341       5718.0834      17.88203       17.88203       17.88203     
    143000   71.5           157.54407     -3355.5627      10.16172       5255.022       5718.0385      17.881984      17.881984      17.881984    
    143200   71.6           166.43917     -3356.1341      10.735462      4240.5848      5717.9938      17.881937      17.881937      17.881937    
    143400   71.7           160.79347     -3355.7676      10.37131       5409.4804      5717.9494      17.881891      17.881891      17.881891    
    143600   71.8           160.33442     -3355.7357      10.3417        4454.4804      5717.9052      17.881845      17.881845      17.881845    
    143800   71.9           157.19619     -3355.5309      10.139282      3085.5957      5717.8612      17.881799      17.881799      17.881799    
    144000   72             156.53252     -3355.4859      10.096475      4979.7216      5717.8174      17.881753      17.881753      17.881753    
    144200   72.1           152.2863      -3355.2096      9.8225899      5459.7411      5717.7739      17.881708      17.881708      17.881708    
    144400   72.2           163.72301     -3355.945       10.560267      4697.5958      5717.7306      17.881663      17.881663      17.881663    
    144600   72.3           159.18588     -3355.6501      10.267619      4375.0841      5717.6876      17.881618      17.881618      17.881618    
    144800   72.4           165.04975     -3356.026       10.645843      5283.7136      5717.6448      17.881573      17.881573      17.881573    
    145000   72.5           163.34777     -3355.9139      10.536064      4274.8478      5717.6022      17.881529      17.881529      17.881529    
    145200   72.6           161.09455     -3355.7663      10.390729      3173.9892      5717.5598      17.881485      17.881485      17.881485    
    145400   72.7           151.64585     -3355.1544      9.7812804      4442.8481      5717.5176      17.881441      17.881441      17.881441    
    145600   72.8           161.73765     -3355.8031      10.43221       3635.0349      5717.4756      17.881397      17.881397      17.881397    
    145800   72.9           156.58108     -3355.4681      10.099607      6157.1523      5717.4338      17.881353      17.881353      17.881353    
    146000   73             155.81232     -3355.4163      10.050021      5101.0657      5717.3922      17.88131       17.88131       17.88131     
    146200   73.1           164.38294     -3355.9668      10.602833      3330.0087      5717.3509      17.881267      17.881267      17.881267    
    146400   73.2           156.56631     -3355.4603      10.098654      3167.9861      5717.3098      17.881224      17.881224      17.881224    
    146600   73.3           160.87295     -3355.7358      10.376436      4845.8572      5717.2689      17.881181      17.881181      17.881181    
    146800   73.4           159.24639     -3355.6286      10.271521      5972.7146      5717.2283      17.881139      17.881139      17.881139    
    147000   73.5           163.55139     -3355.9038      10.549197      5141.4127      5717.1879      17.881097      17.881097      17.881097    
    147200   73.6           160.59039     -3355.7106      10.35821       4305.6087      5717.1477      17.881055      17.881055      17.881055    
    147400   73.7           160.45266     -3355.6994      10.349327      3917.0008      5717.1077      17.881013      17.881013      17.881013    
    147600   73.8           157.82483     -3355.5276      10.17983       5423.2487      5717.0679      17.880972      17.880972      17.880972    
    147800   73.9           157.1872      -3355.484       10.138702      5253.6417      5717.0284      17.880931      17.880931      17.880931    
    148000   74             163.96225     -3355.9188      10.575698      4435.722       5716.9892      17.88089       17.88089       17.88089     
    148200   74.1           155.59202     -3355.3765      10.035812      6443.0717      5716.9502      17.880849      17.880849      17.880849    
    148400   74.2           158.23969     -3355.545       10.206589      3868.6995      5716.9114      17.880809      17.880809      17.880809    
    148600   74.3           162.47271     -3355.8157      10.479622      3060.7411      5716.8728      17.880768      17.880768      17.880768    
    148800   74.4           153.72743     -3355.2494      9.9155439      4856.9018      5716.8345      17.880728      17.880728      17.880728    
    149000   74.5           165.13869     -3355.983       10.65158       4648.7207      5716.7963      17.880689      17.880689      17.880689    
    149200   74.6           167.01199     -3356.1015      10.772409      4402.1107      5716.7584      17.880649      17.880649      17.880649    
    149400   74.7           154.48728     -3355.2913      9.9645549      6491.404       5716.7207      17.88061       17.88061       17.88061     
    149600   74.8           158.18042     -3355.5273      10.202765      4462.8677      5716.6833      17.880571      17.880571      17.880571    
    149800   74.9           158.38072     -3355.5378      10.215685      5682.6868      5716.646       17.880532      17.880532      17.880532    
    150000   75             155.48054     -3355.3484      10.028621      4281.3508      5716.6091      17.880493      17.880493      17.880493    
    150200   75.1           165.05521     -3355.9637      10.646195      4368.4561      5716.5723      17.880455      17.880455      17.880455    
    150400   75.2           163.66476     -3355.8717      10.55651       3570.6779      5716.5358      17.880417      17.880417      17.880417    
    150600   75.3           155.23896     -3355.3258      10.013039      3846.321       5716.4995      17.880379      17.880379      17.880379    
    150800   75.4           160.99442     -3355.6947      10.384271      5921.1508      5716.4634      17.880341      17.880341      17.880341    
    151000   75.5           162.12665     -3355.7654      10.457301      5320.7423      5716.4275      17.880304      17.880304      17.880304    
    151200   75.6           163.29441     -3355.8385      10.532622      4708.1411      5716.3919      17.880267      17.880267      17.880267    
    151400   75.7           153.31451     -3355.1923      9.8889103      5041.0338      5716.3566      17.88023       17.88023       17.88023     
    151600   75.8           160.06576     -3355.6254      10.324372      4601.7085      5716.3215      17.880194      17.880194      17.880194    
    151800   75.9           156.64483     -3355.4024      10.103719      5350.2997      5716.2866      17.880157      17.880157      17.880157    
    152000   76             162.91037     -3355.8043      10.507851      3815.7038      5716.2519      17.880121      17.880121      17.880121    
    152200   76.1           158.47031     -3355.5155      10.221463      5860.4824      5716.2175      17.880085      17.880085      17.880085    
    152400   76.2           156.32402     -3355.3747      10.083026      6097.7959      5716.1834      17.88005       17.88005       17.88005     
    152600   76.3           152.90465     -3355.1518      9.8624741      5820.1442      5716.1495      17.880014      17.880014      17.880014    
    152800   76.4           160.11744     -3355.6147      10.327705      3903.7118      5716.1159      17.879979      17.879979      17.879979    
    153000   76.5           158.21833     -3355.4898      10.205211      6096.6414      5716.0825      17.879944      17.879944      17.879944    
    153200   76.6           158.46372     -3355.5033      10.221039      5771.8112      5716.0494      17.87991       17.87991       17.87991     
    153400   76.7           149.76316     -3354.9397      9.6598454      4544.4134      5716.0166      17.879876      17.879876      17.879876    
    153600   76.8           161.12358     -3355.6702      10.392602      5393.0385      5715.9839      17.879842      17.879842      17.879842    
    153800   76.9           167.49298     -3356.0788      10.803433      4043.1539      5715.9515      17.879808      17.879808      17.879808    
    154000   77             159.76928     -3355.5781      10.305248      6198.6845      5715.9193      17.879774      17.879774      17.879774    
    154200   77.1           159.3024      -3355.5456      10.275134      5534.6367      5715.8874      17.879741      17.879741      17.879741    
    154400   77.2           161.00173     -3355.6529      10.384742      4698.4105      5715.8558      17.879708      17.879708      17.879708    
    154600   77.3           158.95426     -3355.5185      10.252679      6854.068       5715.8244      17.879675      17.879675      17.879675    
    154800   77.4           161.18484     -3355.6599      10.396553      6218.7418      5715.7933      17.879643      17.879643      17.879643    
    155000   77.5           168.78609     -3356.148       10.88684       3581.6715      5715.7625      17.879611      17.879611      17.879611    
    155200   77.6           169.64649     -3356.2011      10.942337      4477.9952      5715.7318      17.879579      17.879579      17.879579    
    155400   77.7           163.57702     -3355.8072      10.550851      4325.1288      5715.7014      17.879547      17.879547      17.879547    
    155600   77.8           163.36421     -3355.7911      10.537124      4038.7282      5715.6712      17.879516      17.879516      17.879516    
    155800   77.9           165.62425     -3355.9346      10.682899      3941.4332      5715.6413      17.879484      17.879484      17.879484    
    156000   78             163.95705     -3355.8246      10.575363      4863.2987      5715.6116      17.879453      17.879453      17.879453    
    156200   78.1           169.05077     -3356.1508      10.903912      5296.614       5715.5822      17.879423      17.879423      17.879423    
    156400   78.2           163.45968     -3355.7878      10.543282      4652.7761      5715.553       17.879392      17.879392      17.879392    
    156600   78.3           165.00415     -3355.885       10.642902      5225.6643      5715.5241      17.879362      17.879362      17.879362    
    156800   78.4           160.5941      -3355.5981      10.35845       4930.6883      5715.4954      17.879332      17.879332      17.879332    
    157000   78.5           164.46768     -3355.8457      10.608299      5757.2287      5715.467       17.879303      17.879303      17.879303    
    157200   78.6           151.68927     -3355.019       9.7840811      5000.0399      5715.4388      17.879273      17.879273      17.879273    
    157400   78.7           158.62653     -3355.4641      10.23154       5588.2283      5715.4109      17.879244      17.879244      17.879244    
    157600   78.8           167.04731     -3356.0049      10.774687      6373.9692      5715.3832      17.879215      17.879215      17.879215    
    157800   78.9           161.60338     -3355.6515      10.423549      4878.1467      5715.3558      17.879187      17.879187      17.879187    
    158000   79             158.19462     -3355.4291      10.203681      5402.9613      5715.3287      17.879158      17.879158      17.879158    
    158200   79.1           157.84335     -3355.404       10.181024      7931.7102      5715.3018      17.87913       17.87913       17.87913     
    158400   79.2           159.89762     -3355.5341      10.313527      7734.6481      5715.2752      17.879103      17.879103      17.879103    
    158600   79.3           152.34874     -3355.0448      9.8266176      4815.3202      5715.249       17.879075      17.879075      17.879075    
    158800   79.4           158.20997     -3355.4204      10.204671      6016.2505      5715.223       17.879048      17.879048      17.879048    
    159000   79.5           164.61076     -3355.8311      10.617527      3631.5574      5715.1972      17.879021      17.879021      17.879021    
    159200   79.6           163.89447     -3355.7824      10.571327      5025.8338      5715.1716      17.878995      17.878995      17.878995    
    159400   79.7           163.52101     -3355.7559      10.547238      7453.6558      5715.1462      17.878968      17.878968      17.878968    
    159600   79.8           174.64353     -3356.471       11.26465       6026.0947      5715.1212      17.878942      17.878942      17.878942    
    159800   79.9           159.1269      -3355.4676      10.263814      5500.4928      5715.0965      17.878916      17.878916      17.878916    
    160000   80             164.67223     -3355.823       10.621493      4842.6799      5715.072       17.878891      17.878891      17.878891    
    160200   80.1           165.93309     -3355.9019      10.702819      5798.4941      5715.0477      17.878865      17.878865      17.878865    
    160400   80.2           163.9235      -3355.7699      10.573199      5822.9165      5715.0237      17.87884       17.87884       17.87884     
    160600   80.3           160.46662     -3355.5444      10.350227      4651.7268      5715           17.878816      17.878816      17.878816    
    160800   80.4           157.25648     -3355.335       10.143171      5337.3198      5714.9765      17.878791      17.878791      17.878791    
    161000   80.5           165.74632     -3355.8802      10.690773      5351.3829      5714.9532      17.878767      17.878767      17.878767    
    161200   80.6           155.59619     -3355.223       10.03608       7239.1293      5714.9303      17.878743      17.878743      17.878743    
    161400   80.7           164.18311     -3355.7746      10.589944      5599.1754      5714.9076      17.878719      17.878719      17.878719    
    161600   80.8           162.97078     -3355.6939      10.511748      5178.7113      5714.8852      17.878696      17.878696      17.878696    
    161800   80.9           154.59647     -3355.1514      9.9715977      4497.4708      5714.8631      17.878673      17.878673      17.878673    
    162000   81             164.72399     -3355.8022      10.624831      5820.7468      5714.8412      17.87865       17.87865       17.87865     
    162200   81.1           154.67115     -3355.1513      9.9764148      5537.395       5714.8196      17.878628      17.878628      17.878628    
    162400   81.2           164.40398     -3355.7767      10.60419       5114.0567      5714.7983      17.878605      17.878605      17.878605    
    162600   81.3           157.31332     -3355.3169      10.146837      6563.6144      5714.7772      17.878583      17.878583      17.878583    
    162800   81.4           162.27881     -3355.6348      10.467115      5424.7842      5714.7564      17.878562      17.878562      17.878562    
    163000   81.5           156.40512     -3355.2534      10.088258      5072.8759      5714.7358      17.87854       17.87854       17.87854     
    163200   81.6           164.37098     -3355.7649      10.602062      8179.7534      5714.7156      17.878519      17.878519      17.878519    
    163400   81.7           154.52736     -3355.1274      9.96714        5560.6791      5714.6956      17.878498      17.878498      17.878498    
    163600   81.8           161.44249     -3355.5711      10.413172      5807.5655      5714.6759      17.878478      17.878478      17.878478    
    163800   81.9           160.15335     -3355.4855      10.330021      5501.2417      5714.6564      17.878457      17.878457      17.878457    
    164000   82             155.84194     -3355.205       10.051932      6247.6012      5714.6372      17.878437      17.878437      17.878437    
    164200   82.1           163.62667     -3355.7047      10.554053      5794.9347      5714.6183      17.878418      17.878418      17.878418    
    164400   82.2           153.68172     -3355.0607      9.9125956      5807.3639      5714.5996      17.878398      17.878398      17.878398    
    164600   82.3           161.30569     -3355.5501      10.404348      5413.7698      5714.5812      17.878379      17.878379      17.878379    
    164800   82.4           163.86508     -3355.7128      10.569431      7481.7886      5714.5631      17.87836       17.87836       17.87836     
    165000   82.5           158.4775      -3355.3628      10.221928      4405.7869      5714.5453      17.878341      17.878341      17.878341    
    165200   82.6           156.82916     -3355.254       10.115608      4591.7439      5714.5278      17.878323      17.878323      17.878323    
    165400   82.7           163.37217     -3355.6736      10.537638      6488.5841      5714.5105      17.878305      17.878305      17.878305    
    165600   82.8           163.51499     -3355.6804      10.54685       6113.643       5714.4934      17.878287      17.878287      17.878287    
    165800   82.9           157.01186     -3355.2585      10.127392      6370.9355      5714.4766      17.87827       17.87827       17.87827     
    166000   83             165.75293     -3355.8198      10.691199      5766.039       5714.4601      17.878253      17.878253      17.878253    
    166200   83.1           160.88845     -3355.5036      10.377436      5628.7387      5714.4439      17.878236      17.878236      17.878236    
    166400   83.2           164.56632     -3355.7384      10.614662      5524.0363      5714.4279      17.878219      17.878219      17.878219    
    166600   83.3           163.33457     -3355.6565      10.535213      5752.3805      5714.4123      17.878203      17.878203      17.878203    
    166800   83.4           165.59252     -3355.7997      10.680852      6698.4879      5714.3969      17.878187      17.878187      17.878187    
    167000   83.5           157.00117     -3355.243       10.126703      5578.1339      5714.3818      17.878171      17.878171      17.878171    
    167200   83.6           150.68549     -3354.8332      9.7193363      6171.551       5714.367       17.878155      17.878155      17.878155    
    167400   83.7           159.98868     -3355.4308      10.3194        4966.1899      5714.3525      17.87814       17.87814       17.87814     
    167600   83.8           165.17279     -3355.7628      10.653779      4787.5542      5714.3382      17.878125      17.878125      17.878125    
    167800   83.9           159.75418     -3355.4108      10.304275      7274.4066      5714.3241      17.878111      17.878111      17.878111    
    168000   84             154.75539     -3355.0857      9.9818483      6807.7767      5714.3104      17.878096      17.878096      17.878096    
    168200   84.1           154.86395     -3355.0904      9.9888506      6664.6291      5714.2969      17.878082      17.878082      17.878082    
    168400   84.2           165.01223     -3355.7425      10.643423      6107.3512      5714.2837      17.878069      17.878069      17.878069    
    168600   84.3           169.9215      -3356.0568      10.960075      5652.9191      5714.2708      17.878055      17.878055      17.878055    
    168800   84.4           155.06468     -3355.0959      10.001798      6199.223       5714.2582      17.878042      17.878042      17.878042    
    169000   84.5           171.70314     -3356.1668      11.074992      4454.5278      5714.2459      17.878029      17.878029      17.878029    
    169200   84.6           158.43723     -3355.3085      10.21933       5354.6586      5714.2339      17.878017      17.878017      17.878017    
    169400   84.7           159.74471     -3355.3904      10.303663      4229.2214      5714.2221      17.878004      17.878004      17.878004    
    169600   84.8           160.18722     -3355.4164      10.332206      5627.6336      5714.2104      17.877992      17.877992      17.877992    
    169800   84.9           164.48283     -3355.691       10.609276      6153.4465      5714.199       17.87798       17.87798       17.87798     
    170000   85             157.77542     -3355.2559      10.176643      6208.2136      5714.188       17.877969      17.877969      17.877969    
    170200   85.1           168.26659     -3355.9302      10.853332      5644.685       5714.1771      17.877957      17.877957      17.877957    
    170400   85.2           157.74546     -3355.249       10.17471       4938.0558      5714.1666      17.877946      17.877946      17.877946    
    170600   85.3           162.01641     -3355.522       10.45019       6176.9007      5714.1563      17.877936      17.877936      17.877936    
    170800   85.4           160.53833     -3355.4242      10.354853      4732.1983      5714.1463      17.877925      17.877925      17.877925    
    171000   85.5           156.10759     -3355.1359      10.069066      5812.895       5714.1365      17.877915      17.877915      17.877915    
    171200   85.6           161.75978     -3355.498       10.433637      6337.068       5714.127       17.877905      17.877905      17.877905    
    171400   85.7           164.97516     -3355.7029      10.641032      5493.7009      5714.1178      17.877896      17.877896      17.877896    
    171600   85.8           158.09226     -3355.2564      10.197079      5929.4945      5714.1089      17.877886      17.877886      17.877886    
    171800   85.9           165.17415     -3355.7107      10.653867      6169.78        5714.1002      17.877877      17.877877      17.877877    
    172000   86             162.40554     -3355.5298      10.475289      6196.9146      5714.0919      17.877869      17.877869      17.877869    
    172200   86.1           165.10389     -3355.7012      10.649335      5832.8393      5714.0838      17.87786       17.87786       17.87786     
    172400   86.2           149.17        -3354.6708      9.6215864      5460.7566      5714.076       17.877852      17.877852      17.877852    
    172600   86.3           169.96137     -3356.0095      10.962646      6051.9075      5714.0684      17.877844      17.877844      17.877844    
    172800   86.4           163.17227     -3355.5691      10.524744      5847.7337      5714.0611      17.877836      17.877836      17.877836    
    173000   86.5           162.00554     -3355.4913      10.449489      5858.3818      5714.0541      17.877829      17.877829      17.877829    
    173200   86.6           164.42135     -3355.6447      10.60531       5820.289       5714.0474      17.877822      17.877822      17.877822    
    173400   86.7           164.72777     -3355.6618      10.625075      5886.3157      5714.0409      17.877815      17.877815      17.877815    
    173600   86.8           170.01306     -3356.0003      10.965981      6247.0412      5714.0348      17.877809      17.877809      17.877809    
    173800   86.9           159.48989     -3355.319       10.287227      4162.7569      5714.0289      17.877803      17.877803      17.877803    
    174000   87             163.42054     -3355.57        10.540758      5680.4243      5714.0232      17.877797      17.877797      17.877797    
    174200   87.1           160.40045     -3355.3727      10.345959      6862.3774      5714.0179      17.877791      17.877791      17.877791    
    174400   87.2           159.9767      -3355.3428      10.318627      6052.7447      5714.0128      17.877786      17.877786      17.877786    
    174600   87.3           166.79259     -3355.78        10.758258      5738.9849      5714.008       17.877781      17.877781      17.877781    
    174800   87.4           163.19592     -3355.5454      10.526269      7504.7454      5714.0035      17.877776      17.877776      17.877776    
    175000   87.5           165.05086     -3355.6625      10.645915      4206.5446      5713.9993      17.877772      17.877772      17.877772    
    175200   87.6           159.18786     -3355.2819      10.267746      6059.8246      5713.9954      17.877768      17.877768      17.877768    
    175400   87.7           159.51045     -3355.3001      10.288554      5440.3937      5713.9917      17.877764      17.877764      17.877764    
    175600   87.8           158.43616     -3355.2282      10.219261      7489.0163      5713.9882      17.87776       17.87776       17.87776     
    175800   87.9           155.06093     -3355.008       10.001556      6511.5234      5713.9851      17.877757      17.877757      17.877757    
    176000   88             161.14537     -3355.398       10.394007      6835.3416      5713.9822      17.877754      17.877754      17.877754    
    176200   88.1           162.90632     -3355.509       10.50759       5470.588       5713.9797      17.877752      17.877752      17.877752    
    176400   88.2           158.13789     -3355.1988      10.200022      6029.367       5713.9775      17.877749      17.877749      17.877749    
    176600   88.3           158.52345     -3355.2212      10.224891      6803.4562      5713.9756      17.877747      17.877747      17.877747    
    176800   88.4           156.69917     -3355.101       10.107224      3406.9597      5713.9739      17.877745      17.877745      17.877745    
    177000   88.5           164.02339     -3355.5709      10.579642      4965.573       5713.9724      17.877744      17.877744      17.877744    
    177200   88.6           168.99674     -3355.8892      10.900427      5195.9453      5713.9711      17.877743      17.877743      17.877743    
    177400   88.7           159.34845     -3355.2642      10.278105      7954.5278      5713.9701      17.877742      17.877742      17.877742    
    177600   88.8           158.34573     -3355.1969      10.213428      5933.7557      5713.9695      17.877741      17.877741      17.877741    
    177800   88.9           153.54102     -3354.8845      9.9035203      6075.8821      5713.9691      17.877741      17.877741      17.877741    
    178000   89             162.53159     -3355.4619      10.48342       4795.3303      5713.969       17.87774       17.87774       17.87774     
    178200   89.1           164.29463     -3355.5731      10.597137      5661.0897      5713.9692      17.877741      17.877741      17.877741    
    178400   89.2           160.24264     -3355.3091      10.335781      7111.5732      5713.9696      17.877741      17.877741      17.877741    
    178600   89.3           165.19143     -3355.6258      10.654981      5019.0188      5713.9703      17.877742      17.877742      17.877742    
    178800   89.4           165.61426     -3355.6504      10.682254      4994.1916      5713.9712      17.877743      17.877743      17.877743    
    179000   89.5           167.51475     -3355.7706      10.804838      7156.1647      5713.9724      17.877744      17.877744      17.877744    
    179200   89.6           162.83399     -3355.466       10.502925      5688.9472      5713.974       17.877746      17.877746      17.877746    
    179400   89.7           164.34934     -3355.5612      10.600666      5507.4233      5713.9758      17.877748      17.877748      17.877748    
    179600   89.8           165.83566     -3355.6545      10.696535      6989.9232      5713.9779      17.87775       17.87775       17.87775     
    179800   89.9           168.1981      -3355.8043      10.848914      5362.0388      5713.9803      17.877752      17.877752      17.877752    
    180000   90             161.56752     -3355.3741      10.421237      5739.7889      5713.983       17.877755      17.877755      17.877755    
    180200   90.1           156.86332     -3355.0679      10.117812      5111.471       5713.9859      17.877758      17.877758      17.877758    
    180400   90.2           162.78329     -3355.4473      10.499655      3716.3449      5713.9892      17.877761      17.877761      17.877761    
    180600   90.3           158.92921     -3355.1962      10.251063      5367.8235      5713.9926      17.877765      17.877765      17.877765    
    180800   90.4           158.96239     -3355.1957      10.253204      6469.8826      5713.9963      17.877769      17.877769      17.877769    
    181000   90.5           164.68375     -3355.5622      10.622236      6261.5612      5714.0003      17.877773      17.877773      17.877773    
    181200   90.6           159.94889     -3355.2542      10.316833      6560.1929      5714.0045      17.877777      17.877777      17.877777    
    181400   90.7           164.79164     -3355.5639      10.629195      6229.9693      5714.0091      17.877782      17.877782      17.877782    
    181600   90.8           158.64879     -3355.1652      10.232976      5696.6365      5714.014       17.877787      17.877787      17.877787    
    181800   90.9           165.17287     -3355.5834      10.653784      6319.8403      5714.0191      17.877793      17.877793      17.877793    
    182000   91             164.17865     -3355.5166      10.589656      5255.8644      5714.0245      17.877798      17.877798      17.877798    
    182200   91.1           159.82105     -3355.2329      10.308588      6103.7167      5714.0302      17.877804      17.877804      17.877804    
    182400   91.2           168.55648     -3355.794       10.87203       6899.8517      5714.0361      17.87781       17.87781       17.87781     
    182600   91.3           160.29864     -3355.2586      10.339392      6856.269       5714.0424      17.877817      17.877817      17.877817    
    182800   91.4           159.99106     -3355.2362      10.319553      6011.0068      5714.049       17.877824      17.877824      17.877824    
    183000   91.5           165.76607     -3355.606       10.692046      5149.8843      5714.0558      17.877831      17.877831      17.877831    
    183200   91.6           158.74666     -3355.1507      10.239289      6491.1727      5714.0629      17.877838      17.877838      17.877838    
    183400   91.7           162.55015     -3355.3934      10.484617      7045.7683      5714.0703      17.877846      17.877846      17.877846    
    183600   91.8           162.85776     -3355.4107      10.504458      6434.6831      5714.078       17.877854      17.877854      17.877854    
    183800   91.9           158.17021     -3355.1057      10.202107      4920.1108      5714.0859      17.877862      17.877862      17.877862    
    184000   92             156.11208     -3354.9703      10.069356      6101.0867      5714.0942      17.877871      17.877871      17.877871    
    184200   92.1           158.90533     -3355.1479      10.249523      7768.6464      5714.1027      17.87788       17.87788       17.87788     
    184400   92.2           158.2027      -3355.1001      10.204203      6265.1713      5714.1116      17.877889      17.877889      17.877889    
    184600   92.3           164.19237     -3355.4837      10.590541      6623.0308      5714.1208      17.877899      17.877899      17.877899    
    184800   92.4           162.1106      -3355.3468      10.456266      5656.3439      5714.1303      17.877909      17.877909      17.877909    
    185000   92.5           159.58921     -3355.1815      10.293634      4886.1804      5714.14        17.877919      17.877919      17.877919    
    185200   92.6           155.07452     -3354.8877      10.002432      5674.3161      5714.1499      17.877929      17.877929      17.877929    
    185400   92.7           163.55362     -3355.4321      10.549341      7316.2453      5714.1602      17.87794       17.87794       17.87794     
    185600   92.8           152.61156     -3354.7236      9.8435695      6543.4194      5714.1707      17.877951      17.877951      17.877951    
    185800   92.9           169.48925     -3355.8097      10.932194      6151.2693      5714.1816      17.877962      17.877962      17.877962    
    186000   93             163.37225     -3355.4124      10.537643      6554.474       5714.1927      17.877974      17.877974      17.877974    
    186200   93.1           166.61531     -3355.6191      10.746823      5388.644       5714.204       17.877986      17.877986      17.877986    
    186400   93.2           160.91656     -3355.2488      10.379249      6285.8953      5714.2157      17.877998      17.877998      17.877998    
    186600   93.3           162.71364     -3355.3621      10.495162      6493.1948      5714.2276      17.87801       17.87801       17.87801     
    186800   93.4           163.64387     -3355.4195      10.555162      6263.0166      5714.2398      17.878023      17.878023      17.878023    
    187000   93.5           164.42979     -3355.4675      10.605855      6473.9427      5714.2523      17.878036      17.878036      17.878036    
    187200   93.6           161.43148     -3355.2715      10.412462      5352.2101      5714.2651      17.878049      17.878049      17.878049    
    187400   93.7           164.50769     -3355.4674      10.610879      6748.7871      5714.2781      17.878063      17.878063      17.878063    
    187600   93.8           160.95366     -3355.2354      10.381642      5895.4523      5714.2914      17.878077      17.878077      17.878077    
    187800   93.9           162.9806      -3355.3635      10.512381      4948.8892      5714.305       17.878091      17.878091      17.878091    
    188000   94             167.82329     -3355.6732      10.824739      6043.9219      5714.3189      17.878105      17.878105      17.878105    
    188200   94.1           158.02496     -3355.0385      10.192738      5344.7517      5714.333       17.87812       17.87812       17.87812     
    188400   94.2           168.38894     -3355.7046      10.861223      5118.0816      5714.3474      17.878135      17.878135      17.878135    
    188600   94.3           171.16506     -3355.8809      11.040285      5595.1327      5714.3621      17.87815       17.87815       17.87815     
    188800   94.4           163.89727     -3355.4094      10.571507      5613.4324      5714.3771      17.878166      17.878166      17.878166    
    189000   94.5           155.6154      -3354.8726      10.03732       5152.4008      5714.3923      17.878182      17.878182      17.878182    
    189200   94.6           169.59358     -3355.7716      10.938924      3999.9006      5714.4078      17.878198      17.878198      17.878198    
    189400   94.7           174.81224     -3356.1056      11.275531      5385.7107      5714.4235      17.878214      17.878214      17.878214    
    189600   94.8           166.77546     -3355.5844      10.757153      5778.0597      5714.4394      17.878231      17.878231      17.878231    
    189800   94.9           167.2209      -3355.6105      10.785884      6112.5657      5714.4556      17.878248      17.878248      17.878248    
    190000   95             165.26448     -3355.4817      10.659693      6950.216       5714.4721      17.878265      17.878265      17.878265    
    190200   95.1           171.25611     -3355.8655      11.046158      5986.8362      5714.4889      17.878283      17.878283      17.878283    
    190400   95.2           166.10291     -3355.5305      10.713772      4957.0463      5714.506       17.8783        17.8783        17.8783      
    190600   95.3           173.64868     -3356.0146      11.200481      4667.412       5714.5234      17.878319      17.878319      17.878319    
    190800   95.4           156.12754     -3354.8816      10.070353      5696.354       5714.541       17.878337      17.878337      17.878337    
    191000   95.5           161.76528     -3355.2427      10.433992      5544.6624      5714.5589      17.878356      17.878356      17.878356    
    191200   95.6           162.30735     -3355.275       10.468956      6360.8227      5714.577       17.878374      17.878374      17.878374    
    191400   95.7           166.74214     -3355.5584      10.755004      6788.2893      5714.5955      17.878394      17.878394      17.878394    
    191600   95.8           159.09298     -3355.0623      10.261627      6180.4641      5714.6142      17.878413      17.878413      17.878413    
    191800   95.9           163.79814     -3355.3631      10.565113      6776.2848      5714.6332      17.878433      17.878433      17.878433    
    192000   96             158.54141     -3355.0214      10.22605       6189.3184      5714.6525      17.878453      17.878453      17.878453    
    192200   96.1           156.95613     -3354.9164      10.123798      5840.2588      5714.6721      17.878474      17.878474      17.878474    
    192400   96.2           166.39509     -3355.5226      10.732618      4753.4576      5714.692       17.878494      17.878494      17.878494    
    192600   96.3           153.58927     -3354.6938      9.9066329      5415.5777      5714.7121      17.878515      17.878515      17.878515    
    192800   96.4           173.37823     -3355.9678      11.183037      5115.6764      5714.7325      17.878537      17.878537      17.878537    
    193000   96.5           162.59997     -3355.2698      10.48783       5102.7095      5714.7532      17.878558      17.878558      17.878558    
    193200   96.6           162.60214     -3355.2673      10.48797       7620.6482      5714.7741      17.87858       17.87858       17.87858     
    193400   96.7           165.89243     -3355.4768      10.700197      4686.3647      5714.7953      17.878602      17.878602      17.878602    
    193600   96.8           173.33075     -3355.9539      11.179974      4648.3989      5714.8168      17.878625      17.878625      17.878625    
    193800   96.9           162.65698     -3355.2627      10.491508      6426.4356      5714.8386      17.878647      17.878647      17.878647    
    194000   97             167.83588     -3355.5942      10.825551      6805.0846      5714.8606      17.87867       17.87867       17.87867     
    194200   97.1           160.82888     -3355.1394      10.373594      4685.7993      5714.883       17.878694      17.878694      17.878694    
    194400   97.2           158.82251     -3355.0073      10.244181      6447.1664      5714.9056      17.878717      17.878717      17.878717    
    194600   97.3           163.59883     -3355.3127      10.552257      4456.0822      5714.9285      17.878741      17.878741      17.878741    
    194800   97.4           162.12974     -3355.2152      10.4575        5780.1587      5714.9516      17.878765      17.878765      17.878765    
    195000   97.5           168.51876     -3355.6247      10.869597      6563.4706      5714.9749      17.878789      17.878789      17.878789    
    195200   97.6           171.54461     -3355.8172      11.064767      5356.5649      5714.9986      17.878814      17.878814      17.878814    
    195400   97.7           163.27986     -3355.2813      10.531684      5540.3318      5715.0225      17.878839      17.878839      17.878839    
    195600   97.8           159.39754     -3355.0283      10.281271      6267.8941      5715.0467      17.878864      17.878864      17.878864    
    195800   97.9           169.2075      -3355.6583      10.914021      4834.6983      5715.0711      17.87889       17.87889       17.87889     
    196000   98             160.48208     -3355.0927      10.351225      4497.5018      5715.0959      17.878916      17.878916      17.878916    
    196200   98.1           163.55049     -3355.2879      10.549139      4359.4913      5715.1208      17.878942      17.878942      17.878942    
    196400   98.2           161.46885     -3355.151       10.414872      6458.7409      5715.146       17.878968      17.878968      17.878968    
    196600   98.3           160.98668     -3355.1173      10.383771      5347.9024      5715.1715      17.878994      17.878994      17.878994    
    196800   98.4           160.69653     -3355.0957      10.365057      7313.5928      5715.1972      17.879021      17.879021      17.879021    
    197000   98.5           168.14032     -3355.5732      10.845188      5366.7096      5715.2232      17.879048      17.879048      17.879048    
    197200   98.6           162.44841     -3355.2033      10.478055      4073.3483      5715.2495      17.879076      17.879076      17.879076    
    197400   98.7           163.4829      -3355.2674      10.54478       5969.7863      5715.276       17.879103      17.879103      17.879103    
    197600   98.8           159.50854     -3355.0083      10.28843       6336.9918      5715.3028      17.879131      17.879131      17.879131    
    197800   98.9           158.61953     -3354.9482      10.231089      7840.389       5715.3298      17.87916       17.87916       17.87916     
    198000   99             167.50482     -3355.5187      10.804197      5945.5415      5715.3571      17.879188      17.879188      17.879188    
    198200   99.1           165.76365     -3355.4036      10.69189       3886.3727      5715.3848      17.879217      17.879217      17.879217    
    198400   99.2           162.55265     -3355.1937      10.484778      5238.3807      5715.4126      17.879246      17.879246      17.879246    
    198600   99.3           169.83042     -3355.6605      10.9542        5014.5996      5715.4407      17.879275      17.879275      17.879275    
    198800   99.4           166.73816     -3355.4583      10.754747      6801.3068      5715.4691      17.879305      17.879305      17.879305    
    199000   99.5           162.06394     -3355.154       10.453256      5315.7317      5715.4978      17.879335      17.879335      17.879335    
    199200   99.6           166.25524     -3355.4217      10.723598      6146.4362      5715.5268      17.879365      17.879365      17.879365    
    199400   99.7           158.38922     -3354.9116      10.216233      6030.6915      5715.556       17.879395      17.879395      17.879395    
    199600   99.8           162.57213     -3355.1787      10.486034      5905.9032      5715.5855      17.879426      17.879426      17.879426    
    199800   99.9           166.02923     -3355.3989      10.709021      4646.5228      5715.6153      17.879457      17.879457      17.879457    
    200000   100            167.03087     -3355.4608      10.773627      4855.5182      5715.6452      17.879488      17.879488      17.879488    
    200200   100.1          167.15082     -3355.4658      10.781364      5317.6938      5715.6755      17.87952       17.87952       17.87952     
    200400   100.2          161.22089     -3355.0806      10.398878      7282.9739      5715.706       17.879552      17.879552      17.879552    
    200600   100.3          163.73035     -3355.2397      10.56074       6549.4937      5715.7368      17.879584      17.879584      17.879584    
    200800   100.4          167.64965     -3355.4897      10.813539      4703.9012      5715.7679      17.879616      17.879616      17.879616    
    201000   100.5          159.65488     -3354.9712      10.29787       5208.1158      5715.7992      17.879649      17.879649      17.879649    
    201200   100.6          171.18508     -3355.7123      11.041577      5450.3278      5715.8307      17.879682      17.879682      17.879682    
    201400   100.7          157.8067      -3354.8465      10.17866       6752.5497      5715.8625      17.879715      17.879715      17.879715    
    201600   100.8          166.81219     -3355.4247      10.759522      5399.282       5715.8946      17.879748      17.879748      17.879748    
    201800   100.9          169.26478     -3355.5802      10.917716      4447.9836      5715.9269      17.879782      17.879782      17.879782    
    202000   101            161.99711     -3355.1086      10.448945      7396.805       5715.9594      17.879816      17.879816      17.879816    
    202200   101.1          166.6473      -3355.4059      10.748886      5559.9548      5715.9923      17.87985       17.87985       17.87985     
    202400   101.2          165.71659     -3355.3431      10.688855      6081.0889      5716.0254      17.879885      17.879885      17.879885    
    202600   101.3          168.63206     -3355.5284      10.876905      6138.2629      5716.0588      17.87992       17.87992       17.87992     
    202800   101.4          169.04066     -3355.552       10.90326       5083.8844      5716.0925      17.879955      17.879955      17.879955    
    203000   101.5          173.01481     -3355.8056      11.159596      5087.4469      5716.1264      17.87999       17.87999       17.87999     
    203200   101.6          161.88405     -3355.0848      10.441653      6376.7143      5716.1606      17.880026      17.880026      17.880026    
    203400   101.7          160.93061     -3355.0206      10.380155      4266.8058      5716.195       17.880062      17.880062      17.880062    
    203600   101.8          163.15013     -3355.1609      10.523316      5303.8431      5716.2297      17.880098      17.880098      17.880098    
    203800   101.9          168.35845     -3355.4942      10.859257      4496.5424      5716.2646      17.880134      17.880134      17.880134    
    204000   102            163.52085     -3355.1793      10.547228      5420.0554      5716.2998      17.880171      17.880171      17.880171    
    204200   102.1          159.81547     -3354.9375      10.308228      5947.0823      5716.3352      17.880208      17.880208      17.880208    
    204400   102.2          167.14575     -3355.4076      10.781037      5128.0676      5716.3709      17.880245      17.880245      17.880245    
    204600   102.3          164.90225     -3355.2601      10.636329      6202.7583      5716.4069      17.880283      17.880283      17.880283    
    204800   102.4          159.34739     -3354.899       10.278036      5724.1167      5716.4431      17.88032       17.88032       17.88032     
    205000   102.5          163.46105     -3355.1617      10.543371      6301.9223      5716.4795      17.880358      17.880358      17.880358    
    205200   102.6          153.97294     -3354.5468      9.9313796      5797.1349      5716.5163      17.880397      17.880397      17.880397    
    205400   102.7          159.36728     -3354.892       10.279319      3303.7681      5716.5533      17.880435      17.880435      17.880435    
    205600   102.8          167.28063     -3355.3997      10.789736      5478.1782      5716.5905      17.880474      17.880474      17.880474    
    205800   102.9          165.36704     -3355.2734      10.666308      6494.9453      5716.628       17.880513      17.880513      17.880513    
    206000   103            161.12024     -3354.9967      10.392387      4538.5581      5716.6657      17.880552      17.880552      17.880552    
    206200   103.1          165.09736     -3355.2506      10.648914      5519.234       5716.7037      17.880592      17.880592      17.880592    
    206400   103.2          169.55862     -3355.5355      10.936669      4356.7787      5716.742       17.880632      17.880632      17.880632    
    206600   103.3          174.55746     -3355.8552      11.259098      4214.5822      5716.7805      17.880672      17.880672      17.880672    
    206800   103.4          156.96123     -3354.7173      10.124127      4807.4917      5716.8191      17.880712      17.880712      17.880712    
    207000   103.5          172.00904     -3355.6852      11.094723      6516.1771      5716.858       17.880753      17.880753      17.880753    
    207200   103.6          160.14472     -3354.9171      10.329464      5998.974       5716.8972      17.880794      17.880794      17.880794    
    207400   103.7          168.1152      -3355.4285      10.843567      4750.1656      5716.9366      17.880835      17.880835      17.880835    
    207600   103.8          157.55219     -3354.7442      10.162244      3990.0667      5716.9763      17.880876      17.880876      17.880876    
    207800   103.9          172.25714     -3355.69        11.110725      5659.9845      5717.0161      17.880918      17.880918      17.880918    
    208000   104            169.53161     -3355.5114      10.934927      5781.233       5717.0562      17.88096       17.88096       17.88096     
    208200   104.1          167.86143     -3355.4009      10.827199      6172.146       5717.0966      17.881002      17.881002      17.881002    
    208400   104.2          168.79771     -3355.4584      10.88759       3971.4826      5717.1372      17.881044      17.881044      17.881044    
    208600   104.3          168.86182     -3355.4598      10.891724      5271.0358      5717.178       17.881087      17.881087      17.881087    
    208800   104.4          165.11372     -3355.2152      10.649969      5608.8126      5717.2191      17.881129      17.881129      17.881129    
    209000   104.5          160.74844     -3354.9308      10.368405      5181.5856      5717.2604      17.881172      17.881172      17.881172    
    209200   104.6          160.50251     -3354.9121      10.352542      5334.4133      5717.3019      17.881216      17.881216      17.881216    
    209400   104.7          154.41761     -3354.5167      9.9600611      3830.7441      5717.3436      17.881259      17.881259      17.881259    
    209600   104.8          162.96735     -3355.0654      10.511526      4959.7708      5717.3856      17.881303      17.881303      17.881303    
    209800   104.9          172.63337     -3355.6861      11.134993      4389.3144      5717.4277      17.881347      17.881347      17.881347    
    210000   105            169.88254     -3355.5057      10.957562      4251.2066      5717.47        17.881391      17.881391      17.881391    
    210200   105.1          169.82854     -3355.4996      10.954079      4415.4353      5717.5126      17.881435      17.881435      17.881435    
    210400   105.2          166.07128     -3355.2544      10.711732      4844.4871      5717.5554      17.88148       17.88148       17.88148     
    210600   105.3          159.63741     -3354.8365      10.296743      3929.656       5717.5984      17.881525      17.881525      17.881525    
    210800   105.4          162.75056     -3355.0345      10.497543      4517.1821      5717.6417      17.88157       17.88157       17.88157     
    211000   105.5          165.53463     -3355.2112      10.677118      4265.0343      5717.6852      17.881615      17.881615      17.881615    
    211200   105.6          164.9866      -3355.173       10.64177       4468.895       5717.7289      17.881661      17.881661      17.881661    
    211400   105.7          169.36745     -3355.4528      10.924338      4240.4573      5717.7728      17.881707      17.881707      17.881707    
    211600   105.8          165.49707     -3355.2002      10.674695      4744.4618      5717.8168      17.881753      17.881753      17.881753    
    211800   105.9          166.17356     -3355.241       10.71833       6374.0471      5717.8611      17.881799      17.881799      17.881799    
    212000   106            165.86998     -3355.2187      10.698748      4736.6148      5717.9057      17.881845      17.881845      17.881845    
    212200   106.1          166.34003     -3355.2462      10.729067      5252.9341      5717.9504      17.881892      17.881892      17.881892    
    212400   106.2          164.41276     -3355.119       10.604757      3794.2643      5717.9955      17.881939      17.881939      17.881939    
    212600   106.3          162.66725     -3355.0036      10.49217       3809.8562      5718.0406      17.881986      17.881986      17.881986    
    212800   106.4          166.34471     -3355.2379      10.729369      3459.3615      5718.086       17.882033      17.882033      17.882033    
    213000   106.5          161.80996     -3354.9425      10.436874      2598.2905      5718.1315      17.882081      17.882081      17.882081    
    213200   106.6          170.33745     -3355.4897      10.986904      4144.9787      5718.1773      17.882128      17.882128      17.882128    
    213400   106.7          168.6768      -3355.3797      10.879791      3887.1449      5718.2232      17.882176      17.882176      17.882176    
    213600   106.8          163.67431     -3355.0543      10.557126      4633.6097      5718.2693      17.882224      17.882224      17.882224    
    213800   106.9          165.47545     -3355.1676      10.673301      3934.7202      5718.3157      17.882273      17.882273      17.882273    
    214000   107            162.34088     -3354.9625      10.471119      4641.15        5718.3623      17.882321      17.882321      17.882321    
    214200   107.1          171.83105     -3355.5718      11.083242      3969.036       5718.409       17.88237       17.88237       17.88237     
    214400   107.2          171.86288     -3355.571       11.085295      3048.9504      5718.456       17.882419      17.882419      17.882419    
    214600   107.3          162.33758     -3354.9536      10.470906      5578.9509      5718.5031      17.882468      17.882468      17.882468    
    214800   107.4          168.07977     -3355.3212      10.841282      3975.0296      5718.5505      17.882517      17.882517      17.882517    
    215000   107.5          164.72714     -3355.102       10.625034      4559.4667      5718.5981      17.882567      17.882567      17.882567    
    215200   107.6          164.18944     -3355.0645      10.590352      4160.6741      5718.6458      17.882617      17.882617      17.882617    
    215400   107.7          171.92327     -3355.5606      11.089191      5556.6539      5718.6938      17.882667      17.882667      17.882667    
    215600   107.8          167.14967     -3355.2498      10.78129       3640.4472      5718.7421      17.882717      17.882717      17.882717    
    215800   107.9          172.86465     -3355.6155      11.14991       3601.3455      5718.7905      17.882767      17.882767      17.882767    
    216000   108            171.55384     -3355.5281      11.065362      4276.2549      5718.8391      17.882818      17.882818      17.882818    
    216200   108.1          167.47617     -3355.2622      10.802349      5672.5192      5718.8879      17.882869      17.882869      17.882869    
    216400   108.2          172.2399      -3355.5666      11.109613      3742.7092      5718.937       17.88292       17.88292       17.88292     
    216600   108.3          171.2467      -3355.4997      11.045551      2926.8852      5718.9862      17.882971      17.882971      17.882971    
    216800   108.4          170.82287     -3355.4695      11.018214      4917.5462      5719.0355      17.883023      17.883023      17.883023    
    217000   108.5          163.0289      -3354.9638      10.515497      3922.2208      5719.0851      17.883075      17.883075      17.883075    
    217200   108.6          165.27658     -3355.1059      10.660474      5054.4086      5719.135       17.883127      17.883127      17.883127    
    217400   108.7          168.5468      -3355.314       10.871405      3304.3224      5719.185       17.883179      17.883179      17.883179    
    217600   108.8          165.00536     -3355.0827      10.64298       3325.805       5719.2352      17.883231      17.883231      17.883231    
    217800   108.9          163.9759      -3355.0134      10.576578      3592.1981      5719.2857      17.883284      17.883284      17.883284    
    218000   109            168.26388     -3355.2871      10.853157      4463.1436      5719.3363      17.883336      17.883336      17.883336    
    218200   109.1          170.64075     -3355.4375      11.006467      2491.8976      5719.3871      17.883389      17.883389      17.883389    
    218400   109.2          163.58965     -3354.9798      10.551665      3414.2861      5719.438       17.883442      17.883442      17./home/akinyemi.az/miniforge3/envs/mace-lammps/lib/python3.11/tempfile.py:934: ResourceWarning: Implicitly cleaning up <TemporaryDirectory '/tmp/tmpr00quie3'>
  _warnings.warn(warn_message, ResourceWarning)
883442    
    218600   109.3          167.25219     -3355.213       10.787902      2686.2606      5719.489       17.883496      17.883496      17.883496    
    218800   109.4          166.55103     -3355.165       10.742677      3726.1669      5719.5402      17.883549      17.883549      17.883549    
    219000   109.5          166.2424      -3355.1421      10.72277       3593.3986      5719.5916      17.883602      17.883602      17.883602    
    219200   109.6          169.86048     -3355.3726      10.956139      3802.5316      5719.6431      17.883656      17.883656      17.883656    
    219400   109.7          168.99359     -3355.3139      10.900224      4045.4103      5719.6948      17.88371       17.88371       17.88371     
    219600   109.8          169.97849     -3355.3745      10.963751      2609.6799      5719.7467      17.883764      17.883764      17.883764    
    219800   109.9          160.75116     -3354.7763      10.36858       3590.6616      5719.7987      17.883818      17.883818      17.883818    
    220000   110            170.31046     -3355.39        10.985163      3443.1933      5719.8509      17.883873      17.883873      17.883873    
Loop time of 6358.23 on 1 procs for 200000 steps with 500 atoms

Performance: 1.359 ns/day, 17.662 hours/ns, 31.455 timesteps/s, 15.728 katom-step/s
99.2% CPU use with 1 MPI tasks x 1 OpenMP threads

MPI task timing breakdown:
Section |  min time  |  avg time  |  max time  |%varavg| %total
---------------------------------------------------------------
Pair    | 6147       | 6147       | 6147       |   0.0 | 96.68
Neigh   | 0.0012283  | 0.0012283  | 0.0012283  |   0.0 |  0.00
Comm    | 7.1469     | 7.1469     | 7.1469     |   0.0 |  0.11
Output  | 0.23463    | 0.23463    | 0.23463    |   0.0 |  0.00
Modify  | 196.14     | 196.14     | 196.14     |   0.0 |  3.08
Other   |            | 7.727      |            |       |  0.12

Nlocal:            500 ave         500 max         500 min
Histogram: 1 0 0 0 0 0 0 0 0 0
Nghost:           2022 ave        2022 max        2022 min
Histogram: 1 0 0 0 0 0 0 0 0 0
Neighs:              0 ave           0 max           0 min
Histogram: 1 0 0 0 0 0 0 0 0 0
FullNghs:        66458 ave       66458 max       66458 min
Histogram: 1 0 0 0 0 0 0 0 0 0

Total # of neighbors = 66458
Ave neighs/atom = 132.916
Neighbor list builds = 3
Dangerous builds = 0
### NPT complete at 300 K ###
NPT_RESULT: a0_at_300K = 3.57677453278527 Angstrom
Total wall time: 1:56:15
NPT at 300 K finished at: Tue Apr 21 01:06:40 AM EDT 2026
