LAMMPS (11 Feb 2026 - Development - patch_11Feb2026-99-gb75dfcc930-modified)
KOKKOS mode with Kokkos version 5.0.2 is enabled
  using double precision
  using view layout = legacy
  will use up to 1 GPU(s) per node
  using 1 OpenMP thread(s) per MPI task
package kokkos
package kokkos newton on neigh half
# ════════════════════════════════════════════════════
# LAMMPS NPT — Lattice Parameter at 300 K
# Notebook 02 | Refs: [2,3,13,14,15,16]
# ════════════════════════════════════════════════════

units          metal
atom_style     atomic
newton         on
boundary       p p p

# ── Load minimized structure ──────────────────────────
read_data      structures/02_bulk_energy_minimization/Hastelloy_N_111_minimized.lammps
Reading data file ...
  orthogonal box = (0.00034042103 0.00034042103 0.00034042103) to (17.85466 17.85466 17.85466)
  1 by 1 by 1 MPI processor grid
  reading atoms ...
  500 atoms
  reading velocities ...
  500 velocities
  read_data CPU = 0.033 seconds

# ── MACE-MP-0b2 via mliap unified ─────────────────────
pair_style     mliap unified /projects/westgroup/akinyemi.az/mace_lammps/models/mace-mp-0b2-medium.model-mliap_lammps.pt 0
pair_coeff     * * Al B C Cr Fe Mo Ni H

neighbor       2.0 bin
neigh_modify   every 1 delay 0 check yes

timestep       0.0005   # ps = 0.5 fs [your setup]

# ── Initialize velocities (matches your production script) ─
velocity       all create 300.0 12345 mom yes rot yes dist gaussian

# ── Thermo output ─────────────────────────────────────
thermo         200
thermo_style   custom step time temp pe ke  press vol lx ly lz

# ── Stage 1: Heat 10K → 300 K over 10 ps ──────
# NPT with temperature ramp + isotropic barostat [13,14]
# thermo_damp = 100.0 fs (matches your production value)
# baro_damp   = 1000.0 fs = 10× thermo [13,14]
fix            heat all npt temp 10.0 300.0 100.0                iso 0.0 0.0 1000.0
run            20000   # 10000 ps

CITE-CITE-CITE-CITE-CITE-CITE-CITE-CITE-CITE-CITE-CITE-CITE-CITE

Your simulation uses code contributions which should be cited:

- KOKKOS package: https://doi.org/10.1145/3731599.3767498

@inproceedings{Johansson25,
 author = {A. Johansson and E. Weinberg and C. Trott and M. McCarthy and S. Moore},
 title = {{LAMMPS-KOKKOS}: {P}erformance Portable Molecular Dynamics Across Exascale Architectures},
 year = 2025,
 booktitle = {Proceedings of the SC '25 Workshops of the International Conference for High Performance Computing,
  Networking, Storage and Analysis},
 pages = {1217–1232},
}

CITE-CITE-CITE-CITE-CITE-CITE-CITE-CITE-CITE-CITE-CITE-CITE-CITE

Neighbor list info ...
  update: every = 1 steps, delay = 0 steps, check = yes
  max neighbors/atom: 2000, page size: 100000
  master list distance cutoff = 7
  ghost atom cutoff = 7
  binsize = 7, bins = 3 3 3
  1 neighbor lists, perpetual/occasional/extra = 1 0 0
  (1) pair mliap/kk, perpetual
      attributes: full, newton on, kokkos_device
      pair build: full/bin/kk/device
      stencil: full/bin/3d
      bin: kk/device
Per MPI rank memory allocation (min/avg/max) = 81.13 | 81.13 | 81.13 Mbytes
   Step          Time           Temp          PotEng         KinEng         Press          Volume           Lx             Ly             Lz      
         0   0              300           -3364.8942      19.350244      3631.4131      5691.5412      17.854319      17.854319      17.854319    
       200   0.1            145.23238     -3354.9106      9.3676067      9144.568       5691.548       17.854326      17.854326      17.854326    
       400   0.2            155.80814     -3355.5933      10.049752      9600.95        5691.5684      17.854348      17.854348      17.854348    
       600   0.3            153.068       -3355.4173      9.8730101      8969.2141      5691.6022      17.854383      17.854383      17.854383    
       800   0.4            157.79786     -3355.7233      10.17809       9262.8776      5691.6486      17.854431      17.854431      17.854431    
      1000   0.5            153.37503     -3355.4391      9.8928139      10224.246      5691.7086      17.854494      17.854494      17.854494    
      1200   0.6            147.24485     -3355.0451      9.4974124      9671.2211      5691.7834      17.854572      17.854572      17.854572    
      1400   0.7            151.18428     -3355.3006      9.7515087      9168.9525      5691.872       17.854665      17.854665      17.854665    
      1600   0.8            151.44742     -3355.3192      9.7684815      10177.43       5691.9736      17.854771      17.854771      17.854771    
      1800   0.9            151.2878      -3355.3107      9.7581861      8274.2518      5692.0888      17.854892      17.854892      17.854892    
      2000   1              148.68097     -3355.1444      9.5900436      10024.244      5692.2163      17.855025      17.855025      17.855025    
      2200   1.1            151.4398      -3355.3244      9.7679902      10568.632      5692.3566      17.855172      17.855172      17.855172    
      2400   1.2            159.93073     -3355.8744      10.315662      10307.725      5692.5115      17.855334      17.855334      17.855334    
      2600   1.3            156.66535     -3355.6661      10.105043      9794.7297      5692.6808      17.855511      17.855511      17.855511    
      2800   1.4            151.51027     -3355.3359      9.7725354      9519.6993      5692.8629      17.855701      17.855701      17.855701    
      3000   1.5            154.02034     -3355.5005      9.9344371      10314.959      5693.0583      17.855905      17.855905      17.855905    
      3200   1.6            156.29522     -3355.65        10.081169      9468.0011      5693.2675      17.856124      17.856124      17.856124    
      3400   1.7            151.54273     -3355.3462      9.774629       10046.726      5693.4898      17.856357      17.856357      17.856357    
      3600   1.8            154.06095     -3355.5116      9.9370564      8448.4475      5693.7254      17.856603      17.856603      17.856603    
      3800   1.9            160.08466     -3355.903       10.325591      8595.9613      5693.9735      17.856862      17.856862      17.856862    
      4000   2              154.19067     -3355.5259      9.9454235      9086.1614      5694.2344      17.857135      17.857135      17.857135    
      4200   2.1            159.49697     -3355.8715      10.287684      9234.675       5694.5085      17.857421      17.857421      17.857421    
      4400   2.2            159.33548     -3355.8646      10.277268      9710.4329      5694.7963      17.857722      17.857722      17.857722    
      4600   2.3            158.82046     -3355.8348      10.244049      9242.7059      5695.0981      17.858038      17.858038      17.858038    
      4800   2.4            153.647       -3355.5044      9.9103563      8132.6717      5695.4126      17.858366      17.858366      17.858366    
      5000   2.5            158.30885     -3355.8083      10.21105       7720.3449      5695.7382      17.858707      17.858707      17.858707    
      5200   2.6            153.46108     -3355.4993      9.8983644      9601.7405      5696.0752      17.859059      17.859059      17.859059    
      5400   2.7            149.71175     -3355.2614      9.6565295      10443.339      5696.4258      17.859425      17.859425      17.859425    
      5600   2.8            145.70471     -3355.0065      9.3980723      8740.1531      5696.7897      17.859806      17.859806      17.859806    
      5800   2.9            155.00727     -3355.6103      9.998095       9189.4962      5697.1647      17.860198      17.860198      17.860198    
      6000   3              157.79495     -3355.7942      10.177903      9604.2774      5697.5519      17.860602      17.860602      17.860602    
      6200   3.1            155.82348     -3355.6709      10.050741      7927.7052      5697.952       17.86102       17.86102       17.86102     
      6400   3.2            154.95043     -3355.6187      9.9944287      7161.4496      5698.3645      17.861451      17.861451      17.861451    
      6600   3.3            155.96126     -3355.6877      10.059628      9188.7745      5698.788       17.861894      17.861894      17.861894    
      6800   3.4            159.4591      -3355.9178      10.285241      9500.6449      5699.2239      17.862349      17.862349      17.862349    
      7000   3.5            149.56467     -3355.2838      9.6470425      8958.0086      5699.6731      17.862818      17.862818      17.862818    
      7200   3.6            158.00502     -3355.8326      10.191452      7148.2413      5700.1344      17.8633        17.8633        17.8633      
      7400   3.7            158.983       -3355.8998      10.254533      7891.118       5700.607       17.863794      17.863794      17.863794    
      7600   3.8            157.48646     -3355.8075      10.158005      7743.9322      5701.0909      17.864299      17.864299      17.864299    
      7800   3.9            163.451       -3356.1967      10.542723      6878.7855      5701.5863      17.864817      17.864817      17.864817    
      8000   4              156.70162     -3355.7656      10.107382      7349.2678      5702.0927      17.865346      17.865346      17.865346    
      8200   4.1            150.58082     -3355.3753      9.7125855      7990.3185      5702.61        17.865886      17.865886      17.865886    
      8400   4.2            160.25806     -3356.0036      10.336775      6997.3069      5703.138       17.866437      17.866437      17.866437    
      8600   4.3            161.81898     -3356.1089      10.437456      7751.7159      5703.6764      17.867         17.867         17.867       
      8800   4.4            152.17427     -3355.4914      9.8153639      8604.033       5704.2264      17.867574      17.867574      17.867574    
      9000   4.5            161.9295      -3356.1258      10.444584      8655.8706      5704.7884      17.868161      17.868161      17.868161    
      9200   4.6            156.0394      -3355.7506      10.064668      8155.6841      5705.3624      17.86876       17.86876       17.86876     
      9400   4.7            159.45607     -3355.9755      10.285046      6748.3659      5705.9471      17.86937       17.86937       17.86937     
      9600   4.8            152.65484     -3355.5412      9.846361       7391.7984      5706.5414      17.869991      17.869991      17.869991    
      9800   4.9            160.31415     -3356.0396      10.340393      6412.6136      5707.1453      17.870621      17.870621      17.870621    
     10000   5              157.89942     -3355.8883      10.184641      6818.946       5707.7584      17.871261      17.871261      17.871261    
     10200   5.1            159.8159      -3356.0169      10.308256      7989.0862      5708.3815      17.871911      17.871911      17.871911    
     10400   5.2            164.02573     -3356.2931      10.579793      6294.2407      5709.015       17.872572      17.872572      17.872572    
     10600   5.3            163.87518     -3356.2879      10.570082      7160.3842      5709.6578      17.873243      17.873243      17.873243    
     10800   5.4            152.23818     -3355.5418      9.8194866      5573.9875      5710.3103      17.873924      17.873924      17.873924    
     11000   5.5            164.1942      -3356.3175      10.590659      4440.2755      5710.9714      17.874614      17.874614      17.874614    
     11200   5.6            168.11181     -3356.5744      10.843349      4738.7623      5711.6403      17.875311      17.875311      17.875311    
     11400   5.7            164.09267     -3356.3192      10.58411       4149.8848      5712.3169      17.876017      17.876017      17.876017    
     11600   5.8            159.71509     -3356.0409      10.301753      4332.2634      5713.0008      17.876731      17.876731      17.876731    
     11800   5.9            159.07882     -3356.0041      10.260713      4411.7293      5713.6921      17.877452      17.877452      17.877452    
     12000   6              163.03171     -3356.2632      10.515678      5101.8699      5714.3907      17.87818       17.87818       17.87818     
     12200   6.1            164.14737     -3356.3389      10.587639      4296.805       5715.0961      17.878916      17.878916      17.878916    
     12400   6.2            156.62716     -3355.8575      10.102579      2505.0959      5715.8076      17.879658      17.879658      17.879658    
     12600   6.3            159.81046     -3356.0661      10.307904      2968.598       5716.5238      17.880404      17.880404      17.880404    
     12800   6.4            158.40583     -3355.9791      10.217305      3191.696       5717.2451      17.881156      17.881156      17.881156    
     13000   6.5            165.02156     -3356.4095      10.644025      3906.6773      5717.9714      17.881914      17.881914      17.881914    
     13200   6.6            158.10018     -3355.966       10.19759       2497.3798      5718.7026      17.882676      17.882676      17.882676    
     13400   6.7            159.31706     -3356.048       10.27608       3402.4325      5719.4381      17.883442      17.883442      17.883442    
     13600   6.8            156.78077     -3355.8877      10.112487      3226.0293      5720.1785      17.884214      17.884214      17.884214    
     13800   6.9            159.27902     -3356.052       10.273626      1291.2941      5720.9232      17.88499       17.88499       17.88499     
     14000   7              155.24505     -3355.7946      10.013432      2038.6925      5721.6708      17.885769      17.885769      17.885769    
     14200   7.1            159.59828     -3356.0781      10.294219      1370.4036      5722.4214      17.886551      17.886551      17.886551    
     14400   7.2            153.62141     -3355.6951      9.9087055      3229.737       5723.1742      17.887336      17.887336      17.887336    
     14600   7.3            166.48761     -3356.5282      10.738586      1016.6235      5723.9305      17.888123      17.888123      17.888123    
     14800   7.4            158.54768     -3356.0187      10.226454      2520.8354      5724.6896      17.888914      17.888914      17.888914    
     15000   7.5            156.36748     -3355.8805      10.08583       366.84567      5725.4516      17.889708      17.889708      17.889708    
     15200   7.6            158.47456     -3356.0189      10.221738      1266.6777      5726.2149      17.890503      17.890503      17.890503    
     15400   7.7            155.22428     -3355.8114      10.012092     -812.70208      5726.9802      17.8913        17.8913        17.8913      
     15600   7.8            159.82156     -3356.1097      10.30862      -165.71811      5727.7457      17.892097      17.892097      17.892097    
     15800   7.9            157.83667     -3355.9832      10.180594     -632.10369      5728.511       17.892894      17.892894      17.892894    
     16000   8              159.64517     -3356.1019      10.297243      97.702404      5729.2763      17.893691      17.893691      17.893691    
     16200   8.1            163.6619      -3356.3628      10.556326      1232.5128      5730.0419      17.894488      17.894488      17.894488    
     16400   8.2            160.12856     -3356.1368      10.328422     -172.58796      5730.808       17.895285      17.895285      17.895285    
     16600   8.3            154.67797     -3355.7866      9.9768547     -2066.9051      5731.5742      17.896082      17.896082      17.896082    
     16800   8.4            157.53689     -3355.972       10.161258     -1097.1895      5732.3382      17.896878      17.896878      17.896878    
     17000   8.5            151.39533     -3355.577       9.7651219     -897.65961      5733.1006      17.897671      17.897671      17.897671    
     17200   8.6            158.23504     -3356.019       10.206289     -2828.9169      5733.861       17.898462      17.898462      17.898462    
     17400   8.7            157.85488     -3355.9951      10.181768     -1367.7188      5734.6178      17.89925       17.89925       17.89925     
     17600   8.8            153.69323     -3355.7279      9.9133384     -1564.6232      5735.3725      17.900035      17.900035      17.900035    
     17800   8.9            161.38696     -3356.2249      10.40959      -2943.5171      5736.1251      17.900818      17.900818      17.900818    
     18000   9              149.79026     -3355.4771      9.6615937     -1824.6277      5736.8739      17.901597      17.901597      17.901597    
     18200   9.1            157.26177     -3355.9597      10.143512     -1480.7675      5737.6192      17.902372      17.902372      17.902372    
     18400   9.2            152.24235     -3355.636       9.8197552     -3758.438       5738.3607      17.903143      17.903143      17.903143    
     18600   9.3            157.58748     -3355.9809      10.16452      -4404.458       5739.097       17.903909      17.903909      17.903909    
     18800   9.4            158.17755     -3356.0192      10.202581     -2511.0182      5739.8286      17.904669      17.904669      17.904669    
     19000   9.5            152.79052     -3355.672       9.8551128     -3178.6132      5740.5561      17.905426      17.905426      17.905426    
     19200   9.6            163.52145     -3356.3641      10.547266     -3910.8597      5741.2785      17.906177      17.906177      17.906177    
     19400   9.7            160.61466     -3356.1766      10.359776     -3450.7635      5741.9954      17.906922      17.906922      17.906922    
     19600   9.8            160.60778     -3356.176       10.359333     -4490.1329      5742.7074      17.907662      17.907662      17.907662    
     19800   9.9            157.03104     -3355.945       10.12863      -4197.6731      5743.4131      17.908396      17.908396      17.908396    
     20000   10             148.98253     -3355.4251      9.6094945     -4367.3507      5744.1122      17.909122      17.909122      17.909122    
Loop time of 604.156 on 1 procs for 20000 steps with 500 atoms

Performance: 1.430 ns/day, 16.782 hours/ns, 33.104 timesteps/s, 16.552 katom-step/s
98.8% CPU use with 1 MPI tasks x 1 OpenMP threads

MPI task timing breakdown:
Section |  min time  |  avg time  |  max time  |%varavg| %total
---------------------------------------------------------------
Pair    | 600.56     | 600.56     | 600.56     |   0.0 | 99.40
Neigh   | 0.0040315  | 0.0040315  | 0.0040315  |   0.0 |  0.00
Comm    | 0.73542    | 0.73542    | 0.73542    |   0.0 |  0.12
Output  | 0.0073011  | 0.0073011  | 0.0073011  |   0.0 |  0.00
Modify  | 2.022      | 2.022      | 2.022      |   0.0 |  0.33
Other   |            | 0.8287     |            |       |  0.14

Nlocal:            500 ave         500 max         500 min
Histogram: 1 0 0 0 0 0 0 0 0 0
Nghost:           2045 ave        2045 max        2045 min
Histogram: 1 0 0 0 0 0 0 0 0 0
Neighs:              0 ave           0 max           0 min
Histogram: 1 0 0 0 0 0 0 0 0 0
FullNghs:        66172 ave       66172 max       66172 min
Histogram: 1 0 0 0 0 0 0 0 0 0

Total # of neighbors = 66172
Ave neighs/atom = 132.344
Neighbor list builds = 9
Dangerous builds = 0
unfix          heat
print "### Heating complete ###"
### Heating complete ###

# ── Stage 2: NPT equilibration at 300 K ────────
fix            npt_run all npt temp 300.0 300.0 100.0                iso 0.0 0.0 1000.0

# Record box dimensions for lattice parameter analysis
# fix            boxdump all ave/time 1 1 200 lx ly lz #                file results/02_bulk_energy_minimization/Hastelloy_N_111_npt_box.txt

variable       lx_val equal lx
variable       ly_val equal ly
variable       lz_val equal lz
fix            boxdump all ave/time 1 1 200 v_lx_val v_ly_val v_lz_val                file results/02_bulk_energy_minimization/Hastelloy_N_111_npt_box.txt


run            200000   # 100000 ps NPT
Per MPI rank memory allocation (min/avg/max) = 87.69 | 87.69 | 87.69 Mbytes
   Step          Time           Temp          PotEng         KinEng         Press          Volume           Lx             Ly             Lz      
     20000   10             148.98253     -3355.4251      9.6094945     -4367.3507      5744.1122      17.909122      17.909122      17.909122    
     20200   10.1           155.18052     -3355.8249      10.00927      -5147.063       5744.112       17.909122      17.909122      17.909122    
     20400   10.2           150.8299      -3355.5443      9.7286511     -4354.1034      5744.1117      17.909122      17.909122      17.909122    
     20600   10.3           150.61824     -3355.5307      9.7149989     -4380.7174      5744.111       17.909121      17.909121      17.909121    
     20800   10.4           155.7584      -3355.8621      10.046543     -4503.7475      5744.1102      17.90912       17.90912       17.90912     
     21000   10.5           158.22851     -3356.0215      10.205868     -6340.2029      5744.1091      17.909119      17.909119      17.909119    
     21200   10.6           152.65505     -3355.6619      9.8463747     -4963.8927      5744.1077      17.909118      17.909118      17.909118    
     21400   10.7           154.90386     -3355.8069      9.9914251     -6475.4083      5744.1061      17.909116      17.909116      17.909116    
     21600   10.8           163.04524     -3356.332       10.51655      -4947.6484      5744.1042      17.909114      17.909114      17.909114    
     21800   10.9           162.86625     -3356.3204      10.505006     -4329.59        5744.102       17.909112      17.909112      17.909112    
     22000   11             160.26254     -3356.1523      10.337064     -6504.6731      5744.0996      17.909109      17.909109      17.909109    
     22200   11.1           164.11259     -3356.4006      10.585396     -6329.6821      5744.097       17.909107      17.909107      17.909107    
     22400   11.2           157.87231     -3355.9979      10.182892     -4835.099       5744.0941      17.909104      17.909104      17.909104    
     22600   11.3           156.12358     -3355.8851      10.070097     -3830.4632      5744.091       17.9091        17.9091        17.9091      
     22800   11.4           154.05148     -3355.7513      9.9364455     -5558.7506      5744.0877      17.909097      17.909097      17.909097    
     23000   11.5           159.63525     -3356.1113      10.296604     -5875.2204      5744.0841      17.909093      17.909093      17.909093    
     23200   11.6           157.57442     -3355.9782      10.163678     -4348.131       5744.0803      17.909089      17.909089      17.909089    
     23400   11.7           152.3318      -3355.6399      9.8255247     -4483.1157      5744.0762      17.909085      17.909085      17.909085    
     23600   11.8           151.87611     -3355.6103      9.7961327     -5469.3485      5744.072       17.909081      17.909081      17.909081    
     23800   11.9           159.27888     -3356.0877      10.273617     -5537.7529      5744.0674      17.909076      17.909076      17.909076    
     24000   12             155.7153      -3355.8577      10.043764     -4207.6698      5744.0626      17.909071      17.909071      17.909071    
     24200   12.1           156.79064     -3355.9269      10.113124     -5587.0704      5744.0576      17.909066      17.909066      17.909066    
     24400   12.2           155.45911     -3355.8408      10.027239     -4392.746       5744.0523      17.90906       17.90906       17.90906     
     24600   12.3           161.65556     -3356.2403      10.426915     -5853.9329      5744.0468      17.909054      17.909054      17.909054    
     24800   12.4           159.06916     -3356.0732      10.26009      -4029.6031      5744.041       17.909048      17.909048      17.909048    
     25000   12.5           161.4206      -3356.2247      10.41176      -4910.9913      5744.035       17.909042      17.909042      17.909042    
     25200   12.6           161.29935     -3356.2166      10.403939     -3706.2259      5744.0288      17.909036      17.909036      17.909036    
     25400   12.7           158.94038     -3356.0643      10.251783     -4876.6835      5744.0225      17.909029      17.909029      17.909029    
     25600   12.8           159.51455     -3356.101       10.288818     -4778.5658      5744.0159      17.909022      17.909022      17.909022    
     25800   12.9           156.965       -3355.9363      10.12437      -3585.9981      5744.0091      17.909015      17.909015      17.909015    
     26000   13             156.63725     -3355.9148      10.10323      -4663.8925      5744.0021      17.909008      17.909008      17.909008    
     26200   13.1           158.17334     -3356.0137      10.202309     -4329.4616      5743.9949      17.909         17.909         17.909       
     26400   13.2           154.80741     -3355.7962      9.9852037     -4889.1286      5743.9875      17.908993      17.908993      17.908993    
     26600   13.3           159.25924     -3356.0831      10.272351     -4234.7837      5743.9799      17.908985      17.908985      17.908985    
     26800   13.4           162.85649     -3356.3149      10.504376     -4959.8923      5743.972       17.908977      17.908977      17.908977    
     27000   13.5           146.59544     -3355.2656      9.4555247     -5009.7079      5743.964       17.908968      17.908968      17.908968    
     27200   13.6           161.08051     -3356.1998      10.389824     -5189.5383      5743.9556      17.90896       17.90896       17.90896     
     27400   13.7           159.63951     -3356.1064      10.296878     -5927.4472      5743.9471      17.908951      17.908951      17.908951    
     27600   13.8           154.70283     -3355.7876      9.9784584     -3601.1212      5743.9383      17.908942      17.908942      17.908942    
     27800   13.9           159.55636     -3356.1003      10.291515     -5912.8582      5743.9292      17.908932      17.908932      17.908932    
     28000   14             157.20938     -3355.9486      10.140133     -2835.1048      5743.92        17.908923      17.908923      17.908923    
     28200   14.1           155.87635     -3355.8623      10.054151     -4935.1043      5743.9105      17.908913      17.908913      17.908913    
     28400   14.2           156.92075     -3355.9293      10.121516     -5176.5515      5743.9008      17.908903      17.908903      17.908903    
     28600   14.3           161.28482     -3356.2105      10.403002     -6126.7922      5743.8909      17.908892      17.908892      17.908892    
     28800   14.4           154.73922     -3355.7878      9.9808056     -3607.819       5743.8807      17.908882      17.908882      17.908882    
     29000   14.5           156.8295      -3355.9222      10.11563      -5258.9851      5743.8703      17.908871      17.908871      17.908871    
     29200   14.6           158.52864     -3356.0314      10.225226     -4062.7302      5743.8596      17.90886       17.90886       17.90886     
     29400   14.7           163.85619     -3356.3746      10.568857     -5269.0655      5743.8487      17.908849      17.908849      17.908849    
     29600   14.8           161.56868     -3356.2267      10.421311     -4814.1535      5743.8376      17.908837      17.908837      17.908837    
     29800   14.9           156.76072     -3355.9161      10.111194     -5467.5118      5743.8262      17.908825      17.908825      17.908825    
     30000   15             162.68904     -3356.2981      10.493575     -5389.1695      5743.8146      17.908813      17.908813      17.908813    
     30200   15.1           160.53975     -3356.1589      10.354944     -4948.1377      5743.8028      17.908801      17.908801      17.908801    
     30400   15.2           156.46398     -3355.8956      10.092054     -2622.4663      5743.7907      17.908788      17.908788      17.908788    
     30600   15.3           163.03101     -3356.3187      10.515632     -5021.5371      5743.7784      17.908776      17.908776      17.908776    
     30800   15.4           156.70577     -3355.9103      10.10765      -4479.7697      5743.766       17.908763      17.908763      17.908763    
     31000   15.5           163.32705     -3356.3369      10.534728     -5054.0537      5743.7533      17.908749      17.908749      17.908749    
     31200   15.6           156.13268     -3355.8723      10.070684     -4814.6678      5743.7404      17.908736      17.908736      17.908736    
     31400   15.7           157.14018     -3355.9368      10.135669     -4138.2539      5743.7272      17.908722      17.908722      17.908722    
     31600   15.8           161.14271     -3356.1944      10.393836     -4847.291       5743.7139      17.908708      17.908708      17.908708    
     31800   15.9           154.00631     -3355.7336      9.9335321     -5448.1082      5743.7004      17.908694      17.908694      17.908694    
     32000   16             166.55475     -3356.5425      10.742916     -5162.8098      5743.6866      17.90868       17.90868       17.90868     
     32200   16.1           157.15298     -3355.9355      10.136495     -3455.726       5743.6726      17.908666      17.908666      17.908666    
     32400   16.2           154.21638     -3355.7455      9.9470821     -4084.9377      5743.6584      17.908651      17.908651      17.908651    
     32600   16.3           153.27344     -3355.6841      9.8862614     -5121.1325      5743.6441      17.908636      17.908636      17.908636    
     32800   16.4           152.84827     -3355.6561      9.8588377     -3493.487       5743.6294      17.908621      17.908621      17.908621    
     33000   16.5           159.16849     -3356.0632      10.266497     -4730.2381      5743.6146      17.908605      17.908605      17.908605    
     33200   16.6           155.70926     -3355.8394      10.043374     -4685.3464      5743.5997      17.90859       17.90859       17.90859     
     33400   16.7           144.20067     -3355.0964      9.3010606     -2705.516       5743.5845      17.908574      17.908574      17.908574    
     33600   16.8           155.93571     -3355.8529      10.05798      -4859.1095      5743.5691      17.908558      17.908558      17.908558    
     33800   16.9           160.04716     -3356.1174      10.323172     -3103.2375      5743.5535      17.908542      17.908542      17.908542    
     34000   17             155.5623      -3355.8275      10.033895     -4178.0802      5743.5377      17.908525      17.908525      17.908525    
     34200   17.1           159.74147     -3356.0964      10.303455     -4193.1594      5743.5217      17.908509      17.908509      17.908509    
     34400   17.2           152.44002     -3355.6248      9.8325051     -4543.3667      5743.5056      17.908492      17.908492      17.908492    
     34600   17.3           158.00381     -3355.983       10.191374     -4816.8702      5743.4892      17.908475      17.908475      17.908475    
     34800   17.4           160.84959     -3356.166       10.374929     -4573.3727      5743.4725      17.908458      17.908458      17.908458    
     35000   17.5           165.73984     -3356.4807      10.690354     -4597.4668      5743.4557      17.90844       17.90844       17.90844     
     35200   17.6           160.92794     -3356.1696      10.379983     -4736.0083      5743.4387      17.908422      17.908422      17.908422    
     35400   17.7           158.25709     -3355.9967      10.207711     -3563.7767      5743.4214      17.908404      17.908404      17.908404    
     35600   17.8           158.45474     -3356.0087      10.220459     -4304.5075      5743.404       17.908386      17.908386      17.908386    
     35800   17.9           157.68621     -3355.9585      10.170888     -3238.4328      5743.3864      17.908368      17.908368      17.908368    
     36000   18             155.97824     -3355.8475      10.060723     -6007.1854      5743.3686      17.90835       17.90835       17.90835     
     36200   18.1           157.70598     -3355.9583      10.172164     -4319.3188      5743.3505      17.908331      17.908331      17.908331    
     36400   18.2           156.94269     -3355.9083      10.122931     -2902.8991      5743.3322      17.908312      17.908312      17.908312    
     36600   18.3           158.10629     -3355.9825      10.197984     -3463.312       5743.3137      17.908293      17.908293      17.908293    
     36800   18.4           161.87514     -3356.225       10.441078     -4495.0074      5743.2951      17.908273      17.908273      17.908273    
     37000   18.5           158.61087     -3356.0136      10.23053      -5747.4086      5743.2762      17.908254      17.908254      17.908254    
     37200   18.6           154.44084     -3355.7438      9.9615597     -3330.775       5743.257       17.908234      17.908234      17.908234    
     37400   18.7           160.19135     -3356.1141      10.332472     -5456.0696      5743.2377      17.908214      17.908214      17.908214    
     37600   18.8           161.22429     -3356.1798      10.399097     -4486.2669      5743.2181      17.908193      17.908193      17.908193    
     37800   18.9           155.98232     -3355.8409      10.060986     -5386.5111      5743.1983      17.908173      17.908173      17.908173    
     38000   19             154.87241     -3355.7685      9.9893962     -3809.4102      5743.1783      17.908152      17.908152      17.908152    
     38200   19.1           161.80588     -3356.2149      10.436611     -3419.9407      5743.158       17.908131      17.908131      17.908131    
     38400   19.2           161.96785     -3356.2246      10.447058     -4675.7297      5743.1376      17.908109      17.908109      17.908109    
     38600   19.3           162.0862      -3356.2314      10.454692     -5620.3662      5743.117       17.908088      17.908088      17.908088    
     38800   19.4           163.34206     -3356.3116      10.535696     -4079.5171      5743.0961      17.908066      17.908066      17.908066    
     39000   19.5           155.70337     -3355.8179      10.042994     -4257.1252      5743.0751      17.908044      17.908044      17.908044    
     39200   19.6           161.82332     -3356.2118      10.437736     -2924.3149      5743.0538      17.908022      17.908022      17.908022    
     39400   19.7           157.97791     -3355.9629      10.189703     -5576.2741      5743.0323      17.908         17.908         17.908       
     39600   19.8           156.64837     -3355.8763      10.103947     -3090.3889      5743.0106      17.907977      17.907977      17.907977    
     39800   19.9           152.06486     -3355.5796      9.808307      -3994.9045      5742.9887      17.907955      17.907955      17.907955    
     40000   20             163.33773     -3356.306       10.535416     -5465.0847      5742.9666      17.907932      17.907932      17.907932    
     40200   20.1           152.04414     -3355.5765      9.8069703     -4612.1154      5742.9443      17.907909      17.907909      17.907909    
     40400   20.2           156.08121     -3355.8361      10.067365     -4152.6499      5742.9217      17.907885      17.907885      17.907885    
     40600   20.3           159.2297      -3356.0383      10.270445     -3809.234       5742.8989      17.907861      17.907861      17.907861    
     40800   20.4           158.67798     -3356.0017      10.234859     -4540.9297      5742.8759      17.907838      17.907838      17.907838    
     41000   20.5           156.87099     -3355.8842      10.118306     -4827.0701      5742.8528      17.907813      17.907813      17.907813    
     41200   20.6           163.91311     -3356.3375      10.572529     -2014.4405      5742.8294      17.907789      17.907789      17.907789    
     41400   20.7           157.85166     -3355.9454      10.18156      -4537.1303      5742.8058      17.907765      17.907765      17.907765    
     41600   20.8           159.92591     -3356.0783      10.315351     -6350.5229      5742.7821      17.90774       17.90774       17.90774     
     41800   20.9           156.26576     -3355.8412      10.079268     -3677.549       5742.7581      17.907715      17.907715      17.907715    
     42000   21             157.53295     -3355.922       10.161003     -2762.1069      5742.734       17.90769       17.90769       17.90769     
     42200   21.1           163.3058      -3356.2934      10.533357     -4324.3917      5742.7096      17.907665      17.907665      17.907665    
     42400   21.2           164.78573     -3356.3878      10.628814     -4184.5968      5742.6851      17.907639      17.907639      17.907639    
     42600   21.3           159.36763     -3356.0372      10.279342     -3398.9985      5742.6604      17.907613      17.907613      17.907613    
     42800   21.4           156.56034     -3355.8551      10.098269     -4714.5021      5742.6355      17.907588      17.907588      17.907588    
     43000   21.5           155.87438     -3355.8098      10.054024     -2791.366       5742.6104      17.907562      17.907562      17.907562    
     43200   21.6           158.71744     -3355.9922      10.237404     -2962.1081      5742.5851      17.907535      17.907535      17.907535    
     43400   21.7           159.13817     -3356.0183      10.264541     -3825.7448      5742.5597      17.907509      17.907509      17.907509    
     43600   21.8           164.29055     -3356.3495      10.596874     -5294.2201      5742.5341      17.907482      17.907482      17.907482    
     43800   21.9           163.95065     -3356.3266      10.57495      -4159.2257      5742.5082      17.907455      17.907455      17.907455    
     44000   22             158.15559     -3355.9516      10.201164     -4676.993       5742.4822      17.907428      17.907428      17.907428    
     44200   22.1           151.97777     -3355.5521      9.8026896     -3373.2424      5742.4559      17.907401      17.907401      17.907401    
     44400   22.2           159.79391     -3356.0552      10.306837     -4732.5641      5742.4295      17.907373      17.907373      17.907373    
     44600   22.3           160.19887     -3356.0802      10.332957     -4762.9767      5742.4028      17.907346      17.907346      17.907346    
     44800   22.4           165.61242     -3356.4281      10.682136     -4027.2938      5742.3759      17.907318      17.907318      17.907318    
     45000   22.5           168.60275     -3356.62        10.875015     -5703.5497      5742.3489      17.90729       17.90729       17.90729     
     45200   22.6           154.76417     -3355.7262      9.9824145     -5514.8525      5742.3215      17.907261      17.907261      17.907261    
     45400   22.7           155.71279     -3355.7862      10.043601     -3131.9462      5742.294       17.907233      17.907233      17.907233    
     45600   22.8           158.92625     -3355.9924      10.250872     -4931.5245      5742.2662      17.907204      17.907204      17.907204    
     45800   22.9           155.87935     -3355.7946      10.054345     -5084.8233      5742.2383      17.907175      17.907175      17.907175    
     46000   23             165.53871     -3356.4166      10.677381     -5078.4674      5742.2101      17.907145      17.907145      17.907145    
     46200   23.1           166.04032     -3356.4477      10.709736     -4627.8486      5742.1817      17.907116      17.907116      17.907116    
     46400   23.2           153.94579     -3355.6663      9.9296283     -3527.8766      5742.1531      17.907086      17.907086      17.907086    
     46600   23.3           158.55175     -3355.9622      10.226717     -3114.0484      5742.1243      17.907056      17.907056      17.907056    
     46800   23.4           161.96881     -3356.1815      10.44712      -4051.3842      5742.0954      17.907026      17.907026      17.907026    
     47000   23.5           165.84596     -3356.4304      10.697199     -4543.2829      5742.0663      17.906996      17.906996      17.906996    
     47200   23.6           155.87184     -3355.7857      10.05386      -3821.9655      5742.0369      17.906965      17.906965      17.906965    
     47400   23.7           159.69438     -3356.0311      10.300417     -4488.7157      5742.0074      17.906935      17.906935      17.906935    
     47600   23.8           158.05667     -3355.9242      10.194784     -4156.7873      5741.9776      17.906904      17.906904      17.906904    
     47800   23.9           174.00029     -3356.9514      11.22316      -4499.3046      5741.9477      17.906873      17.906873      17.906873    
     48000   24             155.79776     -3355.776       10.049082     -4617.9534      5741.9176      17.906841      17.906841      17.906841    
     48200   24.1           161.06404     -3356.1143      10.388761     -2193.5625      5741.8873      17.90681       17.90681       17.90681     
     48400   24.2           164.22487     -3356.3169      10.592638     -5285.1208      5741.8569      17.906778      17.906778      17.906778    
     48600   24.3           162.70306     -3356.2174      10.494479     -3995.901       5741.8263      17.906746      17.906746      17.906746    
     48800   24.4           161.46721     -3356.1364      10.414766     -3371.5873      5741.7955      17.906714      17.906714      17.906714    
     49000   24.5           162.21286     -3356.1831      10.462861     -4309.6618      5741.7645      17.906682      17.906682      17.906682    
     49200   24.6           159.45661     -3356.004       10.285081     -3195.7118      5741.7334      17.90665       17.90665       17.90665     
     49400   24.7           159.57177     -3356.0101      10.292509     -4304.8191      5741.702       17.906617      17.906617      17.906617    
     49600   24.8           153.9373      -3355.6453      9.9290808     -4308.0625      5741.6705      17.906584      17.906584      17.906584    
     49800   24.9           158.69117     -3355.9506      10.235709     -3429.0674      5741.6387      17.906551      17.906551      17.906551    
     50000   25             151.44999     -3355.4822      9.7686473     -4130.6701      5741.6068      17.906518      17.906518      17.906518    
     50200   25.1           162.67172     -3356.2046      10.492458     -3761.8271      5741.5748      17.906485      17.906485      17.906485    
     50400   25.2           155.33792     -3355.7302      10.019422     -4128.8826      5741.5425      17.906451      17.906451      17.906451    
     50600   25.3           160.88423     -3356.0866      10.377163     -5236.3596      5741.51        17.906418      17.906418      17.906418    
     50800   25.4           159.59531     -3356.002       10.294027     -4602.5479      5741.4774      17.906384      17.906384      17.906384    
     51000   25.5           155.24727     -3355.7201      10.013575     -1772.7739      5741.4445      17.906349      17.906349      17.906349    
     51200   25.6           158.71816     -3355.9426      10.23745      -5032.5272      5741.4115      17.906315      17.906315      17.906315    
     51400   25.7           160.82876     -3356.0774      10.373586     -2703.9104      5741.3782      17.906281      17.906281      17.906281    
     51600   25.8           154.87208     -3355.6917      9.9893752     -3907.2599      5741.3449      17.906246      17.906246      17.906246    
     51800   25.9           153.85578     -3355.6246      9.923823      -6013.0771      5741.3113      17.906211      17.906211      17.906211    
     52000   26             156.64054     -3355.8028      10.103442     -4067.6428      5741.2775      17.906176      17.906176      17.906176    
     52200   26.1           158.08969     -3355.8948      10.196913     -3619.1804      5741.2434      17.90614       17.90614       17.90614     
     52400   26.2           159.41398     -3355.9788      10.282331     -4546.4366      5741.2092      17.906105      17.906105      17.906105    
     52600   26.3           156.38673     -3355.7821      10.087071     -2806.0242      5741.1748      17.906069      17.906069      17.906069    
     52800   26.4           164.24815     -3356.2877      10.594139     -4031.6582      5741.1403      17.906033      17.906033      17.906033    
     53000   26.5           151.7736      -3355.4815      9.7895205     -2046.7969      5741.1055      17.905997      17.905997      17.905997    
     53200   26.6           162.04856     -3356.1428      10.452264     -4630.5037      5741.0706      17.905961      17.905961      17.905961    
     53400   26.7           156.96365     -3355.8132      10.124283     -1794.8085      5741.0356      17.905924      17.905924      17.905924    
     53600   26.8           149.06984     -3355.3025      9.6151258     -4402.8147      5741.0004      17.905888      17.905888      17.905888    
     53800   26.9           158.62127     -3355.9172      10.231201     -2712.9247      5740.965       17.905851      17.905851      17.905851    
     54000   27             165.4795      -3356.3579      10.673562     -4220.4519      5740.9294      17.905814      17.905814      17.905814    
     54200   27.1           158.05598     -3355.8775      10.194739     -4418.5981      5740.8937      17.905777      17.905777      17.905777    
     54400   27.2           156.67253     -3355.7867      10.105505     -4333.2175      5740.8578      17.90574       17.90574       17.90574     
     54600   27.3           161.43326     -3356.0923      10.412577     -4015.7144      5740.8217      17.905702      17.905702      17.905702    
     54800   27.4           165.08938     -3356.3265      10.648399     -3107.8387      5740.7855      17.905664      17.905664      17.905664    
     55000   27.5           158.05838     -3355.8714      10.194894     -2714.617       5740.749       17.905626      17.905626      17.905626    
     55200   27.6           156.71106     -3355.7828      10.10799      -3144.9175      5740.7125      17.905588      17.905588      17.905588    
     55400   27.7           159.07351     -3355.9336      10.260371     -3029.4297      5740.6757      17.90555       17.90555       17.90555     
     55600   27.8           151.95765     -3355.473       9.8013916     -4001.7857      5740.6388      17.905512      17.905512      17.905512    
     55800   27.9           160.29471     -3356.0091      10.339139     -3978.6773      5740.6017      17.905473      17.905473      17.905473    
     56000   28             164.3385      -3356.2683      10.599967     -1885.837       5740.5645      17.905435      17.905435      17.905435    
     56200   28.1           164.73718     -3356.2924      10.625682     -5157.4709      5740.527       17.905396      17.905396      17.905396    
     56400   28.2           159.40181     -3355.9466      10.281546     -2971.3714      5740.4894      17.905357      17.905357      17.905357    
     56600   28.3           159.34727     -3355.9415      10.278028     -4491.5646      5740.4517      17.905317      17.905317      17.905317    
     56800   28.4           163.41161     -3356.202       10.540181     -3480.7225      5740.4137      17.905278      17.905278      17.905278    
     57000   28.5           157.7006      -3355.8319      10.171817     -3692.5272      5740.3755      17.905238      17.905238      17.905238    
     57200   28.6           159.6105      -3355.9534      10.295007     -4194.4838      5740.3372      17.905198      17.905198      17.905198    
     57400   28.7           166.34488     -3356.3861      10.72938      -2925.9405      5740.2987      17.905158      17.905158      17.905158    
     57600   28.8           159.40023     -3355.9365      10.281444     -3993.1944      5740.26        17.905118      17.905118      17.905118    
     57800   28.9           158.28078     -3355.8625      10.209239     -2904.9183      5740.2212      17.905078      17.905078      17.905078    
     58000   29             157.11468     -3355.7856      10.134025     -2960.4943      5740.1822      17.905037      17.905037      17.905037    
     58200   29.1           164.11784     -3356.2356      10.585734     -2476.3337      5740.1431      17.904996      17.904996      17.904996    
     58400   29.2           159.28036     -3355.9218      10.273713     -3195.1347      5740.1038      17.904956      17.904956      17.904956    
     58600   29.3           161.62457     -3356.0712      10.424916     -2952.5233      5740.0644      17.904915      17.904915      17.904915    
     58800   29.4           159.15123     -3355.91        10.265384     -3357.9733      5740.0248      17.904873      17.904873      17.904873    
     59000   29.5           153.9079      -3355.57        9.9271849     -3288.5779      5739.985       17.904832      17.904832      17.904832    
     59200   29.6           158.09894     -3355.8385      10.19751      -3440.5873      5739.9451      17.904791      17.904791      17.904791    
     59400   29.7           162.19838     -3356.1011      10.461927     -4008.6023      5739.9051      17.904749      17.904749      17.904749    
     59600   29.8           163.29223     -3356.17        10.532481     -5210.9103      5739.8648      17.904707      17.904707      17.904707    
     59800   29.9           156.8247      -3355.7509      10.11532      -3344.8931      5739.8244      17.904665      17.904665      17.904665    
     60000   30             157.71534     -3355.8065      10.172768     -3157.2824      5739.7839      17.904623      17.904623      17.904623    
     60200   30.1           161.12434     -3356.0246      10.392651     -4569.4393      5739.7431      17.904581      17.904581      17.904581    
     60400   30.2           160.04646     -3355.9534      10.323127     -3297.98        5739.7022      17.904538      17.904538      17.904538    
     60600   30.3           161.94478     -3356.0738      10.44557      -2402.982       5739.6611      17.904495      17.904495      17.904495    
     60800   30.4           159.35375     -3355.9049      10.278446     -3285.1368      5739.6199      17.904452      17.904452      17.904452    
     61000   30.5           161.13635     -3356.0181      10.393426     -3314.1299      5739.5785      17.904409      17.904409      17.904409    
     61200   30.6           157.85717     -3355.8047      10.181916     -3037.5477      5739.537       17.904366      17.904366      17.904366    
     61400   30.7           152.59967     -3355.4637      9.8428025     -3514.8183      5739.4953      17.904323      17.904323      17.904323    
     61600   30.8           160.5032      -3355.9717      10.352587     -3821.8494      5739.4534      17.904279      17.904279      17.904279    
     61800   30.9           164.02182     -3356.1968      10.57954      -3969.16        5739.4114      17.904236      17.904236      17.904236    
     62000   31             161.15196     -3356.0097      10.394432     -3733.0041      5739.3692      17.904192      17.904192      17.904192    
     62200   31.1           161.11489     -3356.0055      10.392041     -4084.2481      5739.3269      17.904148      17.904148      17.904148    
     62400   31.2           162.42486     -3356.088       10.476535     -4375.0807      5739.2844      17.904104      17.904104      17.904104    
     62600   31.3           156.75925     -3355.7207      10.111099     -3241.7022      5739.2417      17.904059      17.904059      17.904059    
     62800   31.4           160.73422     -3355.9752      10.367488     -2177.4177      5739.1988      17.904015      17.904015      17.904015    
     63000   31.5           157.56985     -3355.7691      10.163383     -3290.7342      5739.1558      17.90397       17.90397       17.90397     
     63200   31.6           158.87077     -3355.851       10.247294     -1817.2996      5739.1127      17.903925      17.903925      17.903925    
     63400   31.7           163.77496     -3356.1654      10.563618     -2810.2199      5739.0694      17.90388       17.90388       17.90388     
     63600   31.8           158.94294     -3355.8517      10.251949     -3294.0119      5739.026       17.903835      17.903835      17.903835    
     63800   31.9           159.17929     -3355.865       10.267194     -3181.9198      5738.9825      17.90379       17.90379       17.90379     
     64000   32             155.87796     -3355.6501      10.054255     -2304.9982      5738.9388      17.903744      17.903744      17.903744    
     64200   32.1           155.37875     -3355.6159      10.022056     -3866.6623      5738.895       17.903699      17.903699      17.903699    
     64400   32.2           165.62117     -3356.2746      10.6827       -3331.9031      5738.851       17.903653      17.903653      17.903653    
     64600   32.3           159.24282     -3355.8612      10.271291     -3277.3353      5738.8069      17.903607      17.903607      17.903607    
     64800   32.4           155.59109     -3355.6236      10.035752     -3048.4691      5738.7627      17.903561      17.903561      17.903561    
     65000   32.5           160.41029     -3355.9325      10.346594     -2675.6123      5738.7183      17.903515      17.903515      17.903515    
     65200   32.6           158.47974     -3355.8058      10.222072     -2542.508       5738.6738      17.903469      17.903469      17.903469    
     65400   32.7           162.26051     -3356.0477      10.465935     -4324.5027      5738.6292      17.903422      17.903422      17.903422    
     65600   32.8           156.8275      -3355.6952      10.115501     -2882.418       5738.5844      17.903376      17.903376      17.903376    
     65800   32.9           152.4688      -3355.412       9.8343615     -4132.9987      5738.5394      17.903329      17.903329      17.903329    
     66000   33             163.02494     -3356.0909      10.515241     -2497.7156      5738.4943      17.903282      17.903282      17.903282    
     66200   33.1           154.61951     -3355.5467      9.9730839     -1698.7879      5738.449       17.903235      17.903235      17.903235    
     66400   33.2           169.86859     -3356.5282      10.956662     -3163.3321      5738.4037      17.903188      17.903188      17.903188    
     66600   33.3           160.96343     -3355.9516      10.382272     -2055.5184      5738.3582      17.90314       17.90314       17.90314     
     66800   33.4           159.6067      -3355.8621      10.294762     -4229.6468      5738.3126      17.903093      17.903093      17.903093    
     67000   33.5           161.34644     -3355.9723      10.406977     -3057.8391      5738.2668      17.903045      17.903045      17.903045    
     67200   33.6           154.65253     -3355.5383      9.9752136     -1422.4327      5738.2209      17.902998      17.902998      17.902998    
     67400   33.7           158.43411     -3355.7802      10.219129     -3653.5638      5738.1749      17.90295       17.90295       17.90295     
     67600   33.8           159.31265     -3355.8348      10.275796     -2382.1054      5738.1287      17.902902      17.902902      17.902902    
     67800   33.9           155.74748     -3355.6026      10.045839     -1929.6082      5738.0824      17.902854      17.902854      17.902854    
     68000   34             172.82516     -3356.7022      11.147363     -3984.6137      5738.0359      17.902805      17.902805      17.902805    
     68200   34.1           156.71272     -3355.6606      10.108098     -3393.753       5737.9893      17.902757      17.902757      17.902757    
     68400   34.2           158.52964     -3355.7757      10.22529      -1473.1788      5737.9426      17.902708      17.902708      17.902708    
     68600   34.3           154.31964     -3355.502       9.953742      -1818.7379      5737.8957      17.902659      17.902659      17.902659    
     68800   34.4           163.78453     -3356.1104      10.564235     -2750.979       5737.8487      17.902611      17.902611      17.902611    
     69000   34.5           155.08914     -3355.5472      10.003375     -3568.2459      5737.8016      17.902562      17.902562      17.902562    
     69200   34.6           160.20798     -3355.8753      10.333545     -2845.5933      5737.7544      17.902512      17.902512      17.902512    
     69400   34.7           163.83498     -3356.1071      10.567489     -3158.3083      5737.7071      17.902463      17.902463      17.902463    
     69600   34.8           165.43686     -3356.2082      10.670812     -3809.5846      5737.6596      17.902414      17.902414      17.902414    
     69800   34.9           155.86864     -3355.5888      10.053654     -2741.5891      5737.6119      17.902364      17.902364      17.902364    
     70000   35             156.90365     -3355.6533      10.120413     -2076.0882      5737.5642      17.902315      17.902315      17.902315    
     70200   35.1           156.30509     -3355.6125      10.081805     -2739.4559      5737.5163      17.902265      17.902265      17.902265    
     70400   35.2           163.52623     -3356.0762      10.547575     -2275.0601      5737.4683      17.902215      17.902215      17.902215    
     70600   35.3           158.4928      -3355.7493      10.222914     -2537.3313      5737.4202      17.902165      17.902165      17.902165    
     70800   35.4           159.74403     -3355.8278      10.303619     -1353.9752      5737.3719      17.902115      17.902115      17.902115    
     71000   35.5           159.62042     -3355.8175      10.295647     -2793.7765      5737.3236      17.902064      17.902064      17.902064    
     71200   35.6           166.18753     -3356.2389      10.71923      -2591.5428      5737.2751      17.902014      17.902014      17.902014    
     71400   35.7           157.26862     -3355.6613      10.143954     -2615.1636      5737.2265      17.901963      17.901963      17.901963    
     71600   35.8           165.12854     -3356.1661      10.650925     -795.43951      5737.1778      17.901913      17.901913      17.901913    
     71800   35.9           167.35305     -3356.3073      10.794407     -2932.526       5737.129       17.901862      17.901862      17.901862    
     72000   36             167.58443     -3356.32        10.809332     -3008.9479      5737.0801      17.901811      17.901811      17.901811    
     72200   36.1           154.29497     -3355.4603      9.9521512     -1539.2184      5737.0311      17.90176       17.90176       17.90176     
     72400   36.2           160.30584     -3355.8458      10.339857     -1477.8867      5736.982       17.901709      17.901709      17.901709    
     72600   36.3           169.92732     -3356.4643      10.96045      -3416.18        5736.9328      17.901658      17.901658      17.901658    
     72800   36.4           165.09893     -3356.1504      10.649015     -3420.4185      5736.8835      17.901607      17.901607      17.901607    
     73000   36.5           164.68043     -3356.1212      10.622021     -1558.3393      5736.834       17.901555      17.901555      17.901555    
     73200   36.6           155.01634     -3355.4954      9.9986797     -1672.7484      5736.7845      17.901504      17.901504      17.901504    
     73400   36.7           162.74518     -3355.9916      10.497196     -2318.3493      5736.7348      17.901452      17.901452      17.901452    
     73600   36.8           160.79388     -3355.8634      10.371336     -1820.1074      5736.6851      17.9014        17.9014        17.9014      
     73800   36.9           159.30066     -3355.7648      10.275022     -1966.8274      5736.6352      17.901348      17.901348      17.901348    
     74000   37             161.53141     -3355.9064      10.418907     -2027.5177      5736.5853      17.901296      17.901296      17.901296    
     74200   37.1           161.44661     -3355.8985      10.413438     -2953.8504      5736.5352      17.901244      17.901244      17.901244    
     74400   37.2           160.02153     -3355.8043      10.321519     -2601.6788      5736.485       17.901192      17.901192      17.901192    
     74600   37.3           159.32107     -3355.7568      10.276339     -2209.1068      5736.4347      17.90114       17.90114       17.90114     
     74800   37.4           155.31343     -3355.4959      10.017842     -1562.6188      5736.3842      17.901087      17.901087      17.901087    
     75000   37.5           161.72275     -3355.907       10.431249     -1474.6183      5736.3337      17.901035      17.901035      17.901035    
     75200   37.6           159.6772      -3355.7727      10.299309     -2042.7243      5736.2831      17.900982      17.900982      17.900982    
     75400   37.7           157.10092     -3355.6041      10.133137     -2693.8816      5736.2324      17.900929      17.900929      17.900929    
     75600   37.8           165.16439     -3356.1219      10.653238     -4101.8954      5736.1816      17.900876      17.900876      17.900876    
     75800   37.9           158.01675     -3355.6584      10.192209     -1893.7151      5736.1306      17.900824      17.900824      17.900824    
     76000   38             164.5976      -3356.0806      10.616679     -2763.1607      5736.0796      17.90077       17.90077       17.90077     
     76200   38.1           163.13636     -3355.9838      10.522428     -2559.6503      5736.0284      17.900717      17.900717      17.900717    
     76400   38.2           157.4413      -3355.6141      10.155092     -2165.1328      5735.9772      17.900664      17.900664      17.900664    
     76600   38.3           159.32858     -3355.7334      10.276823     -1779.1623      5735.9258      17.90061       17.90061       17.90061     
     76800   38.4           156.11662     -3355.5238      10.069649     -2884.7719      5735.8744      17.900557      17.900557      17.900557    
     77000   38.5           169.92403     -3356.4121      10.960238     -3325.0197      5735.8229      17.900503      17.900503      17.900503    
     77200   38.6           162.29882     -3355.9178      10.468405     -1606.7836      5735.7712      17.90045       17.90045       17.90045     
     77400   38.7           163.62833     -3356.0012      10.55416      -2408.9778      5735.7195      17.900396      17.900396      17.900396    
     77600   38.8           168.52942     -3356.3148      10.870284     -1571.9631      5735.6677      17.900342      17.900342      17.900342    
     77800   38.9           161.85963     -3355.8822      10.440078     -1286.1979      5735.6158      17.900288      17.900288      17.900288    
     78000   39             164.67862     -3356.0615      10.621905     -2245.5231      5735.5638      17.900234      17.900234      17.900234    
     78200   39.1           150.38387     -3355.137       9.6998815     -2053.7879      5735.5117      17.90018       17.90018       17.90018     
     78400   39.2           156.14867     -3355.5065      10.071716     -1648.9015      5735.4595      17.900125      17.900125      17.900125    
     78600   39.3           158.44375     -3355.6521      10.219751     -1600.3472      5735.4072      17.900071      17.900071      17.900071    
     78800   39.4           154.83212     -3355.4167      9.9867976     -1680.9921      5735.3548      17.900016      17.900016      17.900016    
     79000   39.5           166.31675     -3356.155       10.727565     -2617.5004      5735.3023      17.899962      17.899962      17.899962    
     79200   39.6           158.09727     -3355.6224      10.197402     -1874.6087      5735.2497      17.899907      17.899907      17.899907    
     79400   39.7           164.09647     -3356.0069      10.584355     -2880.6145      5735.197       17.899852      17.899852      17.899852    
     79600   39.8           164.51245     -3356.0312      10.611187     -1960.5268      5735.1441      17.899797      17.899797      17.899797    
     79800   39.9           162.58045     -3355.9042      10.486571     -1433.1718      5735.0911      17.899742      17.899742      17.899742    
     80000   40             166.45061     -3356.1514      10.7362       -2942.2298      5735.038       17.899687      17.899687      17.899687    
     80200   40.1           159.93908     -3355.7289      10.3162       -1540.7188      5734.9848      17.899632      17.899632      17.899632    
     80400   40.2           159.8435      -3355.7202      10.310036     -2918.9714      5734.9315      17.899576      17.899576      17.899576    
     80600   40.3           161.68437     -3355.8365      10.428774     -2212.0721      5734.8781      17.89952       17.89952       17.89952     
     80800   40.4           162.5241      -3355.8882      10.482937     -3083.4897      5734.8245      17.899465      17.899465      17.899465    
     81000   40.5           155.18152     -3355.4121      10.009334     -1529.3031      5734.7708      17.899409      17.899409      17.899409    
     81200   40.6           159.01344     -3355.6568      10.256496     -2316.4815      5734.7171      17.899353      17.899353      17.899353    
     81400   40.7           161.57423     -3355.8194      10.421669     -1285.6804      5734.6632      17.899297      17.899297      17.899297    
     81600   40.8           170.07774     -3356.3654      10.970153     -2574.5054      5734.6092      17.899241      17.899241      17.899241    
     81800   40.9           172.37295     -3356.511       11.118195     -2166.9472      5734.5552      17.899185      17.899185      17.899185    
     82000   41             155.89095     -3355.4453      10.055093     -700.72706      5734.5011      17.899128      17.899128      17.899128    
     82200   41.1           162.90111     -3355.895       10.507254     -2940.6106      5734.4469      17.899072      17.899072      17.899072    
     82400   41.2           161.56419     -3355.8062      10.421021     -3086.3933      5734.3926      17.899015      17.899015      17.899015    
     82600   41.3           152.08427     -3355.1922      9.8095587     -617.65314      5734.3382      17.898959      17.898959      17.898959    
     82800   41.4           158.41029     -3355.5977      10.217592     -1327.9524      5734.2838      17.898902      17.898902      17.898902    
     83000   41.5           154.60004     -3355.3494      9.9718279     -1039.5469      5734.2292      17.898845      17.898845      17.898845    
     83200   41.6           156.59322     -3355.4755      10.10039      -1952.2319      5734.1747      17.898789      17.898789      17.898789    
     83400   41.7           159.77468     -3355.6781      10.305597     -2272.7655      5734.12        17.898732      17.898732      17.898732    
     83600   41.8           159.23437     -3355.6407      10.270746     -1074.1808      5734.0652      17.898675      17.898675      17.898675    
     83800   41.9           160.39714     -3355.7131      10.345746     -757.79538      5734.0104      17.898618      17.898618      17.898618    
     84000   42             163.86285     -3355.9341      10.569287     -1815.9418      5733.9555      17.898561      17.898561      17.898561    
     84200   42.1           160.63246     -3355.7232      10.360924     -1545.2199      5733.9006      17.898503      17.898503      17.898503    
     84400   42.2           156.89763     -3355.4797      10.120024     -731.45172      5733.8455      17.898446      17.898446      17.898446    
     84600   42.3           155.3144      -3355.375       10.017905     -636.3271       5733.7905      17.898389      17.898389      17.898389    
     84800   42.4           154.19766     -3355.3003      9.9458746     -899.74958      5733.7354      17.898332      17.898332      17.898332    
     85000   42.5           159.00647     -3355.608       10.256046     -2143.2485      5733.6802      17.898274      17.898274      17.898274    
     85200   42.6           165.75034     -3356.0406      10.691032     -1613.1891      5733.6249      17.898217      17.898217      17.898217    
     85400   42.7           170.55931     -3356.3482      11.001214     -2048.1804      5733.5695      17.898159      17.898159      17.898159    
     85600   42.8           168.89093     -3356.2379      10.893602     -728.21072      5733.5141      17.898101      17.898101      17.898101    
     85800   42.9           164.061       -3355.9238      10.582068     -1022.9804      5733.4586      17.898044      17.898044      17.898044    
     86000   43             157.95803     -3355.5275      10.188421     -1693.427       5733.4031      17.897986      17.897986      17.897986    
     86200   43.1           161.63188     -3355.7618      10.425387     -364.97063      5733.3475      17.897928      17.897928      17.897928    
     86400   43.2           163.05182     -3355.8508      10.516975     -272.95044      5733.2919      17.89787       17.89787       17.89787     
     86600   43.3           161.12737     -3355.7241      10.392846     -1031.574       5733.2362      17.897812      17.897812      17.897812    
     86800   43.4           163.47558     -3355.8729      10.544307     -61.755486      5733.1805      17.897754      17.897754      17.897754    
     87000   43.5           163.92968     -3355.8996      10.573597      117.37537      5733.1248      17.897696      17.897696      17.897696    
     87200   43.6           159.96216     -3355.6411      10.317689     -866.53637      5733.069       17.897638      17.897638      17.897638    
     87400   43.7           165.50623     -3355.9961      10.675287     -161.45954      5733.0132      17.89758       17.89758       17.89758     
     87600   43.8           158.07555     -3355.5142      10.196001     -1636.4779      5732.9573      17.897522      17.897522      17.897522    
     87800   43.9           159.83783     -3355.6253      10.30967      -1583.9105      5732.9014      17.897464      17.897464      17.897464    
     88000   44             158.17346     -3355.5153      10.202317     -90.977852      5732.8453      17.897405      17.897405      17.897405    
     88200   44.1           159.03899     -3355.5685      10.258144      602.25533      5732.7893      17.897347      17.897347      17.897347    
     88400   44.2           160.12719     -3355.6361      10.328334     -1499.9666      5732.7332      17.897289      17.897289      17.897289    
     88600   44.3           164.57062     -3355.9201      10.614939     -1444.2929      5732.6771      17.89723       17.89723       17.89723     
     88800   44.4           166.38911     -3356.0348      10.732233     -270.13776      5732.6209      17.897172      17.897172      17.897172    
     89000   44.5           164.74335     -3355.926       10.62608      -989.49948      5732.5647      17.897113      17.897113      17.897113    
     89200   44.6           169.75967     -3356.2469      10.949636     -880.38398      5732.5085      17.897055      17.897055      17.897055    
     89400   44.7           156.55198     -3355.3923      10.09773      -1394.0189      5732.4522      17.896996      17.896996      17.896996    
     89600   44.8           156.3295      -3355.3753      10.08338       1174.2245      5732.3959      17.896938      17.896938      17.896938    
     89800   44.9           167.04379     -3356.0638      10.77446      -818.7905       5732.3395      17.896879      17.896879      17.896879    
     90000   45             164.91051     -3355.9236      10.636862     -92.440177      5732.2831      17.89682       17.89682       17.89682     
     90200   45.1           155.28868     -3355.3003      10.016246     -759.91356      5732.2267      17.896762      17.896762      17.896762    
     90400   45.2           159.33383     -3355.5586      10.277161      174.79812      5732.1702      17.896703      17.896703      17.896703    
     90600   45.3           165.53786     -3355.9561      10.677327     -1392.6467      5732.1137      17.896644      17.896644      17.896644    
     90800   45.4           158.68254     -3355.5113      10.235153     -91.837333      5732.0572      17.896585      17.896585      17.896585    
     91000   45.5           170.83478     -3356.2926      11.018982     -1057.8873      5732.0006      17.896526      17.896526      17.896526    
     91200   45.6           163.15543     -3355.7945      10.523658      435.87231      5731.9441      17.896467      17.896467      17.896467    
     91400   45.7           162.61366     -3355.7569      10.488713     -2071.1767      5731.8875      17.896409      17.896409      17.896409    
     91600   45.8           161.37246     -3355.6743      10.408655      1333.0755      5731.8308      17.89635       17.89635       17.89635     
     91800   45.9           163.17101     -3355.7875      10.524662     -809.03547      5731.7742      17.896291      17.896291      17.896291    
     92000   46             155.12711     -3355.2661      10.005825     -99.193626      5731.7175      17.896232      17.896232      17.896232    
     92200   46.1           159.37448     -3355.5374      10.279784     -42.54222       5731.6608      17.896173      17.896173      17.896173    
     92400   46.2           164.61685     -3355.8729      10.61792      -1640.9962      5731.6042      17.896114      17.896114      17.896114    
     92600   46.3           165.52937     -3355.9292      10.676779     -556.35963      5731.5474      17.896055      17.896055      17.896055    
     92800   46.4           162.82741     -3355.7523      10.5025       -13.918799      5731.4907      17.895996      17.895996      17.895996    
     93000   46.5           162.74885     -3355.7445      10.497433     -178.96038      5731.434       17.895937      17.895937      17.895937    
     93200   46.6           161.0636      -3355.6331      10.388733     -73.029768      5731.3772      17.895877      17.895877      17.895877    
     93400   46.7           158.91479     -3355.4918      10.250133     -74.243188      5731.3205      17.895818      17.895818      17.895818    
     93600   46.8           163.75381     -3355.8012      10.562254     -229.32767      5731.2638      17.895759      17.895759      17.895759    
     93800   46.9           157.44209     -3355.3916      10.155143      453.04999      5731.207       17.8957        17.8957        17.8957      
     94000   47             164.83665     -3355.8659      10.632098     -417.39596      5731.1503      17.895641      17.895641      17.895641    
     94200   47.1           157.06793     -3355.3621      10.131009     -737.41799      5731.0936      17.895582      17.895582      17.895582    
     94400   47.2           166.88536     -3355.9927      10.764241     -543.94242      5731.0368      17.895523      17.895523      17.895523    
     94600   47.3           165.11589     -3355.8759      10.650109     -1481.4932      5730.98        17.895464      17.895464      17.895464    
     94800   47.4           159.3857      -3355.5036      10.280507      649.39445      5730.9232      17.895405      17.895405      17.895405    
     95000   47.5           159.95283     -3355.5376      10.317088      784.13696      5730.8664      17.895346      17.895346      17.895346    
     95200   47.6           167.72058     -3356.036       10.818114     -204.8464       5730.8096      17.895287      17.895287      17.895287    
     95400   47.7           162.99094     -3355.7282      10.513048     -572.15781      5730.7528      17.895228      17.895228      17.895228    
     95600   47.8           163.39875     -3355.7519      10.539352     -218.93641      5730.6961      17.895168      17.895168      17.895168    
     95800   47.9           158.4583      -3355.4305      10.220689      82.268096      5730.6393      17.895109      17.895109      17.895109    
     96000   48             166.768       -3355.9639      10.756672      332.46287      5730.5825      17.89505       17.89505       17.89505     
     96200   48.1           162.96689     -3355.7162      10.511497      290.29651      5730.5257      17.894991      17.894991      17.894991    
     96400   48.2           168.42906     -3356.0658      10.863811     -1231.0406      5730.4689      17.894932      17.894932      17.894932    
     96600   48.3           164.95528     -3355.8391      10.63975      -282.82304      5730.4121      17.894873      17.894873      17.894873    
     96800   48.4           157.24397     -3355.3389      10.142364     -251.65105      5730.3553      17.894814      17.894814      17.894814    
     97000   48.5           157.23484     -3355.3358      10.141775     -751.38889      5730.2985      17.894755      17.894755      17.894755    
     97200   48.6           162.50022     -3355.6728      10.481396      1000.1583      5730.2416      17.894695      17.894695      17.894695    
     97400   48.7           170.53275     -3356.1884      10.999501      129.32453      5730.1847      17.894636      17.894636      17.894636    
     97600   48.8           173.22394     -3356.3594      11.173085     -902.57841      5730.1278      17.894577      17.894577      17.894577    
     97800   48.9           166.15491     -3355.9006      10.717127     -266.54857      5730.0709      17.894518      17.894518      17.894518    
     98000   49             156.94519     -3355.3039      10.123092     -1826.4722      5730.0141      17.894459      17.894459      17.894459    
     98200   49.1           160.44605     -3355.5272      10.348901      139.93563      5729.9571      17.894399      17.894399      17.894399    
     98400   49.2           162.12137     -3355.6326      10.45696       330.48237      5729.9002      17.89434       17.89434       17.89434     
     98600   49.3           167.95053     -3356.006       10.832945     -966.01941      5729.8433      17.894281      17.894281      17.894281    
     98800   49.4           167.3926      -3355.9673      10.796959     -637.35932      5729.7863      17.894222      17.894222      17.894222    
     99000   49.5           163.35278     -3355.7041      10.536387      185.53333      5729.7294      17.894162      17.894162      17.894162    
     99200   49.6           167.57651     -3355.974       10.808821     -1344.0307      5729.6725      17.894103      17.894103      17.894103    
     99400   49.7           166.80146     -3355.9213      10.75883      -534.78381      5729.6155      17.894044      17.894044      17.894044    
     99600   49.8           172.65759     -3356.2965      11.136555      199.61593      5729.5585      17.893984      17.893984      17.893984    
     99800   49.9           169.25083     -3356.074       10.916816      438.35797      5729.5016      17.893925      17.893925      17.893925    
    100000   50             163.21043     -3355.6818      10.527205     -925.46014      5729.4446      17.893866      17.893866      17.893866    
    100200   50.1           168.36343     -3356.0116      10.859578     -1449.7877      5729.3876      17.893806      17.893806      17.893806    
    100400   50.2           162.97027     -3355.6611      10.511715      97.387159      5729.3306      17.893747      17.893747      17.893747    
    100600   50.3           168.66831     -3356.0261      10.879243      846.7587       5729.2736      17.893688      17.893688      17.893688    
    100800   50.4           159.22303     -3355.4142      10.270015      108.38034      5729.2167      17.893628      17.893628      17.893628    
    101000   50.5           167.13771     -3355.9221      10.780518      976.84036      5729.1597      17.893569      17.893569      17.893569    
    101200   50.6           165.40907     -3355.808       10.669019      17.178411      5729.1028      17.89351       17.89351       17.89351     
    101400   50.7           163.01611     -3355.651       10.514671     -671.85715      5729.0459      17.893451      17.893451      17.893451    
    101600   50.8           168.32273     -3355.9908      10.856953     -424.33069      5728.9889      17.893391      17.893391      17.893391    
    101800   50.9           162.93238     -3355.6403      10.509271      859.42637      5728.932       17.893332      17.893332      17.893332    
    102000   51             166.53406     -3355.8701      10.741582     -873.699        5728.8751      17.893273      17.893273      17.893273    
    102200   51.1           161.19993     -3355.5234      10.397526     -44.296293      5728.8182      17.893214      17.893214      17.893214    
    102400   51.2           164.58699     -3355.7393      10.615995      452.50239      5728.7612      17.893154      17.893154      17.893154    
    102600   51.3           164.67874     -3355.7426      10.621913      1137.9         5728.7043      17.893095      17.893095      17.893095    
    102800   51.4           161.54681     -3355.5379      10.419901     -409.32774      5728.6475      17.893036      17.893036      17.893036    
    103000   51.5           163.61909     -3355.6691      10.553564     -632.75036      5728.5906      17.892977      17.892977      17.892977    
    103200   51.6           165.92456     -3355.8152      10.702269      923.71312      5728.5337      17.892917      17.892917      17.892917    
    103400   51.7           163.83739     -3355.6779      10.567645      1621.8402      5728.4768      17.892858      17.892858      17.892858    
    103600   51.8           161.30856     -3355.5122      10.404533      984.61292      5728.42        17.892799      17.892799      17.892799    
    103800   51.9           166.24731     -3355.8282      10.723086     -551.7183       5728.3633      17.89274       17.89274       17.89274     
    104000   52             169.36798     -3356.0269      10.924372     -637.93084      5728.3065      17.892681      17.892681      17.892681    
    104200   52.1           159.52221     -3355.3892      10.289312     -1279.6065      5728.2498      17.892622      17.892622      17.892622    
    104400   52.2           161.46069     -3355.5117      10.414346      809.13354      5728.193       17.892563      17.892563      17.892563    
    104600   52.3           169.59494     -3356.0339      10.939011     -336.52786      5728.1363      17.892504      17.892504      17.892504    
    104800   52.4           168.53617     -3355.963       10.87072       770.85619      5728.0795      17.892445      17.892445      17.892445    
    105000   52.5           157.55049     -3355.2517      10.162135      364.42327      5728.0228      17.892385      17.892385      17.892385    
    105200   52.6           168.61853     -3355.9632      10.876032      582.08263      5727.9661      17.892326      17.892326      17.892326    
    105400   52.7           166.63145     -3355.8324      10.747864      1913.2786      5727.9094      17.892267      17.892267      17.892267    
    105600   52.8           162.95108     -3355.5924      10.510477      349.45433      5727.8528      17.892208      17.892208      17.892208    
    105800   52.9           167.55577     -3355.8869      10.807483     -396.64705      5727.7962      17.89215       17.89215       17.89215     
    106000   53             162.87988     -3355.5827      10.505884      574.9521       5727.7396      17.892091      17.892091      17.892091    
    106200   53.1           159.67563     -3355.3734      10.299208      75.44518       5727.6831      17.892032      17.892032      17.892032    
    106400   53.2           156.33771     -3355.1555      10.083909      1117.3188      5727.6265      17.891973      17.891973      17.891973    
    106600   53.3           169.85295     -3356.0248      10.955653      344.28196      5727.57        17.891914      17.891914      17.891914    
    106800   53.4           168.41882     -3355.9298      10.863151      1205.6421      5727.5136      17.891855      17.891855      17.891855    
    107000   53.5           165.87956     -3355.7634      10.699366      148.2426       5727.4571      17.891796      17.891796      17.891796    
    107200   53.6           163.0928      -3355.5811      10.519618      406.91432      5727.4007      17.891738      17.891738      17.891738    
    107400   53.7           158.52108     -3355.2836      10.224739      731.02275      5727.3443      17.891679      17.891679      17.891679    
    107600   53.8           165.81235     -3355.7513      10.695031      546.57404      5727.288       17.89162       17.89162       17.89162     
    107800   53.9           166.50105     -3355.7933      10.739453     -367.16417      5727.2317      17.891562      17.891562      17.891562    
    108000   54             164.38397     -3355.6542      10.6029        2406.9045      5727.1754      17.891503      17.891503      17.891503    
    108200   54.1           162.77254     -3355.5476      10.498961      1231.8038      5727.1192      17.891445      17.891445      17.891445    
    108400   54.2           152.48402     -3354.8813      9.835343       2740.2492      5727.0631      17.891386      17.891386      17.891386    
    108600   54.3           161.45197     -3355.4573      10.413783      704.64088      5727.007       17.891328      17.891328      17.891328    
    108800   54.4           154.12133     -3354.9819      9.9409508      1493.6725      5726.951       17.891269      17.891269      17.891269    
    109000   54.5           162.29266     -3355.5064      10.468009      2160.2767      5726.895       17.891211      17.891211      17.891211    
    109200   54.6           171.75716     -3356.1144      11.078476     -54.114606      5726.8391      17.891153      17.891153      17.891153    
    109400   54.7           176.83497     -3356.4394      11.405999      1604.2724      5726.7833      17.891095      17.891095      17.891095    
    109600   54.8           171.76804     -3356.11        11.079178      477.19539      5726.7275      17.891037      17.891037      17.891037    
    109800   54.9           166.59916     -3355.774       10.745781      1283.8424      5726.6719      17.890979      17.890979      17.890979    
    110000   55             161.73693     -3355.4577      10.432163      2550.3038      5726.6163      17.890921      17.890921      17.890921    
    110200   55.1           163.0846      -3355.5422      10.519089      656.10853      5726.5607      17.890863      17.890863      17.890863    
    110400   55.2           157.57424     -3355.1842      10.163667     -859.4438       5726.5053      17.890805      17.890805      17.890805    
    110600   55.3           163.83393     -3355.5856      10.567421      1393.4208      5726.4498      17.890747      17.890747      17.890747    
    110800   55.4           160.86203     -3355.3914      10.375732      929.03383      5726.3944      17.89069       17.89069       17.89069     
    111000   55.5           165.50737     -3355.6886      10.67536       277.11169      5726.339       17.890632      17.890632      17.890632    
    111200   55.6           166.19367     -3355.7302      10.719627      1093.5045      5726.2836      17.890574      17.890574      17.890574    
    111400   55.7           174.98774     -3356.295       11.286852      1273.2407      5726.2283      17.890517      17.890517      17.890517    
    111600   55.8           165.32233     -3355.6691      10.663424      612.73994      5726.1731      17.890459      17.890459      17.890459    
    111800   55.9           150.51797     -3354.7116      9.7085313      1654.2989      5726.1179      17.890402      17.890402      17.890402    
    112000   56             172.43889     -3356.1231      11.122448     -30.610709      5726.0627      17.890344      17.890344      17.890344    
    112200   56.1           164.83932     -3355.6303      10.63227       1428.2552      5726.0076      17.890287      17.890287      17.890287    
    112400   56.2           170.74602     -3356.0089      11.013257      736.50016      5725.9526      17.89023       17.89023       17.89023     
    112600   56.3           166.14903     -3355.7099      10.716748      1215.2795      5725.8976      17.890172      17.890172      17.890172    
    112800   56.4           164.03993     -3355.5713      10.580709      1948.0211      5725.8428      17.890115      17.890115      17.890115    
    113000   56.5           161.00785     -3355.3732      10.385137     -518.62462      5725.7879      17.890058      17.890058      17.890058    
    113200   56.6           163.97628     -3355.5622      10.576603      1001.2685      5725.7332      17.890001      17.890001      17.890001    
    113400   56.7           166.07524     -3355.6952      10.711988      1244.8932      5725.6784      17.889944      17.889944      17.889944    
    113600   56.8           164.37174     -3355.5828      10.602111      416.12065      5725.6237      17.889887      17.889887      17.889887    
    113800   56.9           161.86127     -3355.4184      10.440183      2273.7989      5725.5691      17.88983       17.88983       17.88983     
    114000   57             166.92167     -3355.7423      10.766583      1405.2431      5725.5145      17.889773      17.889773      17.889773    
    114200   57.1           166.08349     -3355.6858      10.71252       1682.4127      5725.46        17.889717      17.889717      17.889717    
    114400   57.2           166.6607      -3355.7206      10.74975       995.00372      5725.4055      17.88966       17.88966       17.88966     
    114600   57.3           159.98812     -3355.2876      10.319364      2315.2433      5725.3511      17.889603      17.889603      17.889603    
    114800   57.4           171.94882     -3356.0567      11.090838     -55.958437      5725.2968      17.889547      17.889547      17.889547    
    115000   57.5           165.75845     -3355.6549      10.691555      2320.2663      5725.2425      17.88949       17.88949       17.88949     
    115200   57.6           165.96812     -3355.666       10.705079      2415.9511      5725.1883      17.889434      17.889434      17.889434    
    115400   57.7           159.38904     -3355.2391      10.280722      918.41754      5725.1342      17.889377      17.889377      17.889377    
    115600   57.8           174.03974     -3356.1817      11.225705      455.44611      5725.0801      17.889321      17.889321      17.889321    
    115800   57.9           162.40843     -3355.429       10.475476      1517.6831      5725.0261      17.889265      17.889265      17.889265    
    116000   58             164.98511     -3355.5928      10.641674      334.82709      5724.9722      17.889209      17.889209      17.889209    
    116200   58.1           170.45137     -3355.9429      10.994252      1615.0772      5724.9183      17.889152      17.889152      17.889152    
    116400   58.2           165.55271     -3355.6244      10.678285      3084.3765      5724.8645      17.889096      17.889096      17.889096    
    116600   58.3           163.08219     -3355.4626      10.518934      1277.3123      5724.8108      17.88904       17.88904       17.88904     
    116800   58.4           170.67614     -3355.95        11.008749      3054.3852      5724.7572      17.888985      17.888985      17.888985    
    117000   58.5           171.21109     -3355.982       11.043254      1430.6525      5724.7037      17.888929      17.888929      17.888929    
    117200   58.6           169.66633     -3355.88        10.943616      536.56367      5724.6503      17.888873      17.888873      17.888873    
    117400   58.7           164.19932     -3355.5249      10.590989      1313.5172      5724.597       17.888818      17.888818      17.888818    
    117600   58.8           161.35028     -3355.3387      10.407224      1983.3168      5724.5438      17.888762      17.888762      17.888762    
    117800   58.9           168.54377     -3355.8002      10.87121       1426.5664      5724.4906      17.888707      17.888707      17.888707    
    118000   59             163.67851     -3355.4839      10.557397      1041.1858      5724.4374      17.888652      17.888652      17.888652    
    118200   59.1           160.07402     -3355.2491      10.324904      2379.4821      5724.3844      17.888596      17.888596      17.888596    
    118400   59.2           173.81374     -3356.133       11.211127      1492.6621      5724.3314      17.888541      17.888541      17.888541    
    118600   59.3           167.90759     -3355.7495      10.830176      523.84866      5724.2784      17.888486      17.888486      17.888486    
    118800   59.4           160.63771     -3355.2782      10.361263      929.85822      5724.2255      17.888431      17.888431      17.888431    
    119000   59.5           162.36443     -3355.3873      10.472637      1515.0035      5724.1727      17.888376      17.888376      17.888376    
    119200   59.6           160.82043     -3355.2852      10.373048      965.62434      5724.1199      17.888321      17.888321      17.888321    
    119400   59.7           168.19734     -3355.7588      10.848865      1907.8413      5724.0671      17.888266      17.888266      17.888266    
    119600   59.8           171.57092     -3355.9739      11.066464      1558.6341      5724.0144      17.888211      17.888211      17.888211    
    119800   59.9           161.16218     -3355.3         10.395092      1788.2765      5723.9618      17.888156      17.888156      17.888156    
    120000   60             164.03841     -3355.4833      10.580611      1302.622       5723.9093      17.888101      17.888101      17.888101    
    120200   60.1           170.6212      -3355.9056      11.005206      1146.8232      5723.8567      17.888047      17.888047      17.888047    
    120400   60.2           164.6767      -3355.5196      10.621781      1833.4981      5723.8043      17.887992      17.887992      17.887992    
    120600   60.3           163.51848     -3355.4426      10.547075      2318.3248      5723.7519      17.887937      17.887937      17.887937    
    120800   60.4           169.43794     -3355.8219      10.928885      2295.3243      5723.6997      17.887883      17.887883      17.887883    
    121000   60.5           171.9982      -3355.9846      11.094024      1667.7119      5723.6476      17.887829      17.887829      17.887829    
    121200   60.6           161.57408     -3355.3099      10.42166       22.276141      5723.5955      17.887774      17.887774      17.887774    
    121400   60.7           163.84734     -3355.4541      10.568287      2411.4849      5723.5435      17.88772       17.88772       17.88772     
    121600   60.8           168.49501     -3355.7516      10.868065      3421.4201      5723.4916      17.887666      17.887666      17.887666    
    121800   60.9           161.46573     -3355.2957      10.414671      2718.3355      5723.4398      17.887612      17.887612      17.887612    
    122000   61             164.54132     -3355.4917      10.613049      3227.0074      5723.3881      17.887558      17.887558      17.887558    
    122200   61.1           161.32142     -3355.2817      10.405363      2038.2166      5723.3366      17.887505      17.887505      17.887505    
    122400   61.2           160.74927     -3355.2423      10.368458      2190.6118      5723.2851      17.887451      17.887451      17.887451    
    122600   61.3           168.06372     -3355.7117      10.840247      1734.8451      5723.2338      17.887398      17.887398      17.887398    
    122800   61.4           161.9962      -3355.3179      10.448886      2524.9963      5723.1826      17.887344      17.887344      17.887344    
    123000   61.5           175.08681     -3356.1601      11.293242      2337.4718      5723.1315      17.887291      17.887291      17.887291    
    123200   61.6           164.72177     -3355.489       10.624688      3436.0267      5723.0804      17.887238      17.887238      17.887238    
    123400   61.7           166.45976     -3355.5988      10.73679       1155.3382      5723.0295      17.887185      17.887185      17.887185    
    123600   61.8           158.55687     -3355.0866      10.227047      2043.1488      5722.9787      17.887132      17.887132      17.887132    
    123800   61.9           165.78175     -3355.5503      10.693058      2846.9436      5722.928       17.887079      17.887079      17.887079    
    124000   62             175.87382     -3356.1989      11.344004      3601.332       5722.8773      17.887026      17.887026      17.887026    
    124200   62.1           162.59056     -3355.3396      10.487223      1674.3264      5722.8268      17.886974      17.886974      17.886974    
    124400   62.2           166.55661     -3355.5931      10.743037      2184.726       5722.7765      17.886921      17.886921      17.886921    
    124600   62.3           170.18821     -3355.825       10.977278      1107.6542      5722.7262      17.886869      17.886869      17.886869    
    124800   62.4           164.12071     -3355.4313      10.585919      3618.7575      5722.6761      17.886817      17.886817      17.886817    
    125000   62.5           167.38592     -3355.6395      10.796528      3172.8342      5722.626       17.886764      17.886764      17.886764    
    125200   62.6           161.64337     -3355.2667      10.426129      1582.6498      5722.5761      17.886712      17.886712      17.886712    
    125400   62.7           169.94779     -3355.8001      10.96177       2034.842       5722.5263      17.886661      17.886661      17.886661    
    125600   62.8           170.00509     -3355.8014      10.965466      2163.1788      5722.4766      17.886609      17.886609      17.886609    
    125800   62.9           169.7847      -3355.7848      10.951251      2475.8374      5722.427       17.886557      17.886557      17.886557    
    126000   63             169.37781     -3355.7562      10.925007      3626.7775      5722.3776      17.886506      17.886506      17.886506    
    126200   63.1           166.26403     -3355.5529      10.724165      1087.1532      5722.3283      17.886454      17.886454      17.886454    
    126400   63.2           176.82561     -3356.2319      11.405396      3317.3204      5722.279       17.886403      17.886403      17.886403    
    126600   63.3           166.19652     -3355.5439      10.719811      3313.8163      5722.23        17.886352      17.886352      17.886352    
    126800   63.4           171.8372      -3355.9054      11.083639      2945.4563      5722.1811      17.886301      17.886301      17.886301    
    127000   63.5           167.58874     -3355.6289      10.80961       3915.5618      5722.1324      17.88625       17.88625       17.88625     
    127200   63.6           171.70306     -3355.8919      11.074987      5077.3267      5722.0838      17.886199      17.886199      17.886199    
    127400   63.7           165.85429     -3355.5122      10.697736      1321.4401      5722.0353      17.886149      17.886149      17.886149    
    127600   63.8           162.86326     -3355.3169      10.504813      3005.6301      5721.987       17.886099      17.886099      17.886099    
    127800   63.9           173.37632     -3355.9928      11.182913      2270.9388      5721.9388      17.886048      17.886048      17.886048    
    128000   64             171.67276     -3355.8806      11.073033      2125.252       5721.8908      17.885998      17.885998      17.885998    
    128200   64.1           170.5876      -3355.8082      11.003038      3145.6183      5721.8428      17.885948      17.885948      17.885948    
    128400   64.2           154.64928     -3354.7777      9.9750043      4061.3136      5721.795       17.885899      17.885899      17.885899    
    128600   64.3           168.99095     -3355.7006      10.900054      1577.943       5721.7474      17.885849      17.885849      17.885849    
    128800   64.4           157.69973     -3354.9698      10.17176       3610.6845      5721.6998      17.885799      17.885799      17.885799    
    129000   64.5           159.7801      -3355.1017      10.305947      4963.7446      5721.6524      17.88575       17.88575       17.88575     
    129200   64.6           167.8254      -3355.6183      10.824875      2693.0907      5721.6052      17.885701      17.885701      17.885701    
    129400   64.7           168.35254     -3355.65        10.858876      1956.5168      5721.5581      17.885652      17.885652      17.885652    
    129600   64.8           172.15193     -3355.8928      11.103939      3764.5449      5721.5111      17.885603      17.885603      17.885603    
    129800   64.9           167.65078     -3355.5999      10.813611      3547.2139      5721.4643      17.885554      17.885554      17.885554    
    130000   65             162.20331     -3355.2462      10.462246      1958.4227      5721.4177      17.885505      17.885505      17.885505    
    130200   65.1           169.14536     -3355.6918      10.910013      4574.9863      5721.3712      17.885457      17.885457      17.885457    
    130400   65.2           156.13873     -3354.8503      10.071075      3635.8373      5721.3249      17.885409      17.885409      17.885409    
    130600   65.3           168.82247     -3355.6661      10.889186      3560.8975      5721.2788      17.885361      17.885361      17.885361    
    130800   65.4           166.74355     -3355.5298      10.755094      2861.5375      5721.2329      17.885313      17.885313      17.885313    
    131000   65.5           161.36492     -3355.1804      10.408168      3349.1489      5721.1871      17.885265      17.885265      17.885265    
    131200   65.6           158.39653     -3354.9866      10.216705      2774.6749      5721.1415      17.885218      17.885218      17.885218    
    131400   65.7           165.35143     -3355.433       10.665302      2119.9984      5721.0959      17.88517       17.88517       17.88517     
    131600   65.8           166.65423     -3355.5146      10.749333      4616.8154      5721.0505      17.885123      17.885123      17.885123    
    131800   65.9           163.10977     -3355.2837      10.520713      3313.0397      5721.0053      17.885076      17.885076      17.885076    
    132000   66             163.73959     -3355.322       10.561337      4616.4814      5720.9602      17.885029      17.885029      17.885029    
    132200   66.1           164.28673     -3355.355       10.596627      2585.4271      5720.9153      17.884982      17.884982      17.884982    
    132400   66.2           173.18455     -3355.9266      11.170544      2730.8235      5720.8706      17.884935      17.884935      17.884935    
    132600   66.3           157.26829     -3354.8975      10.143932      3785.5327      5720.826       17.884889      17.884889      17.884889    
    132800   66.4           173.85096     -3355.9649      11.213528      2239.7351      5720.7816      17.884843      17.884843      17.884843    
    133000   66.5           160.07286     -3355.0738      10.324829      3421.5701      5720.7373      17.884796      17.884796      17.884796    
    133200   66.6           166.60817     -3355.4931      10.746362      2452.4761      5720.6932      17.88475       17.88475       17.88475     
    133400   66.7           167.69039     -3355.5606      10.816167      4201.0592      5720.6492      17.884705      17.884705      17.884705    
    133600   66.8           162.04817     -3355.1943      10.452238      3798.8675      5720.6055      17.884659      17.884659      17.884659    
    133800   66.9           160.78583     -3355.1105      10.370816      3176.4889      5720.5619      17.884614      17.884614      17.884614    
    134000   67             169.04425     -3355.641       10.903492      3572.1561      5720.5185      17.884568      17.884568      17.884568    
    134200   67.1           169.59794     -3355.6743      10.939205      3624.4671      5720.4752      17.884523      17.884523      17.884523    
    134400   67.2           160.54647     -3355.0881      10.355378      4585.9824      5720.4321      17.884478      17.884478      17.884478    
    134600   67.3           162.40825     -3355.2059      10.475464      5966.2183      5720.3892      17.884434      17.884434      17.884434    
    134800   67.4           167.79644     -3355.5511      10.823007      2300.1196      5720.3466      17.884389      17.884389      17.884389    
    135000   67.5           172.36534     -3355.8435      11.117705      3008.502       5720.3041      17.884345      17.884345      17.884345    
    135200   67.6           167.0854      -3355.5005      10.777144      4074.2083      5720.2617      17.884301      17.884301      17.884301    
    135400   67.7           163.80446     -3355.2866      10.565521      2695.3277      5720.2196      17.884257      17.884257      17.884257    
    135600   67.8           169.53681     -3355.6541      10.935262      2101.1609      5720.1775      17.884213      17.884213      17.884213    
    135800   67.9           159.24077     -3354.9876      10.271159      4972.1314      5720.1356      17.884169      17.884169      17.884169    
    136000   68             163.11397     -3355.2352      10.520983      2595.0164      5720.0939      17.884126      17.884126      17.884126    
    136200   68.1           163.3441      -3355.2477      10.535827      4804.1401      5720.0524      17.884083      17.884083      17.884083    
    136400   68.2           165.95966     -3355.4141      10.704533      2500.5424      5720.0111      17.88404       17.88404       17.88404     
    136600   68.3           166.11836     -3355.4221      10.714769      2888.4673      5719.9698      17.883997      17.883997      17.883997    
    136800   68.4           158.48031     -3354.927       10.222109      3928.8702      5719.9288      17.883954      17.883954      17.883954    
    137000   68.5           166.08573     -3355.4154      10.712664      2844.4196      5719.8879      17.883911      17.883911      17.883911    
    137200   68.6           162.72708     -3355.1964      10.496029      4678.3986      5719.8471      17.883869      17.883869      17.883869    
    137400   68.7           166.82265     -3355.4583      10.760197      3721.2783      5719.8065      17.883826      17.883826      17.883826    
    137600   68.8           165.69028     -3355.3829      10.687158      5295.9574      5719.7662      17.883784      17.883784      17.883784    
    137800   68.9           172.12003     -3355.7954      11.101882      2619.5455      5719.726       17.883742      17.883742      17.883742    
    138000   69             164.59728     -3355.3078      10.616658      3563.8819      5719.6859      17.883701      17.883701      17.883701    
    138200   69.1           171.86375     -3355.7742      11.085352      2740.8435      5719.6461      17.883659      17.883659      17.883659    
    138400   69.2           161.23699     -3355.0863      10.399917      5797.3601      5719.6064      17.883618      17.883618      17.883618    
    138600   69.3           179.71342     -3356.276       11.591662      2850.9397      5719.567       17.883577      17.883577      17.883577    
    138800   69.4           169.03311     -3355.5846      10.902773      3167.1027      5719.5277      17.883536      17.883536      17.883536    
    139000   69.5           165.67819     -3355.366       10.686378      4436.4108      5719.4886      17.883495      17.883495      17.883495    
    139200   69.6           167.62349     -3355.4892      10.811851      4140.9198      5719.4497      17.883455      17.883455      17.883455    
    139400   69.7           171.85259     -3355.7596      11.084632      5385.1202      5719.411       17.883414      17.883414      17.883414    
    139600   69.8           166.33107     -3355.4011      10.728489      4060.1002      5719.3725      17.883374      17.883374      17.883374    
    139800   69.9           171.25323     -3355.7163      11.045973      4555.5463      5719.3342      17.883334      17.883334      17.883334    
    140000   70             168.89265     -3355.5617      10.893713      3791.0954      5719.296       17.883294      17.883294      17.883294    
    140200   70.1           168.90656     -3355.5603      10.894611      4576.4044      5719.2581      17.883255      17.883255      17.883255    
    140400   70.2           166.88065     -3355.4274      10.763938      3744.5579      5719.2204      17.883216      17.883216      17.883216    
    140600   70.3           168.67838     -3355.541       10.879893      4496.6989      5719.1828      17.883176      17.883176      17.883176    
    140800   70.4           179.48207     -3356.2356      11.576739      2137.1059      5719.1455      17.883137      17.883137      17.883137    
    141000   70.5           171.30031     -3355.7056      11.049009      4832.7495      5719.1083      17.883099      17.883099      17.883099    
    141200   70.6           164.32028     -3355.2529      10.598792      4635.6401      5719.0713      17.88306       17.88306       17.88306     
    141400   70.7           166.25669     -3355.3757      10.723692      3720.2359      5719.0345      17.883022      17.883022      17.883022    
    141600   70.8           168.45332     -3355.5149      10.865376      5076.8875      5718.9979      17.882984      17.882984      17.882984    
    141800   70.9           163.06566     -3355.165       10.517868      5065.4408      5718.9615      17.882946      17.882946      17.882946    
    142000   71             162.20407     -3355.1072      10.462294      5065.8871      5718.9254      17.882908      17.882908      17.882908    
    142200   71.1           164.08657     -3355.2264      10.583717      3991.238       5718.8894      17.882871      17.882871      17.882871    
    142400   71.2           160.36655     -3354.9841      10.343772      3982.2351      5718.8536      17.882833      17.882833      17.882833    
    142600   71.3           169.55281     -3355.5744      10.936294      3968.476       5718.8179      17.882796      17.882796      17.882796    
    142800   71.4           171.51886     -3355.6989      11.063106      4647.3059      5718.7825      17.882759      17.882759      17.882759    
    143000   71.5           164.38911     -3355.2367      10.603231      4438.8385      5718.7473      17.882722      17.882722      17.882722    
    143200   71.6           166.20419     -3355.3514      10.720305      5251.0245      5718.7123      17.882686      17.882686      17.882686    
    143400   71.7           164.65456     -3355.2492      10.620353      5019.4773      5718.6775      17.88265       17.88265       17.88265     
    143600   71.8           176.68762     -3356.023       11.396495      2719.1324      5718.643       17.882614      17.882614      17.882614    
    143800   71.9           158.73181     -3354.8625      10.238331      4136.9636      5718.6087      17.882578      17.882578      17.882578    
    144000   72             171.92959     -3355.7115      11.089598      5644.6222      5718.5745      17.882542      17.882542      17.882542    
    144200   72.1           163.16904     -3355.1442      10.524535      4632.939       5718.5405      17.882507      17.882507      17.882507    
    144400   72.2           171.38081     -3355.6715      11.054201      4157.58        5718.5068      17.882472      17.882472      17.882472    
    144600   72.3           170.57969     -3355.6175      11.002528      2826.1918      5718.4733      17.882437      17.882437      17.882437    
    144800   72.4           164.59074     -3355.2289      10.616236      5375.8569      5718.4399      17.882402      17.882402      17.882402    
    145000   72.5           171.77333     -3355.6899      11.079519      3110.2484      5718.4067      17.882367      17.882367      17.882367    
    145200   72.6           164.9612      -3355.2481      10.640131      5711.5877      5718.3737      17.882333      17.882333      17.882333    
    145400   72.7           167.46842     -3355.4076      10.801849      4565.4931      5718.3409      17.882299      17.882299      17.882299    
    145600   72.8           161.95766     -3355.0498      10.446401      4850.9821      5718.3084      17.882265      17.882265      17.882265    
    145800   72.9           164.93281     -3355.2395      10.6383        3765.6546      5718.276       17.882231      17.882231      17.882231    
    146000   73             158.45061     -3354.819       10.220193      4442.1093      5718.2439      17.882198      17.882198      17.882198    
    146200   73.1           167.31216     -3355.3884      10.791771      3971.2867      5718.212       17.882164      17.882164      17.882164    
    146400   73.2           163.01556     -3355.1088      10.514636      4050.0304      5718.1803      17.882131      17.882131      17.882131    
    146600   73.3           163.86507     -3355.1613      10.56943       4604.758       5718.1488      17.882099      17.882099      17.882099    
    146800   73.4           169.30464     -3355.5099      10.920287      5046.7802      5718.1175      17.882066      17.882066      17.882066    
    147000   73.5           176.27877     -3355.9574      11.370124      4908.786       5718.0864      17.882034      17.882034      17.882034    
    147200   73.6           173.72852     -3355.7906      11.20563       2422.3463      5718.0556      17.882001      17.882001      17.882001    
    147400   73.7           170.42521     -3355.5752      10.992564      4279.5211      5718.025       17.881969      17.881969      17.881969    
    147600   73.8           170.26293     -3355.5625      10.982097      4836.5462      5717.9946      17.881938      17.881938      17.881938    
    147800   73.9           163.14685     -3355.1011      10.523104      5077.1219      5717.9644      17.881906      17.881906      17.881906    
    148000   74             165.59848     -3355.2569      10.681237      5045.9337      5717.9344      17.881875      17.881875      17.881875    
    148200   74.1           172.20733     -3355.6809      11.107513      3963.5657      5717.9046      17.881844      17.881844      17.881844    
    148400   74.2           165.581       -3355.2512      10.680109      5288.8946      5717.8751      17.881813      17.881813      17.881813    
    148600   74.3           178.5784      -3356.0873      11.518452      3558.7815      5717.8458      17.881783      17.881783      17.881783    
    148800   74.4           168.34465     -3355.4248      10.858367      4200.0169      5717.8167      17.881752      17.881752      17.881752    
    149000   74.5           164.73232     -3355.1894      10.625369      4294.2152      5717.7879      17.881722      17.881722      17.881722    
    149200   74.6           171.27082     -3355.6089      11.047107      4375.8172      5717.7592      17.881692      17.881692      17.881692    
    149400   74.7           176.49226     -3355.9434      11.383894      4165.2521      5717.7308      17.881663      17.881663      17.881663    
    149600   74.8           163.81703     -3355.1235      10.566331      4696.8848      5717.7027      17.881633      17.881633      17.881633    
    149800   74.9           170.22851     -3355.5347      10.979877      3874.641       5717.6747      17.881604      17.881604      17.881604    
    150000   75             166.05806     -3355.2634      10.71088       4590.2619      5717.647       17.881575      17.881575      17.881575    
    150200   75.1           168.34123     -3355.4084      10.858146      3270.8663      5717.6194      17.881547      17.881547      17.881547    
    150400   75.2           171.78366     -3355.6281      11.080185      4653.5593      5717.5921      17.881518      17.881518      17.881518    
    150600   75.3           174.54339     -3355.8039      11.258191      3623.9533      5717.565       17.88149       17.88149       17.88149     
    150800   75.4           159.86858     -3354.8548      10.311654      5600.0897      5717.5381      17.881462      17.881462      17.881462    
    151000   75.5           161.82574     -3354.9787      10.437892      5307.8914      5717.5114      17.881434      17.881434      17.881434    
    151200   75.6           171.10957     -3355.5753      11.036706      4611.1703      5717.485       17.881407      17.881407      17.881407    
    151400   75.7           164.25708     -3355.1309      10.594715      3283.8004      5717.4588      17.881379      17.881379      17.881379    
    151600   75.8           164.97058     -3355.1746      10.640737      4891.6895      5717.4327      17.881352      17.881352      17.881352    
    151800   75.9           162.98894     -3355.0446      10.512919      4986.1549      5717.4069      17.881325      17.881325      17.881325    
    152000   76             177.32314     -3355.9669      11.437487      3539.3399      5717.3813      17.881298      17.881298      17.881298    
    152200   76.1           174.22157     -3355.7644      11.237432      3781.3267      5717.356       17.881272      17.881272      17.881272    
    152400   76.2           174.24212     -3355.7635      11.238759      5028.6393      5717.3308      17.881246      17.881246      17.881246    
    152600   76.3           165.54733     -3355.2002      10.677937      5678.4536      5717.3059      17.88122       17.88122       17.88122     
    152800   76.4           168.6765      -3355.3997      10.879771      4125.7945      5717.2812      17.881194      17.881194      17.881194    
    153000   76.5           166.14844     -3355.2344      10.71671       5392.0195      5717.2567      17.881169      17.881169      17.881169    
    153200   76.6           161.50718     -3354.9327      10.417344      4698.4495      5717.2325      17.881143      17.881143      17.881143    
    153400   76.7           170.03296     -3355.4802      10.967264      4474.0215      5717.2085      17.881118      17.881118      17.881118    
    153600   76.8           173.83455     -3355.7232      11.21247       5059.4301      5717.1847      17.881093      17.881093      17.881093    
    153800   76.9           172.8441      -3355.6569      11.148585      3561.5651      5717.1611      17.881069      17.881069      17.881069    
    154000   77             167.74511     -3355.3256      10.819696      5023.2177      5717.1378      17.881045      17.881045      17.881045    
    154200   77.1           167.98444     -3355.3388      10.835133      5628.451       5717.1147      17.881021      17.881021      17.881021    
    154400   77.2           170.08687     -3355.4721      10.970741      4187.2492      5717.0918      17.880997      17.880997      17.880997    
    154600   77.3           160.9388      -3354.8796      10.380683      4347.8601      5717.0692      17.880973      17.880973      17.880973    
    154800   77.4           174.62548     -3355.7601      11.263485      4597.1155      5717.0467      17.88095       17.88095       17.88095     
    155000   77.5           168.84774     -3355.3852      10.890817      5968.8379      5717.0244      17.880926      17.880926      17.880926    
    155200   77.6           170.99998     -3355.5216      11.029638      5651.4176      5717.0024      17.880903      17.880903      17.880903    
    155400   77.7           172.4351      -3355.6119      11.122204      4198.8488      5716.9807      17.880881      17.880881      17.880881    
    155600   77.8           169.28595     -3355.4063      10.919082      4394.5712      5716.9592      17.880858      17.880858      17.880858    
    155800   77.9           167.72273     -3355.3032      10.818252      4325.1978      5716.9378      17.880836      17.880836      17.880836    
    156000   78             165.66227     -3355.1679      10.685351      5030.8911      5716.9167      17.880814      17.880814      17.880814    
    156200   78.1           170.79352     -3355.4966      11.016321      5050.241       5716.8959      17.880792      17.880792      17.880792    
    156400   78.2           160.6366      -3354.8391      10.361191      5071.8965      5716.8752      17.880771      17.880771      17.880771    
    156600   78.3           177.09416     -3355.8984      11.422717      4986.0091      5716.8549      17.88075       17.88075       17.88075     
    156800   78.4           160.42845     -3354.8208      10.347765      5195.7863      5716.8347      17.880729      17.880729      17.880729    
    157000   78.5           171.34178     -3355.5226      11.051684      5387.6452      5716.8148      17.880708      17.880708      17.880708    
    157200   78.6           167.23892     -3355.2556      10.787046      5114.8971      5716.7951      17.880687      17.880687      17.880687    
    157400   78.7           171.86226     -3355.5515      11.085255      4643.1018      5716.7756      17.880667      17.880667      17.880667    
    157600   78.8           168.78823     -3355.3508      10.886978      2750.4278      5716.7564      17.880647      17.880647      17.880647    
    157800   78.9           169.10357     -3355.3689      10.907318      5499.8856      5716.7373      17.880627      17.880627      17.880627    
    158000   79             170.63361     -3355.4652      11.006007      4429.1087      5716.7184      17.880607      17.880607      17.880607    
    158200   79.1           163.27033     -3354.9878      10.531069      5588.9358      5716.6998      17.880588      17.880588      17.880588    
    158400   79.2           171.81336     -3355.5366      11.082101      5141.8848      5716.6814      17.880569      17.880569      17.880569    
    158600   79.3           167.88325     -3355.2807      10.828606      4817.8702      5716.6633      17.88055       17.88055       17.88055     
    158800   79.4           175.84655     -3355.792       11.342245      4955.8408      5716.6453      17.880531      17.880531      17.880531    
    159000   79.5           174.73172     -3355.7177      11.270338      3614.1345      5716.6277      17.880513      17.880513      17.880513    
    159200   79.6           165.64184     -3355.129       10.684033      4799.0593      5716.6102      17.880495      17.880495      17.880495    
    159400   79.7           172.46398     -3355.5667      11.124067      5520.8482      5716.593       17.880477      17.880477      17.880477    
    159600   79.8           162.69389     -3354.9341      10.493888      5008.8331      5716.5759      17.880459      17.880459      17.880459    
    159800   79.9           169.10864     -3355.3456      10.907644      4516.2165      5716.5592      17.880441      17.880441      17.880441    
    160000   80             165.66524     -3355.1211      10.685542      4896.1921      5716.5426      17.880424      17.880424      17.880424    
    160200   80.1           167.99366     -3355.2689      10.835728      5664.3542      5716.5262      17.880407      17.880407      17.880407    
    160400   80.2           176.76224     -3355.8322      11.401308      3420.1311      5716.5101      17.88039       17.88039       17.88039     
    160600   80.3           173.94071     -3355.6479      11.219317      4475.8183      5716.4942      17.880374      17.880374      17.880374    
    160800   80.4           170.79801     -3355.4427      11.016611      3811.5451      5716.4786      17.880357      17.880357      17.880357    
    161000   80.5           171.17287     -3355.4645      11.040789      4609.2779      5716.4632      17.880341      17.880341      17.880341    
    161200   80.6           169.47378     -3355.3524      10.931197      4333.7759      5716.448       17.880325      17.880325      17.880325    
    161400   80.7           176.82211     -3355.8242      11.40517       3987.178       5716.433       17.88031       17.88031       17.88031     
    161600   80.8           160.9991      -3354.801       10.384573      3512.4122      5716.4182      17.880294      17.880294      17.880294    
    161800   80.9           172.69779     -3355.5533      11.139148      2653.3837      5716.4036      17.880279      17.880279      17.880279    
    162000   81             171.71533     -3355.4876      11.075778      5896.9717      5716.3892      17.880264      17.880264      17.880264    
    162200   81.1           172.36997     -3355.5275      11.118003      4777.6823      5716.3751      17.880249      17.880249      17.880249    
    162400   81.2           166.84328     -3355.1686      10.761527      3872.6564      5716.3612      17.880235      17.880235      17.880235    
    162600   81.3           173.0473      -3355.5664      11.161691      4892.6464      5716.3475      17.880221      17.880221      17.880221    
    162800   81.4           166.32736     -3355.1305      10.72825       5236.5897      5716.334       17.880207      17.880207      17.880207    
    163000   81.5           164.5898      -3355.016       10.616176      4839.0791      5716.3208      17.880193      17.880193      17.880193    
    163200   81.6           170.82247     -3355.4156      11.018188      5319.729       5716.3078      17.880179      17.880179      17.880179    
    163400   81.7           172.62881     -3355.5298      11.134699      5043.1984      5716.295       17.880166      17.880166      17.880166    
    163600   81.8           175.32505     -3355.7014      11.308608      6055.3743      5716.2825      17.880153      17.880153      17.880153    
    163800   81.9           167.34524     -3355.1842      10.793904      5561.2764      5716.2702      17.88014       17.88014       17.88014     
    164000   82             168.32631     -3355.2451      10.857184      6395.5358      5716.2582      17.880128      17.880128      17.880128    
    164200   82.1           161.39658     -3354.7956      10.410211      5161.7705      5716.2465      17.880115      17.880115      17.880115    
    164400   82.2           179.44639     -3355.9577      11.574438      4094.0347      5716.235       17.880103      17.880103      17.880103    
    164600   82.3           171.41448     -3355.4371      11.056373      3849.5127      5716.2238      17.880092      17.880092      17.880092    
    164800   82.4           167.16078     -3355.1603      10.782006      6190.9847      5716.2128      17.88008       17.88008       17.88008     
    165000   82.5           166.92738     -3355.1428      10.766952      5296.9339      5716.202       17.880069      17.880069      17.880069    
    165200   82.6           166.35885     -3355.1038      10.730281      4284.1306      5716.1915      17.880058      17.880058      17.880058    
    165400   82.7           170.5277      -3355.3703      10.999175      4247.8224      5716.1812      17.880047      17.880047      17.880047    
    165600   82.8           170.26021     -3355.3506      10.981922      4482.4012      5716.171       17.880037      17.880037      17.880037    
    165800   82.9           174.71733     -3355.6357      11.26941       3494.7089      5716.1611      17.880026      17.880026      17.880026    
    166000   83             165.68397     -3355.0506      10.686751      4829.4517      5716.1513      17.880016      17.880016      17.880016    
    166200   83.1           161.35994     -3354.7693      10.407847      4760.2626      5716.1418      17.880006      17.880006      17.880006    
    166400   83.2           157.47422     -3354.5162      10.157215      5535.2966      5716.1324      17.879996      17.879996      17.879996    
    166600   83.3           174.57734     -3355.6171      11.26038       5328.9093      5716.1233      17.879987      17.879987      17.879987    
    166800   83.4           173.47718     -3355.5438      11.189419      4777.6392      5716.1143      17.879978      17.879978      17.879978    
    167000   83.5           168.29137     -3355.2068      10.85493       4350.4076      5716.1056      17.879968      17.879968      17.879968    
    167200   83.6           176.6892      -3355.746       11.396597      4290.7553      5716.0971      17.87996       17.87996       17.87996     
    167400   83.7           172.87562     -3355.4976      11.150618      4858.7513      5716.0888      17.879951      17.879951      17.879951    
    167600   83.8           168.70964     -3355.2265      10.881909      5939.1745      5716.0808      17.879943      17.879943      17.879943    
    167800   83.9           167.58317     -3355.1514      10.80925       4317.8748      5716.073       17.879934      17.879934      17.879934    
    168000   84             167.60309     -3355.1504      10.810536      4802.4785      5716.0654      17.879927      17.879927      17.879927    
    168200   84.1           170.97046     -3355.3651      11.027734      5517.0149      5716.058       17.879919      17.879919      17.879919    
    168400   84.2           171.49916     -3355.3967      11.061835      5176.9555      5716.0509      17.879911      17.879911      17.879911    
    168600   84.3           172.7779      -3355.4768      11.144315      4644.9676      5716.044       17.879904      17.879904      17.879904    
    168800   84.4           175.58835     -3355.6556      11.325591      4235.185       5716.0373      17.879897      17.879897      17.879897    
    169000   84.5           164.78288     -3354.9562      10.62863       4572.6943      5716.0308      17.87989       17.87989       17.87989     
    169200   84.6           161.82253     -3354.7628      10.437685      5934.9306      5716.0245      17.879884      17.879884      17.879884    
    169400   84.7           178.44913     -3355.8328      11.510114      4319.364       5716.0184      17.879878      17.879878      17.879878    
    169600   84.8           158.5258      -3354.5452      10.225043      6089.177       5716.0126      17.879871      17.879871      17.879871    
    169800   84.9           173.48717     -3355.508       11.190064      3372.1513      5716.007       17.879866      17.879866      17.879866    
    170000   85             172.84847     -3355.4643      11.148866      2731.1086      5716.0016      17.87986       17.87986       17.87986     
    170200   85.1           164.30189     -3354.9105      10.597605      5718.2318      5715.9963      17.879855      17.879855      17.879855    
    170400   85.2           168.60112     -3355.1854      10.874909      4296.6603      5715.9913      17.879849      17.879849      17.879849    
    170600   85.3           172.2969      -3355.4213      11.11329       4748.2232      5715.9865      17.879844      17.879844      17.879844    
    170800   85.4           164.9038      -3354.9419      10.636429      5690.4143      5715.9819      17.879839      17.879839      17.879839    
    171000   85.5           174.24693     -3355.5422      11.239068      3392.7559      5715.9775      17.879835      17.879835      17.879835    
    171200   85.6           172.08579     -3355.4003      11.099673      3697.8303      5715.9733      17.879831      17.879831      17.879831    
    171400   85.7           171.14837     -3355.3375      11.039209      5018.7704      5715.9694      17.879826      17.879826      17.879826    
    171600   85.8           172.60037     -3355.4287      11.132864      7274.1664      5715.9656      17.879823      17.879823      17.879823    
    171800   85.9           172.49867     -3355.4196      11.126304      6270.5664      5715.9622      17.879819      17.879819      17.879819    
    172000   86             162.177       -3354.7513      10.460548      5525.0327      5715.959       17.879816      17.879816      17.879816    
    172200   86.1           175.96347     -3355.6382      11.349787      4201.7039      5715.956       17.879813      17.879813      17.879813    
    172400   86.2           172.99133     -3355.4439      11.158081      5264.2193      5715.9533      17.87981       17.87981       17.87981     
    172600   86.3           177.16835     -3355.711       11.427503      5518.6906      5715.9508      17.879807      17.879807      17.879807    
    172800   86.4           165.1067      -3354.9304      10.649517      4881.3742      5715.9486      17.879805      17.879805      17.879805    
    173000   86.5           169.53239     -3355.2134      10.934977      4656.2898      5715.9466      17.879803      17.879803      17.879803    
    173200   86.6           168.51735     -3355.1455      10.869506      4702.7575      5715.9448      17.879801      17.879801      17.879801    
    173400   86.7           171.46869     -3355.3334      11.05987       4812.7005      5715.9432      17.879799      17.879799      17.879799    
    173600   86.8           170.47183     -3355.2667      10.995572      5339.9318      5715.9418      17.879798      17.879798      17.879798    
    173800   86.9           169.02937     -3355.1711      10.902532      6109.4805      5715.9407      17.879797      17.879797      17.879797    
    174000   87             166.5503      -3355.0086      10.74263       6524.6052      5715.9399      17.879796      17.879796      17.879796    
    174200   87.1           162.79627     -3354.764       10.500492      7001.3259      5715.9393      17.879795      17.879795      17.879795    
    174400   87.2           174.40438     -3355.5103      11.249224      4948.139       5715.939       17.879795      17.879795      17.879795    
    174600   87.3           170.73746     -3355.2713      11.012705      4406.1937      5715.939       17.879795      17.879795      17.879795    
    174800   87.4           172.70189     -3355.3955      11.139412      5550.3942      5715.9392      17.879795      17.879795      17.879795    
    175000   87.5           171.0227      -3355.2847      11.031103      6241.1994      5715.9396      17.879795      17.879795      17.879795    
    175200   87.6           170.37713     -3355.2406      10.989463      3414.9734      5715.9403      17.879796      17.879796      17.879796    
    175400   87.7           170.08244     -3355.2191      10.970455      5520.2739      5715.9412      17.879797      17.879797      17.879797    
    175600   87.8           176.95594     -3355.6599      11.413802      4821.9573      5715.9424      17.879798      17.879798      17.879798    
    175800   87.9           172.7323      -3355.3849      11.141374      6066.0521      5715.9438      17.8798        17.8798        17.8798      
    176000   88             169.46921     -3355.172       10.930902      5385.1284      5715.9454      17.879801      17.879801      17.879801    
    176200   88.1           167.42856     -3355.0378      10.799278      5523.014       5715.9474      17.879803      17.879803      17.879803    
    176400   88.2           174.54317     -3355.4943      11.258176      5555.9115      5715.9496      17.879806      17.879806      17.879806    
    176600   88.3           163.99785     -3354.8115      10.577994      4440.7823      5715.952       17.879808      17.879808      17.879808    
    176800   88.4           162.35386     -3354.7029      10.471956      5366.1698      5715.9546      17.879811      17.879811      17.879811    
    177000   88.5           171.96767     -3355.3206      11.092054      4061.2501      5715.9575      17.879814      17.879814      17.879814    
    177200   88.6           169.68804     -3355.171       10.945016      5541.12        5715.9606      17.879817      17.879817      17.879817    
    177400   88.7           169.09981     -3355.1305      10.907075      6528.8784      5715.9639      17.879821      17.879821      17.879821    
    177600   88.8           164.37473     -3354.8232      10.602303      6090.4519      5715.9675      17.879824      17.879824      17.879824    
    177800   88.9           165.30018     -3354.8804      10.661996      6099.1518      5715.9714      17.879829      17.879829      17.879829    
    178000   89             167.50647     -3355.0202      10.804303      4410.29        5715.9756      17.879833      17.879833      17.879833    
    178200   89.1           172.26029     -3355.3243      11.110928      5610.5033      5715.98        17.879837      17.879837      17.879837    
    178400   89.2           173.88733     -3355.4267      11.215874      4332.2136      5715.9846      17.879842      17.879842      17.879842    
    178600   89.3           175.53834     -3355.5307      11.322366      4958.8047      5715.9894      17.879847      17.879847      17.879847    
    178800   89.4           168.75302     -3355.0904      10.884707      6195.2113      5715.9945      17.879853      17.879853      17.879853    
    179000   89.5           166.60955     -3354.9497      10.746451      5471.2782      5715.9998      17.879858      17.879858      17.879858    
    179200   89.6           169.23732     -3355.1166      10.915945      5507.8236      5716.0054      17.879864      17.879864      17.879864    
    179400   89.7           162.46117     -3354.677       10.478878      5614.3532      5716.0112      17.87987       17.87987       17.87987     
    179600   89.8           171.14294     -3355.2345      11.038858      5685.3838      5716.0173      17.879876      17.879876      17.879876    
    179800   89.9           179.78698     -3355.7895      11.596407      5989.2574      5716.0237      17.879883      17.879883      17.879883    
    180000   90             171.29063     -3355.2389      11.048385      4900.4991      5716.0303      17.87989       17.87989       17.87989     
    180200   90.1           170.6448      -3355.1947      11.006728      4295.8918      5716.0371      17.879897      17.879897      17.879897    
    180400   90.2           176.11442     -3355.545       11.359523      6111.962       5716.0442      17.879904      17.879904      17.879904    
    180600   90.3           172.46561     -3355.3071      11.124172      6691.4781      5716.0516      17.879912      17.879912      17.879912    
    180800   90.4           173.62418     -3355.3792      11.198901      5739.7136      5716.0593      17.87992       17.87992       17.87992     
    181000   90.5           166.867       -3354.9407      10.763057      4587.9552      5716.0672      17.879928      17.879928      17.879928    
    181200   90.6           163.8726      -3354.7451      10.569916      4747.363       5716.0753      17.879937      17.879937      17.879937    
    181400   90.7           176.96262     -3355.5869      11.414233      4353.7771      5716.0836      17.879946      17.879946      17.879946    
    181600   90.8           177.5742      -3355.6238      11.45368       4271.1561      5716.0922      17.879954      17.879954      17.879954    
    181800   90.9           175.76768     -3355.5047      11.337158      5536.8346      5716.101       17.879964      17.879964      17.879964    
    182000   91             171.54666     -3355.2299      11.064899      5582.2199      5716.11        17.879973      17.879973      17.879973    
    182200   91.1           173.99381     -3355.3852      11.222742      4843.7133      5716.1193      17.879983      17.879983      17.879983    
    182400   91.2           167.27051     -3354.9489      10.789084      5268.368       5716.1288      17.879993      17.879993      17.879993    
    182600   91.3           171.60498     -3355.2259      11.068661      4875.6355      5716.1386      17.880003      17.880003      17.880003    
    182800   91.4           177.58501     -3355.6091      11.454377      3766.5501      5716.1486      17.880013      17.880013      17.880013    
    183000   91.5           173.12148     -3355.3186      11.166476      4577.9368      5716.1588      17.880024      17.880024      17.880024    
    183200   91.6           176.95995     -3355.5637      11.41406       6301.3215      5716.1693      17.880035      17.880035      17.880035    
    183400   91.7           169.3093      -3355.0675      10.920588      6131.1501      5716.1801      17.880046      17.880046      17.880046    
    183600   91.8           173.65231     -3355.3451      11.200715      4893.1131      5716.1912      17.880058      17.880058      17.880058    
    183800   91.9           178.03059     -3355.6249      11.483117      4026.8922      5716.2025      17.880069      17.880069      17.880069    
    184000   92             173.71439     -3355.3439      11.204719      4409.6606      5716.214       17.880081      17.880081      17.880081    
    184200   92.1           171.79161     -3355.2173      11.080698      5302.5059      5716.2258      17.880094      17.880094      17.880094    
    184400   92.2           169.60815     -3355.0739      10.939863      3969.0435      5716.2379      17.880106      17.880106      17.880106    
    184600   92.3           164.90847     -3354.7682      10.63673       6171.1305      5716.2502      17.880119      17.880119      17.880119    
    184800   92.4           170.63677     -3355.1351      11.00621       3559.9619      5716.2628      17.880132      17.880132      17.880132    
    185000   92.5           173.35603     -3355.3079      11.181605      4215.7928      5716.2756      17.880146      17.880146      17.880146    
    185200   92.6           178.15791     -3355.6151      11.49133       6463.3234      5716.2886      17.880159      17.880159      17.880159    
    185400   92.7           168.60878     -3354.9965      10.875403      4948.8146      5716.3018      17.880173      17.880173      17.880173    
    185600   92.8           173.41888     -3355.3041      11.185659      4856.152       5716.3153      17.880187      17.880187      17.880187    
    185800   92.9           172.22411     -3355.2244      11.108595      4392.3328      5716.329       17.880201      17.880201      17.880201    
    186000   93             166.75896     -3354.8694      10.756088      5282.51        5716.3429      17.880216      17.880216      17.880216    
    186200   93.1           171.64685     -3355.182       11.071361      4298.7246      5716.3571      17.880231      17.880231      17.880231    
    186400   93.2           171.00655     -3355.1382      11.030061      4924.6288      5716.3716      17.880246      17.880246      17.880246    
    186600   93.3           177.48527     -3355.5535      11.447944      5286.1547      5716.3862      17.880261      17.880261      17.880261    
    186800   93.4           166.21595     -3354.8239      10.721064      5532.5763      5716.4012      17.880277      17.880277      17.880277    
    187000   93.5           172.86712     -3355.2503      11.15007       6123.1035      5716.4163      17.880292      17.880292      17.880292    
    187200   93.6           171.11076     -3355.1345      11.036783      3819.6581      5716.4318      17.880309      17.880309      17.880309    
    187400   93.7           160.43494     -3354.4431      10.348184      5585.135       5716.4475      17.880325      17.880325      17.880325    
    187600   93.8           177.25838     -3355.5258      11.433309      6021.1829      5716.4634      17.880342      17.880342      17.880342    
    187800   93.9           176.45274     -3355.4712      11.381345      4150.7952      5716.4796      17.880358      17.880358      17.880358    
    188000   94             168.27726     -3354.9412      10.85402       4805.092       5716.4961      17.880376      17.880376      17.880376    
    188200   94.1           173.72669     -3355.2901      11.205513      3984.43        5716.5127      17.880393      17.880393      17.880393    
    188400   94.2           168.57417     -3354.9551      10.873171      6206.5299      5716.5296      17.880411      17.880411      17.880411    
    188600   94.3           179.28583     -3355.6434      11.564081      5313.7164      5716.5468      17.880428      17.880428      17.880428    
    188800   94.4           176.77294     -3355.4787      11.401998      5144.0644      5716.5642      17.880447      17.880447      17.880447    
    189000   94.5           179.94527     -3355.6807      11.606616      5951.6289      5716.5819      17.880465      17.880465      17.880465    
    189200   94.6           171.93704     -3355.1615      11.090079      4337.3086      5716.5999      17.880484      17.880484      17.880484    
    189400   94.7           169.87602     -3355.0259      10.957141      5419.4686      5716.6181      17.880503      17.880503      17.880503    
    189600   94.8           176.14488     -3355.4276      11.361488      3643.3135      5716.6365      17.880522      17.880522      17.880522    
    189800   94.9           170.5768      -3355.0658      11.002342      4625.7994      5716.6552      17.880541      17.880541      17.880541    
    190000   95             176.10425     -3355.4197      11.358867      4655.1641      5716.6741      17.880561      17.880561      17.880561    
    190200   95.1           173.50708     -3355.2496      11.191348      4685.5503      5716.6933      17.880581      17.880581      17.880581    
    190400   95.2           174.79555     -3355.33        11.274455      6274.4482      5716.7127      17.880601      17.880601      17.880601    
    190600   95.3           181.2971      -3355.7468      11.69381       6047.7413      5716.7323      17.880622      17.880622      17.880622    
    190800   95.4           176.59165     -3355.4406      11.390305      4654.5067      5716.7523      17.880643      17.880643      17.880643    
    191000   95.5           166.62979     -3354.7953      10.747757      5207.6638      5716.7725      17.880664      17.880664      17.880664    
    191200   95.6           171.44554     -3355.1033      11.058377      5039.7042      5716.793       17.880685      17.880685      17.880685    
    191400   95.7           178.23314     -3355.5386      11.496182      6338.7349      5716.8137      17.880707      17.880707      17.880707    
    191600   95.8           175.06782     -3355.3317      11.292016      4621.2794      5716.8347      17.880729      17.880729      17.880729    
    191800   95.9           175.57652     -3355.3619      11.324828      5261.8599      5716.8559      17.880751      17.880751      17.880751    
    192000   96             164.89768     -3354.6703      10.636034      6159.3993      5716.8774      17.880773      17.880773      17.880773    
    192200   96.1           172.08811     -3355.1315      11.099823      3778.6893      5716.8991      17.880796      17.880796      17.880796    
    192400   96.2           176.92966     -3355.4412      11.412107      5172.1189      5716.921       17.880819      17.880819      17.880819    
    192600   96.3           172.74797     -3355.1688      11.142384      5425.5973      5716.9432      17.880842      17.880842      17.880842    
    192800   96.4           173.85388     -3355.2374      11.213716      5633.114       5716.9656      17.880865      17.880865      17.880865    
    193000   96.5           167.06956     -3354.7971      10.776123      7642.3142      5716.9883      17.880889      17.880889      17.880889    
    193200   96.6           175.388       -3355.331       11.312668      4813.6712      5717.0113      17.880913      17.880913      17.880913    
    193400   96.7           161.86182     -3354.4558      10.440219      5286.2861      5717.0345      17.880937      17.880937      17.880937    
    193600   96.8           180.72324     -3355.6698      11.656796      4325.0004      5717.0579      17.880961      17.880961      17.880961    
    193800   96.9           170.89174     -3355.0329      11.022656      5567.7095      5717.0816      17.880986      17.880986      17.880986    
    194000   97             173.52932     -3355.2004      11.192782      4513.6485      5717.1055      17.881011      17.881011      17.881011    
    194200   97.1           172.98419     -3355.1626      11.157621      5283.0824      5717.1296      17.881036      17.881036      17.881036    
    194400   97.2           171.41109     -3355.0583      11.056154      5569.0641      5717.1539      17.881061      17.881061      17.881061    
    194600   97.3           166.44914     -3354.7356      10.736105      3939.229       5717.1785      17.881087      17.881087      17.881087    
    194800   97.4           173.55474     -3355.1913      11.194422      5863.9025      5717.2033      17.881113      17.881113      17.881113    
    195000   97.5           174.52177     -3355.2509      11.256796      4561.9403      5717.2283      17.881139      17.881139      17.881139    
    195200   97.6           181.37717     -3355.6906      11.698975      4326.8214      5717.2535      17.881165      17.881165      17.881165    
    195400   97.7           185.08244     -3355.9267      11.937967      4206.5342      5717.2789      17.881192      17.881192      17.881192    
    195600   97.8           178.10533     -3355.4741      11.487938      4067.7993      5717.3045      17.881218      17.881218      17.881218    
    195800   97.9           168.50764     -3354.8522      10.86888       3510.0934      5717.3303      17.881245      17.881245      17.881245    
    196000   98             171.80898     -3355.0625      11.081819      5679.7806      5717.3563      17.881272      17.881272      17.881272    
    196200   98.1           179.81455     -3355.5763      11.598185      4591.648       5717.3825      17.8813        17.8813        17.8813      
    196400   98.2           170.37994     -3354.9648      10.989644      4151.1093      5717.4088      17.881327      17.881327      17.881327    
    196600   98.3           177.05358     -3355.3926      11.4201        4642.463       5717.4354      17.881355      17.881355      17.881355    
    196800   98.4           175.98819     -3355.3212      11.351381      3678.7008      5717.4622      17.881383      17.881383      17.881383    
    197000   98.5           181.15569     -3355.6519      11.684689      5531.5518      5717.4892      17.881411      17.881411      17.881411    
    197200   98.6           175.31745     -3355.2725      11.308118      4352.3865      5717.5165      17.881439      17.881439      17.881439    
    197400   98.7           174.72335     -3355.2314      11.269798      3138.952       5717.5439      17.881468      17.881468      17.881468    
    197600   98.8           166.75346     -3354.7147      10.755733      5530.2363      5717.5716      17.881497      17.881497      17.881497    
    197800   98.9           171.52853     -3355.0199      11.06373       5053.8728      5717.5994      17.881526      17.881526      17.881526    
    198000   99             169.64889     -3354.896       10.942491      4283.4169      5717.6275      17.881555      17.881555      17.881555    
    198200   99.1           174.86831     -3355.2299      11.279148      3514.9387      5717.6558      17.881585      17.881585      17.881585    
    198400   99.2           175.42441     -3355.2631      11.315017      5383.5716      5717.6843      17.881614      17.881614      17.881614    
    198600   99.3           171.92034     -3355.0343      11.089001      6814.1607      5717.713       17.881644      17.881644      17.881644    
    198800   99.4           180.66503     -3355.5957      11.653041      5306.2271      5717.742       17.881675      17.881675      17.881675    
    199000   99.5           172.40509     -3355.0602      11.120268      4539.5998      5717.7713      17.881705      17.881705      17.881705    
    199200   99.6           169.63821     -3354.8789      10.941802      3367.621       5717.8008      17.881736      17.881736      17.881736    
    199400   99.7           175.37309     -3355.2462      11.311707      5042.7024      5717.8304      17.881767      17.881767      17.881767    
    199600   99.8           167.62954     -3354.7439      10.812241      6086.2036      5717.8603      17.881798      17.881798      17.881798    
    199800   99.9           176.39942     -3355.3069      11.377906      4731.9972      5717.8904      17.881829      17.881829      17.881829    
    200000   100            174.10072     -3355.1558      11.229638      4233.8602      5717.9208      17.881861      17.881861      17.881861    
    200200   100.1          174.86125     -3355.2022      11.278693      5569.9836      5717.9514      17.881893      17.881893      17.881893    
    200400   100.2          176.92451     -3355.3326      11.411774      4505.8527      5717.9822      17.881925      17.881925      17.881925    
    200600   100.3          172.33636     -3355.0338      11.115835      5777.1631      5718.0133      17.881957      17.881957      17.881957    
    200800   100.4          177.11757     -3355.3396      11.424227      3667.2884      5718.0446      17.88199       17.88199       17.88199     
    201000   100.5          174.28059     -3355.1537      11.24124       4766.4286      5718.0761      17.882023      17.882023      17.882023    
    201200   100.6          174.01295     -3355.1337      11.223977      5446.5256      5718.1079      17.882056      17.882056      17.882056    
    201400   100.7          173.941       -3355.1264      11.219336      4476.3799      5718.1398      17.882089      17.882089      17.882089    
    201600   100.8          179.08775     -3355.4556      11.551305      4156.3767      5718.172       17.882123      17.882123      17.882123    
    201800   100.9          169.29409     -3354.8211      10.919606      4490.2669      5718.2043      17.882156      17.882156      17.882156    
    202000   101            173.01662     -3355.0584      11.159713      5397.5557      5718.2369      17.88219       17.88219       17.88219     
    202200   101.1          170.6982      -3354.9062      11.010173      3721.9563      5718.2697      17.882225      17.882225      17.882225    
    202400   101.2          174.98564     -3355.18        11.286716      3793.7507      5718.3027      17.882259      17.882259      17.882259    
    202600   101.3          179.7034      -3355.4815      11.591015      4106.7094      5718.3359      17.882294      17.882294      17.882294    
    202800   101.4          175.19894     -3355.1882      11.300474      5259.0118      5718.3693      17.882328      17.882328      17.882328    
    203000   101.5          163.99747     -3354.4628      10.57797       5371.5414      5718.4029      17.882363      17.882363      17.882363    
    203200   101.6          173.92866     -3355.1008      11.21854       4532.8404      5718.4368      17.882399      17.882399      17.882399    
    203400   101.7          169.99185     -3354.8441      10.964612      2933.9015      5718.4708      17.882434      17.882434      17.882434    
    203600   101.8          172.87648     -3355.0273      11.150673      4279.4513      5718.505       17.88247       17.88247       17.88247     
    203800   101.9          170.42653     -3354.8665      10.99265       3703.7626      5718.5394      17.882506      17.882506      17.882506    
    204000   102            176.3118      -3355.2434      11.372254      3678.4699      5718.574       17.882542      17.882542      17.882542    
    204200   102.1          164.97479     -3354.5092      10.641008      5378.9138      5718.6088      17.882578      17.882578      17.882578    
    204400   102.2          172.44027     -3354.988       11.122538      5610.1173      5718.6438      17.882615      17.882615      17.882615    
    204600   102.3          168.65054     -3354.7408      10.878097      4068.9318      5718.6791      17.882651      17.882651      17.882651    
    204800   102.4          176.9904      -3355.2759      11.416024      3941.6849      5718.7145      17.882688      17.882688      17.882688    
    205000   102.5          178.12581     -3355.3465      11.48926       3307.9509      5718.7502      17.882725      17.882725      17.882725    
    205200   102.6          184.01932     -3355.7238      11.869395      3730.7404      5718.786       17.882763      17.882763      17.882763    
    205400   102.7          173.54997     -3355.0457      11.194114      3883.3733      5718.822       17.8828        17.8828        17.8828      
    205600   102.8          171.715       -3354.9244      11.075757      4432.2978      5718.8582      17.882838      17.882838      17.882838    
    205800   102.9          170.43513     -3354.8392      10.993205      4174.3342      5718.8946      17.882876      17.882876      17.882876    
    206000   103            185.79109     -3355.8269      11.983676      2887.9138      5718.9312      17.882914      17.882914      17.882914    
    206200   103.1          178.51818     -3355.3549      11.514568      4652.6803      5718.9679      17.882952      17.882952      17.882952    
    206400   103.2          183.78195     -3355.6917      11.854085      2270.5478      5719.0049      17.882991      17.882991      17.882991    
    206600   103.3          171.04729     -3354.8673      11.032689      3960.7768      5719.042       17.88303       17.88303       17.88303     
    206800   103.4          172.2286      -3354.9409      11.108884      3432.03        5719.0793      17.883068      17.883068      17.883068    
    207000   103.5          180.71558     -3355.4855      11.656301      6091.2898      5719.1167      17.883107      17.883107      17.883107    
    207200   103.6          168.58611     -3354.7002      10.873941      3460.4699      5719.1545      17.883147      17.883147      17.883147    
    207400   103.7          173.91022     -3355.0408      11.21735       4233.4128      5719.1923      17.883186      17.883186      17.883186    
    207600   103.8          169.77374     -3354.7712      10.950544      4740.1032      5719.2304      17.883226      17.883226      17.883226    
    207800   103.9          169.86363     -3354.7741      10.956342      4474.2356      5719.2687      17.883266      17.883266      17.883266    
    208000   104            173.52278     -3355.0074      11.19236       3780.6548      5719.3073      17.883306      17.883306      17.883306    
    208200   104.1          173.00052     -3354.9709      11.158674      5534.5803      5719.346       17.883346      17.883346      17.883346    
    208400   104.2          181.01086     -3355.4847      11.675348      3953.619       5719.3849      17.883387      17.883387      17.883387    
    208600   104.3          173.22517     -3354.9798      11.173164      4743.5992      5719.424       17.883428      17.883428      17.883428    
    208800   104.4          169.55725     -3354.7403      10.936581      5144.0212      5719.4634      17.883469      17.883469      17.883469    
    209000   104.5          175.15186     -3355.0985      11.297437      4007.3903      5719.503       17.88351       17.88351       17.88351     
    209200   104.6          178.11863     -3355.287       11.488796      3628.6386      5719.5429      17.883552      17.883552      17.883552    
    209400   104.7          177.57526     -3355.2491      11.453748      2551.5294      5719.5829      17.883593      17.883593      17.883593    
    209600   104.8          176.47936     -3355.1755      11.383062      3425.9781      5719.6231      17.883635      17.883635      17.883635    
    209800   104.9          176.20924     -3355.1553      11.365639      3720.8156      5719.6634      17.883677      17.883677      17.883677    
    210000   105            174.83877     -3355.064       11.277243      5373.0022      5719.704       17.88372       17.88372       17.88372     
    210200   105.1          167.59328     -3354.5938      10.809903      3966.7822      5719.7448      17.883762      17.883762      17.883762    
    210400   105.2          170.70746     -3354.7919      11.01077       4876.1379      5719.7858      17.883805      17.883805      17.883805    
    210600   105.3          177.6884      -3355.2394      11.461046      3365.0576      5719.827       17.883848      17.883848      17.883848    
    210800   105.4          172.49101     -3354.9013      11.12581       3683.146       5719.8685      17.883891      17.883891      17.883891    
    211000   105.5          174.85665     -3355.0511      11.278396      5710.4587      5719.91        17.883934      17.883934      17.883934    
    211200   105.6          179.52271     -3355.3493      11.579361      4685.7411      5719.9518      17.883978      17.883978      17.883978    
    211400   105.7          175.47319     -3355.0852      11.318163      3884.3663      5719.9938      17.884022      17.884022      17.884022    
    211600   105.8          181.92331     -3355.4985      11.734201      2489.8481      5720.036       17.884066      17.884066      17.884066    
    211800   105.9          173.34986     -3354.9426      11.181207      3420.4637      5720.0784      17.88411       17.88411       17.88411     
    212000   106            171.60237     -3354.8269      11.068492      4285.9165      5720.1209      17.884154      17.884154      17.884154    
    212200   106.1          179.2364      -3355.3165      11.560893      5831.5395      5720.1637      17.884199      17.884199      17.884199    
    212400   106.2          172.34881     -3354.8693      11.116638      3127.8818      5720.2066      17.884243      17.884243      17.884243    
    212600   106.3          178.55945     -3355.2671      11.517229      3285.0819      5720.2497      17.884288      17.884288      17.884288    
    212800   106.4          179.2375      -3355.308       11.560964      4443.8155      5720.293       17.884333      17.884333      17.884333    
    213000   106.5          167.60126     -3354.5546      10.810418      5222.4227      5720.3365      17.884379      17.884379      17.884379    
    213200   106.6          173.13381     -3354.9085      11.167272      4068.9781      5720.3803      17.884424      17.884424      17.884424    
    213400   106.7          182.11302     -3355.485       11.746438      3677.3146      5720.4242      17.88447       17.88447       17.88447     
    213600   106.8          178.3176      -3355.2372      11.50163       3558.8997      5720.4683      17.884516      17.884516      17.884516    
    213800   106.9          182.03552     -3355.4742      11.741439      3806.5337      5720.5126      17.884562      17.884562      17.884562    
    214000   107            172.14227     -3354.8331      11.103316      3656.2719      5720.5571      17.884609      17.884609      17.884609    
    214200   107.1          174.76197     -3354.9992      11.272289      2916.3371      5720.6018      17.884655      17.884655      17.884655    
    214400   107.2          174.02239     -3354.9486      11.224585      4480.3389      5720.6466      17.884702      17.884702      17.884702    
    214600   107.3          168.11807     -3354.5649      10.843752      5581.9115      5720.6915      17.884749      17.884749      17.884749    
    214800   107.4          178.6199      -3355.2395      11.521129      3305.153       5720.7368      17.884796      17.884796      17.884796    
    215000   107.5          178.29704     -3355.2157      11.500304      2452.9435      5720.7822      17.884843      17.884843      17.884843    
    215200   107.6          180.81259     -3355.3752      11.662559      3618.6744      5720.8278      17.884891      17.884891      17.884891    
    215400   107.7          173.67673     -3354.9119      11.20229       4125.3387      5720.8735      17.884938      17.884938      17.884938    
    215600   107.8          174.4358      -3354.958       11.251251      3008.2021      5720.9195      17.884986      17.884986      17.884986    
    215800   107.9          175.8313      -3355.0451      11.341262      3762.5178      5720.9655      17.885034      17.885034      17.885034    
    216000   108            174.27453     -3354.9417      11.240849      2855.523       5721.0118      17.885082      17.885082      17.885082    
    216200   108.1          182.65692     -3355.4796      11.781519      3339.6885      5721.0582      17.885131      17.885131      17.885131    
    216400   108.2          183.98366     -3355.5623      11.867095      2773.7836      5721.1048      17.885179      17.885179      17.885179    
    216600   108.3          178.31833     -3355.1939      11.501677      2516.9326      5721.1516      17.885228      17.885228      17.885228    
    216800   108.4          176.88793     -3355.0988      11.409415      3766.1946      5721.1985      17.885277      17.885277      17.885277    
    217000   108.5          174.49962     -3354.9418      11.255367      2247.3386      5721.2456      17.885326      17.885326      17.885326    
    217200   108.6          175.35345     -3354.994       11.31044       4675.4382      5721.2928      17.885375      17.885375      17.885375    
    217400   108.7          175.4671      -3354.9984      11.317771      3755.361       5721.3403      17.885425      17.885425      17.885425    
    217600   108.8          178.12322     -3355.1669      11.489092      4226.2309      5721.3879      17.885474      17.885474      17.885474    
    217800   108.9          171.74283     -3354.7523      11.077552      2840.1389      5721.4357      17.885524      17.885524      17.885524    
    218000   109            176.50538     -3355.0567      11.384741      3398.9432      5721.4836      17.885574      17.885574      17.885574    
    218200   109.1          176.26383     -3355.0382      11.36916       1560.997       5721.5317      17.885624      17.885624      17.885624    
    218400   109.2          181.96361     -3355.403       11.736801      3873.5381      5721.5799      17.885675      17.885675      17.885675    
    218600   109.3          174.96733     -3354.9487      11.285535      4457.5842      5721.6283      17.885725      17.885725      17.885725    
    218800   109.4          183.3663      -3355.4875      11.827275      3496.3299      5721.6769      17.885776      17.885776      17.885776    
    219000   109.5          167.24296     -3354.4445      10.787307      3151.8608      5721.7257      17.885826      17.885826      17.885826    
    219200   109.6          180.87724     -3355.3212      11.666729      3932.1646      5721.7746      17.885877      17.885877      17.885877    
    219400   109.7          177.92352     -3355.1278      11.476212      2419.1548      5721.8237      17.885929      17.885929      17.885929    
    219600   109.8          180.68987     -3355.3032      11.654643      3352.7486      5721.873       17.88598       17.88598       17.88598     
    219800   109.9          180.78968     -3355.3068      11.661081      2431.4235      5721.9225      17.886031      17.886031      17.886031    
    220000   110            174.52768     -3354.8999      11.257177      4419.1134      5721.972       17.886083      17.886083      17.886083    
Loop time of 6453.86 on 1 procs for 200000 steps with 500 atoms

Performance: 1.339 ns/day, 17.927 hours/ns, 30.989 timesteps/s, 15.495 katom-step/s
99.0% CPU use with 1 MPI tasks x 1 OpenMP threads

MPI task timing breakdown:
Section |  min time  |  avg time  |  max time  |%varavg| %total
---------------------------------------------------------------
Pair    | 6200.2     | 6200.2     | 6200.2     |   0.0 | 96.07
Neigh   | 0.0082428  | 0.0082428  | 0.0082428  |   0.0 |  0.00
Comm    | 7.3117     | 7.3117     | 7.3117     |   0.0 |  0.11
Output  | 0.28705    | 0.28705    | 0.28705    |   0.0 |  0.00
Modify  | 238.05     | 238.05     | 238.05     |   0.0 |  3.69
Other   |            | 8          |            |       |  0.12

Nlocal:            500 ave         500 max         500 min
Histogram: 1 0 0 0 0 0 0 0 0 0
Nghost:           2036 ave        2036 max        2036 min
Histogram: 1 0 0 0 0 0 0 0 0 0
Neighs:              0 ave           0 max           0 min
Histogram: 1 0 0 0 0 0 0 0 0 0
FullNghs:        66120 ave       66120 max       66120 min
Histogram: 1 0 0 0 0 0 0 0 0 0

Total # of neighbors = 66120
Ave neighs/atom = 132.24
Neighbor list builds = 19
Dangerous builds = 0
unfix          npt_run
unfix          boxdump
print "### NPT complete at 300 K ###"
### NPT complete at 300 K ###

# ── Print final lattice parameter ─────────────────────
variable       a0_npt equal lx/5.0
print "NPT_RESULT: a0_at_300K = ${a0_npt} Angstrom"
NPT_RESULT: a0_at_300K = 3.57721661312903 Angstrom
Total wall time: 1:58:12
