LAMMPS (11 Feb 2026 - Development - patch_11Feb2026-99-gb75dfcc930-modified)
/home/akinyemi.az/miniforge3/envs/mace-lammps/lib/python3.11/site-packages/e3nn/o3/_wigner.py:10: FutureWarning: You are using `torch.load` with `weights_only=False` (the current default value), which uses the default pickle module implicitly. It is possible to construct malicious pickle data which will execute arbitrary code during unpickling (See https://github.com/pytorch/pytorch/blob/main/SECURITY.md#untrusted-models for more details). In a future release, the default value for `weights_only` will be flipped to `True`. This limits the functions that could be executed during unpickling. Arbitrary objects will no longer be allowed to be loaded via this mode unless they are explicitly allowlisted by the user via `torch.serialization.add_safe_globals`. We recommend you start setting `weights_only=True` for any use case where you don't have full control of the loaded file. Please open an issue on GitHub for any issues related to this experimental feature.
  _Jd, _W3j_flat, _W3j_indices = torch.load(os.path.join(os.path.dirname(__file__), 'constants.pt'))
KOKKOS mode with Kokkos version 5.0.2 is enabled
  using double precision
  using view layout = legacy
  will use up to 1 GPU(s) per node
  using 1 OpenMP thread(s) per MPI task
Reading data file ...
  orthogonal box = (-0.0034235409 -0.0034235409 -0.0034235409) to (17.858424 17.858424 17.858424)
  1 by 1 by 1 MPI processor grid
  reading atoms ...
  500 atoms
  reading velocities ...
  500 velocities
  read_data CPU = 0.014 seconds

CITE-CITE-CITE-CITE-CITE-CITE-CITE-CITE-CITE-CITE-CITE-CITE-CITE

Your simulation uses code contributions which should be cited:
- KOKKOS package: https://doi.org/10.1145/3731599.3767498
The log file lists these citations in BibTeX format.

CITE-CITE-CITE-CITE-CITE-CITE-CITE-CITE-CITE-CITE-CITE-CITE-CITE

Neighbor list info ...
  update: every = 1 steps, delay = 0 steps, check = yes
  max neighbors/atom: 2000, page size: 100000
  master list distance cutoff = 7
  ghost atom cutoff = 7
  binsize = 7, bins = 3 3 3
  1 neighbor lists, perpetual/occasional/extra = 1 0 0
  (1) pair mliap/kk, perpetual
      attributes: full, newton on, kokkos_device
      pair build: full/bin/kk/device
      stencil: full/bin/3d
      bin: kk/device
Setting up Verlet run ...
  Unit style    : metal
  Current step  : 0
  Time step     : 0.0005
Per MPI rank memory allocation (min/avg/max) = 80.82 | 80.82 | 80.82 Mbytes
   Step          Time           Temp          PotEng         KinEng         Press          Volume           Lx             Ly             Lz      
         0   0              600           -3364.9114      38.700487      7253.6473      5698.7434      17.861847      17.861847      17.861847    
       200   0.1            285.06855     -3344.5965      18.387153      20986.381      5698.7575      17.861862      17.861862      17.861862    
       400   0.2            320.14939     -3346.8613      20.649896      19380.617      5698.8012      17.861908      17.861908      17.861908    
       600   0.3            289.23205     -3344.8694      18.655702      18709.604      5698.8728      17.861982      17.861982      17.861982    
       800   0.4            307.96913     -3346.0813      19.864259      19316.759      5698.9707      17.862085      17.862085      17.862085    
      1000   0.5            308.72149     -3346.1337      19.912787      20340.81       5699.0957      17.862215      17.862215      17.862215    
      1200   0.6            292.50054     -3345.092       18.866522      20536.137      5699.2491      17.862375      17.862375      17.862375    
      1400   0.7            300.11093     -3345.5882      19.357399      19781.71       5699.4306      17.862565      17.862565      17.862565    
      1600   0.8            306.38054     -3345.9982      19.761794      20830.497      5699.6392      17.862783      17.862783      17.862783    
      1800   0.9            306.83658     -3346.0338      19.791209      17598.952      5699.8755      17.86303       17.86303       17.86303     
      2000   1              297.32562     -3345.4265      19.177744      19492.212      5700.1385      17.863305      17.863305      17.863305    
      2200   1.1            302.85533     -3345.7902      19.534415      18221.004      5700.4279      17.863607      17.863607      17.863607    
      2400   1.2            310.23045     -3346.2732      20.010116      18470.012      5700.7431      17.863936      17.863936      17.863936    
      2600   1.3            291.88347     -3345.0975      18.826721      20762.232      5701.0845      17.864293      17.864293      17.864293    
      2800   1.4            314.50432     -3346.5652      20.285784      20577.45       5701.4533      17.864678      17.864678      17.864678    
      3000   1.5            289.67296     -3344.9724      18.684141      21507.734      5701.851       17.865093      17.865093      17.865093    
      3200   1.6            301.29066     -3345.7313      19.433492      19947.164      5702.278       17.865539      17.865539      17.865539    
      3400   1.7            300.70535     -3345.7031      19.395739      16868.316      5702.7333      17.866015      17.866015      17.866015    
      3600   1.8            296.37107     -3345.4333      19.116175      18661.842      5703.2147      17.866517      17.866517      17.866517    
      3800   1.9            284.63057     -3344.6862      18.358903      18524.913      5703.7231      17.867048      17.867048      17.867048    
      4000   2              294.53509     -3345.3358      18.997752      18958.251      5704.2586      17.867607      17.867607      17.867607    
      4200   2.1            291.99076     -3345.1825      18.833641      19781.234      5704.8206      17.868194      17.868194      17.868194    
      4400   2.2            304.69691     -3346.0134      19.653198      19432.282      5705.4095      17.868809      17.868809      17.868809    
      4600   2.3            312.77659     -3346.5461      20.174344      17826.332      5706.0249      17.869451      17.869451      17.869451    
      4800   2.4            287.43051     -3344.9232      18.539501      19871.901      5706.6668      17.870121      17.870121      17.870121    
      5000   2.5            302.46992     -3345.9053      19.509556      18008.926      5707.335       17.870819      17.870819      17.870819    
      5200   2.6            321.01102     -3347.114       20.705471      17172.641      5708.029       17.871543      17.871543      17.871543    
      5400   2.7            297.83866     -3345.6314      19.210836      17451.229      5708.7482      17.872294      17.872294      17.872294    
      5600   2.8            301.23164     -3345.8628      19.429686      15462.017      5709.492       17.87307       17.87307       17.87307     
      5800   2.9            291.81379     -3345.2673      18.822227      16711.722      5710.2589      17.87387       17.87387       17.87387     
      6000   3              318.30243     -3346.9892      20.530765      15959.176      5711.0491      17.874695      17.874695      17.874695    
      6200   3.1            302.25249     -3345.9672      19.495531      17141.587      5711.8632      17.875544      17.875544      17.875544    
      6400   3.2            306.29127     -3346.2409      19.756035      13920.428      5712.7009      17.876418      17.876418      17.876418    
      6600   3.3            293.82265     -3345.4491      18.9518        15398.506      5713.5598      17.877314      17.877314      17.877314    
      6800   3.4            297.76051     -3345.7158      19.205795      14835.704      5714.4395      17.878231      17.878231      17.878231    
      7000   3.5            308.82915     -3346.4432      19.919731      15325.448      5715.3398      17.87917       17.87917       17.87917     
      7200   3.6            303.58787     -3346.118       19.581664      14079.22       5716.2612      17.880131      17.880131      17.880131    
      7400   3.7            315.19987     -3346.8811      20.330647      14632.569      5717.2039      17.881114      17.881114      17.881114    
      7600   3.8            314.05773     -3346.8205      20.256979      11857.649      5718.1676      17.882118      17.882118      17.882118    
      7800   3.9            310.7796      -3346.6217      20.045537      13423.332      5719.1495      17.883142      17.883142      17.883142    
      8000   4              311.88396     -3346.7067      20.116769      13669.307      5720.1512      17.884186      17.884186      17.884186    
      8200   4.1            305.00883     -3346.2773      19.673317      14393.461      5721.173       17.88525       17.88525       17.88525     
      8400   4.2            307.71371     -3346.4665      19.847785      14976.913      5722.2157      17.886337      17.886337      17.886337    
      8600   4.3            314.47957     -3346.9173      20.284188      15339.725      5723.2795      17.887445      17.887445      17.887445    
      8800   4.4            302.44445     -3346.1563      19.507913      14581.477      5724.3643      17.888575      17.888575      17.888575    
      9000   4.5            304.83073     -3346.3247      19.66183       13743.426      5725.4705      17.889728      17.889728      17.889728    
      9200   4.6            297.51215     -3345.8666      19.189775      12521.404      5726.596       17.8909        17.8909        17.8909      
      9400   4.7            308.15595     -3346.5671      19.876309      12095.313      5727.7394      17.89209       17.89209       17.89209     
      9600   4.8            308.1566      -3346.5801      19.876351      10962.684      5728.8997      17.893299      17.893299      17.893299    
      9800   4.9            309.12497     -3346.6557      19.938812      11518.154      5730.0762      17.894523      17.894523      17.894523    
     10000   5              286.93432     -3345.2376      18.507497      12387.676      5731.269       17.895765      17.895765      17.895765    
     10200   5.1            305.54299     -3346.4518      19.707771      9774.7679      5732.4785      17.897024      17.897024      17.897024    
     10400   5.2            304.3875      -3346.3901      19.633241      10631.439      5733.7033      17.898298      17.898298      17.898298    
     10600   5.3            305.45056     -3346.4724      19.701809      12375.083      5734.9437      17.899589      17.899589      17.899589    
     10800   5.4            300.30776     -3346.1544      19.370094      10155.486      5736.2012      17.900897      17.900897      17.900897    
     11000   5.5            307.65327     -3346.6413      19.843886      10982.555      5737.4732      17.90222       17.90222       17.90222     
     11200   5.6            320.14725     -3347.4598      20.649758      6853.2947      5738.76        17.903558      17.903558      17.903558    
     11400   5.7            309.41291     -3346.7786      19.957384      9578.875       5740.059       17.904909      17.904909      17.904909    
     11600   5.8            294.10289     -3345.8022      18.969876      7156.3905      5741.3702      17.906272      17.906272      17.906272    
     11800   5.9            296.02579     -3345.9377      19.093904      8608.3224      5742.6922      17.907646      17.907646      17.907646    
     12000   6              301.80628     -3346.3216      19.46675       6784.6636      5744.0257      17.909032      17.909032      17.909032    
     12200   6.1            292.28281     -3345.7168      18.852478      4706.8858      5745.3686      17.910428      17.910428      17.910428    
     12400   6.2            324.36976     -3347.7958      20.922113      2711.2299      5746.7192      17.911831      17.911831      17.911831    
     12600   6.3            304.13463     -3346.4995      19.616931      4354.4873      5748.0769      17.913242      17.913242      17.913242    
     12800   6.4            292.15601     -3345.7353      18.8443        3501.4746      5749.4415      17.914659      17.914659      17.914659    
     13000   6.5            308.01953     -3346.7671      19.86751       4263.7599      5750.8122      17.916083      17.916083      17.916083    
     13200   6.6            302.81417     -3346.439       19.53176       2334.5684      5752.1888      17.917512      17.917512      17.917512    
     13400   6.7            321.97091     -3347.6807      20.767385      1176.6646      5753.569       17.918945      17.918945      17.918945    
     13600   6.8            329.64268     -3348.1838      21.262221      1121.6728      5754.9529      17.920382      17.920382      17.920382    
     13800   6.9            301.90032     -3346.4013      19.472816      3929.1389      5756.3411      17.921823      17.921823      17.921823    
     14000   7              293.55707     -3345.8703      18.93467       2822.2695      5757.7337      17.923268      17.923268      17.923268    
     14200   7.1            310.65256     -3346.9796      20.037343      1664.9864      5759.1299      17.924716      17.924716      17.924716    
     14400   7.2            312.05427     -3347.0766      20.127754     -714.3264       5760.5293      17.926168      17.926168      17.926168    
     14600   7.3            312.45976     -3347.1077      20.153909      1875.7193      5761.9296      17.92762       17.92762       17.92762     
     14800   7.4            302.92055     -3346.4991      19.538622      1840.938       5763.3327      17.929076      17.929076      17.929076    
     15000   7.5            312.62414     -3347.1311      20.164511      1366.1254      5764.7387      17.930533      17.930533      17.930533    
     15200   7.6            309.52279     -3346.9365      19.964471     -1504.4884      5766.147       17.931993      17.931993      17.931993    
     15400   7.7            304.90375     -3346.6429      19.666539      619.70024      5767.5548      17.933453      17.933453      17.933453    
     15600   7.8            302.50978     -3346.4924      19.512127      364.50064      5768.9626      17.934912      17.934912      17.934912    
     15800   7.9            299.34562     -3346.2935      19.308036      221.93986      5770.3702      17.93637       17.93637       17.93637     
     16000   8              312.5669      -3347.1494      20.160819     -3001.7327      5771.7774      17.937828      17.937828      17.937828    
     16200   8.1            305.21829     -3346.6784      19.686827     -1230.3931      5773.1814      17.939282      17.939282      17.939282    
     16400   8.2            311.67877     -3347.0974      20.103534     -1589.6543      5774.583       17.940734      17.940734      17.940734    
     16600   8.3            300.6463      -3346.3876      19.391931     -3149.4545      5775.9805      17.942181      17.942181      17.942181    
     16800   8.4            308.44293     -3346.8925      19.89482      -3421.5874      5777.3729      17.943623      17.943623      17.943623    
     17000   8.5            300.26033     -3346.3665      19.367035     -4032.2086      5778.7613      17.94506       17.94506       17.94506     
     17200   8.6            309.10668     -3346.937       19.937632     -4530.6001      5780.1434      17.946491      17.946491      17.946491    
     17400   8.7            293.32884     -3345.9187      18.919948     -5974.2454      5781.5178      17.947913      17.947913      17.947913    
     17600   8.8            297.86949     -3346.2112      19.212824     -5061.8401      5782.8837      17.949326      17.949326      17.949326    
     17800   8.9            307.21881     -3346.8133      19.815863     -9095.5199      5784.2411      17.950731      17.950731      17.950731    
     18000   9              302.84319     -3346.5292      19.533632     -5235.1004      5785.5877      17.952123      17.952123      17.952123    
     18200   9.1            285.23764     -3345.3934      18.39806      -5751.3566      5786.9255      17.953507      17.953507      17.953507    
     18400   9.2            294.77883     -3346.0077      19.013474     -7161.7348      5788.2544      17.954881      17.954881      17.954881    
     18600   9.3            298.31914     -3346.2334      19.241827     -9558.2598      5789.5731      17.956245      17.956245      17.956245    
     18800   9.4            307.57351     -3346.8277      19.838741     -9027.9682      5790.879       17.957595      17.957595      17.957595    
     19000   9.5            294.54068     -3345.9841      18.998113     -6962.0664      5792.1718      17.958931      17.958931      17.958931    
     19200   9.6            304.89418     -3346.65        19.665922     -10118.611      5793.4531      17.960255      17.960255      17.960255    
     19400   9.7            305.42416     -3346.6809      19.700106     -9032.5737      5794.7218      17.961566      17.961566      17.961566    
     19600   9.8            293.95456     -3345.9371      18.960308     -9197.5426      5795.976       17.962862      17.962862      17.962862    
     19800   9.9            309.99476     -3346.9687      19.994914     -10211.387      5797.2159      17.964142      17.964142      17.964142    
     20000   10             308.34922     -3346.8597      19.888775     -7941.3347      5798.442       17.965409      17.965409      17.965409    
Loop time of 600.018 on 1 procs for 20000 steps with 500 atoms

Performance: 1.440 ns/day, 16.667 hours/ns, 33.332 timesteps/s, 16.666 katom-step/s
99.0% CPU use with 1 MPI tasks x 1 OpenMP threads

MPI task timing breakdown:
Section |  min time  |  avg time  |  max time  |%varavg| %total
---------------------------------------------------------------
Pair    | 596.56     | 596.56     | 596.56     |   0.0 | 99.42
Neigh   | 0.0057553  | 0.0057553  | 0.0057553  |   0.0 |  0.00
Comm    | 0.71016    | 0.71016    | 0.71016    |   0.0 |  0.12
Output  | 0.0057424  | 0.0057424  | 0.0057424  |   0.0 |  0.00
Modify  | 1.9254     | 1.9254     | 1.9254     |   0.0 |  0.32
Other   |            | 0.8153     |            |       |  0.14

Nlocal:            500 ave         500 max         500 min
Histogram: 1 0 0 0 0 0 0 0 0 0
Nghost:           2013 ave        2013 max        2013 min
Histogram: 1 0 0 0 0 0 0 0 0 0
Neighs:              0 ave           0 max           0 min
Histogram: 1 0 0 0 0 0 0 0 0 0
FullNghs:        65774 ave       65774 max       65774 min
Histogram: 1 0 0 0 0 0 0 0 0 0

Total # of neighbors = 65774
Ave neighs/atom = 131.548
Neighbor list builds = 13
Dangerous builds = 0
### Heating complete ###
Setting up Verlet run ...
  Unit style    : metal
  Current step  : 20000
  Time step     : 0.0005
Per MPI rank memory allocation (min/avg/max) = 87.9 | 87.9 | 87.9 Mbytes
   Step          Time           Temp          PotEng         KinEng         Press          Volume           Lx             Ly             Lz      
     20000   10             308.34922     -3346.8597      19.888775     -7941.3347      5798.442       17.965409      17.965409      17.965409    
     20200   10.1           299.91862     -3346.3157      19.344994     -8408.1702      5798.4419      17.965409      17.965409      17.965409    
     20400   10.2           311.2093      -3347.044       20.073253     -10355.056      5798.4416      17.965408      17.965408      17.965408    
     20600   10.3           294.01834     -3345.935       18.964421     -11282.083      5798.441       17.965408      17.965408      17.965408    
     20800   10.4           300.09014     -3346.3265      19.356058     -7846.7399      5798.4402      17.965407      17.965407      17.965407    
     21000   10.5           319.69        -3347.5909      20.620264     -11258.92       5798.4391      17.965406      17.965406      17.965406    
     21200   10.6           298.51061     -3346.2247      19.254177     -8726.914       5798.4378      17.965405      17.965405      17.965405    
     21400   10.7           308.02239     -3346.838       19.867694     -10372.765      5798.4363      17.965403      17.965403      17.965403    
     21600   10.8           312.00854     -3347.0952      20.124804     -9054.5309      5798.4345      17.965401      17.965401      17.965401    
     21800   10.9           298.17588     -3346.2025      19.232587     -10565.554      5798.4325      17.965399      17.965399      17.965399    
     22000   11             306.26956     -3346.7245      19.754636     -10250.539      5798.4303      17.965397      17.965397      17.965397    
     22200   11.1           301.19113     -3346.3967      19.427073     -9017.1614      5798.4278      17.965394      17.965394      17.965394    
     22400   11.2           287.96961     -3345.5436      18.574274     -10665.366      5798.4251      17.965391      17.965391      17.965391    
     22600   11.3           296.97829     -3346.1245      19.155341     -11057.81       5798.4221      17.965388      17.965388      17.965388    
     22800   11.4           302.93153     -3346.5082      19.53933      -10519.888      5798.4188      17.965385      17.965385      17.965385    
     23000   11.5           311.64907     -3347.0706      20.101618     -10014.664      5798.4154      17.965381      17.965381      17.965381    
     23200   11.6           293.81603     -3345.9198      18.951372     -9955.4278      5798.4117      17.965378      17.965378      17.965378    
     23400   11.7           320.15822     -3347.6186      20.650465     -12599.865      5798.4077      17.965373      17.965373      17.965373    
     23600   11.8           299.06745     -3346.2579      19.290093     -12438.433      5798.4035      17.965369      17.965369      17.965369    
     23800   11.9           299.71037     -3346.2989      19.331562     -10921.113      5798.399       17.965364      17.965364      17.965364    
     24000   12             292.95489     -3345.8629      18.895828     -9851.5808      5798.3942      17.965359      17.965359      17.965359    
     24200   12.1           319.59683     -3347.5812      20.614255     -9166.1338      5798.3892      17.965354      17.965354      17.965354    
     24400   12.2           314.39041     -3347.245       20.278437     -8398.2142      5798.384       17.965349      17.965349      17.965349    
     24600   12.3           309.49568     -3346.9287      19.962723     -11169.132      5798.3786      17.965343      17.965343      17.965343    
     24800   12.4           300.20367     -3346.3288      19.363381     -10746.097      5798.3729      17.965338      17.965338      17.965338    
     25000   12.5           307.45337     -3346.7962      19.830992     -9566.38        5798.367       17.965331      17.965331      17.965331    
     25200   12.6           311.92047     -3347.0838      20.119124     -11205.631      5798.3609      17.965325      17.965325      17.965325    
     25400   12.7           292.40429     -3345.8244      18.860314     -9676.6557      5798.3545      17.965319      17.965319      17.965319    
     25600   12.8           297.53352     -3346.155       19.191153     -10353.021      5798.3479      17.965312      17.965312      17.965312    
     25800   12.9           298.84566     -3346.2389      19.275788     -11996.827      5798.341       17.965305      17.965305      17.965305    
     26000   13             304.09054     -3346.5768      19.614087     -10459.016      5798.3338      17.965297      17.965297      17.965297    
     26200   13.1           291.32778     -3345.7531      18.790878     -9976.0649      5798.3263      17.965289      17.965289      17.965289    
     26400   13.2           297.37533     -3346.1425      19.18095      -9268.9945      5798.3186      17.965281      17.965281      17.965281    
     26600   13.3           301.90382     -3346.4341      19.473041     -9684.0535      5798.3107      17.965273      17.965273      17.965273    
     26800   13.4           297.70002     -3346.1623      19.201893     -10449.271      5798.3025      17.965265      17.965265      17.965265    
     27000   13.5           288.00626     -3345.5365      18.576638     -7821.7536      5798.2941      17.965256      17.965256      17.965256    
     27200   13.6           300.39586     -3346.3349      19.375777     -10428.912      5798.2855      17.965247      17.965247      17.965247    
     27400   13.7           305.86829     -3346.6872      19.728753     -10874.826      5798.2766      17.965238      17.965238      17.965238    
     27600   13.8           303.79626     -3346.553       19.595106     -8292.0809      5798.2675      17.965229      17.965229      17.965229    
     27800   13.9           288.94079     -3345.5941      18.636916     -10525.397      5798.2582      17.965219      17.965219      17.965219    
     28000   14             297.27393     -3346.1308      19.17441      -9559.8778      5798.2486      17.965209      17.965209      17.965209    
     28200   14.1           307.33094     -3346.7787      19.823095     -11906.699      5798.2387      17.965199      17.965199      17.965199    
     28400   14.2           291.05518     -3345.7284      18.773295     -8537.1618      5798.2286      17.965188      17.965188      17.965188    
     28600   14.3           288.93295     -3345.5906      18.63641      -7901.0112      5798.2183      17.965178      17.965178      17.965178    
     28800   14.4           299.76445     -3346.2886      19.33505      -10872.749      5798.2077      17.965167      17.965167      17.965167    
     29000   14.5           294.95222     -3345.9774      19.024658     -8535.9853      5798.197       17.965156      17.965156      17.965156    
     29200   14.6           307.11405     -3346.7611      19.809106     -8929.6766      5798.1859      17.965144      17.965144      17.965144    
     29400   14.7           300.51587     -3346.3345      19.383518     -10595.822      5798.1747      17.965133      17.965133      17.965133    
     29600   14.8           300.35122     -3346.3229      19.372898     -10181.762      5798.1632      17.965121      17.965121      17.965121    
     29800   14.9           290.88297     -3345.7114      18.762188     -11123.944      5798.1514      17.965109      17.965109      17.965109    
     30000   15             295.1053      -3345.9829      19.034531     -8061.74        5798.1394      17.965096      17.965096      17.965096    
     30200   15.1           310.99133     -3347.0067      20.059193     -9968.7351      5798.1272      17.965084      17.965084      17.965084    
     30400   15.2           295.27164     -3345.9918      19.04526      -10480.148      5798.1147      17.965071      17.965071      17.965071    
     30600   15.3           315.18581     -3347.2755      20.329741     -10494.757      5798.1019      17.965058      17.965058      17.965058    
     30800   15.4           303.47311     -3346.519       19.574262     -9231.2657      5798.0889      17.965044      17.965044      17.965044    
     31000   15.5           296.70586     -3346.0813      19.137769     -10742.529      5798.0756      17.965031      17.965031      17.965031    
     31200   15.6           304.10239     -3346.5576      19.614851     -9408.6977      5798.0621      17.965017      17.965017      17.965017    
     31400   15.7           307.80104     -3346.7952      19.853417     -11076.614      5798.0484      17.965002      17.965002      17.965002    
     31600   15.8           297.93365     -3346.1576      19.216962     -8171.2812      5798.0344      17.964988      17.964988      17.964988    
     31800   15.9           303.80154     -3346.5351      19.595446     -9726.1334      5798.0201      17.964973      17.964973      17.964973    
     32000   16             293.24764     -3345.8533      18.914711     -9307.8055      5798.0057      17.964958      17.964958      17.964958    
     32200   16.1           294.75547     -3345.9495      19.011967     -10788.279      5797.991       17.964943      17.964943      17.964943    
     32400   16.2           310.27393     -3346.9494      20.012921     -9909.071       5797.976       17.964928      17.964928      17.964928    
     32600   16.3           303.30738     -3346.4988      19.563572     -11016.58       5797.9608      17.964912      17.964912      17.964912    
     32800   16.4           312.92923     -3347.1185      20.18419      -9623.4996      5797.9454      17.964896      17.964896      17.964896    
     33000   16.5           279.09152     -3344.9346      18.00163      -8185.1794      5797.9297      17.96488       17.96488       17.96488     
     33200   16.6           296.73943     -3346.0717      19.139935     -9916.168       5797.9138      17.964863      17.964863      17.964863    
     33400   16.7           303.57274     -3346.5114      19.580689     -11838.239      5797.8976      17.964847      17.964847      17.964847    
     33600   16.8           309.80122     -3346.912       19.98243      -10453.967      5797.8811      17.96483       17.96483       17.96483     
     33800   16.9           308.34554     -3346.8169      19.888538     -11646.72       5797.8645      17.964812      17.964812      17.964812    
     34000   17             295.38987     -3345.9799      19.052886     -10214.365      5797.8475      17.964795      17.964795      17.964795    
     34200   17.1           296.09206     -3346.0239      19.098178     -10390.472      5797.8303      17.964777      17.964777      17.964777    
     34400   17.2           289.65916     -3345.6076      18.683251     -11023.05       5797.8129      17.964759      17.964759      17.964759    
     34600   17.3           306.17833     -3346.6719      19.748751     -9552.8688      5797.7953      17.964741      17.964741      17.964741    
     34800   17.4           308.33205     -3346.8095      19.887668     -10494.334      5797.7774      17.964722      17.964722      17.964722    
     35000   17.5           304.2139      -3346.5426      19.622043     -10315.253      5797.7592      17.964704      17.964704      17.964704    
     35200   17.6           296.27263     -3346.0291      19.109826     -9850.2136      5797.7408      17.964685      17.964685      17.964685    
     35400   17.7           299.26225     -3346.2204      19.302659     -10801.019      5797.7222      17.964665      17.964665      17.964665    
     35600   17.8           299.21687     -3346.2162      19.299731     -11159.39       5797.7033      17.964646      17.964646      17.964646    
     35800   17.9           294.48355     -3345.9094      18.994428     -8828.3761      5797.6842      17.964626      17.964626      17.964626    
     36000   18             300.02589     -3346.2656      19.351914     -8035.1906      5797.6648      17.964606      17.964606      17.964606    
     36200   18.1           309.55283     -3346.8787      19.966409     -9593.43        5797.6452      17.964586      17.964586      17.964586    
     36400   18.2           300.82304     -3346.3142      19.403331     -8938.8118      5797.6254      17.964565      17.964565      17.964565    
     36600   18.3           296.65144     -3346.0434      19.134259     -7755.894       5797.6054      17.964545      17.964545      17.964545    
     36800   18.4           284.92162     -3345.2852      18.377676     -8382.8948      5797.5851      17.964524      17.964524      17.964524    
     37000   18.5           294.18446     -3345.8814      18.975137     -9408.8481      5797.5646      17.964503      17.964503      17.964503    
     37200   18.6           302.87446     -3346.4403      19.535649     -8228.9467      5797.5439      17.964481      17.964481      17.964481    
     37400   18.7           289.82864     -3345.5972      18.694183     -10898.664      5797.523       17.96446       17.96446       17.96446     
     37600   18.8           299.75686     -3346.2361      19.334561     -11637.697      5797.5018      17.964438      17.964438      17.964438    
     37800   18.9           305.54276     -3346.6077      19.707756     -9173.9451      5797.4804      17.964416      17.964416      17.964416    
     38000   19             306.73589     -3346.6831      19.784714     -10255.107      5797.4587      17.964393      17.964393      17.964393    
     38200   19.1           308.06328     -3346.767       19.870332     -11379.245      5797.4368      17.964371      17.964371      17.964371    
     38400   19.2           305.07795     -3346.5728      19.677776     -10743.317      5797.4147      17.964348      17.964348      17.964348    
     38600   19.3           304.26384     -3346.5186      19.625265     -9758.0821      5797.3923      17.964325      17.964325      17.964325    
     38800   19.4           305.38571     -3346.5893      19.697626     -6215.9575      5797.3697      17.964301      17.964301      17.964301    
     39000   19.5           291.84461     -3345.7141      18.824214     -7263.2398      5797.3469      17.964278      17.964278      17.964278    
     39200   19.6           297.45552     -3346.0744      19.186123     -10372.499      5797.324       17.964254      17.964254      17.964254    
     39400   19.7           312.98101     -3347.0741      20.187529     -7702.2804      5797.3008      17.96423       17.96423       17.96423     
     39600   19.8           306.46619     -3346.6521      19.767318     -6862.9882      5797.2774      17.964206      17.964206      17.964206    
     39800   19.9           300.69147     -3346.2776      19.394844     -9013.2435      5797.2539      17.964182      17.964182      17.964182    
     40000   20             301.75412     -3346.3445      19.463386     -9557.7256      5797.2301      17.964157      17.964157      17.964157    
     40200   20.1           294.52075     -3345.876       18.996828     -9022.6047      5797.2061      17.964132      17.964132      17.964132    
     40400   20.2           315.19855     -3347.208       20.330562     -9557.3338      5797.1819      17.964107      17.964107      17.964107    
     40600   20.3           287.86304     -3345.4428      18.5674       -9651.1582      5797.1574      17.964082      17.964082      17.964082    
     40800   20.4           310.2283      -3346.8839      20.009977     -8979.7407      5797.1328      17.964057      17.964057      17.964057    
     41000   20.5           303.3233      -3346.4367      19.5646       -8617.9634      5797.1079      17.964031      17.964031      17.964031    
     41200   20.6           311.392       -3346.9549      20.085037     -9736.2908      5797.0828      17.964005      17.964005      17.964005    
     41400   20.7           310.67109     -3346.9066      20.038538     -11132.486      5797.0575      17.963979      17.963979      17.963979    
     41600   20.8           304.25578     -3346.4907      19.624745     -11259.582      5797.0319      17.963952      17.963952      17.963952    
     41800   20.9           300.91394     -3346.2732      19.409193     -10955.08       5797.0061      17.963926      17.963926      17.963926    
     42000   21             299.58116     -3346.1852      19.323228     -12129.795      5796.98        17.963899      17.963899      17.963899    
     42200   21.1           294.09635     -3345.8296      18.969454     -10322.703      5796.9536      17.963872      17.963872      17.963872    
     42400   21.2           294.795       -3345.8726      19.014517     -11933.229      5796.927       17.963844      17.963844      17.963844    
     42600   21.3           303.02542     -3346.4016      19.545386     -10757.237      5796.9001      17.963816      17.963816      17.963816    
     42800   21.4           299.70958     -3346.1855      19.331511     -12304.027      5796.873       17.963788      17.963788      17.963788    
     43000   21.5           298.22872     -3346.0882      19.235995     -9484.3087      5796.8456      17.96376       17.96376       17.96376     
     43200   21.6           291.99402     -3345.6839      18.833851     -11284.684      5796.8179      17.963731      17.963731      17.963731    
     43400   21.7           294.40653     -3345.8373      18.98946      -10988.087      5796.79        17.963703      17.963703      17.963703    
     43600   21.8           300.28667     -3346.2147      19.368734     -8795.6369      5796.7618      17.963673      17.963673      17.963673    
     43800   21.9           288.76379     -3345.4692      18.625499     -11901.283      5796.7334      17.963644      17.963644      17.963644    
     44000   22             302.51069     -3346.3539      19.512186     -9002.6989      5796.7047      17.963615      17.963615      17.963615    
     44200   22.1           305.69587     -3346.5572      19.717632     -11647.796      5796.6758      17.963585      17.963585      17.963585    
     44400   22.2           311.17266     -3346.9082      20.070889     -10756.467      5796.6467      17.963555      17.963555      17.963555    
     44600   22.3           296.70824     -3345.973       19.137923     -10118.735      5796.6173      17.963524      17.963524      17.963524    
     44800   22.4           313.12023     -3347.0295      20.196509     -12568.102      5796.5876      17.963493      17.963493      17.963493    
     45000   22.5           290.50192     -3345.5684      18.73761      -10887.798      5796.5576      17.963463      17.963463      17.963463    
     45200   22.6           297.55416     -3346.021       19.192485     -12831.696      5796.5274      17.963431      17.963431      17.963431    
     45400   22.7           290.12011     -3345.5394      18.712983     -8361.712       5796.497       17.9634        17.9634        17.9634      
     45600   22.8           291.0334      -3345.5958      18.771891     -8828.1161      5796.4662      17.963368      17.963368      17.963368    
     45800   22.9           302.38363     -3346.3258      19.503989     -11670.031      5796.4353      17.963336      17.963336      17.963336    
     46000   23             296.62603     -3345.952       19.13262      -8800.3847      5796.4041      17.963304      17.963304      17.963304    
     46200   23.1           295.31843     -3345.8653      19.048279     -8662.9676      5796.3726      17.963271      17.963271      17.963271    
     46400   23.2           290.25542     -3345.5363      18.72171      -7493.4298      5796.341       17.963239      17.963239      17.963239    
     46600   23.3           308.34358     -3346.7006      19.888412     -8026.4953      5796.3091      17.963206      17.963206      17.963206    
     46800   23.4           302.29873     -3346.3082      19.498514     -9509.294       5796.2771      17.963173      17.963173      17.963173    
     47000   23.5           304.62466     -3346.456       19.648538     -9276.2776      5796.2448      17.963139      17.963139      17.963139    
     47200   23.6           297.04901     -3345.9648      19.159903     -8382.6635      5796.2123      17.963106      17.963106      17.963106    
     47400   23.7           289.74376     -3345.4911      18.688708     -6327.1627      5796.1796      17.963072      17.963072      17.963072    
     47600   23.8           291.96736     -3345.6319      18.832132     -8061.425       5796.1467      17.963038      17.963038      17.963038    
     47800   23.9           315.13888     -3347.1244      20.326714     -7889.7144      5796.1136      17.963004      17.963004      17.963004    
     48000   24             298.02805     -3346.018       19.223051     -7277.663       5796.0803      17.962969      17.962969      17.962969    
     48200   24.1           304.64901     -3346.4423      19.650109     -9760.9594      5796.0468      17.962935      17.962935      17.962935    
     48400   24.2           303.52384     -3346.3673      19.577534     -9881.6327      5796.0131      17.9629        17.9629        17.9629      
     48600   24.3           300.98945     -3346.2012      19.414064     -8154.8586      5795.9792      17.962865      17.962865      17.962865    
     48800   24.4           301.02822     -3346.2011      19.416565     -9197.0396      5795.9451      17.96283       17.96283       17.96283     
     49000   24.5           301.92317     -3346.2561      19.47429      -10409.186      5795.9107      17.962794      17.962794      17.962794    
     49200   24.6           304.91654     -3346.4467      19.667364     -8821.0018      5795.8762      17.962759      17.962759      17.962759    
     49400   24.7           303.10649     -3346.3271      19.550615     -8742.9158      5795.8414      17.962723      17.962723      17.962723    
     49600   24.8           322.35682     -3347.5665      20.792277     -8256.9635      5795.8064      17.962686      17.962686      17.962686    
     49800   24.9           277.48474     -3344.6691      17.897991     -7891.4219      5795.7712      17.96265       17.96265       17.96265     
     50000   25             308.70061     -3346.6799      19.91144      -9608.8968      5795.7358      17.962614      17.962614      17.962614    
     50200   25.1           298.47944     -3346.0181      19.252166     -5380.0345      5795.7002      17.962577      17.962577      17.962577    
     50400   25.2           304.48258     -3346.4023      19.639373     -8728.4008      5795.6644      17.96254       17.96254       17.96254     
     50600   25.3           306.24806     -3346.5136      19.753249     -10696.189      5795.6284      17.962503      17.962503      17.962503    
     50800   25.4           306.9074      -3346.5532      19.795777     -9202.3573      5795.5922      17.962465      17.962465      17.962465    
     51000   25.5           305.21076     -3346.441       19.686342     -8610.2192      5795.5558      17.962428      17.962428      17.962428    
     51200   25.6           298.93461     -3346.0334      19.281525     -6718.5247      5795.5192      17.96239       17.96239       17.96239     
     51400   25.7           303.85061     -3346.3477      19.598611     -9693.1929      5795.4823      17.962352      17.962352      17.962352    
     51600   25.8           291.62086     -3345.5558      18.809782     -9180.2133      5795.4453      17.962313      17.962313      17.962313    
     51800   25.9           304.37716     -3346.376       19.632574     -8079.9348      5795.4081      17.962275      17.962275      17.962275    
     52000   26             307.50453     -3346.5747      19.834292     -7615.3023      5795.3706      17.962236      17.962236      17.962236    
     52200   26.1           303.93107     -3346.3413      19.603801     -9607.7888      5795.333       17.962197      17.962197      17.962197    
     52400   26.2           305.28238     -3346.4256      19.690961     -8791.0875      5795.2951      17.962158      17.962158      17.962158    
     52600   26.3           311.78279     -3346.842       20.110243     -8681.6953      5795.257       17.962119      17.962119      17.962119    
     52800   26.4           313.22225     -3346.932       20.20309      -8445.7515      5795.2187      17.962079      17.962079      17.962079    
     53000   26.5           303.93254     -3346.3295      19.603896     -9540.7888      5795.1803      17.96204       17.96204       17.96204     
     53200   26.6           301.39135     -3346.1625      19.439987     -8728.3299      5795.1416      17.962         17.962         17.962       
     53400   26.7           306.43103     -3346.4848      19.76505      -6787.9384      5795.1027      17.961959      17.961959      17.961959    
     53600   26.8           318.57887     -3347.2654      20.548596     -9418.581       5795.0636      17.961919      17.961919      17.961919    
     53800   26.9           310.67813     -3346.7526      20.038992     -8612.2761      5795.0243      17.961879      17.961879      17.961879    
     54000   27             309.35959     -3346.6644      19.953945     -7784.3125      5794.9849      17.961838      17.961838      17.961838    
     54200   27.1           304.97438     -3346.3786      19.671095     -8140.1571      5794.9452      17.961797      17.961797      17.961797    
     54400   27.2           292.14195     -3345.5477      18.843393     -6563.1865      5794.9053      17.961756      17.961756      17.961756    
     54600   27.3           303.58173     -3346.2826      19.581268     -7606.3914      5794.8653      17.961714      17.961714      17.961714    
     54800   27.4           297.17153     -3345.8659      19.167805     -7435.6394      5794.825       17.961673      17.961673      17.961673    
     55000   27.5           315.15361     -3347.0225      20.327664     -10545.253      5794.7845      17.961631      17.961631      17.961631    
     55200   27.6           298.26248     -3345.93        19.238172     -6785.2785      5794.7439      17.961589      17.961589      17.961589    
     55400   27.7           300.43096     -3346.0666      19.378041     -8964.1613      5794.703       17.961547      17.961547      17.961547    
     55600   27.8           311.03386     -3346.7475      20.061937     -7052.3688      5794.6619      17.961504      17.961504      17.961504    
     55800   27.9           309.01299     -3346.6138      19.931589     -9047.3908      5794.6207      17.961461      17.961461      17.961461    
     56000   28             296.15213     -3345.7809      19.102053     -8598.3784      5794.5792      17.961419      17.961419      17.961419    
     56200   28.1           306.75193     -3346.4615      19.785749     -7915.221       5794.5375      17.961375      17.961375      17.961375    
     56400   28.2           292.67408     -3345.5501      18.877716     -7438.5971      5794.4956      17.961332      17.961332      17.961332    
     56600   28.3           297.47539     -3345.8565      19.187404     -8270.4175      5794.4535      17.961289      17.961289      17.961289    
     56800   28.4           302.74721     -3346.1934      19.527441     -10103.44       5794.4112      17.961245      17.961245      17.961245    
     57000   28.5           307.93293     -3346.5245      19.861924     -10184.513      5794.3687      17.961201      17.961201      17.961201    
     57200   28.6           296.80747     -3345.8035      19.144323     -8012.163       5794.326       17.961157      17.961157      17.961157    
     57400   28.7           301.9806      -3346.1339      19.477994     -6482.8792      5794.283       17.961113      17.961113      17.961113    
     57600   28.8           299.57786     -3345.9756      19.323016     -8143.7528      5794.2399      17.961068      17.961068      17.961068    
     57800   28.9           300.94701     -3346.0604      19.411327     -7659.2607      5794.1966      17.961023      17.961023      17.961023    
     58000   29             295.28054     -3345.6915      19.045834     -8373.9769      5794.1531      17.960978      17.960978      17.960978    
     58200   29.1           305.26064     -3346.3318      19.689559     -7248.3535      5794.1094      17.960933      17.960933      17.960933    
     58400   29.2           296.46128     -3345.7607      19.121994     -6424.9573      5794.0655      17.960888      17.960888      17.960888    
     58600   29.3           311.95107     -3346.7563      20.121098     -9420.6935      5794.0214      17.960842      17.960842      17.960842    
     58800   29.4           316.88392     -3347.0713      20.43927      -10096.786      5793.9771      17.960797      17.960797      17.960797    
     59000   29.5           294.77817     -3345.6417      19.013432     -4339.3144      5793.9327      17.960751      17.960751      17.960751    
     59200   29.6           306.21339     -3346.3759      19.751012     -7462.3421      5793.888       17.960704      17.960704      17.960704    
     59400   29.7           299.90339     -3345.9653      19.344012     -8388.866       5793.8432      17.960658      17.960658      17.960658    
     59600   29.8           299.14647     -3345.913       19.29519      -9336.8516      5793.7982      17.960612      17.960612      17.960612    
     59800   29.9           296.93535     -3345.7667      19.152571     -4908.3599      5793.7529      17.960565      17.960565      17.960565    
     60000   30             306.75923     -3346.3969      19.786219     -7065.2317      5793.7075      17.960518      17.960518      17.960518    
     60200   30.1           292.9375      -3345.5015      18.894707     -8194.0476      5793.6619      17.960471      17.960471      17.960471    
     60400   30.2           298.62004     -3345.8646      19.261235     -9005.6492      5793.6161      17.960423      17.960423      17.960423    
     60600   30.3           309.1272      -3346.5388      19.938956     -9328.5899      5793.57        17.960376      17.960376      17.960376    
     60800   30.4           299.11636     -3345.8893      19.293248     -7260.1713      5793.5238      17.960328      17.960328      17.960328    
     61000   30.5           304.48049     -3346.2317      19.639239     -7202.5456      5793.4774      17.96028       17.96028       17.96028     
     61200   30.6           308.55566     -3346.4908      19.902091     -5680.896       5793.4307      17.960232      17.960232      17.960232    
     61400   30.7           321.91582     -3347.3493      20.763832     -7060.0911      5793.3839      17.960184      17.960184      17.960184    
     61600   30.8           296.4765      -3345.7043      19.122975     -7216.4292      5793.337       17.960135      17.960135      17.960135    
     61800   30.9           299.80578     -3345.9153      19.337717     -8042.1781      5793.2899      17.960086      17.960086      17.960086    
     62000   31             307.99161     -3346.4399      19.865709     -6991.7073      5793.2425      17.960037      17.960037      17.960037    
     62200   31.1           312.99385     -3346.7586      20.188358     -9193.8491      5793.195       17.959988      17.959988      17.959988    
     62400   31.2           310.14646     -3346.5712      20.004699     -7253.6848      5793.1473      17.959939      17.959939      17.959939    
     62600   31.3           301.94026     -3346.0379      19.475392     -8924.4259      5793.0994      17.959889      17.959889      17.959889    
     62800   31.4           306.36837     -3346.3199      19.761009     -7606.4863      5793.0513      17.95984       17.95984       17.95984     
     63000   31.5           304.74091     -3346.211       19.656037     -8342.9032      5793.003       17.95979       17.95979       17.95979     
     63200   31.6           310.29437     -3346.5653      20.014239     -7589.099       5792.9546      17.95974       17.95974       17.95974     
     63400   31.7           305.30089     -3346.2394      19.692155     -7883.3026      5792.906       17.95969       17.95969       17.95969     
     63600   31.8           301.94656     -3346.0193      19.475798     -8720.708       5792.8572      17.959639      17.959639      17.959639    
     63800   31.9           298.56071     -3345.7969      19.257408     -6699.1701      5792.8082      17.959589      17.959589      17.959589    
     64000   32             300.38977     -3345.9111      19.375384     -7195.7513      5792.759       17.959538      17.959538      17.959538    
     64200   32.1           299.99665     -3345.882       19.350027     -8550.5083      5792.7097      17.959487      17.959487      17.959487    
     64400   32.2           305.1822      -3346.2125      19.6845       -7515.9267      5792.6601      17.959436      17.959436      17.959436    
     64600   32.3           319.13318     -3347.1086      20.584349     -9674.7815      5792.6104      17.959384      17.959384      17.959384    
     64800   32.4           309.52591     -3346.4848      19.964673     -6339.117       5792.5604      17.959332      17.959332      17.959332    
     65000   32.5           299.93895     -3345.8624      19.346306     -8063.3211      5792.5103      17.959281      17.959281      17.959281    
     65200   32.6           308.28746     -3346.397       19.884792     -9153.3164      5792.46        17.959229      17.959229      17.959229    
     65400   32.7           308.0906      -3346.3803      19.872094     -7933.5724      5792.4095      17.959177      17.959177      17.959177    
     65600   32.8           308.75668     -3346.4192      19.915057     -5868.0323      5792.3588      17.959124      17.959124      17.959124    
     65800   32.9           314.08142     -3346.7587      20.258507     -7494.1767      5792.3079      17.959072      17.959072      17.959072    
     66000   33             299.70288     -3345.8271      19.331079     -7285.9654      5792.2569      17.959019      17.959019      17.959019    
     66200   33.1           313.50849     -3346.7137      20.221552     -7816.1591      5792.2057      17.958966      17.958966      17.958966    
     66400   33.2           288.07312     -3345.0686      18.58095      -5520.6454      5792.1543      17.958913      17.958913      17.958913    
     66600   33.3           312.46441     -3346.6382      20.154208     -8575.2056      5792.1028      17.95886       17.95886       17.95886     
     66800   33.4           311.90873     -3346.5982      20.118367     -7167.1013      5792.0511      17.958806      17.958806      17.958806    
     67000   33.5           301.29166     -3345.9088      19.433557     -7049.6137      5791.9992      17.958752      17.958752      17.958752    
     67200   33.6           320.66466     -3347.1547      20.683131     -8262.9371      5791.9471      17.958699      17.958699      17.958699    
     67400   33.7           298.07528     -3345.6933      19.226097     -5667.4183      5791.8949      17.958645      17.958645      17.958645    
     67600   33.8           305.56673     -3346.1725      19.709303     -7021.6155      5791.8425      17.958591      17.958591      17.958591    
     67800   33.9           299.39278     -3345.77        19.311078     -6996.0711      5791.79        17.958536      17.958536      17.958536    
     68000   34             302.97291     -3345.9967      19.541999     -5636.5152      5791.7372      17.958482      17.958482      17.958482    
     68200   34.1           308.25552     -3346.3334      19.882732     -7904.7096      5791.6843      17.958427      17.958427      17.958427    
     68400   34.2           307.81469     -3346.3008      19.854297     -8448.1737      5791.6312      17.958372      17.958372      17.958372    
     68600   34.3           319.3864      -3347.043       20.600682     -7030.4715      5791.5779      17.958317      17.958317      17.958317    
     68800   34.4           307.93127     -3346.2998      19.861817     -5231.1854      5791.5245      17.958262      17.958262      17.958262    
     69000   34.5           300.3602      -3345.807       19.373477     -5407.0865      5791.4709      17.958206      17.958206      17.958206    
     69200   34.6           317.51022     -3346.9093      20.479667     -9298.2986      5791.4171      17.958151      17.958151      17.958151    
     69400   34.7           299.72902     -3345.758       19.332765     -5294.2689      5791.3632      17.958095      17.958095      17.958095    
     69600   34.8           324.74397     -3347.3673      20.94625      -7693.7912      5791.309       17.958039      17.958039      17.958039    
     69800   34.9           296.56888     -3345.5455      19.128934     -5227.7081      5791.2547      17.957983      17.957983      17.957983    
     70000   35             310.4764      -3346.4383      20.02598      -6239.6134      5791.2003      17.957927      17.957927      17.957927    
     70200   35.1           302.72041     -3345.9337      19.525712     -6188.6649      5791.1457      17.95787       17.95787       17.95787     
     70400   35.2           299.68108     -3345.7331      19.329673     -8287.9767      5791.0909      17.957814      17.957814      17.957814    
     70600   35.3           304.52138     -3346.0412      19.641876     -6464.3579      5791.036       17.957757      17.957757      17.957757    
     70800   35.4           304.98151     -3346.0666      19.671555     -6238.5914      5790.9809      17.9577        17.9577        17.9577      
     71000   35.5           313.17687     -3346.5907      20.200163     -6812.6237      5790.9256      17.957643      17.957643      17.957643    
     71200   35.6           300.80759     -3345.7883      19.402334     -6253.8684      5790.8702      17.957586      17.957586      17.957586    
     71400   35.7           315.93682     -3346.76        20.378182     -6958.7891      5790.8146      17.957528      17.957528      17.957528    
     71600   35.8           310.26968     -3346.3898      20.012646     -5396.7683      5790.7589      17.95747       17.95747       17.95747     
     71800   35.9           307.04967     -3346.1779      19.804953     -7688.6303      5790.703       17.957413      17.957413      17.957413    
     72000   36             302.3617      -3345.8708      19.502575     -7345.4588      5790.647       17.957355      17.957355      17.957355    
     72200   36.1           300.34279     -3345.7365      19.372354     -6629.9712      5790.5907      17.957297      17.957297      17.957297    
     72400   36.2           314.88847     -3346.6702      20.310562     -7463.1404      5790.5343      17.957238      17.957238      17.957238    
     72600   36.3           310.24786     -3346.3662      20.011239     -7707.8825      5790.4777      17.95718       17.95718       17.95718     
     72800   36.4           301.68359     -3345.8094      19.458837     -5785.1603      5790.421       17.957121      17.957121      17.957121    
     73000   36.5           315.31314     -3346.684       20.337953     -7970.7141      5790.3641      17.957062      17.957062      17.957062    
     73200   36.6           296.47605     -3345.4644      19.122946     -5072.2376      5790.307       17.957003      17.957003      17.957003    
     73400   36.7           300.1999      -3345.7         19.363137     -6982.9693      5790.2498      17.956944      17.956944      17.956944    
     73600   36.8           298.82412     -3345.6068      19.274398     -6060.9671      5790.1924      17.956885      17.956885      17.956885    
     73800   36.9           303.54586     -3345.907       19.578954     -6059.9041      5790.1349      17.956825      17.956825      17.956825    
     74000   37             298.82427     -3345.5978      19.274408     -5711.7883      5790.0773      17.956766      17.956766      17.956766    
     74200   37.1           296.82013     -3345.4637      19.145139     -5799.8169      5790.0195      17.956706      17.956706      17.956706    
     74400   37.2           310.69962     -3346.3546      20.040378     -8012.6412      5789.9615      17.956646      17.956646      17.956646    
     74600   37.3           298.29023     -3345.5494      19.239962     -5434.2637      5789.9034      17.956586      17.956586      17.956586    
     74800   37.4           323.93133     -3347.199       20.893834     -7315.9877      5789.8451      17.956526      17.956526      17.956526    
     75000   37.5           303.60841     -3345.8835      19.582989     -8690.6356      5789.7866      17.956465      17.956465      17.956465    
     75200   37.6           310.45703     -3346.3207      20.02473      -7740.8676      5789.728       17.956405      17.956405      17.956405    
     75400   37.7           289.40973     -3344.9584      18.667163     -5232.6314      5789.6692      17.956344      17.956344      17.956344    
     75600   37.8           302.27755     -3345.7837      19.497148     -6432.3505      5789.6102      17.956283      17.956283      17.956283    
     75800   37.9           318.31055     -3346.8133      20.531289     -6085.3114      5789.5511      17.956222      17.956222      17.956222    
     76000   38             308.01741     -3346.1446      19.867373     -6365.2561      5789.4919      17.956161      17.956161      17.956161    
     76200   38.1           303.14863     -3345.8261      19.553333     -5990.6598      5789.4324      17.956099      17.956099      17.956099    
     76400   38.2           315.01302     -3346.5868      20.318596     -7371.8024      5789.3728      17.956038      17.956038      17.956038    
     76600   38.3           314.335       -3346.5382      20.274863     -5179.0185      5789.3131      17.955976      17.955976      17.955976    
     76800   38.4           312.46868     -3346.4131      20.154484     -6085.0333      5789.2532      17.955914      17.955914      17.955914    
     77000   38.5           307.48754     -3346.0872      19.833196     -5726.7945      5789.1932      17.955852      17.955852      17.955852    
     77200   38.6           300.56716     -3345.636       19.386826     -9033.5544      5789.133       17.95579       17.95579       17.95579     
     77400   38.7           307.10111     -3346.053       19.808271     -6221.6179      5789.0727      17.955727      17.955727      17.955727    
     77600   38.8           308.758       -3346.1553      19.915142     -5305.765       5789.0121      17.955665      17.955665      17.955665    
     77800   38.9           301.2007      -3345.6629      19.42769      -7156.9548      5788.9515      17.955602      17.955602      17.955602    
     78000   39             284.96485     -3344.6109      18.380464     -4400.3599      5788.8906      17.955539      17.955539      17.955539    
     78200   39.1           310.32855     -3346.2422      20.016443     -5645.2697      5788.8297      17.955476      17.955476      17.955476    
     78400   39.2           301.08882     -3345.6415      19.420473     -4910.9978      5788.7686      17.955413      17.955413      17.955413    
     78600   39.3           304.1015      -3345.8308      19.614794     -7790.5086      5788.7073      17.95535       17.95535       17.95535     
     78800   39.4           291.97425     -3345.0439      18.832577     -6009.6135      5788.6459      17.955286      17.955286      17.955286    
     79000   39.5           314.45383     -3346.4893      20.282528     -6287.2675      5788.5843      17.955222      17.955222      17.955222    
     79200   39.6           305.81654     -3345.9275      19.725415     -5688.2978      5788.5226      17.955159      17.955159      17.955159    
     79400   39.7           303.7352      -3345.7884      19.591167     -2956.4217      5788.4607      17.955095      17.955095      17.955095    
     79600   39.8           316.24717     -3346.5905      20.398199     -5920.1781      5788.3987      17.95503       17.95503       17.95503     
     79800   39.9           306.92457     -3345.9845      19.796884     -5601.9094      5788.3366      17.954966      17.954966      17.954966    
     80000   40             309.88177     -3346.1702      19.987626     -6528.4453      5788.2744      17.954902      17.954902      17.954902    
     80200   40.1           321.74141     -3346.9305      20.752582     -6362.0183      5788.212       17.954837      17.954837      17.954837    
     80400   40.2           300.97937     -3345.5866      19.413414     -5238.3629      5788.1494      17.954773      17.954773      17.954773    
     80600   40.3           316.83541     -3346.6042      20.436141     -6488.3391      5788.0867      17.954708      17.954708      17.954708    
     80800   40.4           292.69614     -3345.0423      18.879139     -4765.575       5788.0239      17.954643      17.954643      17.954643    
     81000   40.5           311.65402     -3346.2605      20.101937     -7801.2615      5787.9609      17.954578      17.954578      17.954578    
     81200   40.6           316.09305     -3346.5418      20.388259     -7535.9218      5787.8978      17.954513      17.954513      17.954513    
     81400   40.7           331.85307     -3347.5537      21.404793     -6525.3442      5787.8345      17.954447      17.954447      17.954447    
     81600   40.8           306.22046     -3345.8953      19.751468     -5387.2047      5787.7711      17.954382      17.954382      17.954382    
     81800   40.9           317.35379     -3346.6085      20.469577     -6116.5458      5787.7076      17.954316      17.954316      17.954316    
     82000   41             305.99514     -3345.8711      19.736935     -6208.0758      5787.6439      17.95425       17.95425       17.95425     
     82200   41.1           306.72316     -3345.9133      19.783893     -7791.3137      5787.5801      17.954184      17.954184      17.954184    
     82400   41.2           316.96673     -3346.5691      20.444612     -7923.2257      5787.5161      17.954118      17.954118      17.954118    
     82600   41.3           290.03533     -3344.8271      18.707515     -4239.2798      5787.452       17.954051      17.954051      17.954051    
     82800   41.4           303.08116     -3345.6639      19.548981     -7077.4623      5787.3877      17.953985      17.953985      17.953985    
     83000   41.5           319.54255     -3346.7206      20.610754     -6626.5758      5787.3233      17.953918      17.953918      17.953918    
     83200   41.6           321.99052     -3346.8739      20.76865      -6749.3742      5787.2587      17.953852      17.953852      17.953852    
     83400   41.7           309.86014     -3346.0864      19.986231     -5772.7249      5787.1939      17.953785      17.953785      17.953785    
     83600   41.8           316.99073     -3346.5414      20.44616      -5256.4087      5787.1291      17.953718      17.953718      17.953718    
     83800   41.9           314.3405      -3346.3656      20.275218     -6363.4725      5787.0641      17.95365       17.95365       17.95365     
     84000   42             313.50461     -3346.3067      20.221302     -5259.801       5786.9989      17.953583      17.953583      17.953583    
     84200   42.1           308.93616     -3346.007       19.926633     -5624.3008      5786.9336      17.953515      17.953515      17.953515    
     84400   42.2           321.11317     -3346.7879      20.71206      -6139.2071      5786.8681      17.953448      17.953448      17.953448    
     84600   42.3           316.22825     -3346.4677      20.396979     -5681.3431      5786.8026      17.95338       17.95338       17.95338     
     84800   42.4           312.024       -3346.1916      20.125802     -2911.3903      5786.7368      17.953312      17.953312      17.953312    
     85000   42.5           310.95896     -3346.1178      20.057106     -6776.982       5786.671       17.953244      17.953244      17.953244    
     85200   42.6           316.88218     -3346.495       20.439158     -3523.3225      5786.605       17.953176      17.953176      17.953176    
     85400   42.7           312.79144     -3346.2261      20.175302     -4215.2928      5786.5389      17.953107      17.953107      17.953107    
     85600   42.8           307.64083     -3345.8888      19.843083     -4479.1959      5786.4728      17.953039      17.953039      17.953039    
     85800   42.9           302.81564     -3345.5727      19.531855     -6455.2165      5786.4064      17.95297       17.95297       17.95297     
     86000   43             297.716       -3345.2387      19.202924     -6367.7195      5786.34        17.952902      17.952902      17.952902    
     86200   43.1           319.20602     -3346.6202      20.589048     -5239.6568      5786.2734      17.952833      17.952833      17.952833    
     86400   43.2           324.80685     -3346.9765      20.950306     -5178.8581      5786.2066      17.952764      17.952764      17.952764    
     86600   43.3           314.5361      -3346.3089      20.287834     -3806.2666      5786.1398      17.952694      17.952694      17.952694    
     86800   43.4           314.32927     -3346.2905      20.274493     -6176.1186      5786.0728      17.952625      17.952625      17.952625    
     87000   43.5           316.63638     -3346.4344      20.423304     -5134.2331      5786.0057      17.952556      17.952556      17.952556    
     87200   43.6           305.65965     -3345.7215      19.715296     -5616.7176      5785.9385      17.952486      17.952486      17.952486    
     87400   43.7           305.06403     -3345.6779      19.676878     -3899.438       5785.8711      17.952417      17.952417      17.952417    
     87600   43.8           308.72143     -3345.9089      19.912783     -4362.9455      5785.8036      17.952347      17.952347      17.952347    
     87800   43.9           319.21039     -3346.5805      20.58933      -6110.1352      5785.736       17.952277      17.952277      17.952277    
     88000   44             313.2415      -3346.1903      20.204331     -4670.475       5785.6683      17.952207      17.952207      17.952207    
     88200   44.1           317.09129     -3346.4338      20.452646     -6762.6651      5785.6005      17.952137      17.952137      17.952137    
     88400   44.2           298.74449     -3345.2454      19.269263     -6804.7546      5785.5325      17.952066      17.952066      17.952066    
     88600   44.3           316.4614      -3346.3834      20.412017     -6622.1231      5785.4643      17.951996      17.951996      17.951996    
     88800   44.4           312.62702     -3346.1311      20.164697     -5321.1327      5785.396       17.951925      17.951925      17.951925    
     89000   44.5           303.27949     -3345.5231      19.561773     -5572.2728      5785.3276      17.951854      17.951854      17.951854    
     89200   44.6           303.9425      -3345.5608      19.604538     -3577.1997      5785.2591      17.951784      17.951784      17.951784    
     89400   44.7           311.31741     -3346.0315      20.080226     -4156.6987      5785.1904      17.951713      17.951713      17.951713    
     89600   44.8           320.79449     -3346.6381      20.691505     -4871.4578      5785.1216      17.951641      17.951641      17.951641    
     89800   44.9           309.0897      -3345.8777      19.936537     -2900.8819      5785.0528      17.95157       17.95157       17.95157     
     90000   45             324.35998     -3346.8578      20.921482     -4317.2525      5784.9838      17.951499      17.951499      17.951499    
     90200   45.1           298.69777     -3345.1974      19.266249     -5207.4789      5784.9148      17.951427      17.951427      17.951427    
     90400   45.2           315.25667     -3346.2605      20.334312     -5643.4641      5784.8456      17.951356      17.951356      17.951356    
     90600   45.3           328.57214     -3347.1145      21.19317      -6247.0708      5784.7763      17.951284      17.951284      17.951284    
     90800   45.4           295.41083     -3344.9704      19.054239     -5036.0809      5784.7069      17.951212      17.951212      17.951212    
     91000   45.5           306.09308     -3345.6544      19.743252     -4809.5055      5784.6373      17.95114       17.95114       17.95114     
     91200   45.6           313.69489     -3346.1398      20.233575     -4212.0466      5784.5677      17.951068      17.951068      17.951068    
     91400   45.7           302.55132     -3345.416       19.514806     -6321.9529      5784.4979      17.950996      17.950996      17.950996    
     91600   45.8           315.80341     -3346.266       20.369577     -4412.2267      5784.428       17.950924      17.950924      17.950924    
     91800   45.9           313.81511     -3346.1327      20.24133      -5450.9562      5784.358       17.950851      17.950851      17.950851    
     92000   46             318.38801     -3346.4226      20.536285     -4469.5303      5784.2878      17.950779      17.950779      17.950779    
     92200   46.1           314.28479     -3346.1527      20.271624     -5183.0578      5784.2176      17.950706      17.950706      17.950706    
     92400   46.2           313.41984     -3346.0923      20.215835     -3796.9113      5784.1472      17.950634      17.950634      17.950634    
     92600   46.3           317.58306     -3346.3558      20.484366     -5903.312       5784.0768      17.950561      17.950561      17.950561    
     92800   46.4           314.04606     -3346.1225      20.256226     -5521.0735      5784.0062      17.950488      17.950488      17.950488    
     93000   46.5           306.55227     -3345.6342      19.77287      -3264.1575      5783.9355      17.950414      17.950414      17.950414    
     93200   46.6           317.44665     -3346.3319      20.475567     -4539.086       5783.8647      17.950341      17.950341      17.950341    
     93400   46.7           301.96609     -3345.3281      19.477058     -3630.1365      5783.7938      17.950268      17.950268      17.950268    
     93600   46.8           319.95616     -3346.484       20.637432     -5054.4044      5783.7228      17.950194      17.950194      17.950194    
     93800   46.9           321.41076     -3346.5725      20.731255     -5682.0204      5783.6517      17.950121      17.950121      17.950121    
     94000   47             303.80743     -3345.4322      19.595826     -4963.0159      5783.5804      17.950047      17.950047      17.950047    
     94200   47.1           311.42983     -3345.9188      20.087477     -5582.5172      5783.509       17.949973      17.949973      17.949973    
     94400   47.2           300.57621     -3345.2138      19.38741      -5025.2254      5783.4375      17.949899      17.949899      17.949899    
     94600   47.3           323.1116      -3346.6626      20.840961     -5687.7853      5783.3659      17.949825      17.949825      17.949825    
     94800   47.4           307.78522     -3345.669       19.852397     -3324.71        5783.2941      17.949751      17.949751      17.949751    
     95000   47.5           328.91887     -3347.0272      21.215534     -6119.9444      5783.2223      17.949677      17.949677      17.949677    
     95200   47.6           302.55316     -3345.3213      19.514925     -6207.5684      5783.1503      17.949602      17.949602      17.949602    
     95400   47.7           311.08734     -3345.8668      20.065386     -2317.8149      5783.0782      17.949528      17.949528      17.949528    
     95600   47.8           315.41068     -3346.1409      20.344245     -4056.0353      5783.0061      17.949453      17.949453      17.949453    
     95800   47.9           314.81745     -3346.0976      20.305981     -6211.5547      5782.9338      17.949378      17.949378      17.949378    
     96000   48             307.47954     -3345.6193      19.83268      -4740.936       5782.8615      17.949303      17.949303      17.949303    
     96200   48.1           309.30375     -3345.7319      19.950343     -3582.9615      5782.789       17.949228      17.949228      17.949228    
     96400   48.2           309.85873     -3345.7627      19.98614      -4915.248       5782.7165      17.949153      17.949153      17.949153    
     96600   48.3           308.82647     -3345.6912      19.919558     -2729.8443      5782.6438      17.949078      17.949078      17.949078    
     96800   48.4           312.5956      -3345.9294      20.16267      -4679.7137      5782.5711      17.949003      17.949003      17.949003    
     97000   48.5           313.41476     -3345.9771      20.215507     -4733.6137      5782.4983      17.948928      17.948928      17.948928    
     97200   48.6           315.44995     -3346.1035      20.346778     -5603.0526      5782.4253      17.948852      17.948852      17.948852    
     97400   48.7           304.97232     -3345.4226      19.670962     -928.45657      5782.3523      17.948777      17.948777      17.948777    
     97600   48.8           317.95691     -3346.2552      20.508479     -4667.1355      5782.2793      17.948701      17.948701      17.948701    
     97800   48.9           306.99258     -3345.543       19.801271     -4360.1191      5782.2061      17.948625      17.948625      17.948625    
     98000   49             319.59071     -3346.3507      20.613861     -3282.7962      5782.1328      17.948549      17.948549      17.948549    
     98200   49.1           315.45364     -3346.0788      20.347016     -2770.3443      5782.0595      17.948473      17.948473      17.948473    
     98400   49.2           312.26483     -3345.8683      20.141335     -5168.8817      5781.986       17.948398      17.948398      17.948398    
     98600   49.3           329.94675     -3347.004       21.281834     -3577.2122      5781.9125      17.948321      17.948321      17.948321    
     98800   49.4           315.58408     -3346.0724      20.35543      -1453.6589      5781.8389      17.948245      17.948245      17.948245    
     99000   49.5           326.69511     -3346.7842      21.0721       -5072.462       5781.7651      17.948169      17.948169      17.948169    
     99200   49.6           308.14386     -3345.5824      19.875529     -1979.3685      5781.6913      17.948093      17.948093      17.948093    
     99400   49.7           325.67806     -3346.7087      21.006499     -4562.4712      5781.6174      17.948016      17.948016      17.948016    
     99600   49.8           303.71475     -3345.287       19.589848     -3968.9361      5781.5434      17.94794       17.94794       17.94794     
     99800   49.9           323.86634     -3346.582       20.889642     -3037.5911      5781.4694      17.947863      17.947863      17.947863    
    100000   50             316.69077     -3346.1141      20.426812     -3774.7396      5781.3952      17.947786      17.947786      17.947786    
    100200   50.1           323.32285     -3346.537       20.854587     -4043.7903      5781.3209      17.947709      17.947709      17.947709    
    100400   50.2           319.94019     -3346.3139      20.636402     -5021.111       5781.2466      17.947632      17.947632      17.947632    
    100600   50.3           309.07015     -3345.6079      19.935276     -5963.5689      5781.1722      17.947555      17.947555      17.947555    
    100800   50.4           307.85901     -3345.5249      19.857156     -3659.9774      5781.0976      17.947478      17.947478      17.947478    
    101000   50.5           310.34374     -3345.6804      20.017423     -5803.6633      5781.023       17.947401      17.947401      17.947401    
    101200   50.6           312.4307      -3345.8102      20.152034     -5226.9997      5780.9482      17.947324      17.947324      17.947324    
    101400   50.7           318.36488     -3346.1881      20.534793     -4205.1645      5780.8733      17.947246      17.947246      17.947246    
    101600   50.8           311.84856     -3345.7629      20.114486     -4073.1122      5780.7983      17.947168      17.947168      17.947168    
    101800   50.9           314.63142     -3345.9375      20.293982     -4623.7711      5780.7233      17.947091      17.947091      17.947091    
    102000   51             313.02069     -3345.8287      20.190089     -3572.3138      5780.6481      17.947013      17.947013      17.947013    
    102200   51.1           321.27567     -3346.3563      20.722541     -2684.533       5780.5729      17.946935      17.946935      17.946935    
    102400   51.2           317.32738     -3346.0967      20.467874     -3573.1841      5780.4976      17.946857      17.946857      17.946857    
    102600   51.3           299.83382     -3344.9633      19.339525     -3142.7023      5780.4222      17.946779      17.946779      17.946779    
    102800   51.4           309.87817     -3345.6063      19.987394     -3590.8189      5780.3467      17.946701      17.946701      17.946701    
    103000   51.5           313.50843     -3345.8357      20.221548     -1759.7428      5780.2711      17.946623      17.946623      17.946623    
    103200   51.6           310.62647     -3345.6449      20.03566      -3460.205       5780.1955      17.946545      17.946545      17.946545    
    103400   51.7           306.57542     -3345.3787      19.774364     -1773.7894      5780.1198      17.946466      17.946466      17.946466    
    103600   51.8           307.76161     -3345.4503      19.850874     -3217.5938      5780.0441      17.946388      17.946388      17.946388    
    103800   51.9           306.6317      -3345.3727      19.777994     -3971.9996      5779.9683      17.946309      17.946309      17.946309    
    104000   52             317.3304      -3346.058       20.468068     -5109.1315      5779.8924      17.946231      17.946231      17.946231    
    104200   52.1           310.57168     -3345.6173      20.032125     -3957.1595      5779.8164      17.946152      17.946152      17.946152    
    104400   52.2           314.78756     -3345.8844      20.304054     -3436.1744      5779.7403      17.946073      17.946073      17.946073    
    104600   52.3           314.61449     -3345.8686      20.29289      -4401.0192      5779.6641      17.945995      17.945995      17.945995    
    104800   52.4           303.67036     -3345.1577      19.586985     -5109.157       5779.5878      17.945916      17.945916      17.945916    
    105000   52.5           320.38481     -3346.2312      20.66508      -3570.0057      5779.5114      17.945837      17.945837      17.945837    
    105200   52.6           316.33872     -3345.9654      20.404104     -3445.1016      5779.4349      17.945757      17.945757      17.945757    
    105400   52.7           302.56751     -3345.0724      19.51585      -1556.4706      5779.3584      17.945678      17.945678      17.945678    
    105600   52.8           306.19798     -3345.3017      19.750018     -2674.692       5779.2817      17.945599      17.945599      17.945599    
    105800   52.9           321.13451     -3346.2606      20.713436     -4605.7691      5779.205       17.945519      17.945519      17.945519    
    106000   53             313.15192     -3345.7409      20.198553     -4521.234       5779.1282      17.94544       17.94544       17.94544     
    106200   53.1           311.63868     -3345.6385      20.100948     -2575.4267      5779.0512      17.94536       17.94536       17.94536     
    106400   53.2           309.98705     -3345.5273      19.994416     -1049.6336      5778.9742      17.945281      17.945281      17.945281    
    106600   53.3           329.6924      -3346.7936      21.265427     -3686.1407      5778.8971      17.945201      17.945201      17.945201    
    106800   53.4           310.38444     -3345.5434      20.020049     -4718.9966      5778.82        17.945121      17.945121      17.945121    
    107000   53.5           309.52258     -3345.4829      19.964458     -3088.8257      5778.7427      17.945041      17.945041      17.945041    
    107200   53.6           312.31771     -3345.6585      20.144746     -3886.5314      5778.6654      17.944961      17.944961      17.944961    
    107400   53.7           306.9678      -3345.3087      19.799672     -5871.9588      5778.588       17.944881      17.944881      17.944881    
    107600   53.8           309.73843     -3345.4827      19.978381     -1584.9356      5778.5105      17.944801      17.944801      17.944801    
    107800   53.9           318.26118     -3346.0277      20.528105     -4782.825       5778.4328      17.94472       17.94472       17.94472     
    108000   54             316.84852     -3345.9321      20.436987     -2192.1879      5778.3552      17.94464       17.94464       17.94464     
    108200   54.1           314.54801     -3345.7787      20.288602     -4434.6254      5778.2774      17.944559      17.944559      17.944559    
    108400   54.2           307.91255     -3345.3458      19.860609      832.98683      5778.1996      17.944479      17.944479      17.944479    
    108600   54.3           324.92832     -3346.4388      20.95814      -4391.9919      5778.1218      17.944398      17.944398      17.944398    
    108800   54.4           326.25212     -3346.5194      21.043527     -3719.2723      5778.0439      17.944317      17.944317      17.944317    
    109000   54.5           311.77007     -3345.5805      20.109423     -4161.1722      5777.9659      17.944237      17.944237      17.944237    
    109200   54.6           320.67363     -3346.1504      20.68371      -4761.4485      5777.8878      17.944156      17.944156      17.944156    
    109400   54.7           316.95246     -3345.9056      20.443691     -2624.0783      5777.8096      17.944075      17.944075      17.944075    
    109600   54.8           323.47079     -3346.3215      20.864129     -4099.6192      5777.7314      17.943994      17.943994      17.943994    
    109800   54.9           329.27958     -3346.6915      21.2388       -4458.4875      5777.6531      17.943913      17.943913      17.943913    
    110000   55             298.47637     -3344.6997      19.251969     -2375.5097      5777.5747      17.943832      17.943832      17.943832    
    110200   55.1           334.69511     -3347.0315      21.588107     -5151.9325      5777.4962      17.943751      17.943751      17.943751    
    110400   55.2           312.94257     -3345.6237      20.18505      -5044.7921      5777.4176      17.943669      17.943669      17.943669    
    110600   55.3           320.69773     -3346.1196      20.685264     -4114.6775      5777.339       17.943588      17.943588      17.943588    
    110800   55.4           314.44973     -3345.7118      20.282263     -4140.4109      5777.2602      17.943506      17.943506      17.943506    
    111000   55.5           321.4481      -3346.1585      20.733663     -2617.2173      5777.1814      17.943425      17.943425      17.943425    
    111200   55.6           307.68619     -3345.2661      19.846009     -3604.3342      5777.1025      17.943343      17.943343      17.943343    
    111400   55.7           314.66564     -3345.7118      20.29619      -2919.1399      5777.0235      17.943261      17.943261      17.943261    
    111600   55.8           313.5967      -3345.6383      20.227242     -4980.9566      5776.9444      17.943179      17.943179      17.943179    
    111800   55.9           318.2626      -3345.9346      20.528196     -1565.0423      5776.8652      17.943097      17.943097      17.943097    
    112000   56             316.31807     -3345.8046      20.402772     -3323.357       5776.786       17.943015      17.943015      17.943015    
    112200   56.1           298.694       -3344.6632      19.266005     -3985.8937      5776.7067      17.942933      17.942933      17.942933    
    112400   56.2           323.54915     -3346.2619      20.869183     -5495.0268      5776.6272      17.942851      17.942851      17.942851    
    112600   56.3           305.16708     -3345.0718      19.683525     -4373.4986      5776.5477      17.942768      17.942768      17.942768    
    112800   56.4           317.27134     -3345.848       20.464259     -3725.6255      5776.468       17.942686      17.942686      17.942686    
    113000   56.5           304.30983     -3345.0073      19.628231     -4031.8164      5776.3883      17.942603      17.942603      17.942603    
    113200   56.6           314.91236     -3345.6868      20.312103      63.748784      5776.3084      17.942521      17.942521      17.942521    
    113400   56.7           312.28961     -3345.5127      20.142933     -2109.0175      5776.2286      17.942438      17.942438      17.942438    
    113600   56.8           323.14709     -3346.2086      20.84325      -5708.5678      5776.1487      17.942355      17.942355      17.942355    
    113800   56.9           310.11903     -3345.3638      20.002929     -4888.2937      5776.0687      17.942273      17.942273      17.942273    
    114000   57             318.18393     -3345.8797      20.523122     -3165.9206      5775.9886      17.94219       17.94219       17.94219     
    114200   57.1           317.91009     -3345.8574      20.505459     -4311.156       5775.9084      17.942107      17.942107      17.942107    
    114400   57.2           307.62789     -3345.1897      19.842249     -1603.8909      5775.8281      17.942023      17.942023      17.942023    
    114600   57.3           326.34794     -3346.3926      21.049707     -3077.7644      5775.7477      17.94194       17.94194       17.94194     
    114800   57.4           334.36549     -3346.9053      21.566846     -2030.8931      5775.6673      17.941857      17.941857      17.941857    
    115000   57.5           315.96081     -3345.7134      20.379729     -2876.4111      5775.5868      17.941774      17.941774      17.941774    
    115200   57.6           309.79848     -3345.3115      19.982254     -4153.9293      5775.5062      17.94169       17.94169       17.94169     
    115400   57.7           318.24788     -3345.852       20.527247     -2485.7769      5775.4256      17.941607      17.941607      17.941607    
    115600   57.8           309.4448      -3345.2797      19.959441     -2426.21        5775.3449      17.941523      17.941523      17.941523    
    115800   57.9           317.19691     -3345.7754      20.459458     -3444.4186      5775.2641      17.941439      17.941439      17.941439    
    116000   58             323.40865     -3346.1715      20.86012      -4979.0481      5775.1833      17.941356      17.941356      17.941356    
    116200   58.1           313.43169     -3345.5234      20.216598     -1296.967       5775.1023      17.941272      17.941272      17.941272    
    116400   58.2           313.15595     -3345.5012      20.198813     -3388.7382      5775.0213      17.941188      17.941188      17.941188    
    116600   58.3           319.59462     -3345.9119      20.614113     -3176.4449      5774.9403      17.941104      17.941104      17.941104    
    116800   58.4           312.91993     -3345.4768      20.18359       415.44814      5774.8592      17.94102       17.94102       17.94102     
    117000   58.5           307.80173     -3345.1422      19.853462     -1561.8051      5774.778       17.940936      17.940936      17.940936    
    117200   58.6           330.60607     -3346.6087      21.32436      -949.88658      5774.6968      17.940852      17.940852      17.940852    
    117400   58.7           320.19316     -3345.9322      20.652719     -1586.8309      5774.6156      17.940768      17.940768      17.940768    
    117600   58.8           327.10372     -3346.3735      21.098455     -575.43644      5774.5344      17.940684      17.940684      17.940684    
    117800   58.9           318.50119     -3345.8139      20.543586     -1165.2612      5774.4532      17.9406        17.9406        17.9406      
    118000   59             317.2773      -3345.7304      20.464644     -4029.7418      5774.3719      17.940515      17.940515      17.940515    
    118200   59.1           324.78658     -3346.2104      20.948998     -1845.6317      5774.2906      17.940431      17.940431      17.940431    
    118400   59.2           311.47502     -3345.3473      20.090392     -1916.7456      5774.2093      17.940347      17.940347      17.940347    
    118600   59.3           310.257       -3345.2641      20.011829      227.05221      5774.1279      17.940263      17.940263      17.940263    
    118800   59.4           327.39673     -3346.3651      21.117355     -1307.9603      5774.0465      17.940178      17.940178      17.940178    
    119000   59.5           310.41825     -3345.2652      20.022229     -2250.6675      5773.9651      17.940094      17.940094      17.940094    
    119200   59.6           317.14342     -3345.6946      20.456008     -2371.4664      5773.8837      17.94001       17.94001       17.94001     
    119400   59.7           327.24053     -3346.3414      21.10728      -3391.8286      5773.8022      17.939925      17.939925      17.939925    
    119600   59.8           308.55684     -3345.1316      19.902167     -383.835        5773.7207      17.939841      17.939841      17.939841    
    119800   59.9           326.41056     -3346.2789      21.053746     -3006.461       5773.6392      17.939757      17.939757      17.939757    
    120000   60             318.58768     -3345.7699      20.549164     -2509.0404      5773.5576      17.939672      17.939672      17.939672    
    120200   60.1           320.26712     -3345.8734      20.65749      -499.22575      5773.476       17.939588      17.939588      17.939588    
    120400   60.2           325.67349     -3346.2178      21.006205     -2170.9985      5773.3944      17.939503      17.939503      17.939503    
    120600   60.3           321.48416     -3345.943       20.735989     -206.53074      5773.3128      17.939419      17.939419      17.939419    
    120800   60.4           321.9557      -3345.969       20.766404     -1022.0188      5773.2312      17.939334      17.939334      17.939334    
    121000   60.5           314.7903      -3345.5021      20.30423      -1125.8172      5773.1496      17.939249      17.939249      17.939249    
    121200   60.6           317.1685      -3345.6509      20.457626     -1866.6797      5773.0679      17.939165      17.939165      17.939165    
    121400   60.7           330.07426     -3346.479       21.290058     -328.45209      5772.9863      17.93908       17.93908       17.93908     
    121600   60.8           310.97417     -3345.2423      20.058086      2020.3511      5772.9046      17.938996      17.938996      17.938996    
    121800   60.9           312.28496     -3345.3223      20.142634      77.912214      5772.823       17.938911      17.938911      17.938911    
    122000   61             318.71476     -3345.7326      20.557361     -386.45192      5772.7413      17.938827      17.938827      17.938827    
    122200   61.1           310.24253     -3345.1816      20.010895      587.74889      5772.6596      17.938742      17.938742      17.938742    
    122400   61.2           316.77332     -3345.5985      20.432136      63.739728      5772.578       17.938657      17.938657      17.938657    
    122600   61.3           332.20006     -3346.589       21.427174     -1212.6116      5772.4963      17.938573      17.938573      17.938573    
    122800   61.4           338.41138     -3346.9853      21.827809     -546.36344      5772.4146      17.938488      17.938488      17.938488    
    123000   61.5           315.46076     -3345.5003      20.347475      1057.9488      5772.3329      17.938404      17.938404      17.938404    
    123200   61.6           326.4628      -3346.2055      21.057116     -1112.1105      5772.2512      17.938319      17.938319      17.938319    
    123400   61.7           321.26726     -3345.8657      20.721999      1485.2886      5772.1696      17.938234      17.938234      17.938234    
    123600   61.8           318.67733     -3345.6942      20.554947      776.14855      5772.088       17.93815       17.93815       17.93815     
    123800   61.9           325.80893     -3346.1498      21.014941     -1467.246       5772.0063      17.938065      17.938065      17.938065    
    124000   62             323.27255     -3345.9816      20.851342     -2041.5588      5771.9247      17.937981      17.937981      17.937981    
    124200   62.1           332.41086     -3346.5668      21.440771     -873.94447      5771.843       17.937896      17.937896      17.937896    
    124400   62.2           323.94863     -3346.0165      20.89495       2752.3343      5771.7613      17.937811      17.937811      17.937811    
    124600   62.3           325.97607     -3346.1427      21.025721      488.18855      5771.6796      17.937727      17.937727      17.937727    
    124800   62.4           306.18883     -3344.8618      19.749428      1248.2862      5771.598       17.937642      17.937642      17.937642    
    125000   62.5           315.00012     -3345.4256      20.317764      595.94758      5771.5163      17.937558      17.937558      17.937558    
    125200   62.6           318.08129     -3345.6199      20.516501      1365.1394      5771.4347      17.937473      17.937473      17.937473    
    125400   62.7           326.7269      -3346.1731      21.074151     -397.86456      5771.3531      17.937389      17.937389      17.937389    
    125600   62.8           326.07373     -3346.1266      21.03202      -1795.2776      5771.2716      17.937304      17.937304      17.937304    
    125800   62.9           330.3189      -3346.3958      21.305837      559.83343      5771.19        17.93722       17.93722       17.93722     
    126000   63             327.22968     -3346.192       21.10658       1706.0772      5771.1085      17.937135      17.937135      17.937135    
    126200   63.1           330.54155     -3346.4009      21.320199     -1249.7664      5771.0269      17.937051      17.937051      17.937051    
    126400   63.2           330.27891     -3346.3796      21.303258     -511.12781      5770.9454      17.936966      17.936966      17.936966    
    126600   63.3           331.39389     -3346.4469      21.375175      211.41182      5770.8639      17.936882      17.936882      17.936882    
    126800   63.4           342.71139     -3347.1723      22.105163     -1160.8531      5770.7824      17.936797      17.936797      17.936797    
    127000   63.5           320.48475     -3345.734       20.671527      1940.711       5770.7009      17.936713      17.936713      17.936713    
    127200   63.6           314.05408     -3345.3146      20.256743      181.40089      5770.6194      17.936628      17.936628      17.936628    
    127400   63.7           313.41182     -3345.2686      20.215317      1195.0572      5770.5379      17.936544      17.936544      17.936544    
    127600   63.8           329.36154     -3346.293       21.244087      512.56188      5770.4565      17.93646       17.93646       17.93646     
    127800   63.9           320.44302     -3345.7133      20.668835      1129.0889      5770.3751      17.936375      17.936375      17.936375    
    128000   64             332.16351     -3346.4645      21.424816      1354.554       5770.2936      17.936291      17.936291      17.936291    
    128200   64.1           334.33862     -3346.6005      21.565113      3031.6756      5770.2123      17.936207      17.936207      17.936207    
    128400   64.2           320.12102     -3345.6786      20.648066      984.96152      5770.1309      17.936122      17.936122      17.936122    
    128600   64.3           319.23067     -3345.6168      20.590637      2307.5371      5770.0496      17.936038      17.936038      17.936038    
    128800   64.4           338.65779     -3346.8656      21.843702     -441.04757      5769.9683      17.935954      17.935954      17.935954    
    129000   64.5           317.65599     -3345.506       20.48907       2061.0538      5769.887       17.93587       17.93587       17.93587     
    129200   64.6           333.33883     -3346.5131      21.500625     -840.39587      5769.8058      17.935785      17.935785      17.935785    
    129400   64.7           318.37729     -3345.5435      20.535594      1151.2608      5769.7245      17.935701      17.935701      17.935701    
    129600   64.8           323.72783     -3345.8842      20.880708     -8.080668       5769.6433      17.935617      17.935617      17.935617    
    129800   64.9           329.567       -3346.2563      21.257339     -439.73322      5769.5621      17.935533      17.935533      17.935533    
    130000   65             329.12428     -3346.2232      21.228783     -36.775471      5769.4809      17.935449      17.935449      17.935449    
    130200   65.1           337.98833     -3346.7905      21.800522      479.51084      5769.3997      17.935365      17.935365      17.935365    
    130400   65.2           320.40554     -3345.6516      20.666418      2171.2888      5769.3185      17.93528       17.93528       17.93528     
    130600   65.3           331.40244     -3346.3566      21.375727     -666.41608      5769.2374      17.935196      17.935196      17.935196    
    130800   65.4           311.82543     -3345.0893      20.112994      2160.1255      5769.1563      17.935112      17.935112      17.935112    
    131000   65.5           334.14998     -3346.5249      21.552945     -599.58465      5769.0752      17.935028      17.935028      17.935028    
    131200   65.6           329.07414     -3346.1929      21.225549     -1330.826       5768.9941      17.934944      17.934944      17.934944    
    131400   65.7           307.45294     -3344.7938      19.830964      580.99813      5768.913       17.93486       17.93486       17.93486     
    131600   65.8           341.60921     -3346.9926      22.034072      1326.622       5768.8319      17.934776      17.934776      17.934776    
    131800   65.9           320.7199      -3345.6405      20.686694     -748.89979      5768.7509      17.934692      17.934692      17.934692    
    132000   66             327.01564     -3346.0423      21.092774      1765.6126      5768.6698      17.934608      17.934608      17.934608    
    132200   66.1           342.25247     -3347.0206      22.075562     -1271.3352      5768.5888      17.934524      17.934524      17.934524    
    132400   66.2           328.77022     -3346.1467      21.205946     -1046.3934      5768.5077      17.93444       17.93444       17.93444     
    132600   66.3           338.01124     -3346.7383      21.801999      852.21326      5768.4267      17.934356      17.934356      17.934356    
    132800   66.4           334.63216     -3346.5158      21.584046      865.82654      5768.3456      17.934272      17.934272      17.934272    
    133000   66.5           323.81579     -3345.8136      20.886382      420.79923      5768.2646      17.934188      17.934188      17.934188    
    133200   66.6           329.6111      -3346.1828      21.260184      249.76051      5768.1835      17.934104      17.934104      17.934104    
    133400   66.7           328.08328     -3346.0799      21.161638      54.271655      5768.1025      17.93402       17.93402       17.93402     
    133600   66.8           319.69394     -3345.5343      20.620519      3797.7831      5768.0215      17.933936      17.933936      17.933936    
    133800   66.9           336.80234     -3346.6334      21.724024     -795.71216      5767.9406      17.933852      17.933852      17.933852    
    134000   67             332.46765     -3346.3493      21.444434      934.38844      5767.8597      17.933769      17.933769      17.933769    
    134200   67.1           324.96845     -3345.8609      20.960729      1789.8689      5767.7788      17.933685      17.933685      17.933685    
    134400   67.2           317.07295     -3345.3472      20.451463      1714.276       5767.698       17.933601      17.933601      17.933601    
    134600   67.3           335.6351      -3346.5402      21.648736      1062.4914      5767.6172      17.933517      17.933517      17.933517    
    134800   67.4           355.47964     -3347.8157      22.928726      1266.8612      5767.5364      17.933434      17.933434      17.933434    
    135000   67.5           323.26215     -3345.7327      20.850672      1506.2508      5767.4557      17.93335       17.93335       17.93335     
    135200   67.6           342.68807     -3346.9814      22.103659      946.43846      5767.375       17.933266      17.933266      17.933266    
    135400   67.7           333.55817     -3346.388       21.514773      1576.73        5767.2943      17.933183      17.933183      17.933183    
    135600   67.8           316.97101     -3345.3137      20.444887      1021.4833      5767.2137      17.933099      17.933099      17.933099    
    135800   67.9           323.0856      -3345.7035      20.839283      1745.9794      5767.1331      17.933016      17.933016      17.933016    
    136000   68             319.70844     -3345.4812      20.621454      1187.7255      5767.0525      17.932932      17.932932      17.932932    
    136200   68.1           332.37532     -3346.2936      21.438478      3160.0551      5766.972       17.932849      17.932849      17.932849    
    136400   68.2           331.2614      -3346.2173      21.366629      1575.2576      5766.8915      17.932765      17.932765      17.932765    
    136600   68.3           330.65775     -3346.1739      21.327694     -1144.7342      5766.8111      17.932682      17.932682      17.932682    
    136800   68.4           326.26509     -3345.8859      21.044363      723.23397      5766.7307      17.932598      17.932598      17.932598    
    137000   68.5           322.01096     -3345.6072      20.769969      3150.8582      5766.6503      17.932515      17.932515      17.932515    
    137200   68.6           323.92485     -3345.7262      20.893416      1533.2951      5766.5699      17.932432      17.932432      17.932432    
    137400   68.7           334.28423     -3346.3898      21.561604      2963.0918      5766.4896      17.932349      17.932349      17.932349    
    137600   68.8           334.60627     -3346.4061      21.582376      788.20126      5766.4094      17.932265      17.932265      17.932265    
    137800   68.9           320.66773     -3345.5025      20.683329      144.06114      5766.3291      17.932182      17.932182      17.932182    
    138000   69             325.43267     -3345.8055      20.990671      1235.7337      5766.2489      17.932099      17.932099      17.932099    
    138200   69.1           326.77925     -3345.8879      21.077527      2490.4505      5766.1687      17.932016      17.932016      17.932016    
    138400   69.2           324.54095     -3345.7389      20.933155      2648.1372      5766.0886      17.931933      17.931933      17.931933    
    138600   69.3           323.97953     -3345.6979      20.896943      1659.6413      5766.0086      17.93185       17.93185       17.93185     
    138800   69.4           339.82642     -3346.7158      21.91908       2034.8866      5765.9285      17.931767      17.931767      17.931767    
    139000   69.5           319.18268     -3345.3796      20.587542      1416.3466      5765.8486      17.931684      17.931684      17.931684    
    139200   69.6           327.93905     -3345.94        21.152335      2338.0015      5765.7687      17.931601      17.931601      17.931601    
    139400   69.7           342.771       -3346.8922      22.109008      1358.6774      5765.6888      17.931518      17.931518      17.931518    
    139600   69.8           323.6793      -3345.656       20.877578      1533.5858      5765.609       17.931436      17.931436      17.931436    
    139800   69.9           314.91108     -3345.0859      20.31202       1864.9328      5765.5292      17.931353      17.931353      17.931353    
    140000   70             322.64593     -3345.5804      20.810924      1903.5235      5765.4495      17.93127       17.93127       17.93127     
    140200   70.1           336.25948     -3346.4542      21.689009      1160.7101      5765.3698      17.931188      17.931188      17.931188    
    140400   70.2           331.52626     -3346.1444      21.383713      2164.4365      5765.2901      17.931105      17.931105      17.931105    
    140600   70.3           325.22674     -3345.7334      20.977389     -51.805298      5765.2105      17.931022      17.931022      17.931022    
    140800   70.4           330.3935      -3346.0622      21.310649      1635.7131      5765.1309      17.93094       17.93094       17.93094     
    141000   70.5           316.74031     -3345.177       20.430007      2166.1998      5765.0513      17.930857      17.930857      17.930857    
    141200   70.6           326.20316     -3345.783       21.040369      123.87868      5764.9718      17.930775      17.930775      17.930775    
    141400   70.7           316.14175     -3345.1295      20.3914        1935.8179      5764.8922      17.930693      17.930693      17.930693    
    141600   70.8           356.3976      -3347.7219      22.987935     -559.32425      5764.8127      17.93061       17.93061       17.93061     
    141800   70.9           343.22833     -3346.8678      22.138506      1270.1496      5764.7332      17.930528      17.930528      17.930528    
    142000   71             341.56534     -3346.756       22.031242      1095.8508      5764.6538      17.930445      17.930445      17.930445    
    142200   71.1           334.54429     -3346.2987      21.578378      2639.9871      5764.5744      17.930363      17.930363      17.930363    
    142400   71.2           327.45093     -3345.8364      21.120851      1462.7979      5764.4951      17.930281      17.930281      17.930281    
    142600   71.3           329.53703     -3345.9665      21.255406      4178.1424      5764.4158      17.930199      17.930199      17.930199    
    142800   71.4           315.8653      -3345.0799      20.373568      277.26696      5764.3366      17.930117      17.930117      17.930117    
    143000   71.5           336.04065     -3346.3769      21.674895      1382.9514      5764.2575      17.930034      17.930034      17.930034    
    143200   71.6           343.43813     -3346.8496      22.152038      1765.6895      5764.1784      17.929952      17.929952      17.929952    
    143400   71.7           332.68451     -3346.1513      21.458421      2654.5671      5764.0993      17.92987       17.92987       17.92987     
    143600   71.8           314.15894     -3344.9517      20.263507      2084.8873      5764.0204      17.929789      17.929789      17.929789    
    143800   71.9           322.01171     -3345.4539      20.770017      2834.237       5763.9415      17.929707      17.929707      17.929707    
    144000   72             310.4559      -3344.704       20.024658      4051.1514      5763.8626      17.929625      17.929625      17.929625    
    144200   72.1           320.63974     -3345.3561      20.681524      1254.9197      5763.7838      17.929543      17.929543      17.929543    
    144400   72.2           328.7609      -3345.8755      21.205345      3089.4908      5763.7051      17.929462      17.929462      17.929462    
    144600   72.3           324.1516      -3345.5735      20.908041      4024.9952      5763.6264      17.92938       17.92938       17.92938     
    144800   72.4           332.05799     -3346.0789      21.41801       1780.584       5763.5478      17.929299      17.929299      17.929299    
    145000   72.5           330.5008      -3345.9739      21.31757       3544.7033      5763.4693      17.929217      17.929217      17.929217    
    145200   72.6           327.38045     -3345.7679      21.116305      3457.9985      5763.3909      17.929136      17.929136      17.929136    
    145400   72.7           338.96888     -3346.5108      21.863768      2234.2623      5763.3125      17.929055      17.929055      17.929055    
    145600   72.8           339.06806     -3346.5126      21.870165      2675.5898      5763.2343      17.928973      17.928973      17.928973    
    145800   72.9           339.73696     -3346.551       21.91331       4991.6064      5763.1561      17.928892      17.928892      17.928892    
    146000   73             329.5115      -3345.887       21.253759      3541.4589      5763.078       17.928811      17.928811      17.928811    
    146200   73.1           321.84417     -3345.3877      20.75921       6454.8384      5763           17.928731      17.928731      17.928731    
    146400   73.2           330.27727     -3345.9269      21.303152      4271.5878      5762.9221      17.92865       17.92865       17.92865     
    146600   73.3           327.96671     -3345.7732      21.154119      786.97143      5762.8443      17.928569      17.928569      17.928569    
    146800   73.4           323.71886     -3345.4946      20.88013       3742.8028      5762.7665      17.928488      17.928488      17.928488    
    147000   73.5           315.91682     -3344.9866      20.376891      5947.2791      5762.6889      17.928408      17.928408      17.928408    
    147200   73.6           334.3634      -3346.172       21.566711      2546.6539      5762.6113      17.928327      17.928327      17.928327    
    147400   73.7           333.47153     -3346.1098      21.509184      1289.5131      5762.5338      17.928247      17.928247      17.928247    
    147600   73.8           314.06162     -3344.8533      20.25723       3550.5307      5762.4564      17.928167      17.928167      17.928167    
    147800   73.9           347.33147     -3346.9948      22.403162      3819.5769      5762.379       17.928087      17.928087      17.928087    
    148000   74             331.08583     -3345.9422      21.355305      4704.4687      5762.3017      17.928006      17.928006      17.928006    
    148200   74.1           325.02039     -3345.5464      20.964079      4613.445       5762.2245      17.927926      17.927926      17.927926    
    148400   74.2           325.71961     -3345.5866      21.00918       4161.4864      5762.1474      17.927846      17.927846      17.927846    
    148600   74.3           322.81907     -3345.3948      20.822092      5036.4019      5762.0704      17.927766      17.927766      17.927766    
    148800   74.4           333.86873     -3346.103       21.534804      959.76766      5761.9935      17.927687      17.927687      17.927687    
    149000   74.5           325.89079     -3345.5838      21.020221      825.5631       5761.9166      17.927607      17.927607      17.927607    
    149200   74.6           335.24758     -3346.1828      21.623741      3094.8028      5761.8397      17.927527      17.927527      17.927527    
    149400   74.7           333.06192     -3346.0374      21.482764      1020.715       5761.7629      17.927448      17.927448      17.927448    
    149600   74.8           325.80196     -3345.5644      21.014491      1624.4164      5761.6862      17.927368      17.927368      17.927368    
    149800   74.9           338.03213     -3346.3486      21.803347      4261.9384      5761.6095      17.927288      17.927288      17.927288    
    150000   75             329.59699     -3345.7998      21.259273      6268.3232      5761.5329      17.927209      17.927209      17.927209    
    150200   75.1           339.55765     -3346.4377      21.901744      3606.4686      5761.4565      17.92713       17.92713       17.92713     
    150400   75.2           342.85967     -3346.646       22.114727      910.45267      5761.3801      17.927051      17.927051      17.927051    
    150600   75.3           332.20038     -3345.9539      21.427194      2773.1495      5761.3038      17.926971      17.926971      17.926971    
    150800   75.4           337.48774     -3346.29        21.768233      4536.4329      5761.2275      17.926892      17.926892      17.926892    
    151000   75.5           325.52519     -3345.5138      20.996639      4509.4955      5761.1514      17.926813      17.926813      17.926813    
    151200   75.6           338.62547     -3346.3542      21.841618      1861.2337      5761.0753      17.926734      17.926734      17.926734    
    151400   75.7           327.05011     -3345.6027      21.094998      2135.1633      5760.9993      17.926656      17.926656      17.926656    
    151600   75.8           336.58797     -3346.2135      21.710197      4163.0584      5760.9233      17.926577      17.926577      17.926577    
    151800   75.9           338.44609     -3346.3285      21.830048      3493.4322      5760.8474      17.926498      17.926498      17.926498    
    152000   76             330.54276     -3345.8142      21.320277      3213.2783      5760.7716      17.926419      17.926419      17.926419    
    152200   76.1           340.27773     -3346.4373      21.94819       510.37396      5760.6959      17.926341      17.926341      17.926341    
    152400   76.2           332.65469     -3345.941       21.456498      3573.412       5760.6202      17.926262      17.926262      17.926262    
    152600   76.3           336.71737     -3346.1982      21.718544      2464.7307      5760.5447      17.926184      17.926184      17.926184    
    152800   76.4           319.76038     -3345.0999      20.624804      3449.5837      5760.4692      17.926106      17.926106      17.926106    
    153000   76.5           324.36779     -3345.3922      20.921986      3694.1656      5760.3938      17.926027      17.926027      17.926027    
    153200   76.6           341.20406     -3346.4738      22.007939      1957.3787      5760.3184      17.925949      17.925949      17.925949    
    153400   76.7           339.905       -3346.385       21.924149      2894.3593      5760.2432      17.925871      17.925871      17.925871    
    153600   76.8           321.32707     -3345.182       20.725857      3030.9613      5760.168       17.925793      17.925793      17.925793    
    153800   76.9           324.72885     -3345.3967      20.945274      5306.5518      5760.0929      17.925715      17.925715      17.925715    
    154000   77             330.3047      -3345.7516      21.304921      3970.1747      5760.0179      17.925638      17.925638      17.925638    
    154200   77.1           324.38707     -3345.3652      20.923229      5761.7613      5759.943       17.92556       17.92556       17.92556     
    154400   77.2           332.12494     -3345.8596      21.422328      5672.6923      5759.8682      17.925482      17.925482      17.925482    
    154600   77.3           338.79594     -3346.2853      21.852613      3653.4999      5759.7934      17.925405      17.925405      17.925405    
    154800   77.4           327.46802     -3345.5496      21.121953      2353.8483      5759.7188      17.925327      17.925327      17.925327    
    155000   77.5           332.24569     -3345.8529      21.430117      3812.9639      5759.6443      17.92525       17.92525       17.92525     
    155200   77.6           336.58327     -3346.1281      21.709894      2640.4092      5759.5698      17.925173      17.925173      17.925173    
    155400   77.7           344.88642     -3346.6592      22.245454      2726.764       5759.4954      17.925096      17.925096      17.925096    
    155600   77.8           345.56652     -3346.6984      22.289321      2380.9691      5759.4211      17.925018      17.925018      17.925018    
    155800   77.9           336.08781     -3346.082       21.677937      4794.497       5759.3468      17.924941      17.924941      17.924941    
    156000   78             334.43509     -3345.9706      21.571335      2841.7542      5759.2726      17.924864      17.924864      17.924864    
    156200   78.1           349.77153     -3346.9552      22.560548      3556.1147      5759.1986      17.924788      17.924788      17.924788    
    156400   78.2           334.04724     -3345.9361      21.546318      3604.3452      5759.1246      17.924711      17.924711      17.924711    
    156600   78.3           345.6165      -3346.6777      22.292545      4204.9398      5759.0507      17.924634      17.924634      17.924634    
    156800   78.4           346.59899     -3346.7361      22.355916      1554.6781      5758.9768      17.924558      17.924558      17.924558    
    157000   78.5           323.50919     -3345.2417      20.866606      2851.9231      5758.9031      17.924481      17.924481      17.924481    
    157200   78.6           317.94518     -3344.8782      20.507723      3596.2685      5758.8294      17.924405      17.924405      17.924405    
    157400   78.7           335.6857      -3346.0179      21.652         1358.4014      5758.7558      17.924328      17.924328      17.924328    
    157600   78.8           316.34489     -3344.7655      20.404503      4215.8038      5758.6823      17.924252      17.924252      17.924252    
    157800   78.9           332.41873     -3345.7976      21.441278      3908.1864      5758.6089      17.924176      17.924176      17.924176    
    158000   79             339.70333     -3346.2627      21.911141      1496.0744      5758.5355      17.9241        17.9241        17.9241      
    158200   79.1           343.43737     -3346.4987      22.151989      3085.6955      5758.4623      17.924024      17.924024      17.924024    
    158400   79.2           331.93331     -3345.7519      21.409968      2797.4316      5758.3891      17.923948      17.923948      17.923948    
    158600   79.3           340.22961     -3346.2822      21.945086      4247.1847      5758.316       17.923872      17.923872      17.923872    
    158800   79.4           326.24374     -3345.375       21.042986      4402.4735      5758.2429      17.923796      17.923796      17.923796    
    159000   79.5           343.81813     -3346.504       22.176548      2905.3253      5758.17        17.92372       17.92372       17.92372     
    159200   79.6           330.49147     -3345.6395      21.316968      5416.424       5758.0972      17.923645      17.923645      17.923645    
    159400   79.7           327.33544     -3345.4313      21.113402      3869.5403      5758.0245      17.923569      17.923569      17.923569    
    159600   79.8           330.52263     -3345.6318      21.318978      4271.7554      5757.9518      17.923494      17.923494      17.923494    
    159800   79.9           327.33709     -3345.4213      21.113508      4570.4419      5757.8792      17.923419      17.923419      17.923419    
    160000   80             343.10014     -3346.4334      22.130238      4921.0796      5757.8068      17.923344      17.923344      17.923344    
    160200   80.1           339.38356     -3346.1888      21.890515      1319.7991      5757.7344      17.923268      17.923268      17.923268    
    160400   80.2           343.95137     -3346.4788      22.185143      3540.3847      5757.6621      17.923193      17.923193      17.923193    
    160600   80.3           331.40295     -3345.6641      21.37576       4407.8486      5757.59        17.923119      17.923119      17.923119    
    160800   80.4           338.26428     -3346.102       21.818321      5715.1055      5757.5179      17.923044      17.923044      17.923044    
    161000   80.5           331.56646     -3345.6649      21.386306      4702.3013      5757.4459      17.922969      17.922969      17.922969    
    161200   80.6           330.47148     -3345.5896      21.315679      3897.2182      5757.374       17.922895      17.922895      17.922895    
    161400   80.7           325.27851     -3345.2497      20.980728      2565.6634      5757.3023      17.92282       17.92282       17.92282     
    161600   80.8           345.97035     -3346.5794      22.315369      3906.8102      5757.2306      17.922746      17.922746      17.922746    
    161800   80.9           331.01031     -3345.6096      21.350434      3208.6706      5757.159       17.922671      17.922671      17.922671    
    162000   81             327.4484      -3345.375       21.120688      4629.4689      5757.0875      17.922597      17.922597      17.922597    
    162200   81.1           326.28051     -3345.2945      21.045358      4555.9431      5757.0161      17.922523      17.922523      17.922523    
    162400   81.2           343.04145     -3346.3709      22.126452      3227.6091      5756.9448      17.922449      17.922449      17.922449    
    162600   81.3           324.33131     -3345.159       20.919633      3568.9536      5756.8736      17.922375      17.922375      17.922375    
    162800   81.4           329.25901     -3345.472       21.237474      2448.7109      5756.8025      17.922301      17.922301      17.922301    
    163000   81.5           324.85939     -3345.1833      20.953695      5294.2861      5756.7315      17.922228      17.922228      17.922228    
    163200   81.6           344.98569     -3346.4767      22.251857      4400.9467      5756.6606      17.922154      17.922154      17.922154    
    163400   81.7           330.25517     -3345.5214      21.301727      4733.6754      5756.5899      17.922081      17.922081      17.922081    
    163600   81.8           322.9253      -3345.0437      20.828944      5350.5837      5756.5192      17.922007      17.922007      17.922007    
    163800   81.9           324.93385     -3345.168       20.958498      6052.4625      5756.4486      17.921934      17.921934      17.921934    
    164000   82             343.36969     -3346.3524      22.147624      743.44416      5756.3782      17.921861      17.921861      17.921861    
    164200   82.1           359.98968     -3347.4195      23.219627      2500.4899      5756.3079      17.921788      17.921788      17.921788    
    164400   82.2           332.34854     -3345.6314      21.436751      6182.2313      5756.2377      17.921715      17.921715      17.921715    
    164600   82.3           332.2117      -3345.6177      21.427924      3197.2043      5756.1676      17.921642      17.921642      17.921642    
    164800   82.4           336.18428     -3345.8692      21.684159      3029.5581      5756.0976      17.92157       17.92157       17.92157     
    165000   82.5           335.69638     -3345.8323      21.652689      2965.986       5756.0277      17.921497      17.921497      17.921497    
    165200   82.6           334.02875     -3345.7202      21.545126      4658.5476      5755.9579      17.921425      17.921425      17.921425    
    165400   82.7           336.88707     -3345.8993      21.72949       6051.6038      5755.8882      17.921353      17.921353      17.921353    
    165600   82.8           335.10494     -3345.7793      21.614541      4694.4035      5755.8186      17.92128       17.92128       17.92128     
    165800   82.9           353.22363     -3346.943       22.783211      4681.3191      5755.7492      17.921208      17.921208      17.921208    
    166000   83             330.70763     -3345.4854      21.330911      5060.4654      5755.6799      17.921136      17.921136      17.921136    
    166200   83.1           321.2161      -3344.8681      20.7187        4718.004       5755.6107      17.921065      17.921065      17.921065    
    166400   83.2           330.89363     -3345.4873      21.342908      5049.6892      5755.5416      17.920993      17.920993      17.920993    
    166600   83.3           341.69527     -3346.1792      22.039623      5021.1201      5755.4726      17.920921      17.920921      17.920921    
    166800   83.4           326.7677      -3345.2113      21.076782      4217.2174      5755.4037      17.92085       17.92085       17.92085     
    167000   83.5           344.67367     -3346.3613      22.231732      2721.3582      5755.335       17.920778      17.920778      17.920778    
    167200   83.6           337.05202     -3345.8644      21.740129      5568.8212      5755.2663      17.920707      17.920707      17.920707    
    167400   83.7           338.68481     -3345.9647      21.845445      5594.1023      5755.1978      17.920636      17.920636      17.920636    
    167600   83.8           333.95061     -3345.6541      21.540086      5032.792       5755.1294      17.920565      17.920565      17.920565    
    167800   83.9           338.26679     -3345.9273      21.818483      4604.7638      5755.0612      17.920494      17.920494      17.920494    
    168000   84             335.64856     -3345.7537      21.649605      5244.9969      5754.993       17.920423      17.920423      17.920423    
    168200   84.1           343.12259     -3346.2306      22.131686      2328.1818      5754.925       17.920353      17.920353      17.920353    
    168400   84.2           343.60551     -3346.2566      22.162835      4240.8457      5754.8571      17.920282      17.920282      17.920282    
    168600   84.3           330.28577     -3345.3925      21.303701      6175.7724      5754.7893      17.920212      17.920212      17.920212    
    168800   84.4           322.7789      -3344.903       20.819501      5427.5494      5754.7216      17.920142      17.920142      17.920142    
    169000   84.5           337.88762     -3345.8725      21.794026      5919.0769      5754.654       17.920072      17.920072      17.920072    
    169200   84.6           317.60942     -3344.5593      20.486065      2625.9864      5754.5866      17.920002      17.920002      17.920002    
    169400   84.7           321.96877     -3344.8354      20.767247      6454.047       5754.5192      17.919932      17.919932      17.919932    
    169600   84.8           334.16468     -3345.6168      21.553893      5317.4432      5754.452       17.919862      17.919862      17.919862    
    169800   84.9           344.60195     -3346.285       22.227106      4097.2528      5754.3849      17.919792      17.919792      17.919792    
    170000   85             334.11754     -3345.6036      21.550853      5752.0649      5754.3179      17.919723      17.919723      17.919723    
    170200   85.1           339.47851     -3345.9445      21.89664       4537.7218      5754.2509      17.919653      17.919653      17.919653    
    170400   85.2           349.32444     -3346.5744      22.53171       6373.8094      5754.1841      17.919584      17.919584      17.919584    
    170600   85.3           333.50838     -3345.5489      21.511562      6790.6167      5754.1174      17.919515      17.919515      17.919515    
    170800   85.4           334.90336     -3345.6335      21.601539      5789.0555      5754.0509      17.919446      17.919446      17.919446    
    171000   85.5           344.27614     -3346.2331      22.206091      3471.5477      5753.9845      17.919377      17.919377      17.919377    
    171200   85.6           316.75136     -3344.4523      20.43072       7737.6793      5753.9183      17.919308      17.919308      17.919308    
    171400   85.7           342.32509     -3346.0971      22.080247      5018.7922      5753.8521      17.919239      17.919239      17.919239    
    171600   85.8           326.2255      -3345.0533      21.04181       7092.7845      5753.7861      17.919171      17.919171      17.919171    
    171800   85.9           351.58301     -3346.6839      22.67739       4456.9809      5753.7201      17.919102      17.919102      17.919102    
    172000   86             341.98495     -3346.0593      22.058307      4950.9264      5753.6544      17.919034      17.919034      17.919034    
    172200   86.1           341.79376     -3346.0419      22.045975      5403.1556      5753.5887      17.918966      17.918966      17.918966    
    172400   86.2           336.91846     -3345.7222      21.731514      5887.945       5753.5231      17.918898      17.918898      17.918898    
    172600   86.3           349.34267     -3346.5183      22.532886      5505.5592      5753.4577      17.91883       17.91883       17.91883     
    172800   86.4           349.66509     -3346.534       22.553682      4678.0493      5753.3925      17.918762      17.918762      17.918762    
    173000   86.5           330.56792     -3345.2966      21.321899      6377.1743      5753.3274      17.918694      17.918694      17.918694    
    173200   86.6           344.46322     -3346.1877      22.218158      7405.2815      5753.2624      17.918627      17.918627      17.918627    
    173400   86.7           339.48208     -3345.8613      21.89687       5665.1575      5753.1975      17.91856       17.91856       17.91856     
    173600   86.8           332.47897     -3345.4041      21.445164      5233.3255      5753.1328      17.918492      17.918492      17.918492    
    173800   86.9           318.04527     -3344.4679      20.514178      6834.7622      5753.0683      17.918425      17.918425      17.918425    
    174000   87             328.06991     -3345.1091      21.160775      6945.9231      5753.0039      17.918359      17.918359      17.918359    
    174200   87.1           337.43862     -3345.7086      21.765065      5880.7362      5752.9396      17.918292      17.918292      17.918292    
    174400   87.2           334.16616     -3345.492       21.553989      5056.6283      5752.8755      17.918225      17.918225      17.918225    
    174600   87.3           346.54836     -3346.2854      22.352651      4639.4277      5752.8115      17.918159      17.918159      17.918159    
    174800   87.4           348.32021     -3346.3945      22.466936      5004.4862      5752.7476      17.918092      17.918092      17.918092    
    175000   87.5           351.41968     -3346.5892      22.666855      5316.1465      5752.6838      17.918026      17.918026      17.918026    
    175200   87.6           337.91433     -3345.7126      21.795749      4742.3308      5752.6202      17.91796       17.91796       17.91796     
    175400   87.7           337.98819     -3345.7121      21.800513      5608.771       5752.5566      17.917894      17.917894      17.917894    
    175600   87.8           329.86729     -3345.1831      21.276708      7011.6897      5752.4933      17.917828      17.917828      17.917828    
    175800   87.9           327.56863     -3345.0295      21.128443      5213.0651      5752.43        17.917763      17.917763      17.917763    
    176000   88             363.92061     -3347.3691      23.473175      3706.7646      5752.3669      17.917697      17.917697      17.917697    
    176200   88.1           335.45795     -3345.5276      21.63731       7954.1071      5752.304       17.917632      17.917632      17.917632    
    176400   88.2           323.44505     -3344.7474      20.862469      5937.1633      5752.2412      17.917567      17.917567      17.917567    
    176600   88.3           351.83173     -3346.5733      22.693432      5473.7584      5752.1785      17.917502      17.917502      17.917502    
    176800   88.4           347.72332     -3346.3029      22.428437      3444.1486      5752.116       17.917437      17.917437      17.917437    
    177000   88.5           347.38369     -3346.2756      22.40653       6119.4789      5752.0536      17.917372      17.917372      17.917372    
    177200   88.6           332.68664     -3345.3222      21.458558      7707.4744      5751.9914      17.917307      17.917307      17.917307    
    177400   88.7           349.31704     -3346.3896      22.531233      5874.1898      5751.9293      17.917243      17.917243      17.917243    
    177600   88.8           339.74982     -3345.767       21.91414       4837.7011      5751.8674      17.917179      17.917179      17.917179    
    177800   88.9           329.46015     -3345.0979      21.250447      6024.5084      5751.8056      17.917114      17.917114      17.917114    
    178000   89             345.27732     -3346.1129      22.270668      5177.8641      5751.744       17.91705       17.91705       17.91705     
    178200   89.1           330.02156     -3345.1232      21.286658      7780.4829      5751.6825      17.916987      17.916987      17.916987    
    178400   89.2           347.03954     -3346.2158      22.384332      5010.7513      5751.6212      17.916923      17.916923      17.916923    
    178600   89.3           344.37751     -3346.0385      22.212629      8181.6355      5751.56        17.916859      17.916859      17.916859    
    178800   89.4           335.21313     -3345.442       21.621519      5636.1996      5751.4991      17.916796      17.916796      17.916796    
    179000   89.5           334.88586     -3345.4153      21.60041       7753.579       5751.4382      17.916733      17.916733      17.916733    
    179200   89.6           340.22971     -3345.7547      21.945092      5397.3688      5751.3776      17.91667       17.91667       17.91667     
    179400   89.7           341.69441     -3345.8437      22.039567      6488.8274      5751.317       17.916607      17.916607      17.916607    
    179600   89.8           336.57264     -3345.5079      21.709209      8321.4294      5751.2566      17.916544      17.916544      17.916544    
    179800   89.9           343.39322     -3345.9422      22.149142      7309.7217      5751.1965      17.916482      17.916482      17.916482    
    180000   90             344.12282     -3345.9838      22.196201      7038.6916      5751.1365      17.91642       17.91642       17.91642     
    180200   90.1           340.78855     -3345.7632      21.981138      6052.134       5751.0767      17.916357      17.916357      17.916357    
    180400   90.2           339.23014     -3345.6571      21.88062       5925.9172      5751.017       17.916295      17.916295      17.916295    
    180600   90.3           352.14505     -3346.4851      22.713642      5058.2223      5750.9575      17.916234      17.916234      17.916234    
    180800   90.4           316.5563      -3344.1839      20.418138      5833.635       5750.8981      17.916172      17.916172      17.916172    
    181000   90.5           347.34916     -3346.1647      22.404303      4250.5926      5750.8388      17.91611       17.91611       17.91611     
    181200   90.6           354.54803     -3346.6236      22.868636      4613.5776      5750.7796      17.916049      17.916049      17.916049    
    181400   90.7           352.99578     -3346.5183      22.768514      6592.9592      5750.7206      17.915988      17.915988      17.915988    
    181600   90.8           334.56155     -3345.3233      21.579492      9035.066       5750.6617      17.915927      17.915927      17.915927    
    181800   90.9           331.17912     -3345.0997      21.361322      7574.5797      5750.6031      17.915866      17.915866      17.915866    
    182000   91             340.76861     -3345.7129      21.979852      7113.8604      5750.5445      17.915805      17.915805      17.915805    
    182200   91.1           329.06961     -3344.9527      21.225257      7295.8765      5750.4862      17.915744      17.915744      17.915744    
    182400   91.2           352.43672     -3346.4544      22.732455      7827.2009      5750.428       17.915684      17.915684      17.915684    
    182600   91.3           338.06599     -3345.5217      21.805531      6237.8129      5750.37        17.915624      17.915624      17.915624    
    182800   91.4           343.56348     -3345.8709      22.160123      7570.3992      5750.3121      17.915564      17.915564      17.915564    
    183000   91.5           345.48212     -3345.9892      22.283877      4683.4882      5750.2545      17.915504      17.915504      17.915504    
    183200   91.6           345.01369     -3345.9535      22.253663      6031.3464      5750.1969      17.915444      17.915444      17.915444    
    183400   91.7           343.77905     -3345.8683      22.174028      7872.7786      5750.1396      17.915384      17.915384      17.915384    
    183600   91.8           329.28498     -3344.9277      21.239149      6991.3156      5750.0824      17.915325      17.915325      17.915325    
    183800   91.9           342.73626     -3345.7901      22.106767      6999.9127      5750.0254      17.915266      17.915266      17.915266    
    184000   92             343.71714     -3345.8474      22.170035      8044.5853      5749.9685      17.915207      17.915207      17.915207    
    184200   92.1           334.39585     -3345.2407      21.568804      7913.5343      5749.9118      17.915148      17.915148      17.915148    
    184400   92.2           335.86769     -3345.3299      21.663739      6320.7677      5749.8554      17.915089      17.915089      17.915089    
    184600   92.3           338.66273     -3345.5048      21.844021      5720.5926      5749.799       17.915031      17.915031      17.915031    
    184800   92.4           348.03748     -3346.1038      22.4487        6613.4979      5749.7429      17.914972      17.914972      17.914972    
    185000   92.5           354.2546      -3346.4994      22.84971       6363.1554      5749.6869      17.914914      17.914914      17.914914    
    185200   92.6           337.22968     -3345.3955      21.751588      6193.0248      5749.631       17.914856      17.914856      17.914856    
    185400   92.7           335.76829     -3345.2956      21.657327      4287.373       5749.5754      17.914798      17.914798      17.914798    
    185600   92.8           336.95738     -3345.3667      21.734024      8346.1898      5749.5199      17.914741      17.914741      17.914741    
    185800   92.9           328.56895     -3344.82        21.192964      9496.771       5749.4646      17.914683      17.914683      17.914683    
    186000   93             335.8241      -3345.2825      21.660927      6085.2405      5749.4094      17.914626      17.914626      17.914626    
    186200   93.1           332.6146      -3345.0699      21.453912      7820.5858      5749.3545      17.914569      17.914569      17.914569    
    186400   93.2           338.17988     -3345.4231      21.812877      8578.6553      5749.2996      17.914512      17.914512      17.914512    
    186600   93.3           340.95261     -3345.596       21.99172       7545.142       5749.245       17.914455      17.914455      17.914455    
    186800   93.4           338.6711      -3345.4434      21.844561      7107.1075      5749.1905      17.914399      17.914399      17.914399    
    187000   93.5           335.636       -3345.2419      21.648794      6291.7126      5749.1363      17.914342      17.914342      17.914342    
    187200   93.6           328.30513     -3344.7634      21.175947      10830.399      5749.0822      17.914286      17.914286      17.914286    
    187400   93.7           347.27542     -3345.9814      22.399547      5972.8914      5749.0283      17.91423       17.91423       17.91423     
    187600   93.8           322.0043      -3344.3455      20.769539      7978.6618      5748.9745      17.914174      17.914174      17.914174    
    187800   93.9           340.37934     -3345.5253      21.954744      8548.6901      5748.921       17.914119      17.914119      17.914119    
    188000   94             329.41461     -3344.8122      21.24751       6869.156       5748.8676      17.914063      17.914063      17.914063    
    188200   94.1           352.98918     -3346.3273      22.768089      5881.1641      5748.8144      17.914008      17.914008      17.914008    
    188400   94.2           341.70495     -3345.5937      22.040247      6115.3036      5748.7614      17.913953      17.913953      17.913953    
    188600   94.3           346.47258     -3345.8956      22.347763      6030.3554      5748.7085      17.913898      17.913898      17.913898    
    188800   94.4           327.90468     -3344.6922      21.150118      7663.7135      5748.6557      17.913843      17.913843      17.913843    
    189000   94.5           333.86052     -3345.0708      21.534275      6572.6828      5748.6032      17.913789      17.913789      17.913789    
    189200   94.6           345.70356     -3345.8292      22.298161      6192.9667      5748.5508      17.913734      17.913734      17.913734    
    189400   94.7           320.71194     -3344.2112      20.686181      8900.6514      5748.4985      17.91368       17.91368       17.91368     
    189600   94.8           346.32512     -3345.8579      22.338252      6130.3939      5748.4464      17.913626      17.913626      17.913626    
    189800   94.9           347.33204     -3345.9172      22.403198      6555.331       5748.3945      17.913572      17.913572      17.913572    
    190000   95             355.334       -3346.4276      22.919332      8591.1851      5748.3427      17.913518      17.913518      17.913518    
    190200   95.1           328.63851     -3344.6998      21.197451      6955.9413      5748.2911      17.913464      17.913464      17.913464    
    190400   95.2           335.09795     -3345.1107      21.61409       10102.518      5748.2396      17.913411      17.913411      17.913411    
    190600   95.3           335.97876     -3345.1618      21.670903      8850.9374      5748.1884      17.913358      17.913358      17.913358    
    190800   95.4           344.75946     -3345.7225      22.237265      8434.3884      5748.1374      17.913305      17.913305      17.913305    
    191000   95.5           324.57642     -3344.4147      20.935443      9220.8398      5748.0866      17.913252      17.913252      17.913252    
    191200   95.6           331.54138     -3344.8583      21.384688      8376.8119      5748.0359      17.913199      17.913199      17.913199    
    191400   95.7           329.18275     -3344.7002      21.232555      7271.6863      5747.9855      17.913147      17.913147      17.913147    
    191600   95.8           345.13705     -3345.7236      22.26162       9119.8778      5747.9352      17.913095      17.913095      17.913095    
    191800   95.9           337.8388      -3345.2471      21.790877      5356.2357      5747.8851      17.913043      17.913043      17.913043    
    192000   96             351.14637     -3346.0998      22.649226      7233.7046      5747.8352      17.912991      17.912991      17.912991    
    192200   96.1           339.19823     -3345.3233      21.878562      9347.1989      5747.7855      17.912939      17.912939      17.912939    
    192400   96.2           356.41818     -3346.4282      22.989262      7211.4888      5747.7359      17.912888      17.912888      17.912888    
    192600   96.3           324.81488     -3344.3839      20.950824      10399.381      5747.6866      17.912836      17.912836      17.912836    
    192800   96.4           332.5491      -3344.8769      21.449687      9446.5249      5747.6375      17.912785      17.912785      17.912785    
    193000   96.5           334.90081     -3345.0228      21.601375      6837.104       5747.5886      17.912735      17.912735      17.912735    
    193200   96.6           333.18726     -3344.9063      21.490849      8480.8099      5747.5398      17.912684      17.912684      17.912684    
    193400   96.7           356.20799     -3346.3856      22.975705      7784.5171      5747.4913      17.912634      17.912634      17.912634    
    193600   96.8           334.35035     -3344.9698      21.565869      8207.4175      5747.4429      17.912583      17.912583      17.912583    
    193800   96.9           332.98454     -3344.8758      21.477774      10589.001      5747.3947      17.912533      17.912533      17.912533    
    194000   97             336.2018      -3345.0774      21.685289      6540.5777      5747.3468      17.912483      17.912483      17.912483    
    194200   97.1           340.78788     -3345.3674      21.981095      6735.0276      5747.299       17.912434      17.912434      17.912434    
    194400   97.2           349.26399     -3345.9083      22.527811      7510.8142      5747.2514      17.912384      17.912384      17.912384    
    194600   97.3           336.17687     -3345.0584      21.683681      7442.8783      5747.204       17.912335      17.912335      17.912335    
    194800   97.4           328.81407     -3344.5775      21.208775      5497.3513      5747.1568      17.912286      17.912286      17.912286    
    195000   97.5           339.54392     -3345.2638      21.900859      7637.173       5747.1097      17.912237      17.912237      17.912237    
    195200   97.6           357.00626     -3346.3846      23.027194      7886.6632      5747.0628      17.912188      17.912188      17.912188    
    195400   97.7           343.76745     -3345.5247      22.17328       7864.6301      5747.0161      17.91214       17.91214       17.91214     
    195600   97.8           350.54281     -3345.9559      22.610296      8698.1454      5746.9696      17.912092      17.912092      17.912092    
    195800   97.9           342.62823     -3345.4394      22.099799      6489.8655      5746.9233      17.912043      17.912043      17.912043    
    196000   98             340.36859     -3345.2877      21.954051      7885.3454      5746.8772      17.911996      17.911996      17.911996    
    196200   98.1           346.45942     -3345.6747      22.346914      9146.4556      5746.8313      17.911948      17.911948      17.911948    
    196400   98.2           344.22193     -3345.5246      22.202594      8737.3821      5746.7856      17.9119        17.9119        17.9119      
    196600   98.3           339.07494     -3345.1867      21.870609      8649.5261      5746.7401      17.911853      17.911853      17.911853    
    196800   98.4           350.64428     -3345.927       22.616841      6877.7531      5746.6948      17.911806      17.911806      17.911806    
    197000   98.5           345.52743     -3345.5911      22.2868        7503.9314      5746.6497      17.911759      17.911759      17.911759    
    197200   98.6           343.01911     -3345.4233      22.125012      6154.9483      5746.6048      17.911713      17.911713      17.911713    
    197400   98.7           330.12112     -3344.5853      21.29308       8616.9172      5746.56        17.911666      17.911666      17.911666    
    197600   98.8           334.31988     -3344.8505      21.563904      10079.435      5746.5155      17.91162       17.91162       17.91162     
    197800   98.9           324.38392     -3344.2036      20.923026      9118.362       5746.4711      17.911574      17.911574      17.911574    
    198000   99             340.95159     -3345.2664      21.991655      9659.2052      5746.4269      17.911528      17.911528      17.911528    
    198200   99.1           357.89416     -3346.3532      23.084464      9806.6671      5746.383       17.911482      17.911482      17.911482    
    198400   99.2           336.86865     -3344.9911      21.728301      6808.766       5746.3393      17.911437      17.911437      17.911437    
    198600   99.3           340.76251     -3345.2363      21.979459      7837.5985      5746.2957      17.911391      17.911391      17.911391    
    198800   99.4           344.14651     -3345.4488      22.197729      8601.8158      5746.2523      17.911346      17.911346      17.911346    
    199000   99.5           329.08032     -3344.4708      21.225948      8519.2257      5746.2091      17.911301      17.911301      17.911301    
    199200   99.6           362.82589     -3346.6418      23.402565      7992.9282      5746.1662      17.911257      17.911257      17.911257    
    199400   99.7           330.62776     -3344.5589      21.325759      9238.2476      5746.1234      17.911212      17.911212      17.911212    
    199600   99.8           351.94351     -3345.9277      22.700642      9121.0285      5746.0808      17.911168      17.911168      17.911168    
    199800   99.9           331.38873     -3344.5958      21.374842      8702.7159      5746.0384      17.911124      17.911124      17.911124    
    200000   100            364.59849     -3346.7325      23.516899      5239.0278      5745.9962      17.91108       17.91108       17.91108     
    200200   100.1          343.84191     -3345.3874      22.178083      7681.6011      5745.9542      17.911037      17.911037      17.911037    
    200400   100.2          354.42247     -3346.064       22.860537      7761.7969      5745.9124      17.910993      17.910993      17.910993    
    200600   100.3          324.47071     -3344.1258      20.928625      8034.0155      5745.8708      17.91095       17.91095       17.91095     
    200800   100.4          347.57605     -3345.6103      22.418937      9217.2904      5745.8293      17.910907      17.910907      17.910907    
    201000   100.5          339.8977      -3345.1093      21.923678      8968.8271      5745.7881      17.910864      17.910864      17.910864    
    201200   100.6          359.49856     -3346.3674      23.187949      5614.6853      5745.747       17.910821      17.910821      17.910821    
    201400   100.7          331.85362     -3344.5781      21.404828      8953.517       5745.7062      17.910779      17.910779      17.910779    
    201600   100.8          350.07924     -3345.748       22.580396      8117.0904      5745.6655      17.910737      17.910737      17.910737    
    201800   100.9          339.78154     -3345.0779      21.916185      8038.4451      5745.6251      17.910695      17.910695      17.910695    
    202000   101            351.04436     -3345.7982      22.642646      6836.231       5745.5848      17.910653      17.910653      17.910653    
    202200   101.1          340.10809     -3345.0868      21.937248      8699.4952      5745.5447      17.910611      17.910611      17.910611    
    202400   101.2          343.26941     -3345.2845      22.141156      9068.2687      5745.5049      17.91057       17.91057       17.91057     
    202600   101.3          358.63206     -3346.2695      23.132059      8032.1922      5745.4653      17.910528      17.910528      17.910528    
    202800   101.4          341.13469     -3345.1348      22.003465      8328.6361      5745.4258      17.910488      17.910488      17.910488    
    203000   101.5          355.37742     -3346.0477      22.922132      7393.3671      5745.3867      17.910447      17.910447      17.910447    
    203200   101.6          346.75005     -3345.4851      22.36566       9357.5752      5745.3477      17.910406      17.910406      17.910406    
    203400   101.7          347.13363     -3345.5037      22.390401      6983.4689      5745.3089      17.910366      17.910366      17.910366    
    203600   101.8          348.51196     -3345.5867      22.479304      7655.4211      5745.2703      17.910326      17.910326      17.910326    
    203800   101.9          358.45498     -3346.2221      23.120638      7275.7253      5745.2319      17.910286      17.910286      17.910286    
    204000   102            335.46754     -3344.733       21.637929      10420.968      5745.1938      17.910246      17.910246      17.910246    
    204200   102.1          324.79815     -3344.0387      20.949745      11538.92       5745.1558      17.910207      17.910207      17.910207    
    204400   102.2          339.78979     -3344.9998      21.916717      9537.005       5745.1181      17.910168      17.910168      17.910168    
    204600   102.3          357.61622     -3346.1437      23.066537      8888.5202      5745.0806      17.910129      17.910129      17.910129    
    204800   102.4          351.73346     -3345.7581      22.687094      7539.2915      5745.0434      17.91009       17.91009       17.91009     
    205000   102.5          336.68797     -3344.7815      21.716648      6907.2485      5745.0064      17.910052      17.910052      17.910052    
    205200   102.6          342.88503     -3345.1752      22.116363      9386.3013      5744.9695      17.910013      17.910013      17.910013    
    205400   102.7          335.07418     -3344.6654      21.612557      8535.8795      5744.9329      17.909975      17.909975      17.909975    
    205600   102.8          342.51258     -3345.1392      22.09234       9278.4352      5744.8964      17.909937      17.909937      17.909937    
    205800   102.9          349.98124     -3345.6147      22.574075      12032.328      5744.8602      17.9099        17.9099        17.9099      
    206000   103            343.58377     -3345.196       22.161432      8375.0945      5744.8242      17.909862      17.909862      17.909862    
    206200   103.1          345.89559     -3345.3391      22.310546      9155.0908      5744.7885      17.909825      17.909825      17.909825    
    206400   103.2          347.14051     -3345.4132      22.390845      9939.9249      5744.753       17.909788      17.909788      17.909788    
    206600   103.3          344.00976     -3345.2053      22.188909      8766.8395      5744.7177      17.909752      17.909752      17.909752    
    206800   103.4          344.64027     -3345.2399      22.229577      10522.686      5744.6827      17.909715      17.909715      17.909715    
    207000   103.5          357.99439     -3346.095       23.090929      10772.312      5744.6478      17.909679      17.909679      17.909679    
    207200   103.6          342.03592     -3345.0595      22.061595      13388.519      5744.6132      17.909643      17.909643      17.909643    
    207400   103.7          358.53822     -3346.1178      23.126006      6401.2675      5744.5789      17.909607      17.909607      17.909607    
    207600   103.8          332.21023     -3344.4135      21.42783       11566.772      5744.5448      17.909572      17.909572      17.909572    
    207800   103.9          341.01192     -3344.9751      21.995546      11976.924      5744.5109      17.909537      17.909537      17.909537    
    208000   104            341.87663     -3345.0245      22.05132       9391.5117      5744.4773      17.909502      17.909502      17.909502    
    208200   104.1          339.96369     -3344.8951      21.927934      11508.332      5744.4439      17.909467      17.909467      17.909467    
    208400   104.2          348.84075     -3345.4615      22.500512      9650.5573      5744.4107      17.909433      17.909433      17.909433    
    208600   104.3          357.4561      -3346.0111      23.056209      8877.7668      5744.3778      17.909398      17.909398      17.909398    
    208800   104.4          334.95016     -3344.5531      21.604558      12359.497      5744.3451      17.909364      17.909364      17.909364    
    209000   104.5          343.91209     -3345.1252      22.182609      11487.017      5744.3127      17.909331      17.909331      17.909331    
    209200   104.6          353.06731     -3345.7095      22.773128      10020.354      5744.2805      17.909297      17.909297      17.909297    
    209400   104.7          340.48349     -3344.8917      21.961462      7140.7157      5744.2486      17.909264      17.909264      17.909264    
    209600   104.8          340.48878     -3344.8858      21.961803      8787.191       5744.2169      17.909231      17.909231      17.909231    
    209800   104.9          345.81217     -3345.2232      22.305166      11282.531      5744.1853      17.909198      17.909198      17.909198    
    210000   105            359.12387     -3346.0755      23.163781      8192.5596      5744.1541      17.909166      17.909166      17.909166    
    210200   105.1          334.36711     -3344.4725      21.56695       11928.12       5744.123       17.909134      17.909134      17.909134    
    210400   105.2          354.51402     -3345.766       22.866442      10902.74       5744.0923      17.909102      17.909102      17.909102    
    210600   105.3          347.81145     -3345.3274      22.434121      9719.381       5744.0618      17.90907       17.90907       17.90907     
    210800   105.4          350.82903     -3345.5158      22.628757      7750.8935      5744.0315      17.909039      17.909039      17.909039    
    211000   105.5          331.76752     -3344.28        21.399275      11091.727      5744.0015      17.909007      17.909007      17.909007    
    211200   105.6          344.07579     -3345.0679      22.193168      9351.0577      5743.9717      17.908976      17.908976      17.908976    
    211400   105.7          346.3786      -3345.2104      22.341701      11954.564      5743.9422      17.908946      17.908946      17.908946    
    211600   105.8          348.40448     -3345.3347      22.472372      7799.0197      5743.9129      17.908915      17.908915      17.908915    
    211800   105.9          350.01566     -3345.4326      22.576294      10110.143      5743.8838      17.908885      17.908885      17.908885    
    212000   106            331.89482     -3344.2574      21.407485      9744.0937      5743.8549      17.908855      17.908855      17.908855    
    212200   106.1          347.06575     -3345.2299      22.386023      10835.84       5743.8263      17.908825      17.908825      17.908825    
    212400   106.2          363.40188     -3346.2776      23.439716      8535.2306      5743.798       17.908796      17.908796      17.908796    
    212600   106.3          360.10543     -3346.0585      23.227093      10533.522      5743.7699      17.908767      17.908767      17.908767    
    212800   106.4          344.33699     -3345.0353      22.210015      9035.5072      5743.742       17.908738      17.908738      17.908738    
    213000   106.5          363.55368     -3346.2686      23.449508      9609.3682      5743.7143      17.908709      17.908709      17.908709    
    213200   106.6          352.93581     -3345.5774      22.764646      11584.608      5743.6869      17.90868       17.90868       17.90868     
    213400   106.7          336.97044     -3344.5414      21.734867      10413.842      5743.6598      17.908652      17.908652      17.908652    
    213600   106.8          363.60999     -3346.2535      23.453139      11115.436      5743.6329      17.908624      17.908624      17.908624    
    213800   106.9          357.6527      -3345.8631      23.06889       10744.567      5743.6063      17.908597      17.908597      17.908597    
    214000   107            336.24956     -3344.4761      21.68837       8601.1565      5743.5799      17.908569      17.908569      17.908569    
    214200   107.1          349.74701     -3345.3407      22.558967      11142.528      5743.5537      17.908542      17.908542      17.908542    
    214400   107.2          354.1055      -3345.6156      22.840092      10875.609      5743.5278      17.908515      17.908515      17.908515    
    214600   107.3          338.31243     -3344.5906      21.821426      8315.7426      5743.5022      17.908488      17.908488      17.908488    
    214800   107.4          343.52322     -3344.9205      22.157527      8727.2596      5743.4768      17.908462      17.908462      17.908462    
    215000   107.5          347.78166     -3345.1892      22.4322        11131.362      5743.4517      17.908436      17.908436      17.908436    
    215200   107.6          346.01431     -3345.0687      22.318204      11425.642      5743.4268      17.90841       17.90841       17.90841     
    215400   107.7          337.18062     -3344.4929      21.748424      11250.803      5743.4021      17.908384      17.908384      17.908384    
    215600   107.8          334.23835     -3344.2967      21.558645      7666.0098      5743.3777      17.908359      17.908359      17.908359    
    215800   107.9          345.87699     -3345.0413      22.309347      8709.8299      5743.3535      17.908334      17.908334      17.908334    
    216000   108            351.73553     -3345.4131      22.687227      12268.97       5743.3296      17.908309      17.908309      17.908309    
    216200   108.1          338.93582     -3344.5811      21.861636      11716.403      5743.3059      17.908284      17.908284      17.908284    
    216400   108.2          348.29941     -3345.1788      22.465595      10592.048      5743.2825      17.90826       17.90826       17.90826     
    216600   108.3          354.21461     -3345.5541      22.84713       10488.462      5743.2593      17.908236      17.908236      17.908236    
    216800   108.4          350.00434     -3345.2764      22.575564      9972.9288      5743.2363      17.908212      17.908212      17.908212    
    217000   108.5          339.96765     -3344.6228      21.928189      11175.406      5743.2137      17.908189      17.908189      17.908189    
    217200   108.6          333.22199     -3344.1811      21.493089      11432.409      5743.1912      17.908165      17.908165      17.908165    
    217400   108.7          356.03118     -3345.6462      22.9643        9107.28        5743.169       17.908142      17.908142      17.908142    
    217600   108.8          339.83924     -3344.5957      21.919907      11487.813      5743.1471      17.908119      17.908119      17.908119    
    217800   108.9          343.94494     -3344.8543      22.184728      9566.6803      5743.1254      17.908097      17.908097      17.908097    
    218000   109            352.19931     -3345.3805      22.717142      10107.494      5743.1039      17.908074      17.908074      17.908074    
    218200   109.1          353.9142      -3345.485       22.827753      11219.136      5743.0826      17.908052      17.908052      17.908052    
    218400   109.2          354.96921     -3345.5468      22.895802      8485.9848      5743.0617      17.908031      17.908031      17/home/akinyemi.az/miniforge3/envs/mace-lammps/lib/python3.11/tempfile.py:934: ResourceWarning: Implicitly cleaning up <TemporaryDirectory '/tmp/tmp937p4ff4'>
  _warnings.warn(warn_message, ResourceWarning)
.908031    
    218600   109.3          369.13845     -3346.4544      23.80973       8724.7781      5743.0409      17.908009      17.908009      17.908009    
    218800   109.4          342.02192     -3344.6989      22.060692      11122.418      5743.0204      17.907988      17.907988      17.907988    
    219000   109.5          340.4838      -3344.5934      21.961482      13489.987      5743.0002      17.907967      17.907967      17.907967    
    219200   109.6          344.18803     -3344.8261      22.200408      8935.4222      5742.9802      17.907946      17.907946      17.907946    
    219400   109.7          335.79278     -3344.2784      21.658907      9154.2482      5742.9604      17.907925      17.907925      17.907925    
    219600   109.8          351.98145     -3345.3165      22.703089      8990.2039      5742.9408      17.907905      17.907905      17.907905    
    219800   109.9          352.63656     -3345.3524      22.745345      10516.282      5742.9215      17.907885      17.907885      17.907885    
    220000   110            331.38789     -3343.9755      21.374788      9954.3005      5742.9024      17.907865      17.907865      17.907865    
Loop time of 6116.68 on 1 procs for 200000 steps with 500 atoms

Performance: 1.413 ns/day, 16.991 hours/ns, 32.697 timesteps/s, 16.349 katom-step/s
99.1% CPU use with 1 MPI tasks x 1 OpenMP threads

MPI task timing breakdown:
Section |  min time  |  avg time  |  max time  |%varavg| %total
---------------------------------------------------------------
Pair    | 5933.4     | 5933.4     | 5933.4     |   0.0 | 97.00
Neigh   | 0.028092   | 0.028092   | 0.028092   |   0.0 |  0.00
Comm    | 6.9483     | 6.9483     | 6.9483     |   0.0 |  0.11
Output  | 0.22313    | 0.22313    | 0.22313    |   0.0 |  0.00
Modify  | 168.53     | 168.53     | 168.53     |   0.0 |  2.76
Other   |            | 7.514      |            |       |  0.12

Nlocal:            500 ave         500 max         500 min
Histogram: 1 0 0 0 0 0 0 0 0 0
Nghost:           2036 ave        2036 max        2036 min
Histogram: 1 0 0 0 0 0 0 0 0 0
Neighs:              0 ave           0 max           0 min
Histogram: 1 0 0 0 0 0 0 0 0 0
FullNghs:        66026 ave       66026 max       66026 min
Histogram: 1 0 0 0 0 0 0 0 0 0

Total # of neighbors = 66026
Ave neighs/atom = 132.052
Neighbor list builds = 66
Dangerous builds = 0
### NPT complete at 600 K ###
NPT_RESULT: a0_at_600K = 3.58157299942006 Angstrom
Total wall time: 1:52:21
NPT at 600 K finished at: Sat May  9 10:45:39 PM EDT 2026
