LAMMPS (11 Feb 2026 - Development - patch_11Feb2026-99-gb75dfcc930-modified)
KOKKOS mode with Kokkos version 5.0.2 is enabled
  using double precision
  using view layout = legacy
  will use up to 1 GPU(s) per node
  using 1 OpenMP thread(s) per MPI task
package kokkos
package kokkos newton on neigh half
# ════════════════════════════════════════════════════
# LAMMPS NPT — Lattice Parameter at 300 K
# Notebook 02 | Refs: [2,3,13,14,15,16]
# ════════════════════════════════════════════════════

units          metal
atom_style     atomic
newton         on
boundary       p p p

# ── Load minimized structure ──────────────────────────
read_data      structures/02_bulk_energy_minimization/Hastelloy_N_1234_minimized.lammps
Reading data file ...
  orthogonal box = (-0.0013893512 -0.0013893512 -0.0013893512) to (17.856389 17.856389 17.856389)
  1 by 1 by 1 MPI processor grid
  reading atoms ...
  500 atoms
  reading velocities ...
  500 velocities
  read_data CPU = 0.012 seconds

# ── MACE-MP-0b2 via mliap unified ─────────────────────
pair_style     mliap unified /projects/westgroup/akinyemi.az/mace_lammps/models/mace-mp-0b2-medium.model-mliap_lammps.pt 0
pair_coeff     * * Al B C Cr Fe Mo Ni H

neighbor       2.0 bin
neigh_modify   every 1 delay 0 check yes

timestep       0.0005   # ps = 0.5 fs [your setup]

# ── Initialize velocities (matches your production script) ─
velocity       all create 300.0 12345 mom yes rot yes dist gaussian

# ── Thermo output ─────────────────────────────────────
thermo         200
thermo_style   custom step time temp pe ke  press vol lx ly lz

# ── Stage 1: Heat 10K → 300 K over 10 ps ──────
# NPT with temperature ramp + isotropic barostat [13,14]
# thermo_damp = 100.0 fs (matches your production value)
# baro_damp   = 1000.0 fs = 10× thermo [13,14]
fix            heat all npt temp 10.0 300.0 100.0                iso 0.0 0.0 1000.0
run            20000   # 10000 ps

CITE-CITE-CITE-CITE-CITE-CITE-CITE-CITE-CITE-CITE-CITE-CITE-CITE

Your simulation uses code contributions which should be cited:

- KOKKOS package: https://doi.org/10.1145/3731599.3767498

@inproceedings{Johansson25,
 author = {A. Johansson and E. Weinberg and C. Trott and M. McCarthy and S. Moore},
 title = {{LAMMPS-KOKKOS}: {P}erformance Portable Molecular Dynamics Across Exascale Architectures},
 year = 2025,
 booktitle = {Proceedings of the SC '25 Workshops of the International Conference for High Performance Computing,
  Networking, Storage and Analysis},
 pages = {1217–1232},
}

CITE-CITE-CITE-CITE-CITE-CITE-CITE-CITE-CITE-CITE-CITE-CITE-CITE

Neighbor list info ...
  update: every = 1 steps, delay = 0 steps, check = yes
  max neighbors/atom: 2000, page size: 100000
  master list distance cutoff = 7
  ghost atom cutoff = 7
  binsize = 7, bins = 3 3 3
  1 neighbor lists, perpetual/occasional/extra = 1 0 0
  (1) pair mliap/kk, perpetual
      attributes: full, newton on, kokkos_device
      pair build: full/bin/kk/device
      stencil: full/bin/3d
      bin: kk/device
Per MPI rank memory allocation (min/avg/max) = 80.7 | 80.7 | 80.7 Mbytes
   Step          Time           Temp          PotEng         KinEng         Press          Volume           Lx             Ly             Lz      
         0   0              300           -3368.2721      19.350244      3629.303       5694.8503      17.857779      17.857779      17.857779    
       200   0.1            140.15369     -3357.9608      9.0400267      11574.452      5694.8566      17.857785      17.857785      17.857785    
       400   0.2            154.51423     -3358.8878      9.9662934      8671.7651      5694.8779      17.857808      17.857808      17.857808    
       600   0.3            153.60784     -3358.83        9.9078304      9379.9942      5694.9127      17.857844      17.857844      17.857844    
       800   0.4            150.77822     -3358.6483      9.7253174      9528.7435      5694.9609      17.857894      17.857894      17.857894    
      1000   0.5            157.84567     -3359.1054      10.181174      9488.038       5695.0235      17.85796       17.85796       17.85796     
      1200   0.6            150.83697     -3358.6546      9.7291073      8598.6188      5695.1002      17.85804       17.85804       17.85804     
      1400   0.7            150.10552     -3358.6088      9.681928       9228.5096      5695.189       17.858133      17.858133      17.858133    
      1600   0.8            152.68061     -3358.7765      9.8480234      10071.418      5695.2905      17.858239      17.858239      17.858239    
      1800   0.9            148.76608     -3358.5257      9.595533       8030.2727      5695.4057      17.858359      17.858359      17.858359    
      2000   1              152.25974     -3358.7531      9.820877       10220.613      5695.5341      17.858493      17.858493      17.858493    
      2200   1.1            147.8706      -3358.472       9.5377736      9708.3353      5695.6771      17.858643      17.858643      17.858643    
      2400   1.2            149.2107      -3358.5606      9.6242115      9988.0802      5695.8342      17.858807      17.858807      17.858807    
      2600   1.3            146.87951     -3358.4126      9.473848       8493.3948      5696.0051      17.858986      17.858986      17.858986    
      2800   1.4            138.14014     -3357.8512      8.9101515      9071.4044      5696.1884      17.859177      17.859177      17.859177    
      3000   1.5            150.30556     -3358.6382      9.6948309      8794.3283      5696.3832      17.859381      17.859381      17.859381    
      3200   1.6            150.26543     -3358.6381      9.6922425      7878.759       5696.5893      17.859596      17.859596      17.859596    
      3400   1.7            155.41217     -3358.9727      10.024211      8440.9429      5696.8069      17.859824      17.859824      17.859824    
      3600   1.8            154.08284     -3358.8896      9.9384682      8636.9574      5697.0366      17.860064      17.860064      17.860064    
      3800   1.9            151.08432     -3358.6989      9.7450617      8326.6897      5697.2783      17.860316      17.860316      17.860316    
      4000   2              146.87533     -3358.4301      9.4735782      6965.7136      5697.5311      17.86058       17.86058       17.86058     
      4200   2.1            149.10357     -3358.5766      9.6173015      7240.0115      5697.7941      17.860855      17.860855      17.860855    
      4400   2.2            155.58982     -3358.998       10.03567       7238.4101      5698.068       17.861141      17.861141      17.861141    
      4600   2.3            143.34596     -3358.2111      9.2459309      8235.9138      5698.3527      17.861439      17.861439      17.861439    
      4800   2.4            155.01493     -3358.9668      9.9985886      6483.7259      5698.6481      17.861748      17.861748      17.861748    
      5000   2.5            145.15149     -3358.3335      9.3623887      7641.7851      5698.9533      17.862066      17.862066      17.862066    
      5200   2.6            151.23506     -3358.729       9.7547841      7625.1369      5699.269       17.862396      17.862396      17.862396    
      5400   2.7            140.80415     -3358.0593      9.0819822      6380.6057      5699.5951      17.862737      17.862737      17.862737    
      5600   2.8            150.92515     -3358.7153      9.7347949      7846.0638      5699.9308      17.863088      17.863088      17.863088    
      5800   2.9            153.43187     -3358.8802      9.8964805      6730.5461      5700.2765      17.863449      17.863449      17.863449    
      6000   3              150.85163     -3358.717       9.7300528      7175.4259      5700.6319      17.86382       17.86382       17.86382     
      6200   3.1            148.63443     -3358.5774      9.5870413      7608.9965      5700.9979      17.864202      17.864202      17.864202    
      6400   3.2            152.15949     -3358.8079      9.8144109      6056.4193      5701.3738      17.864595      17.864595      17.864595    
      6600   3.3            156.67563     -3359.1027      10.105705      6007.7936      5701.7587      17.864997      17.864997      17.864997    
      6800   3.4            152.34798     -3358.8269      9.8265687      6766.0445      5702.1533      17.865409      17.865409      17.865409    
      7000   3.5            151.46811     -3358.7734      9.7698162      5532.9078      5702.5572      17.865831      17.865831      17.865831    
      7200   3.6            151.53043     -3358.7808      9.7738361      6126.4343      5702.9697      17.866262      17.866262      17.866262    
      7400   3.7            153.08657     -3358.8846      9.8742079      6026.4757      5703.3914      17.866702      17.866702      17.866702    
      7600   3.8            151.63016     -3358.794       9.7802687      6254.8987      5703.822       17.867152      17.867152      17.867152    
      7800   3.9            152.74527     -3358.8693      9.8521942      5662.1869      5704.2609      17.86761       17.86761       17.86761     
      8000   4              144.77549     -3358.3587      9.3381365      6789.6323      5704.7082      17.868077      17.868077      17.868077    
      8200   4.1            156.71564     -3359.1322      10.108286      4960.6387      5705.164       17.868553      17.868553      17.868553    
      8400   4.2            153.62261     -3358.9363      9.9087834      5544.8801      5705.6276      17.869037      17.869037      17.869037    
      8600   4.3            150.03452     -3358.7082      9.6773483      5096.108       5706.0997      17.86953       17.86953       17.86953     
      8800   4.4            148.77451     -3358.6303      9.5960768      5121.3758      5706.5794      17.87003       17.87003       17.87003     
      9000   4.5            147.74289     -3358.567       9.5295366      6365.3651      5707.0662      17.870538      17.870538      17.870538    
      9200   4.6            153.57998     -3358.947       9.9060333      5313.0057      5707.5605      17.871054      17.871054      17.871054    
      9400   4.7            146.62824     -3358.5018      9.4576403      4160.8749      5708.0624      17.871578      17.871578      17.871578    
      9600   4.8            156.52473     -3359.1433      10.095972      3592.0366      5708.5706      17.872108      17.872108      17.872108    
      9800   4.9            155.5201      -3359.0815      10.031173      3109.617       5709.0845      17.872645      17.872645      17.872645    
     10000   5              151.86945     -3358.8491      9.7957031      4012.4684      5709.6038      17.873187      17.873187      17.873187    
     10200   5.1            145.07961     -3358.4143      9.357753       3838.6853      5710.1291      17.873735      17.873735      17.873735    
     10400   5.2            155.46162     -3359.0869      10.027401      2605.5912      5710.6601      17.874289      17.874289      17.874289    
     10600   5.3            152.83389     -3358.92        9.8579103      2658.011       5711.1954      17.874847      17.874847      17.874847    
     10800   5.4            143.59906     -3358.3273      9.2622557      3781.3622      5711.7351      17.87541       17.87541       17.87541     
     11000   5.5            149.22453     -3358.6932      9.6251031      3631.8272      5712.2801      17.875979      17.875979      17.875979    
     11200   5.6            143.74156     -3358.3423      9.2714471      2376.6328      5712.8301      17.876552      17.876552      17.876552    
     11400   5.7            146.09222     -3358.4966      9.4230669      2966.9031      5713.3838      17.87713       17.87713       17.87713     
     11600   5.8            148.62069     -3358.6624      9.5861552      2492.1072      5713.9416      17.877712      17.877712      17.877712    
     11800   5.9            147.03411     -3358.5626      9.4838194      3777.9861      5714.5027      17.878297      17.878297      17.878297    
     12000   6              153.10402     -3358.9567      9.875334       2829.1822      5715.0676      17.878886      17.878886      17.878886    
     12200   6.1            151.56088     -3358.86        9.7758001      2458.64        5715.6363      17.879479      17.879479      17.879479    
     12400   6.2            154.41799     -3359.0467      9.960086       2690.3482      5716.2083      17.880075      17.880075      17.880075    
     12600   6.3            147.58156     -3358.6081      9.5191307      1792.3322      5716.7834      17.880675      17.880675      17.880675    
     12800   6.4            147.49374     -3358.6049      9.5134664      2262.0819      5717.3613      17.881278      17.881278      17.881278    
     13000   6.5            144.78131     -3358.4324      9.3385124      1352.5443      5717.9422      17.881883      17.881883      17.881883    
     13200   6.6            147.34815     -3358.6002      9.5040755      954.60858      5718.5254      17.882491      17.882491      17.882491    
     13400   6.7            148.87141     -3358.7002      9.602327      -100.8523       5719.11        17.8831        17.8831        17.8831      
     13600   6.8            139.40678     -3358.0913      8.9918505      1331.2342      5719.6946      17.88371       17.88371       17.88371     
     13800   6.9            148.79081     -3358.6989      9.5971284      110.53804      5720.2806      17.88432       17.88432       17.88432     
     14000   7              149.94297     -3358.7752      9.6714434      45.934808      5720.8678      17.884932      17.884932      17.884932    
     14200   7.1            149.99318     -3358.78        9.6746819     -972.83425      5721.4555      17.885545      17.885545      17.885545    
     14400   7.2            147.65338     -3358.6302      9.5237627      43.540897      5722.0422      17.886156      17.886156      17.886156    
     14600   7.3            148.26591     -3358.6714      9.5632713     -702.33845      5722.6283      17.886767      17.886767      17.886767    
     14800   7.4            142.83714     -3358.3227      9.2131116     -71.910404      5723.2139      17.887377      17.887377      17.887377    
     15000   7.5            153.4601      -3359.0093      9.8983013     -57.256436      5723.7986      17.887986      17.887986      17.887986    
     15200   7.6            148.57463     -3358.6957      9.5831845      213.18665      5724.3829      17.888595      17.888595      17.888595    
     15400   7.7            146.78317     -3358.5815      9.4676337     -967.96343      5724.9665      17.889203      17.889203      17.889203    
     15600   7.8            153.37514     -3359.0079      9.8928211     -1006.4431      5725.5486      17.889809      17.889809      17.889809    
     15800   7.9            145.85156     -3358.5239      9.4075439     -2256.6861      5726.1296      17.890414      17.890414      17.890414    
     16000   8              146.29388     -3358.5535      9.4360738     -1388.8509      5726.7088      17.891017      17.891017      17.891017    
     16200   8.1            145.08336     -3358.4763      9.3579946     -2158.5487      5727.2858      17.891618      17.891618      17.891618    
     16400   8.2            150.29352     -3358.8136      9.6940541     -1140.7473      5727.8604      17.892216      17.892216      17.892216    
     16600   8.3            153.29529     -3359.0085      9.8876709     -1425.0565      5728.434       17.892814      17.892814      17.892814    
     16800   8.4            147.19646     -3358.6155      9.4942914     -2253.3398      5729.0049      17.893408      17.893408      17.893408    
     17000   8.5            148.03069     -3358.67        9.5481        -1805.2129      5729.5717      17.893998      17.893998      17.893998    
     17200   8.6            151.39703     -3358.8879      9.7652312     -3326.9891      5730.1352      17.894585      17.894585      17.894585    
     17400   8.7            152.55702     -3358.9631      9.8400519     -3349.2421      5730.6945      17.895167      17.895167      17.895167    
     17600   8.8            150.23288     -3358.8135      9.6901426     -3685.0254      5731.2491      17.895744      17.895744      17.895744    
     17800   8.9            151.59764     -3358.9019      9.7781709     -2924.1641      5731.7988      17.896316      17.896316      17.896316    
     18000   9              146.9908      -3358.6052      9.4810263     -2459.4674      5732.3443      17.896884      17.896884      17.896884    
     18200   9.1            148.39859     -3358.6966      9.5718297     -4251.1483      5732.8859      17.897448      17.897448      17.897448    
     18400   9.2            145.6892      -3358.5218      9.397072      -3839.3709      5733.422       17.898006      17.898006      17.898006    
     18600   9.3            148.08197     -3358.6764      9.5514074     -2793.8231      5733.9523      17.898557      17.898557      17.898557    
     18800   9.4            141.07971     -3358.225       9.0997559     -4354.6438      5734.4777      17.899104      17.899104      17.899104    
     19000   9.5            151.86537     -3358.9204      9.7954397     -5585.3698      5734.9968      17.899644      17.899644      17.899644    
     19200   9.6            142.41577     -3358.3108      9.1859329     -4852.5956      5735.5086      17.900176      17.900176      17.900176    
     19400   9.7            148.05193     -3358.6744      9.54947       -4946.6898      5736.0137      17.900702      17.900702      17.900702    
     19600   9.8            145.325       -3358.4984      9.3735806     -4045.3448      5736.5124      17.901221      17.901221      17.901221    
     19800   9.9            148.48467     -3358.7026      9.5773816     -3856.128       5737.0052      17.901733      17.901733      17.901733    
     20000   10             143.18266     -3358.3605      9.2353979     -5552.8379      5737.4922      17.90224       17.90224       17.90224     
Loop time of 618.168 on 1 procs for 20000 steps with 500 atoms

Performance: 1.398 ns/day, 17.171 hours/ns, 32.354 timesteps/s, 16.177 katom-step/s
99.1% CPU use with 1 MPI tasks x 1 OpenMP threads

MPI task timing breakdown:
Section |  min time  |  avg time  |  max time  |%varavg| %total
---------------------------------------------------------------
Pair    | 615.06     | 615.06     | 615.06     |   0.0 | 99.50
Neigh   | 0.000443   | 0.000443   | 0.000443   |   0.0 |  0.00
Comm    | 0.62572    | 0.62572    | 0.62572    |   0.0 |  0.10
Output  | 0.0062234  | 0.0062234  | 0.0062234  |   0.0 |  0.00
Modify  | 1.7853     | 1.7853     | 1.7853     |   0.0 |  0.29
Other   |            | 0.6901     |            |       |  0.11

Nlocal:            500 ave         500 max         500 min
Histogram: 1 0 0 0 0 0 0 0 0 0
Nghost:           2035 ave        2035 max        2035 min
Histogram: 1 0 0 0 0 0 0 0 0 0
Neighs:              0 ave           0 max           0 min
Histogram: 1 0 0 0 0 0 0 0 0 0
FullNghs:        66320 ave       66320 max       66320 min
Histogram: 1 0 0 0 0 0 0 0 0 0

Total # of neighbors = 66320
Ave neighs/atom = 132.64
Neighbor list builds = 1
Dangerous builds = 0
unfix          heat
print "### Heating complete ###"
### Heating complete ###

# ── Stage 2: NPT equilibration at 300 K ────────
fix            npt_run all npt temp 300.0 300.0 100.0                iso 0.0 0.0 1000.0

# Record box dimensions for lattice parameter analysis
# fix            boxdump all ave/time 1 1 200 lx ly lz #                file results/02_bulk_energy_minimization/Hastelloy_N_1234_npt_box.txt

variable       lx_val equal lx
variable       ly_val equal ly
variable       lz_val equal lz
fix            boxdump all ave/time 1 1 200 v_lx_val v_ly_val v_lz_val                file results/02_bulk_energy_minimization/Hastelloy_N_1234_npt_box.txt


run            200000   # 100000 ps NPT
Per MPI rank memory allocation (min/avg/max) = 87.67 | 87.67 | 87.67 Mbytes
   Step          Time           Temp          PotEng         KinEng         Press          Volume           Lx             Ly             Lz      
     20000   10             143.18266     -3358.3605      9.2353979     -5552.8379      5737.4922      17.90224       17.90224       17.90224     
     20200   10.1           144.0165      -3358.4143      9.2891815     -4757.1653      5737.4921      17.90224       17.90224       17.90224     
     20400   10.2           150.48088     -3358.8313      9.7061391     -5600.0533      5737.4917      17.902239      17.902239      17.902239    
     20600   10.3           142.78246     -3358.3346      9.2095848     -4876.4163      5737.4911      17.902239      17.902239      17.902239    
     20800   10.4           152.84702     -3358.9839      9.8587571     -6573.8401      5737.4902      17.902238      17.902238      17.902238    
     21000   10.5           142.3717      -3358.3081      9.1830904     -4899.9564      5737.489       17.902236      17.902236      17.902236    
     21200   10.6           148.5711      -3358.7079      9.5829568     -4383.5883      5737.4876      17.902235      17.902235      17.902235    
     21400   10.7           148.16156     -3358.6815      9.5565411     -4139.1122      5737.486       17.902233      17.902233      17.902233    
     21600   10.8           155.27293     -3359.1401      10.01523      -4148.0708      5737.4842      17.902231      17.902231      17.902231    
     21800   10.9           150.29992     -3358.8192      9.6944672     -4766.5267      5737.4822      17.902229      17.902229      17.902229    
     22000   11             146.79113     -3358.5928      9.4681469     -5783.8317      5737.48        17.902227      17.902227      17.902227    
     22200   11.1           148.69811     -3358.7157      9.5911491     -5251.4281      5737.4775      17.902224      17.902224      17.902224    
     22400   11.2           149.4258      -3358.7626      9.6380857     -6018.0446      5737.4748      17.902222      17.902222      17.902222    
     22600   11.3           147.92301     -3358.6655      9.5411541     -4981.7139      5737.4718      17.902218      17.902218      17.902218    
     22800   11.4           152.92759     -3358.9883      9.8639541     -4214.9725      5737.4685      17.902215      17.902215      17.902215    
     23000   11.5           148.35816     -3358.6934      9.5692217     -4069.9936      5737.465       17.902212      17.902212      17.902212    
     23200   11.6           143.35912     -3358.3707      9.2467799     -3967.8858      5737.4613      17.902208      17.902208      17.902208    
     23400   11.7           150.84268     -3358.8534      9.7294753     -4940.5687      5737.4574      17.902204      17.902204      17.902204    
     23600   11.8           150.24889     -3358.8149      9.6911756     -4751.1764      5737.4533      17.902199      17.902199      17.902199    
     23800   11.9           142.15656     -3358.2926      9.1692137     -5461.0158      5737.449       17.902195      17.902195      17.902195    
     24000   12             152.06234     -3358.9315      9.8081447     -5899.7498      5737.4444      17.90219       17.90219       17.90219     
     24200   12.1           149.18174     -3358.7455      9.6223434     -4792.1787      5737.4395      17.902185      17.902185      17.902185    
     24400   12.2           142.90969     -3358.3407      9.2177914     -4612.2085      5737.4344      17.90218       17.90218       17.90218     
     24600   12.3           154.91204     -3359.1148      9.9919522     -5690.5901      5737.4291      17.902174      17.902174      17.902174    
     24800   12.4           149.57712     -3358.7704      9.6478455     -4569.8147      5737.4236      17.902168      17.902168      17.902168    
     25000   12.5           153.2787      -3359.009       9.8866005     -4363.0345      5737.4178      17.902162      17.902162      17.902162    
     25200   12.6           141.10778     -3358.2236      9.1015667     -5647.9267      5737.4118      17.902156      17.902156      17.902156    
     25400   12.7           147.97223     -3358.6663      9.5443293     -4969.1716      5737.4056      17.90215       17.90215       17.90215     
     25600   12.8           147.53303     -3358.6376      9.5160005     -5039.6286      5737.3991      17.902143      17.902143      17.902143    
     25800   12.9           151.24514     -3358.8768      9.7554342     -5753.4029      5737.3924      17.902136      17.902136      17.902136    
     26000   13             147.57732     -3358.6399      9.5188568     -3989.9361      5737.3854      17.902129      17.902129      17.902129    
     26200   13.1           150.19553     -3358.8085      9.687734      -3329.3848      5737.3782      17.902121      17.902121      17.902121    
     26400   13.2           155.51032     -3359.1511      10.030542     -6910.6864      5737.3708      17.902114      17.902114      17.902114    
     26600   13.3           144.65457     -3358.4506      9.3303374     -3948.6964      5737.3632      17.902106      17.902106      17.902106    
     26800   13.4           147.91707     -3358.6607      9.5407709     -3911.2792      5737.3554      17.902097      17.902097      17.902097    
     27000   13.5           152.22852     -3358.9385      9.8188634     -3978.1584      5737.3473      17.902089      17.902089      17.902089    
     27200   13.6           143.34763     -3358.3653      9.2460387     -4006.551       5737.3391      17.902081      17.902081      17.902081    
     27400   13.7           146.04721     -3358.5391      9.4201637     -4289.3647      5737.3307      17.902072      17.902072      17.902072    
     27600   13.8           148.87755     -3358.7213      9.6027228     -4020.5522      5737.322       17.902063      17.902063      17.902063    
     27800   13.9           150.20191     -3358.8064      9.6881454     -4951.1672      5737.3132      17.902054      17.902054      17.902054    
     28000   14             150.88296     -3358.85        9.7320735     -5633.3962      5737.3041      17.902044      17.902044      17.902044    
     28200   14.1           145.76568     -3358.5195      9.4020048     -4548.0987      5737.2948      17.902034      17.902034      17.902034    
     28400   14.2           148.89187     -3358.7208      9.6036463     -3632.4472      5737.2853      17.902025      17.902025      17.902025    
     28600   14.3           147.69241     -3358.6431      9.5262802     -4217.9004      5737.2756      17.902014      17.902014      17.902014    
     28800   14.4           142.68386     -3358.3196      9.203225      -3587.9432      5737.2657      17.902004      17.902004      17.902004    
     29000   14.5           151.28162     -3358.8738      9.7577876     -3582.0036      5737.2556      17.901994      17.901994      17.901994    
     29200   14.6           146.09154     -3358.5386      9.4230228     -3600.713       5737.2453      17.901983      17.901983      17.901983    
     29400   14.7           142.85706     -3358.3295      9.2143963     -4799.0444      5737.2349      17.901972      17.901972      17.901972    
     29600   14.8           145.46907     -3358.4976      9.3828732     -4460.3653      5737.2242      17.901961      17.901961      17.901961    
     29800   14.9           143.73684     -3358.3854      9.271143      -4744.4633      5737.2133      17.90195       17.90195       17.90195     
     30000   15             147.2849      -3358.6139      9.4999959     -4203.4195      5737.2021      17.901938      17.901938      17.901938    
     30200   15.1           150.44084     -3358.8169      9.7035563     -5105.2382      5737.1907      17.901926      17.901926      17.901926    
     30400   15.2           152.99963     -3358.9816      9.8686004     -5548.995       5737.1791      17.901914      17.901914      17.901914    
     30600   15.3           145.73368     -3358.5124      9.399941      -5225.3309      5737.1672      17.901902      17.901902      17.901902    
     30800   15.4           145.6151      -3358.5043      9.3922922     -4828.7418      5737.155       17.901889      17.901889      17.901889    
     31000   15.5           149.21331     -3358.7359      9.6243797     -5572.6306      5737.1427      17.901876      17.901876      17.901876    
     31200   15.6           141.08363     -3358.2109      9.1000086     -5362.8199      5737.1301      17.901863      17.901863      17.901863    
     31400   15.7           150.25316     -3358.8019      9.6914508     -4899.9295      5737.1173      17.90185       17.90185       17.90185     
     31600   15.8           151.36492     -3358.8731      9.7631604     -4508.8064      5737.1042      17.901836      17.901836      17.901836    
     31800   15.9           144.40445     -3358.4236      9.3142042     -4292.7383      5737.0909      17.901822      17.901822      17.901822    
     32000   16             150.3247      -3358.8049      9.6960655     -3311.3133      5737.0774      17.901808      17.901808      17.901808    
     32200   16.1           148.35777     -3358.6775      9.5691964     -4336.9631      5737.0638      17.901794      17.901794      17.901794    
     32400   16.2           141.30802     -3358.2222      9.1144824     -5332.3923      5737.0499      17.90178       17.90178       17.90178     
     32600   16.3           151.02322     -3358.8484      9.7411204     -4294.8287      5737.0358      17.901765      17.901765      17.901765    
     32800   16.4           148.93759     -3358.7133      9.6065957     -6191.8536      5737.0215      17.90175       17.90175       17.90175     
     33000   16.5           155.55946     -3359.1398      10.033712     -4526.2083      5737.0069      17.901735      17.901735      17.901735    
     33200   16.6           143.54446     -3358.3642      9.2587346     -5141.6924      5736.9921      17.90172       17.90172       17.90172     
     33400   16.7           144.42429     -3358.4204      9.3154838     -4341.1         5736.977       17.901704      17.901704      17.901704    
     33600   16.8           146.21343     -3358.5352      9.4308853     -4751.7141      5736.9617      17.901688      17.901688      17.901688    
     33800   16.9           151.25362     -3358.8596      9.7559811     -4297.1875      5736.9462      17.901672      17.901672      17.901672    
     34000   17             145.12117     -3358.4635      9.3604332     -5035.2719      5736.9305      17.901656      17.901656      17.901656    
     34200   17.1           149.36016     -3358.7363      9.6338515     -5276.7167      5736.9145      17.901639      17.901639      17.901639    
     34400   17.2           148.94225     -3358.7086      9.6068958     -3999.6541      5736.8983      17.901622      17.901622      17.901622    
     34600   17.3           153.76383     -3359.019       9.9178919     -4345.2001      5736.8819      17.901605      17.901605      17.901605    
     34800   17.4           146.372       -3358.5415      9.4411128     -5162.7029      5736.8652      17.901588      17.901588      17.901588    
     35000   17.5           143.83377     -3358.3771      9.277395      -4339.9036      5736.8484      17.90157       17.90157       17.90157     
     35200   17.6           146.83696     -3358.5701      9.4711035     -3400.6638      5736.8313      17.901552      17.901552      17.901552    
     35400   17.7           155.44441     -3359.1247      10.02629      -5159.4581      5736.8141      17.901534      17.901534      17.901534    
     35600   17.8           150.45826     -3358.8023      9.7046803     -7198.6125      5736.7966      17.901516      17.901516      17.901516    
     35800   17.9           144.0605      -3358.3889      9.2920193     -3976.2287      5736.7788      17.901498      17.901498      17.901498    
     36000   18             147.41322     -3358.6045      9.5082727     -4151.876       5736.7609      17.901479      17.901479      17.901479    
     36200   18.1           140.89482     -3358.1832      9.0878302     -4875.5068      5736.7427      17.90146       17.90146       17.90146     
     36400   18.2           150.2167      -3358.7839      9.6890992     -5380.2753      5736.7243      17.901441      17.901441      17.901441    
     36600   18.3           141.88983     -3358.246       9.1520091     -4262.4262      5736.7056      17.901422      17.901422      17.901422    
     36800   18.4           141.1398      -3358.1968      9.1036316     -3173.1241      5736.6867      17.901402      17.901402      17.901402    
     37000   18.5           145.89491     -3358.5028      9.41034       -5187.5243      5736.6677      17.901382      17.901382      17.901382    
     37200   18.6           145.75688     -3358.4932      9.4014372     -5614.3743      5736.6483      17.901362      17.901362      17.901362    
     37400   18.7           152.42822     -3358.9228      9.8317438     -3228.8678      5736.6288      17.901342      17.901342      17.901342    
     37600   18.8           151.52928     -3358.8639      9.7737616     -4035.2114      5736.609       17.901321      17.901321      17.901321    
     37800   18.9           148.2123      -3358.6492      9.559814      -4372.0431      5736.5891      17.9013        17.9013        17.9013      
     38000   19             149.29303     -3358.7181      9.6295217     -5407.3218      5736.5689      17.901279      17.901279      17.901279    
     38200   19.1           148.72393     -3358.6805      9.5928146     -4253.7616      5736.5485      17.901258      17.901258      17.901258    
     38400   19.2           145.26153     -3358.4564      9.3694865     -4759.5002      5736.5279      17.901237      17.901237      17.901237    
     38600   19.3           151.13552     -3358.8345      9.7483637     -5607.8672      5736.5071      17.901215      17.901215      17.901215    
     38800   19.4           152.10952     -3358.8964      9.8111875     -5356.6496      5736.486       17.901193      17.901193      17.901193    
     39000   19.5           145.37002     -3358.4609      9.3764842     -4079.2803      5736.4647      17.901171      17.901171      17.901171    
     39200   19.6           150.38126     -3358.7832      9.6997134     -2832.0336      5736.4432      17.901149      17.901149      17.901149    
     39400   19.7           145.56282     -3358.4715      9.3889201     -3257.0239      5736.4216      17.901126      17.901126      17.901126    
     39600   19.8           146.46128     -3358.5286      9.4468718     -5220.5581      5736.3997      17.901103      17.901103      17.901103    
     39800   19.9           150.37903     -3358.7804      9.6995697     -5997.3262      5736.3776      17.90108       17.90108       17.90108     
     40000   20             146.2434      -3358.5128      9.4328181     -6200.5277      5736.3552      17.901057      17.901057      17.901057    
     40200   20.1           147.63051     -3358.6013      9.5222879     -3491.2414      5736.3326      17.901034      17.901034      17.901034    
     40400   20.2           142.13527     -3358.2459      9.1678402     -4770.7148      5736.3098      17.90101       17.90101       17.90101     
     40600   20.3           149.09694     -3358.6941      9.616874      -5063.7473      5736.2867      17.900986      17.900986      17.900986    
     40800   20.4           153.34621     -3358.9674      9.8909548     -4151.0708      5736.2634      17.900962      17.900962      17.900962    
     41000   20.5           147.62466     -3358.5972      9.5219107     -4563.3012      5736.2399      17.900937      17.900937      17.900937    
     41200   20.6           151.56044     -3358.8502      9.7757717     -4519.0104      5736.2162      17.900913      17.900913      17.900913    
     41400   20.7           146.29318     -3358.5094      9.4360289     -3787.568       5736.1923      17.900888      17.900888      17.900888    
     41600   20.8           154.64833     -3359.0475      9.9749431     -4875.0302      5736.1681      17.900863      17.900863      17.900863    
     41800   20.9           150.93669     -3358.807       9.735539      -5544.7389      5736.1438      17.900837      17.900837      17.900837    
     42000   21             147.65787     -3358.5946      9.5240526     -4750.4075      5736.1192      17.900812      17.900812      17.900812    
     42200   21.1           147.48541     -3358.5824      9.512929      -3900.0558      5736.0943      17.900786      17.900786      17.900786    
     42400   21.2           146.51226     -3358.5186      9.4501598     -2604.3855      5736.0693      17.90076       17.90076       17.90076     
     42600   21.3           152.05877     -3358.8753      9.8079143     -4040.903       5736.0442      17.900734      17.900734      17.900734    
     42800   21.4           144.04015     -3358.3571      9.2907065     -5407.1138      5736.0188      17.900707      17.900707      17.900707    
     43000   21.5           144.21216     -3358.3671      9.3018015     -3764.427       5735.9932      17.900681      17.900681      17.900681    
     43200   21.6           156.36581     -3359.1501      10.085722     -4199.9679      5735.9674      17.900654      17.900654      17.900654    
     43400   21.7           147.68807     -3358.5892      9.5260002     -3320.9192      5735.9414      17.900627      17.900627      17.900627    
     43600   21.8           149.68057     -3358.7166      9.6545184     -3821.7061      5735.9153      17.900599      17.900599      17.900599    
     43800   21.9           148.09673     -3358.6134      9.5523593     -3811.1978      5735.8889      17.900572      17.900572      17.900572    
     44000   22             147.83315     -3358.5954      9.5353585     -4965.7223      5735.8624      17.900544      17.900544      17.900544    
     44200   22.1           154.61463     -3359.0317      9.9727689     -4882.1311      5735.8357      17.900517      17.900517      17.900517    
     44400   22.2           145.44792     -3358.4393      9.381509      -4377.2651      5735.8087      17.900489      17.900489      17.900489    
     44600   22.3           144.80926     -3358.397       9.3403149     -3856.1396      5735.7816      17.90046       17.90046       17.90046     
     44800   22.4           150.41432     -3358.7574      9.7018456     -4966.4864      5735.7542      17.900432      17.900432      17.900432    
     45000   22.5           149.25202     -3358.6813      9.6268763     -4029.0132      5735.7267      17.900403      17.900403      17.900403    
     45200   22.6           148.45314     -3358.6286      9.5753482     -2424.6597      5735.6989      17.900374      17.900374      17.900374    
     45400   22.7           146.97478     -3358.5321      9.4799925     -3486.7182      5735.671       17.900345      17.900345      17.900345    
     45600   22.8           154.11849     -3358.9916      9.940768      -4712.6079      5735.643       17.900316      17.900316      17.900316    
     45800   22.9           156.98966     -3359.1757      10.125961     -4258.3931      5735.6147      17.900287      17.900287      17.900287    
     46000   23             141.6996      -3358.1882      9.1397395     -2835.773       5735.5863      17.900257      17.900257      17.900257    
     46200   23.1           155.00718     -3359.0454      9.9980887     -3754.8097      5735.5577      17.900228      17.900228      17.900228    
     46400   23.2           143.45424     -3358.299       9.2529148     -4055.7002      5735.529       17.900198      17.900198      17.900198    
     46600   23.3           148.98137     -3358.6543      9.6094192     -3441.3915      5735.5001      17.900168      17.900168      17.900168    
     46800   23.4           147.72254     -3358.5718      9.5282238     -3674.0441      5735.471       17.900137      17.900137      17.900137    
     47000   23.5           149.14498     -3358.6624      9.6199724     -5427.5158      5735.4418      17.900107      17.900107      17.900107    
     47200   23.6           145.15694     -3358.404       9.3627404     -5314.2581      5735.4123      17.900076      17.900076      17.900076    
     47400   23.7           146.20401     -3358.4702      9.4302775     -3615.8013      5735.3826      17.900045      17.900045      17.900045    
     47600   23.8           147.21417     -3358.5342      9.4954335     -6146.5489      5735.3527      17.900014      17.900014      17.900014    
     47800   23.9           156.02369     -3359.1012      10.063654     -3327.0472      5735.3225      17.899983      17.899983      17.899983    
     48000   24             151.75228     -3358.8244      9.7881451     -4195.8967      5735.2922      17.899951      17.899951      17.899951    
     48200   24.1           149.05828     -3358.6494      9.6143803     -4753.8687      5735.2616      17.89992       17.89992       17.89992     
     48400   24.2           148.5318      -3358.6141      9.5804219     -4098.0312      5735.2309      17.899888      17.899888      17.899888    
     48600   24.3           148.63388     -3358.6194      9.5870058     -4597.1585      5735.2         17.899855      17.899855      17.899855    
     48800   24.4           151.7212      -3358.8172      9.7861407     -3162.0579      5735.1689      17.899823      17.899823      17.899823    
     49000   24.5           150.29243     -3358.7237      9.6939839     -3974.1959      5735.1376      17.89979       17.89979       17.89979     
     49200   24.6           159.41974     -3359.3112      10.282703     -5410.8402      5735.1061      17.899758      17.899758      17.899758    
     49400   24.7           148.62177     -3358.6133      9.5862247     -5231.0165      5735.0744      17.899725      17.899725      17.899725    
     49600   24.8           146.58753     -3358.4807      9.4550147     -4151.1048      5735.0425      17.899692      17.899692      17.899692    
     49800   24.9           143.91992     -3358.3073      9.2829515     -4726.1333      5735.0104      17.899658      17.899658      17.899658    
     50000   25             139.45682     -3358.018       8.9950782     -3587.1865      5734.9781      17.899624      17.899624      17.899624    
     50200   25.1           150.30604     -3358.7164      9.6948616     -3844.0443      5734.9455      17.899591      17.899591      17.899591    
     50400   25.2           146.09451     -3358.4435      9.4232149     -5097.8131      5734.9128      17.899557      17.899557      17.899557    
     50600   25.3           147.04757     -3358.5036      9.4846878     -4034.0994      5734.8798      17.899522      17.899522      17.899522    
     50800   25.4           144.68566     -3358.3499      9.3323426     -3133.4324      5734.8466      17.899488      17.899488      17.899488    
     51000   25.5           150.65245     -3358.7333      9.7172053     -4305.6023      5734.8132      17.899453      17.899453      17.899453    
     51200   25.6           148.42593     -3358.5883      9.5735932     -3057.9163      5734.7796      17.899418      17.899418      17.899418    
     51400   25.7           155.06076     -3359.0149      10.001545     -3778.8776      5734.7459      17.899383      17.899383      17.899383    
     51600   25.8           147.01179     -3358.4942      9.4823802     -4539.7576      5734.7119      17.899348      17.899348      17.899348    
     51800   25.9           153.07154     -3358.8837      9.8732385     -4629.383       5734.6778      17.899312      17.899312      17.899312    
     52000   26             147.37503     -3358.5148      9.5058091     -2798.3287      5734.6435      17.899276      17.899276      17.899276    
     52200   26.1           145.16117     -3358.3704      9.3630137     -3002.5077      5734.609       17.899241      17.899241      17.899241    
     52400   26.2           146.6962      -3358.468       9.4620244     -3222.4861      5734.5744      17.899205      17.899205      17.899205    
     52600   26.3           153.72915     -3358.9202      9.9156548     -4968.6488      5734.5396      17.899168      17.899168      17.899168    
     52800   26.4           146.60113     -3358.4588      9.4558922     -4845.4193      5734.5046      17.899132      17.899132      17.899132    
     53000   26.5           153.08828     -3358.8759      9.8743183     -3132.7636      5734.4694      17.899095      17.899095      17.899095    
     53200   26.6           154.26533     -3358.9502      9.9502392     -5314.8056      5734.4341      17.899059      17.899059      17.899059    
     53400   26.7           146.28209     -3358.4338      9.4353138     -2474.0117      5734.3985      17.899021      17.899021      17.899021    
     53600   26.8           147.47446     -3358.5092      9.5122224     -4415.2278      5734.3627      17.898984      17.898984      17.898984    
     53800   26.9           148.58327     -3358.5791      9.5837415     -440.5333       5734.3268      17.898947      17.898947      17.898947    
     54000   27             151.07001     -3358.7379      9.7441385     -2353.2463      5734.2908      17.898909      17.898909      17.898909    
     54200   27.1           151.22484     -3358.7463      9.7541249     -2542.2111      5734.2547      17.898872      17.898872      17.898872    
     54400   27.2           148.62272     -3358.5769      9.586286      -2558.966       5734.2185      17.898834      17.898834      17.898834    
     54600   27.3           149.37756     -3358.6239      9.634974      -2566.0881      5734.1821      17.898796      17.898796      17.898796    
     54800   27.4           153.0466      -3358.859       9.8716302     -1987.0123      5734.1456      17.898758      17.898758      17.898758    
     55000   27.5           147.16255     -3358.4778      9.4921041     -3446.5279      5734.1089      17.89872       17.89872       17.89872     
     55200   27.6           156.84163     -3359.1005      10.116413     -2091.6124      5734.0721      17.898682      17.898682      17.898682    
     55400   27.7           151.39512     -3358.7475      9.7651085     -2751.7319      5734.0351      17.898643      17.898643      17.898643    
     55600   27.8           159.45596     -3359.2658      10.285039     -2383.5503      5733.9981      17.898605      17.898605      17.898605    
     55800   27.9           155.63222     -3359.0175      10.038404     -2867.1979      5733.9609      17.898566      17.898566      17.898566    
     56000   28             149.75042     -3358.6364      9.6590239     -3347.7034      5733.9236      17.898527      17.898527      17.898527    
     56200   28.1           156.76825     -3359.0874      10.11168      -2991.1119      5733.8861      17.898488      17.898488      17.898488    
     56400   28.2           157.06143     -3359.1047      10.13059      -3283.9316      5733.8485      17.898449      17.898449      17.898449    
     56600   28.3           155.03562     -3358.9722      9.9999233     -3652.771       5733.8107      17.89841       17.89841       17.89841     
     56800   28.4           151.50986     -3358.7431      9.772509      -2731.4152      5733.7728      17.89837       17.89837       17.89837     
     57000   28.5           154.61067     -3358.9414      9.9725138     -2838.7365      5733.7347      17.898331      17.898331      17.898331    
     57200   28.6           150.6203      -3358.6822      9.7151315     -1570.7869      5733.6966      17.898291      17.898291      17.898291    
     57400   28.7           152.66264     -3358.8122      9.8468642     -2890.5987      5733.6583      17.898251      17.898251      17.898251    
     57600   28.8           147.95563     -3358.5069      9.5432584     -3450.3747      5733.6199      17.898211      17.898211      17.898211    
     57800   28.9           156.53894     -3359.0587      10.096889     -3285.0321      5733.5814      17.898171      17.898171      17.898171    
     58000   29             152.48558     -3358.7955      9.8354441     -2091.6357      5733.5428      17.898131      17.898131      17.898131    
     58200   29.1           158.65053     -3359.1914      10.233088     -3077.208       5733.504       17.898091      17.898091      17.898091    
     58400   29.2           151.3808      -3358.7207      9.7641843     -1833.7854      5733.465       17.89805       17.89805       17.89805     
     58600   29.3           148.48238     -3358.5319      9.5772343     -2495.3794      5733.426       17.89801       17.89801       17.89801     
     58800   29.4           149.71324     -3358.6094      9.6566258     -826.97235      5733.3868      17.897969      17.897969      17.897969    
     59000   29.5           154.07723     -3358.8892      9.9381067     -2297.4684      5733.3475      17.897928      17.897928      17.897928    
     59200   29.6           151.25628     -3358.7054      9.756153      -3139.0111      5733.3081      17.897887      17.897887      17.897887    
     59400   29.7           150.75831     -3358.6714      9.7240337     -3885.783       5733.2686      17.897846      17.897846      17.897846    
     59600   29.8           152.78191     -3358.8001      9.8545572     -2846.0876      5733.2289      17.897805      17.897805      17.897805    
     59800   29.9           152.7759      -3358.7979      9.8541697     -3967.1431      5733.1891      17.897763      17.897763      17.897763    
     60000   30             159.42273     -3359.2248      10.282896     -1018.283       5733.1492      17.897722      17.897722      17.897722    
     60200   30.1           159.05875     -3359.1995      10.259419     -2364.9037      5733.1092      17.89768       17.89768       17.89768     
     60400   30.2           153.06858     -3358.8112      9.8730478     -3888.1445      5733.069       17.897638      17.897638      17.897638    
     60600   30.3           153.17259     -3358.816       9.8797566     -1614.4113      5733.0287      17.897596      17.897596      17.897596    
     60800   30.4           157.55182     -3359.0966      10.16222      -1536.6976      5732.9883      17.897554      17.897554      17.897554    
     61000   30.5           149.79167     -3358.5941      9.6616842     -1092.9119      5732.9479      17.897512      17.897512      17.897512    
     61200   30.6           156.12525     -3359.0008      10.070206     -2066.7627      5732.9073      17.89747       17.89747       17.89747     
     61400   30.7           152.64531     -3358.7743      9.8457463     -4001.9243      5732.8667      17.897428      17.897428      17.897428    
     61600   30.8           155.52905     -3358.9584      10.03175      -1156.9872      5732.8259      17.897385      17.897385      17.897385    
     61800   30.9           155.20484     -3358.9356      10.010838     -3615.0017      5732.7851      17.897343      17.897343      17.897343    
     62000   31             150.84167     -3358.6522      9.72941       -2225.5144      5732.7441      17.8973        17.8973        17.8973      
     62200   31.1           158.07335     -3359.1168      10.195859     -2094.5948      5732.703       17.897257      17.897257      17.897257    
     62400   31.2           157.01428     -3359.0465      10.127549     -2679.2685      5732.6618      17.897214      17.897214      17.897214    
     62600   31.3           149.47526     -3358.5582      9.641276      -2137.3206      5732.6205      17.897171      17.897171      17.897171    
     62800   31.4           150.65403     -3358.6323      9.7173071     -2568.9113      5732.5791      17.897128      17.897128      17.897128    
     63000   31.5           152.25767     -3358.7338      9.8207434     -1106.896       5732.5375      17.897085      17.897085      17.897085    
     63200   31.6           155.39337     -3358.934       10.022998     -2288.6262      5732.4959      17.897042      17.897042      17.897042    
     63400   31.7           149.72253     -3358.5661      9.6572247     -2126.7902      5732.4541      17.896998      17.896998      17.896998    
     63600   31.8           146.06628     -3358.3283      9.4213937     -1890.9554      5732.4123      17.896955      17.896955      17.896955    
     63800   31.9           149.25051     -3358.5317      9.6267788     -1885.2492      5732.3704      17.896911      17.896911      17.896911    
     64000   32             147.43632     -3358.4126      9.5097627     -1759.0174      5732.3284      17.896867      17.896867      17.896867    
     64200   32.1           152.73317     -3358.7523      9.8514133     -3161.1232      5732.2863      17.896824      17.896824      17.896824    
     64400   32.2           151.50175     -3358.6709      9.7719856     -1908.8559      5732.2441      17.89678       17.89678       17.89678     
     64600   32.3           151.28302     -3358.6547      9.7578777     -2503.6414      5732.2018      17.896736      17.896736      17.896736    
     64800   32.4           144.85928     -3358.2382      9.3435415     -1968.4961      5732.1594      17.896692      17.896692      17.896692    
     65000   32.5           151.42086     -3358.6595      9.7667685     -1797.0917      5732.1169      17.896647      17.896647      17.896647    
     65200   32.6           163.80638     -3359.4563      10.565644     -2432.868       5732.0743      17.896603      17.896603      17.896603    
     65400   32.7           148.86887     -3358.4907      9.6021628     -1706.216       5732.0316      17.896559      17.896559      17.896559    
     65600   32.8           151.83167     -3358.6797      9.793266      -1986.509       5731.9888      17.896514      17.896514      17.896514    
     65800   32.9           156.43627     -3358.9747      10.090266     -2531.8733      5731.9459      17.896469      17.896469      17.896469    
     66000   33             152.76933     -3358.736       9.8537462     -298.31309      5731.903       17.896425      17.896425      17.896425    
     66200   33.1           152.10186     -3358.6908      9.8106938     -1368.0393      5731.86        17.89638       17.89638       17.89638     
     66400   33.2           157.11578     -3359.0121      10.134096     -2784.4187      5731.8169      17.896335      17.896335      17.896335    
     66600   33.3           148.57273     -3358.4589      9.583062      -1996.3171      5731.7737      17.89629       17.89629       17.89629     
     66800   33.4           156.70057     -3358.9811      10.107314     -2338.6289      5731.7305      17.896245      17.896245      17.896245    
     67000   33.5           149.49787     -3358.5144      9.6427343     -1152.0785      5731.6871      17.8962        17.8962        17.8962      
     67200   33.6           152.26082     -3358.6904      9.8209468     -3327.0799      5731.6436      17.896155      17.896155      17.896155    
     67400   33.7           153.27713     -3358.7538      9.8864994     -1152.3498      5731.6001      17.896109      17.896109      17.896109    
     67600   33.8           145.75405     -3358.2664      9.4012546     -257.02493      5731.5564      17.896064      17.896064      17.896064    
     67800   33.9           154.11787     -3358.8038      9.940728      -3016.7092      5731.5127      17.896018      17.896018      17.896018    
     68000   34             148.30895     -3358.4268      9.5660481     -1698.6696      5731.4688      17.895973      17.895973      17.895973    
     68200   34.1           152.92022     -3358.7222      9.8634783     -2076.5927      5731.4249      17.895927      17.895927      17.895927    
     68400   34.2           152.95757     -3358.7224      9.8658875     -1624.5038      5731.3809      17.895881      17.895881      17.895881    
     68600   34.3           142.76064     -3358.0624      9.2081775     -1228.7812      5731.3368      17.895835      17.895835      17.895835    
     68800   34.4           152.996       -3358.7205      9.868366      -2459.7003      5731.2926      17.895789      17.895789      17.895789    
     69000   34.5           146.67915     -3358.3108      9.4609241     -2322.4822      5731.2484      17.895743      17.895743      17.895743    
     69200   34.6           151.64025     -3358.6286      9.7809195     -2618.3394      5731.204       17.895697      17.895697      17.895697    
     69400   34.7           153.0901      -3358.7199      9.8744361     -1359.7266      5731.1595      17.895651      17.895651      17.895651    
     69600   34.8           156.2744      -3358.9231      10.079826     -1400.944       5731.115       17.895605      17.895605      17.895605    
     69800   34.9           151.40692     -3358.6068      9.7658696     -1152.0039      5731.0704      17.895558      17.895558      17.895558    
     70000   35             153.43874     -3358.7357      9.8969233     -2601.7187      5731.0257      17.895512      17.895512      17.895512    
     70200   35.1           155.93156     -3358.8943      10.057712     -1616.9321      5730.9808      17.895465      17.895465      17.895465    
     70400   35.2           154.11577     -3358.7748      9.9405921     -1415.7479      5730.936       17.895418      17.895418      17.895418    
     70600   35.3           156.32419     -3358.915       10.083037     -1728.3609      5730.891       17.895371      17.895371      17.895371    
     70800   35.4           149.23523     -3358.4555      9.6257938     -2016.9655      5730.846       17.895325      17.895325      17.895325    
     71000   35.5           158.53362     -3359.053       10.225548     -2192.7088      5730.8009      17.895278      17.895278      17.895278    
     71200   35.6           157.21153     -3358.9654      10.140272     -1243.3965      5730.7557      17.895231      17.895231      17.895231    
     71400   35.7           156.37672     -3358.9094      10.086426     -1887.2104      5730.7104      17.895183      17.895183      17.895183    
     71600   35.8           153.14323     -3358.6985      9.8778628      220.46513      5730.6651      17.895136      17.895136      17.895136    
     71800   35.9           151.1376      -3358.5668      9.7484982     -26.003868      5730.6198      17.895089      17.895089      17.895089    
     72000   36             153.28015     -3358.7026      9.8866942     -1835.3082      5730.5743      17.895042      17.895042      17.895042    
     72200   36.1           154.24442     -3358.7625      9.9488906     -1605.9787      5730.5289      17.894994      17.894994      17.894994    
     72400   36.2           151.82655     -3358.6042      9.7929355     -1004.2415      5730.4833      17.894947      17.894947      17.894947    
     72600   36.3           153.55911     -3358.7137      9.9046875     -2610.3689      5730.4378      17.8949        17.8949        17.8949      
     72800   36.4           150.45398     -3358.511       9.7044038     -1652.4166      5730.3921      17.894852      17.894852      17.894852    
     73000   36.5           143.94652     -3358.0889      9.2846674     -1095.2473      5730.3464      17.894804      17.894804      17.894804    
     73200   36.6           150.65815     -3358.5196      9.7175729     -2904.5298      5730.3006      17.894757      17.894757      17.894757    
     73400   36.7           147.16938     -3358.2922      9.4925444     -1572.4894      5730.2546      17.894709      17.894709      17.894709    
     73600   36.8           152.89424     -3358.6592      9.8618029     -1111.6515      5730.2086      17.894661      17.894661      17.894661    
     73800   36.9           146.32685     -3358.2332      9.4382009     -893.22365      5730.1625      17.894613      17.894613      17.894613    
     74000   37             148.32526     -3358.3598      9.5670995     -2555.446       5730.1163      17.894565      17.894565      17.894565    
     74200   37.1           149.11678     -3358.4084      9.6181535     -1140.5051      5730.07        17.894517      17.894517      17.894517    
     74400   37.2           154.96378     -3358.7833      9.9952895     -998.6376       5730.0236      17.894469      17.894469      17.894469    
     74600   37.3           155.33841     -3358.805       10.019454     -1890.8947      5729.9772      17.89442       17.89442       17.89442     
     74800   37.4           148.71723     -3358.3755      9.5923818     -1070.1697      5729.9307      17.894372      17.894372      17.894372    
     75000   37.5           152.0044      -3358.5852      9.8044074     -1803.7102      5729.8841      17.894323      17.894323      17.894323    
     75200   37.6           161.36989     -3359.1869      10.408489     -512.1755       5729.8375      17.894275      17.894275      17.894275    
     75400   37.7           154.67468     -3358.7527      9.9766428     -1834.975       5729.7908      17.894226      17.894226      17.894226    
     75600   37.8           154.36803     -3358.7305      9.9568633     -1779.015       5729.7441      17.894178      17.894178      17.894178    
     75800   37.9           155.95804     -3358.8306      10.05942      -197.7157       5729.6973      17.894129      17.894129      17.894129    
     76000   38             150.82222     -3358.4969      9.7281557     -973.0919       5729.6505      17.89408       17.89408       17.89408     
     76200   38.1           159.72656     -3359.0689      10.302493     -262.94954      5729.6037      17.894031      17.894031      17.894031    
     76400   38.2           157.07086     -3358.8951      10.131198     -681.31657      5729.5568      17.893983      17.893983      17.893983    
     76600   38.3           151.04101     -3358.5036      9.7422678     -180.23238      5729.5099      17.893934      17.893934      17.893934    
     76800   38.4           150.4259      -3358.4615      9.7025925     -2126.9114      5729.4631      17.893885      17.893885      17.893885    
     77000   38.5           157.5917      -3358.9214      10.164792     -784.47038      5729.4161      17.893836      17.893836      17.893836    
     77200   38.6           152.85188     -3358.6131      9.8590701      150.86247      5729.3691      17.893787      17.893787      17.893787    
     77400   38.7           156.26174     -3358.8306      10.079009     -1617.2003      5729.3221      17.893738      17.893738      17.893738    
     77600   38.8           152.83506     -3358.6072      9.8579855     -2782.9161      5729.275       17.893689      17.893689      17.893689    
     77800   38.9           154.97964     -3358.743       9.996313      -832.81393      5729.2278      17.89364       17.89364       17.89364     
     78000   39             149.0952      -3358.361       9.6167615      721.98493      5729.1806      17.893591      17.893591      17.893591    
     78200   39.1           151.08219     -3358.4867      9.7449239     -1391.8052      5729.1333      17.893542      17.893542      17.893542    
     78400   39.2           147.61037     -3358.2602      9.5209886     -1018.1689      5729.0861      17.893492      17.893492      17.893492    
     78600   39.3           148.69704     -3358.3279      9.5910797     -1245.8025      5729.0387      17.893443      17.893443      17.893443    
     78800   39.4           155.40035     -3358.7578      10.023449     -1501.3418      5728.9913      17.893394      17.893394      17.893394    
     79000   39.5           148.35641     -3358.301       9.569109      -858.20638      5728.9438      17.893344      17.893344      17.893344    
     79200   39.6           153.36002     -3358.6213      9.8918457     -1753.0692      5728.8963      17.893295      17.893295      17.893295    
     79400   39.7           149.64656     -3358.3792      9.652325      -1566.7649      5728.8487      17.893245      17.893245      17.893245    
     79600   39.8           156.26723     -3358.8039      10.079363     -1148.9082      5728.801       17.893196      17.893196      17.893196    
     79800   39.9           155.98566     -3358.7832      10.061201     -1100.1555      5728.7533      17.893146      17.893146      17.893146    
     80000   40             161.61281     -3359.1437      10.424158     -488.41368      5728.7056      17.893096      17.893096      17.893096    
     80200   40.1           158.13124     -3358.9166      10.199593     -1672.443       5728.6578      17.893047      17.893047      17.893047    
     80400   40.2           153.75939     -3358.6321      9.9176054     -1148.2707      5728.61        17.892997      17.892997      17.892997    
     80600   40.3           155.1472      -3358.7191      10.007121     -439.32589      5728.5621      17.892947      17.892947      17.892947    
     80800   40.4           146.81892     -3358.1792      9.4699394     -837.52464      5728.5142      17.892897      17.892897      17.892897    
     81000   40.5           148.43647     -3358.2812      9.5742729     -1130.7386      5728.4662      17.892847      17.892847      17.892847    
     81200   40.6           147.9427      -3358.2468      9.5424244     -611.39107      5728.4182      17.892797      17.892797      17.892797    
     81400   40.7           161.33334     -3359.1081      10.406131      31.568924      5728.3701      17.892747      17.892747      17.892747    
     81600   40.8           148.21462     -3358.2593      9.5599634     -1419.9698      5728.3219      17.892697      17.892697      17.892697    
     81800   40.9           157.98705     -3358.8873      10.190293     -2322.2753      5728.2738      17.892647      17.892647      17.892647    
     82000   41             152.18939     -3358.5107      9.8163394     -1401.8568      5728.2255      17.892597      17.892597      17.892597    
     82200   41.1           151.70269     -3358.4767      9.7849467     -239.84138      5728.1772      17.892546      17.892546      17.892546    
     82400   41.2           155.69906     -3358.732       10.042716     -317.51745      5728.1289      17.892496      17.892496      17.892496    
     82600   41.3           160.91454     -3359.0658      10.379118     -967.09071      5728.0805      17.892446      17.892446      17.892446    
     82800   41.4           156.41852     -3358.7734      10.089122     -290.31709      5728.0321      17.892395      17.892395      17.892395    
     83000   41.5           151.59387     -3358.4597      9.7779279     -1720.8057      5727.9837      17.892345      17.892345      17.892345    
     83200   41.6           153.30133     -3358.5672      9.8880602     -512.61035      5727.9353      17.892294      17.892294      17.892294    
     83400   41.7           151.14154     -3358.4252      9.748752      -586.46053      5727.8868      17.892244      17.892244      17.892244    
     83600   41.8           157.08674     -3358.8063      10.132222     -2087.5572      5727.8383      17.892193      17.892193      17.892193    
     83800   41.9           150.9811      -3358.4098      9.7384033     -1354.0177      5727.7897      17.892143      17.892143      17.892143    
     84000   42             155.64335     -3358.708       10.039123      158.14257      5727.741       17.892092      17.892092      17.892092    
     84200   42.1           156.11194     -3358.7357      10.069347     -2196.9933      5727.6924      17.892041      17.892041      17.892041    
     84400   42.2           153.31731     -3358.5528      9.8890909      466.56039      5727.6437      17.891991      17.891991      17.891991    
     84600   42.3           152.14608     -3358.4748      9.8135459      1103.4328      5727.5949      17.89194       17.89194       17.89194     
     84800   42.4           155.8142      -3358.7089      10.050143      303.87741      5727.5462      17.891889      17.891889      17.891889    
     85000   42.5           153.42294     -3358.552       9.8959042     -1249.2785      5727.4975      17.891838      17.891838      17.891838    
     85200   42.6           163.15652     -3359.1773      10.523728     -1119.5775      5727.4487      17.891788      17.891788      17.891788    
     85400   42.7           151.28076     -3358.4086      9.7577319     -918.26278      5727.4         17.891737      17.891737      17.891733    
     85600   42.8           159.10322     -3358.9105      10.262287     -543.82478      5727.3474      17.891682      17.891682      17.891682    
     85800   42.9           157.74133     -3358.8202      10.174444     -228.02172      5727.2986      17.891631      17.891631      17.891631    
     86000   43             151.71839     -3358.429       9.7859592     -1079.2214      5727.2498      17.891581      17.891581      17.891581    
     86200   43.1           156.61091     -3358.7421      10.101531      331.35709      5727.201       17.89153       17.89153       17.89153     
     86400   43.2           156.42055     -3358.7272      10.089252     -281.56095      5727.1522      17.891479      17.891479      17.891479    
     86600   43.3           148.57708     -3358.2187      9.5833422     -472.17599      5727.1033      17.891428      17.891428      17.891428    
     86800   43.4           147.66578     -3358.1572      9.5245629     -1852.1475      5727.0545      17.891377      17.891377      17.891377    
     87000   43.5           156.25537     -3358.7088      10.078598      151.5147       5727.0055      17.891326      17.891326      17.891326    
     87200   43.6           160.09685     -3358.954       10.326377      269.91751      5726.9566      17.891275      17.891275      17.891275    
     87400   43.7           154.43984     -3358.5864      9.9614951     -164.14738      5726.9077      17.891224      17.891224      17.891224    
     87600   43.8           153.42141     -3358.5182      9.8958053     -32.944722      5726.8587      17.891173      17.891173      17.891173    
     87800   43.9           154.70704     -3358.5985      9.9787295     -1311.5844      5726.8098      17.891122      17.891122      17.891122    
     88000   44             155.01996     -3358.6161      9.9989131     -981.43587      5726.7608      17.891071      17.891071      17.891071    
     88200   44.1           161.41423     -3359.026       10.411349      197.89635      5726.7118      17.89102       17.89102       17.89102     
     88400   44.2           160.74836     -3358.9804      10.3684        130.89949      5726.6629      17.890969      17.890969      17.890969    
     88600   44.3           147.15041     -3358.1007      9.4913207     -181.0705       5726.6138      17.890918      17.890918      17.890918    
     88800   44.4           161.14976     -3359.0011      10.394291     -620.06189      5726.5648      17.890867      17.890867      17.890867    
     89000   44.5           157.34133     -3358.7529      10.148644     -629.16176      5726.5158      17.890816      17.890816      17.890816    
     89200   44.6           159.65756     -3358.8997      10.298042     -677.62659      5726.4667      17.890765      17.890765      17.890765    
     89400   44.7           155.82693     -3358.6499      10.050964      295.07595      5726.4177      17.890714      17.890714      17.890714    
     89600   44.8           159.66945     -3358.8952      10.298809     -500.82075      5726.3687      17.890663      17.890663      17.890663    
     89800   44.9           153.5743      -3358.4994      9.9056671     -267.82969      5726.3196      17.890612      17.890612      17.890612    
     90000   45             159.1906      -3358.8592      10.267923      404.41443      5726.2706      17.890561      17.890561      17.890561    
     90200   45.1           155.19945     -3358.5991      10.01049      -974.60293      5726.2215      17.89051       17.89051       17.89051     
     90400   45.2           160.60355     -3358.945       10.35906       356.9601       5726.1724      17.890459      17.890459      17.890459    
     90600   45.3           155.51766     -3358.6144      10.031015      497.70575      5726.1233      17.890407      17.890407      17.890407    
     90800   45.4           166.14547     -3359.2972      10.716518     -215.99739      5726.0743      17.890356      17.890356      17.890356    
     91000   45.5           161.62994     -3359.0035      10.425263     -626.96113      5726.0253      17.890305      17.890305      17.890305    
     91200   45.6           159.84518     -3358.8857      10.310144     -544.89497      5725.9762      17.890254      17.890254      17.890254    
     91400   45.7           155.4863      -3358.6019      10.028993     -708.63576      5725.9271      17.890203      17.890203      17.890203    
     91600   45.8           150.95325     -3358.3069      9.7366073      929.54284      5725.878       17.890152      17.890152      17.890152    
     91800   45.9           155.24638     -3358.5813      10.013518      120.78596      5725.829       17.890101      17.890101      17.890101    
     92000   46             155.80782     -3358.6148      10.049731      240.48729      5725.7799      17.89005       17.89005       17.89005     
     92200   46.1           158.60016     -3358.7924      10.229839     -422.95146      5725.7308      17.889999      17.889999      17.889999    
     92400   46.2           148.96227     -3358.1681      9.6081877      286.57413      5725.6817      17.889948      17.889948      17.889948    
     92600   46.3           158.86485     -3358.8043      10.246912     -551.32725      5725.6327      17.889896      17.889896      17.889896    
     92800   46.4           153.24389     -3358.4391      9.8843551      266.01254      5725.5836      17.889845      17.889845      17.889845    
     93000   46.5           154.84818     -3358.5399      9.9878334      711.65694      5725.5345      17.889794      17.889794      17.889794    
     93200   46.6           157.25914     -3358.6929      10.143342      60.77268       5725.4855      17.889743      17.889743      17.889743    
     93400   46.7           157.83855     -3358.7276      10.180715     -144.12992      5725.4365      17.889692      17.889692      17.889692    
     93600   46.8           161.32665     -3358.95        10.4057        70.636052      5725.3874      17.889641      17.889641      17.889641    
     93800   46.9           153.92839     -3358.4702      9.9285062     -696.63292      5725.3384      17.88959       17.88959       17.88959     
     94000   47             155.60847     -3358.576       10.036873     -76.198916      5725.2894      17.889539      17.889539      17.889539    
     94200   47.1           158.06984     -3358.7322      10.195633      1271.5573      5725.2404      17.889488      17.889488      17.889488    
     94400   47.2           165.35117     -3359.1992      10.665285     -299.32717      5725.1914      17.889437      17.889437      17.889437    
     94600   47.3           147.4731      -3358.0434      9.5121347     -391.78341      5725.1425      17.889386      17.889386      17.889386    
     94800   47.4           160.37299     -3358.8729      10.344188      875.01504      5725.0935      17.889335      17.889335      17.889335    
     95000   47.5           155.3275      -3358.5448      10.01875       868.72503      5725.0445      17.889284      17.889284      17.889284    
     95200   47.6           159.15465     -3358.7891      10.265604     -630.00792      5724.9956      17.889233      17.889233      17.889233    
     95400   47.7           154.04723     -3358.4571      9.9361714      754.18063      5724.9467      17.889182      17.889182      17.889182    
     95600   47.8           156.76824     -3358.63        10.111679     -443.78494      5724.8979      17.889131      17.889131      17.889131    
     95800   47.9           160.81016     -3358.8882      10.372386     -851.41733      5724.849       17.88908       17.88908       17.88908     
     96000   48             156.1708      -3358.5863      10.073143      1313.7987      5724.8001      17.889029      17.889029      17.889029    
     96200   48.1           161.10521     -3358.902       10.391417      438.19438      5724.7512      17.888978      17.888978      17.888978    
     96400   48.2           156.40182     -3358.596       10.088044     -279.02528      5724.7024      17.888928      17.888928      17.888928    
     96600   48.3           157.07003     -3358.6365      10.131144      1198.9091      5724.6536      17.888877      17.888877      17.888877    
     96800   48.4           158.67825     -3358.7377      10.234876      448.22899      5724.6049      17.888826      17.888826      17.888826    
     97000   48.5           156.43827     -3358.5905      10.090395      128.27612      5724.5562      17.888775      17.888775      17.888775    
     97200   48.6           162.33394     -3358.9683      10.470671      678.70691      5724.5075      17.888724      17.888724      17.888724    
     97400   48.7           155.84295     -3358.547       10.051997     -321.69796      5724.4588      17.888674      17.888674      17.888674    
     97600   48.8           158.62168     -3358.7237      10.231227      49.077564      5724.4101      17.888623      17.888623      17.888623    
     97800   48.9           150.92345     -3358.2245      9.734685       635.89282      5724.3615      17.888572      17.888572      17.888572    
     98000   49             154.27047     -3358.4379      9.9505709     -504.04057      5724.3128      17.888522      17.888522      17.888522    
     98200   49.1           155.96489     -3358.5446      10.059862      940.5218       5724.2642      17.888471      17.888471      17.888471    
     98400   49.2           150.84313     -3358.2116      9.7295047      290.10382      5724.2156      17.88842       17.88842       17.88842     
     98600   49.3           156.71525     -3358.5878      10.108261      1379.2575      5724.1671      17.88837       17.88837       17.88837     
     98800   49.4           150.70147     -3358.1973      9.720367       1529.0289      5724.1186      17.888319      17.888319      17.888319    
     99000   49.5           157.75793     -3358.6499      10.175515     -95.172476      5724.0701      17.888269      17.888269      17.888269    
     99200   49.6           160.86357     -3358.8477      10.375831     -134.2141       5724.0216      17.888218      17.888218      17.888218    
     99400   49.7           163.36833     -3359.0067      10.53739      -8.9583661      5723.9732      17.888168      17.888168      17.888168    
     99600   49.8           150.70388     -3358.1872      9.7205228      1224.9348      5723.9249      17.888118      17.888118      17.888118    
     99800   49.9           156.0741      -3358.531       10.066907     -862.616        5723.8765      17.888067      17.888067      17.888067    
    100000   50             161.39414     -3358.8716      10.410053      211.91659      5723.8282      17.888017      17.888017      17.888017    
    100200   50.1           161.84968     -3358.8984      10.439436      1137.1738      5723.7799      17.887967      17.887967      17.887967    
    100400   50.2           152.3315      -3358.2819      9.8255056      2088.9034      5723.7317      17.887916      17.887916      17.887916    
    100600   50.3           153.12748     -3358.3306      9.8768469      1831.2845      5723.6835      17.887866      17.887866      17.887866    
    100800   50.4           162.40209     -3358.9263      10.475067     -22.692366      5723.6354      17.887816      17.887816      17.887816    
    101000   50.5           155.42755     -3358.474       10.025203      944.24231      5723.5873      17.887766      17.887766      17.887766    
    101200   50.6           162.27051     -3358.9129      10.466579     -409.92063      5723.5393      17.887716      17.887716      17.887716    
    101400   50.7           155.74289     -3358.4892      10.045543     -185.21361      5723.4912      17.887666      17.887666      17.887666    
    101600   50.8           159.57957     -3358.7342      10.293012     -94.253179      5723.4432      17.887616      17.887616      17.887616    
    101800   50.9           160.6684      -3358.8019      10.363242      942.03426      5723.3952      17.887566      17.887566      17.887566    
    102000   51             152.95285     -3358.3016      9.8655834      1840.6495      5723.3472      17.887516      17.887516      17.887516    
    102200   51.1           163.5195      -3358.9807      10.54714       722.47418      5723.2993      17.887466      17.887466      17.887466    
    102400   51.2           152.2878      -3358.2536      9.8226867      385.38861      5723.2514      17.887416      17.887416      17.887416    
    102600   51.3           160.74887     -3358.7969      10.368433      1849.9401      5723.2036      17.887366      17.887366      17.887366    
    102800   51.4           161.2939      -3358.8296      10.403587      419.18958      5723.1558      17.887316      17.887316      17.887316    
    103000   51.5           159.51286     -3358.7122      10.288709      1334.3146      5723.108       17.887267      17.887267      17.887267    
    103200   51.6           159.91125     -3358.7354      10.314406      426.94328      5723.0603      17.887217      17.887217      17.887217    
    103400   51.7           148.66934     -3358.0075      9.5892931      1327.643       5723.0127      17.887167      17.887167      17.887167    
    103600   51.8           147.05496     -3357.9009      9.4851646      1941.94        5722.9651      17.887118      17.887118      17.887118    
    103800   51.9           155.15063     -3358.4206      10.007341      1407.095       5722.9175      17.887068      17.887068      17.887068    
    104000   52             153.82936     -3358.3329      9.9221185      1337.1445      5722.87        17.887019      17.887019      17.887019    
    104200   52.1           157.87697     -3358.5914      10.183193      903.67566      5722.8226      17.886969      17.886969      17.886969    
    104400   52.2           158.22265     -3358.6112      10.205489      259.96808      5722.7752      17.88692       17.88692       17.88692     
    104600   52.3           151.92157     -3358.2022      9.7990645      1118.191       5722.7279      17.886871      17.886871      17.886871    
    104800   52.4           160.87414     -3358.7773      10.376513      1199.4766      5722.6806      17.886821      17.886821      17.886821    
    105000   52.5           150.27402     -3358.0909      9.6927962      1524.7538      5722.6334      17.886772      17.886772      17.886772    
    105200   52.6           163.85888     -3358.9647      10.569031      1375.1711      5722.5863      17.886723      17.886723      17.886723    
    105400   52.7           158.4066      -3358.6104      10.217354      1727.4073      5722.5392      17.886674      17.886674      17.886674    
    105600   52.8           161.63784     -3358.8164      10.425772      42.107971      5722.4922      17.886625      17.886625      17.886625    
    105800   52.9           159.94463     -3358.7047      10.316559      986.70644      5722.4453      17.886576      17.886576      17.886576    
    106000   53             155.91557     -3358.4423      10.056681      2100.2274      5722.3983      17.886527      17.886527      17.886527    
    106200   53.1           158.21823     -3358.5883      10.205205      1662.0541      5722.3515      17.886478      17.886478      17.886478    
    106400   53.2           157.01468     -3358.5082      10.127575      1415.5051      5722.3048      17.88643       17.88643       17.88643     
    106600   53.3           163.04035     -3358.8944      10.516235      1295.6894      5722.2581      17.886381      17.886381      17.886381    
    106800   53.4           150.90931     -3358.1094      9.7337732     -577.03665      5722.2114      17.886333      17.886333      17.886333    
    107000   53.5           153.90367     -3358.3002      9.9269115      1309.4186      5722.1648      17.886284      17.886284      17.886284    
    107200   53.6           159.33665     -3358.6482      10.277343      1421.245       5722.1182      17.886235      17.886235      17.886235    
    107400   53.7           160.26746     -3358.7056      10.337381      2751.6037      5722.0717      17.886187      17.886187      17.886187    
    107600   53.8           162.19154     -3358.8273      10.461486      1815.6798      5722.0252      17.886139      17.886139      17.886139    
    107800   53.9           159.02504     -3358.6205      10.257244      1433.3664      5721.9789      17.88609       17.88609       17.88609     
    108000   54             158.44736     -3358.5809      10.219984      2003.152       5721.9326      17.886042      17.886042      17.886042    
    108200   54.1           160.38448     -3358.7033      10.344929      451.6603       5721.8863      17.885994      17.885994      17.885994    
    108400   54.2           155.54121     -3358.3884      10.032534      859.20375      5721.8401      17.885946      17.885946      17.885946    
    108600   54.3           153.93285     -3358.2823      9.928794       2182.36        5721.794       17.885898      17.885898      17.885898    
    108800   54.4           155.76854     -3358.3981      10.047197      1606.3168      5721.7479      17.88585       17.88585       17.88585     
    109000   54.5           154.25163     -3358.2978      9.9493553      961.411        5721.7019      17.885802      17.885802      17.885802    
    109200   54.6           158.53556     -3358.5718      10.225672      1361.648       5721.656       17.885754      17.885754      17.885754    
    109400   54.7           154.55819     -3358.3127      9.9691289      1865.5552      5721.6101      17.885706      17.885706      17.885706    
    109600   54.8           158.26276     -3358.5492      10.208077      1913.131       5721.5643      17.885658      17.885658      17.885658    
    109800   54.9           153.33142     -3358.2287      9.8900011      963.55734      5721.5186      17.885611      17.885611      17.885611    
    110000   55             146.4538      -3357.7826      9.4463889      2074.1963      5721.4729      17.885563      17.885563      17.885563    
    110200   55.1           160.8162      -3358.7067      10.372775      343.7136       5721.4272      17.885515      17.885515      17.885515    
    110400   55.2           157.23783     -3358.4734      10.141968      2571.079       5721.3816      17.885468      17.885468      17.885468    
    110600   55.3           153.08058     -3358.2027      9.8738216      1510.7455      5721.3361      17.88542       17.88542       17.88542     
    110800   55.4           159.35718     -3358.6053      10.278667      1903.3622      5721.2907      17.885373      17.885373      17.885373    
    111000   55.5           161.4684      -3358.739       10.414843      1853.3604      5721.2453      17.885326      17.885326      17.885326    
    111200   55.6           159.65134     -3358.6194      10.297641      1429.0833      5721.2         17.885279      17.885279      17.885279    
    111400   55.7           157.31738     -3358.4663      10.147099      1694.3022      5721.1548      17.885232      17.885232      17.885232    
    111600   55.8           161.94096     -3358.7622      10.445323      1074.3746      5721.1096      17.885184      17.885184      17.885184    
    111800   55.9           158.76944     -3358.5552      10.240758      1715.9536      5721.0646      17.885137      17.885137      17.885137    
    112000   56             154.19624     -3358.2578      9.9457826      2800.1603      5721.0196      17.885091      17.885091      17.885091    
    112200   56.1           159.7092      -3358.611       10.301373      1538.2623      5720.9747      17.885044      17.885044      17.885044    
    112400   56.2           163.80754     -3358.873       10.565719      544.01609      5720.9298      17.884997      17.884997      17.884997    
    112600   56.3           149.40551     -3357.9415      9.6367765      1674.3401      5720.8851      17.88495       17.88495       17.88495     
    112800   56.4           161.23437     -3358.7021      10.399748      799.01443      5720.8404      17.884904      17.884904      17.884904    
    113000   56.5           156.9225      -3358.4215      10.121629      2067.5441      5720.7958      17.884857      17.884857      17.884857    
    113200   56.6           151.03161     -3358.0391      9.7416616      1671.719       5720.7513      17.884811      17.884811      17.884811    
    113400   56.7           165.2379      -3358.9531      10.657979      1642.2808      5720.7069      17.884765      17.884765      17.884765    
    113600   56.8           157.4353      -3358.4474      10.154705      1849.6505      5720.6625      17.884719      17.884719      17.884719    
    113800   56.9           161.6497      -3358.7169      10.426537      1592.013       5720.6183      17.884672      17.884672      17.884672    
    114000   57             156.91052     -3358.4089      10.120856      1415.7891      5720.5741      17.884626      17.884626      17.884626    
    114200   57.1           154.82677     -3358.272       9.9864526      2463.9047      5720.53        17.88458       17.88458       17.88458     
    114400   57.2           159.50757     -3358.5715      10.288368      895.35517      5720.4861      17.884535      17.884535      17.884535    
    114600   57.3           153.39824     -3358.175       9.8943112      2143.2376      5720.4421      17.884489      17.884489      17.884489    
    114800   57.4           161.04008     -3358.6657      10.387216      2838.1386      5720.3983      17.884443      17.884443      17.884443    
    115000   57.5           157.70024     -3358.4478      10.171794      1601.5576      5720.3545      17.884398      17.884398      17.884398    
    115200   57.6           155.83335     -3358.325       10.051378      1654.8203      5720.3109      17.884352      17.884352      17.884352    
    115400   57.7           156.75768     -3358.3822      10.110998      953.65272      5720.2674      17.884307      17.884307      17.884307    
    115600   57.8           158.28159     -3358.4782      10.209291      2829.0192      5720.2239      17.884261      17.884261      17.884261    
    115800   57.9           157.55023     -3358.4286      10.162118      1817.4034      5720.1805      17.884216      17.884216      17.884216    
    116000   58             153.61403     -3358.1723      9.90823        2067.2291      5720.1372      17.884171      17.884171      17.884171    
    116200   58.1           152.18303     -3358.0776      9.8159291      2562.5311      5720.094       17.884126      17.884126      17.884126    
    116400   58.2           151.83974     -3358.0531      9.7937868      2600.8405      5720.0509      17.884081      17.884081      17.884081    
    116600   58.3           158.82462     -3358.5013      10.244317      2656.1162      5720.0079      17.884036      17.884036      17.884036    
    116800   58.4           159.38235     -3358.535       10.280291      2075.6959      5719.965       17.883992      17.883992      17.883992    
    117000   58.5           153.29952     -3358.1403      9.8879435      1176.3078      5719.9222      17.883947      17.883947      17.883947    
    117200   58.6           150.29002     -3357.9437      9.6938281      3549.1515      5719.8795      17.883902      17.883902      17.883902    
    117400   58.7           159.63754     -3358.5444      10.296751      2243.4905      5719.8369      17.883858      17.883858      17.883858    
    117600   58.8           155.4813      -3358.2739      10.02867       2385.7759      5719.7944      17.883814      17.883814      17.883814    
    117800   58.9           152.934       -3358.1072      9.8643671      2343.8868      5719.752       17.88377       17.88377       17.88377     
    118000   59             163.279       -3358.7723      10.531628      2306.2167      5719.7096      17.883725      17.883725      17.883725    
    118200   59.1           156.80737     -3358.3524      10.114203      2874.8605      5719.6674      17.883681      17.883681      17.883681    
    118400   59.2           163.0905      -3358.7553      10.51947       1356.8271      5719.6253      17.883638      17.883638      17.883638    
    118600   59.3           156.62798     -3358.3361      10.102632      3021.4757      5719.5833      17.883594      17.883594      17.883594    
    118800   59.4           158.36445     -3358.4458      10.214636      1503.2058      5719.5415      17.88355       17.88355       17.88355     
    119000   59.5           166.92736     -3358.9958      10.76695       1611.7423      5719.4997      17.883507      17.883507      17.883507    
    119200   59.6           162.85061     -3358.7306      10.503997      2113.5747      5719.458       17.883463      17.883463      17.883463    
    119400   59.7           155.67169     -3358.2651      10.040951      1240.2086      5719.4164      17.88342       17.88342       17.88342     
    119600   59.8           155.90392     -3358.2778      10.055929      3174.5294      5719.3749      17.883377      17.883377      17.883377    
    119800   59.9           154.08482     -3358.158       9.9385958      2666.0477      5719.3335      17.883333      17.883333      17.883333    
    120000   60             151.8685      -3358.0129      9.7956416      3309.6237      5719.2922      17.88329       17.88329       17.88329     
    120200   60.1           164.45956     -3358.8228      10.607775      2176.9564      5719.2511      17.883248      17.883248      17.883248    
    120400   60.2           160.12653     -3358.5409      10.328291      3033.6958      5719.21        17.883205      17.883205      17.883205    
    120600   60.3           159.1992      -3358.4787      10.268478      2359.4323      5719.1691      17.883162      17.883162      17.883162    
    120800   60.4           155.42905     -3358.2331      10.0253        1536.364       5719.1283      17.88312       17.88312       17.88312     
    121000   60.5           153.85431     -3358.1293      9.9237279      3690.6475      5719.0876      17.883077      17.883077      17.883077    
    121200   60.6           155.2836      -3358.2193      10.015919      2236.9298      5719.0469      17.883035      17.883035      17.883035    
    121400   60.7           158.25134     -3358.4083      10.20734       1299.9032      5719.0064      17.882993      17.882993      17.882993    
    121600   60.8           153.96798     -3358.1297      9.9310596      3821.105       5718.966       17.88295       17.88295       17.88295     
    121800   60.9           153.17325     -3358.0761      9.8797992      1950.1084      5718.9257      17.882908      17.882908      17.882908    
    122000   61             154.94323     -3358.1881      9.9939639      3458.6613      5718.8855      17.882867      17.882867      17.882867    
    122200   61.1           153.01725     -3358.0614      9.8697371      3019.8364      5718.8455      17.882825      17.882825      17.882825    
    122400   61.2           165.69887     -3358.8772      10.687712      1103.4369      5718.8056      17.882783      17.882783      17.882783    
    122600   61.3           164.1382      -3358.7743      10.587047      1926.0719      5718.7657      17.882742      17.882742      17.882742    
    122800   61.4           152.43627     -3358.0171      9.8322635      2560.3905      5718.7259      17.8827        17.8827        17.8827      
    123000   61.5           157.73467     -3358.3566      10.174014      4629.7842      5718.6863      17.882659      17.882659      17.882659    
    123200   61.6           163.82261     -3358.747       10.566692      1655.6731      5718.6468      17.882618      17.882618      17.882618    
    123400   61.7           153.27368     -3358.0642      9.886277       1441.6093      5718.6075      17.882577      17.882577      17.882577    
    123600   61.8           156.80956     -3358.29        10.114344      2137.933       5718.5683      17.882536      17.882536      17.882536    
    123800   61.9           159.63309     -3358.4699      10.296464      2116.5404      5718.5291      17.882495      17.882495      17.882495    
    124000   62             160.94707     -3358.5523      10.381217      2244.8577      5718.4901      17.882454      17.882454      17.882454    
    124200   62.1           149.84897     -3357.8341      9.6653804      3117.8908      5718.4512      17.882414      17.882414      17.882414    
    124400   62.2           162.56734     -3358.6523      10.485725      4177.2864      5718.4125      17.882373      17.882373      17.882373    
    124600   62.3           158.02757     -3358.3571      10.192906      1858.1554      5718.3739      17.882333      17.882333      17.882333    
    124800   62.4           160.67124     -3358.5254      10.363426      3131.8746      5718.3354      17.882293      17.882293      17.882293    
    125000   62.5           159.69761     -3358.4603      10.300626      2370.4347      5718.297       17.882253      17.882253      17.882253    
    125200   62.6           164.58904     -3358.7735      10.616127      1885.5435      5718.2588      17.882213      17.882213      17.882213    
    125400   62.7           159.55221     -3358.4464      10.291247      2824.3133      5718.2206      17.882173      17.882173      17.882173    
    125600   62.8           164.82255     -3358.7841      10.631188      2167.3552      5718.1826      17.882134      17.882134      17.882134    
    125800   62.9           153.4237      -3358.0465      9.8959534      3236.8796      5718.1447      17.882094      17.882094      17.882094    
    126000   63             166.37508     -3358.8797      10.731328      2630.1264      5718.107       17.882055      17.882055      17.882055    
    126200   63.1           155.45523     -3358.1729      10.026989      3599.0108      5718.0693      17.882016      17.882016      17.882016    
    126400   63.2           159.86919     -3358.4554      10.311693      2304.0764      5718.0319      17.881977      17.881977      17.881977    
    126600   63.3           165.88074     -3358.841       10.699442      1361.7195      5717.9945      17.881938      17.881938      17.881938    
    126800   63.4           159.94642     -3358.4558      10.316674      4296.6926      5717.9573      17.881899      17.881899      17.881899    
    127000   63.5           158.07334     -3358.3328      10.195859      3540.3654      5717.9202      17.88186       17.88186       17.88186     
    127200   63.6           155.27347     -3358.1499      10.015265      2733.9107      5717.8833      17.881822      17.881822      17.881822    
    127400   63.7           157.38243     -3358.2837      10.151295      2788.0408      5717.8465      17.881783      17.881783      17.881783    
    127600   63.8           161.41089     -3358.5413      10.411133      2841.7878      5717.8098      17.881745      17.881745      17.881745    
    127800   63.9           162.28605     -3358.5955      10.467582      2731.893       5717.7732      17.881707      17.881707      17.881707    
    128000   64             165.11191     -3358.7755      10.649853      1673.8849      5717.7368      17.881669      17.881669      17.881669    
    128200   64.1           144.78525     -3357.462       9.3387661      3982.9459      5717.7005      17.881631      17.881631      17.881631    
    128400   64.2           156.87008     -3358.2393      10.118247      2555.6731      5717.6644      17.881594      17.881594      17.881594    
    128600   64.3           158.61918     -3358.3499      10.231066      2944.3794      5717.6284      17.881556      17.881556      17.881556    
    128800   64.4           158.20432     -3358.3209      10.204307      4191.9223      5717.5925      17.881519      17.881519      17.881519    
    129000   64.5           151.45522     -3357.8833      9.768985       2764.2269      5717.5569      17.881482      17.881482      17.881482    
    129200   64.6           156.46155     -3358.2039      10.091897      2153.6935      5717.5214      17.881445      17.881445      17.881445    
    129400   64.7           161.12352     -3358.5025      10.392598      3149.4574      5717.486       17.881408      17.881408      17.881408    
    129600   64.8           159.60609     -3358.4022      10.294723      4001.2609      5717.4507      17.881371      17.881371      17.881371    
    129800   64.9           156.24436     -3358.1831      10.077888      3470.9247      5717.4156      17.881334      17.881334      17.881334    
    130000   65             152.42167     -3357.9343      9.8313218      3811.3024      5717.3807      17.881298      17.881298      17.881298    
    130200   65.1           157.31457     -3358.2476      10.146917      3028.561       5717.3459      17.881262      17.881262      17.881262    
    130400   65.2           161.90843     -3358.5418      10.443225      2442.0356      5717.3113      17.881225      17.881225      17.881225    
    130600   65.3           154.43868     -3358.0577      9.9614206      3147.7192      5717.2768      17.881189      17.881189      17.881189    
    130800   65.4           157.16721     -3358.2314      10.137413      3070.1216      5717.2424      17.881154      17.881154      17.881154    
    131000   65.5           158.54081     -3358.3177      10.226011      3226.7708      5717.2082      17.881118      17.881118      17.881118    
    131200   65.6           156.14411     -3358.1609      10.071422      2734.5993      5717.1742      17.881083      17.881083      17.881083    
    131400   65.7           161.14723     -3358.4815      10.394127      2066.9109      5717.1402      17.881047      17.881047      17.881047    
    131600   65.8           158.88125     -3358.333       10.24797       3466.3805      5717.1064      17.881012      17.881012      17.881012    
    131800   65.9           156.05702     -3358.1486      10.065805      3884.5675      5717.0727      17.880977      17.880977      17.880977    
    132000   66             167.19832     -3358.8651      10.784428      2192.3694      5717.0392      17.880942      17.880942      17.880942    
    132200   66.1           162.01289     -3358.5283      10.449963      3189.2148      5717.0059      17.880907      17.880907      17.880907    
    132400   66.2           161.08322     -3358.4661      10.389998      2223.2706      5716.9727      17.880872      17.880872      17.880872    
    132600   66.3           159.77425     -3358.3795      10.305569      2730.1207      5716.9396      17.880838      17.880838      17.880838    
    132800   66.4           158.18554     -3358.2747      10.203096      3658.4563      5716.9066      17.880804      17.880804      17.880804    
    133000   66.5           162.49749     -3358.5506      10.48122       3491.551       5716.8739      17.880769      17.880769      17.880769    
    133200   66.6           162.0185      -3358.5175      10.450325      2834.2277      5716.8412      17.880735      17.880735      17.880735    
    133400   66.7           151.08648     -3357.8101      9.7452006      3239.8486      5716.8087      17.880701      17.880701      17.880701    
    133600   66.8           157.68032     -3358.2332      10.170508      3379.3517      5716.7763      17.880668      17.880668      17.880668    
    133800   66.9           153.09398     -3357.9351      9.8746859      4177.167       5716.7441      17.880634      17.880634      17.880634    
    134000   67             164.35248     -3358.6591      10.600868      2656.5584      5716.7121      17.880601      17.880601      17.880601    
    134200   67.1           155.27206     -3358.0711      10.015174      4153.3777      5716.6802      17.880568      17.880568      17.880568    
    134400   67.2           162.68916     -3358.5473      10.493583      3813.2242      5716.6485      17.880535      17.880535      17.880535    
    134600   67.3           159.07343     -3358.3118      10.260365      3862.7822      5716.617       17.880502      17.880502      17.880502    
    134800   67.4           159.22666     -3358.3195      10.270249      2837.445       5716.5856      17.880469      17.880469      17.880469    
    135000   67.5           161.26759     -3358.449       10.401891      4089.5254      5716.5544      17.880436      17.880436      17.880436    
    135200   67.6           165.66224     -3358.7302      10.685349      3803.9774      5716.5233      17.880404      17.880404      17.880404    
    135400   67.7           152.85797     -3357.9019      9.859463       3906.0912      5716.4924      17.880372      17.880372      17.880372    
    135600   67.8           159.26085     -3358.3128      10.272454      1592.7384      5716.4617      17.88034       17.88034       17.88034     
    135800   67.9           165.06172     -3358.6847      10.646615      3313.1131      5716.4311      17.880308      17.880308      17.880308    
    136000   68             154.16497     -3357.9796      9.9437659      4028.8876      5716.4006      17.880276      17.880276      17.880276    
    136200   68.1           162.84071     -3358.537       10.503358      2203.3513      5716.3703      17.880244      17.880244      17.880244    
    136400   68.2           159.48824     -3358.3185      10.287121      2932.0247      5716.3402      17.880213      17.880213      17.880213    
    136600   68.3           156.03172     -3358.0933      10.064173      4807.3695      5716.3102      17.880182      17.880182      17.880182    
    136800   68.4           157.86621     -3358.2093      10.182499      3164.6698      5716.2804      17.880151      17.880151      17.880151    
    137000   68.5           153.46031     -3357.923       9.8983149      4685.5903      5716.2507      17.88012       17.88012       17.88012     
    137200   68.6           161.20017     -3358.42        10.397542      3365.3045      5716.2212      17.880089      17.880089      17.880089    
    137400   68.7           167.05443     -3358.7955      10.775146      4048.1551      5716.1919      17.880058      17.880058      17.880058    
    137600   68.8           158.17988     -3358.2207      10.202731      2683.5734      5716.1628      17.880028      17.880028      17.880028    
    137800   68.9           161.51114     -3358.4334      10.4176        2649.905       5716.1338      17.879998      17.879998      17.879998    
    138000   69             153.48129     -3357.9131      9.899668       5284.4289      5716.105       17.879968      17.879968      17.879968    
    138200   69.1           157.70054     -3358.1831      10.171813      4265.008       5716.0763      17.879938      17.879938      17.879938    
    138400   69.2           160.87154     -3358.3854      10.376345      2051.0052      5716.0478      17.879908      17.879908      17.879908    
    138600   69.3           157.15732     -3358.1435      10.136775      2906.6637      5716.0194      17.879879      17.879879      17.879879    
    138800   69.4           163.11979     -3358.526       10.521359      2114.1186      5715.9911      17.879849      17.879849      17.879849    
    139000   69.5           160.6693      -3358.3657      10.363301      4677.3817      5715.963       17.87982       17.87982       17.87982     
    139200   69.6           155.67428     -3358.0412      10.041118      3651.1522      5715.9351      17.879791      17.879791      17.879791    
    139400   69.7           165.29261     -3358.6594      10.661508      3567.0169      5715.9074      17.879762      17.879762      17.879762    
    139600   69.8           163.20991     -3358.5229      10.527172      1780.6658      5715.8798      17.879733      17.879733      17.879733    
    139800   69.9           163.94427     -3358.568       10.574539      1717.0904      5715.8524      17.879704      17.879704      17.879704    
    140000   70             168.75722     -3358.8763      10.884978      4197.1522      5715.8251      17.879676      17.879676      17.879676    
    140200   70.1           162.14308     -3358.4473      10.458361      3371.8055      5715.798       17.879648      17.879648      17.879648    
    140400   70.2           161.13539     -3358.3801      10.393364      2441.0032      5715.7711      17.87962       17.87962       17.87962     
    140600   70.3           155.99585     -3358.0464      10.061859      2853.6004      5715.7443      17.879592      17.879592      17.879592    
    140800   70.4           158.05512     -3358.1769      10.194684      4219.1934      5715.7177      17.879564      17.879564      17.879564    
    141000   70.5           160.23348     -3358.3153      10.335189      4067.035       5715.6913      17.879536      17.879536      17.879536    
    141200   70.6           153.24875     -3357.8624      9.8846686      3565.2334      5715.665       17.879509      17.879509      17.879509    
    141400   70.7           156.06498     -3358.0419      10.066318      2725.9022      5715.6389      17.879482      17.879482      17.879482    
    141600   70.8           157.46722     -3358.1301      10.156764      3702.582       5715.613       17.879455      17.879455      17.879455    
    141800   70.9           163.78239     -3358.5353      10.564097      3199.723       5715.5871      17.879428      17.879428      17.879428    
    142000   71             165.73109     -3358.6588      10.68979       3497.6051      5715.5615      17.879401      17.879401      17.879401    
    142200   71.1           167.35364     -3358.7612      10.794446      3951.1735      5715.536       17.879375      17.879375      17.879375    
    142400   71.2           156.60556     -3358.0656      10.101186      3917.7643      5715.5107      17.879348      17.879348      17.879348    
    142600   71.3           162.02195     -3358.4127      10.450548      3046.0282      5715.4856      17.879322      17.879322      17.879322    
    142800   71.4           155.98669     -3358.0212      10.061268      3120.9442      5715.4607      17.879296      17.879296      17.879296    
    143000   71.5           155.4697      -3357.9856      10.027922      3137.0816      5715.4359      17.87927       17.87927       17.87927     
    143200   71.6           160.76896     -3358.3253      10.369729      3626.3827      5715.4113      17.879244      17.879244      17.879244    
    143400   71.7           157.65708     -3358.1222      10.169009      3613.307       5715.3869      17.879219      17.879219      17.879219    
    143600   71.8           160.46077     -3358.3009      10.34985       3192.2522      5715.3626      17.879194      17.879194      17.879194    
    143800   71.9           165.44021     -3358.6199      10.671028      3956.2218      5715.3385      17.879169      17.879169      17.879169    
    144000   72             159.17331     -3358.2133      10.266808      4327.8077      5715.3146      17.879144      17.879144      17.879144    
    144200   72.1           161.20101     -3358.3419      10.397596      3159.8551      5715.2908      17.879119      17.879119      17.879119    
    144400   72.2           160.22192     -3358.2765      10.334444      3263.6962      5715.2673      17.879094      17.879094      17.879094    
    144600   72.3           164.46101     -3358.5477      10.607869      3168.411       5715.2439      17.87907       17.87907       17.87907     
    144800   72.4           164.64957     -3358.5576      10.620031      5529.3488      5715.2207      17.879046      17.879046      17.879046    
    145000   72.5           165.13341     -3358.5865      10.651239      2223.9023      5715.1976      17.879022      17.879022      17.879022    
    145200   72.6           163.92295     -3358.5062      10.573164      3789.9218      5715.1748      17.878998      17.878998      17.878998    
    145400   72.7           172.76015     -3359.0741      11.14317       3045.194       5715.1521      17.878974      17.878974      17.878974    
    145600   72.8           159.6142      -3358.2237      10.295246      5108.4438      5715.1296      17.878951      17.878951      17.878951    
    145800   72.9           159.48388     -3358.2131      10.28684       2735.6683      5715.1073      17.878928      17.878928      17.878928    
    146000   73             162.43814     -3358.4014      10.477392      3749.6454      5715.0852      17.878904      17.878904      17.878904    
    146200   73.1           157.53831     -3358.0831      10.161349      4097.5897      5715.0633      17.878882      17.878882      17.878882    
    146400   73.2           154.17023     -3357.8636      9.9441053      3686.0913      5715.0415      17.878859      17.878859      17.878859    
    146600   73.3           157.5483      -3358.0792      10.161993      3697.1761      5715.02        17.878836      17.878836      17.878836    
    146800   73.4           155.14829     -3357.9222      10.007191      4475.7946      5714.9986      17.878814      17.878814      17.878814    
    147000   73.5           163.75157     -3358.475       10.562109      3084.2997      5714.9773      17.878792      17.878792      17.878792    
    147200   73.6           163.94419     -3358.4851      10.574534      4100.2227      5714.9563      17.87877       17.87877       17.87877     
    147400   73.7           158.07062     -3358.104       10.195683      3899.8892      5714.9354      17.878748      17.878748      17.878748    
    147600   73.8           150.47695     -3357.6119      9.7058856      4639.9715      5714.9148      17.878727      17.878727      17.878727    
    147800   73.9           156.75097     -3358.0143      10.110565      4439.3396      5714.8943      17.878705      17.878705      17.878705    
    148000   74             165.96044     -3358.6061      10.704583      4911.3215      5714.874       17.878684      17.878684      17.878684    
    148200   74.1           168.54243     -3358.7704      10.871123      4079.6331      5714.854       17.878663      17.878663      17.878663    
    148400   74.2           155.43382     -3357.9225      10.025608      4482.0495      5714.8341      17.878643      17.878643      17.878643    
    148600   74.3           156.85141     -3358.0117      10.117043      3448.5124      5714.8144      17.878622      17.878622      17.878622    
    148800   74.4           163.8206      -3358.4591      10.566562      3264.8351      5714.7949      17.878602      17.878602      17.878602    
    149000   74.5           160.30915     -3358.2303      10.340071      4613.9461      5714.7756      17.878582      17.878582      17.878582    
    149200   74.6           165.11739     -3358.5382      10.650206      5023.6882      5714.7564      17.878562      17.878562      17.878562    
    149400   74.7           151.71299     -3357.6712      9.7856113      4268.4493      5714.7375      17.878542      17.878542      17.878542    
    149600   74.8           164.63545     -3358.5025      10.61912       3993.3835      5714.7188      17.878522      17.878522      17.878522    
    149800   74.9           161.71614     -3358.3119      10.430823      3302.1373      5714.7002      17.878503      17.878503      17.878503    
    150000   75             160.99261     -3358.263       10.384154      4119.2983      5714.6818      17.878484      17.878484      17.878484    
    150200   75.1           161.23931     -3358.2767      10.400066      4182.57        5714.6636      17.878465      17.878465      17.878465    
    150400   75.2           166.73709     -3358.629       10.754677      4635.8847      5714.6456      17.878446      17.878446      17.878446    
    150600   75.3           161.6422      -3358.2981      10.426053      4670.7804      5714.6278      17.878427      17.878427      17.878427    
    150800   75.4           168.77108     -3358.7557      10.885872      1861.341       5714.6103      17.878409      17.878409      17.878409    
    151000   75.5           163.5318      -3358.4155      10.547934      2458.7574      5714.5929      17.878391      17.878391      17.878391    
    151200   75.6           165.18334     -3358.5198      10.65446       5563.836       5714.5756      17.878373      17.878373      17.878373    
    151400   75.7           165.15674     -3358.5157      10.652744      3338.8934      5714.5586      17.878355      17.878355      17.878355    
    151600   75.8           158.9236      -3358.1114      10.250701      5017.3032      5714.5417      17.878338      17.878338      17.878338    
    151800   75.9           157.00952     -3357.9855      10.127242      4306.2276      5714.5251      17.87832       17.87832       17.87832     
    152000   76             160.79716     -3358.2276      10.371548      5180.6742      5714.5087      17.878303      17.878303      17.878303    
    152200   76.1           164.07033     -3358.4365      10.58267       4009.3246      5714.4925      17.878286      17.878286      17.878286    
    152400   76.2           166.37944     -3358.5831      10.731609      5625.98        5714.4765      17.87827       17.87827       17.87827     
    152600   76.3           162.43357     -3358.3264      10.477097      5667.8893      5714.4608      17.878253      17.878253      17.878253    
    152800   76.4           167.15541     -3358.6287      10.781659      4726.6218      5714.4453      17.878237      17.878237      17.878237    
    153000   76.5           162.19937     -3358.3066      10.461991      4219.1944      5714.43        17.878221      17.878221      17.878221    
    153200   76.6           158.96494     -3358.0957      10.253368      4556.0261      5714.415       17.878206      17.878206      17.878206    
    153400   76.7           156.62834     -3357.9427      10.102655      4304.0839      5714.4001      17.87819       17.87819       17.87819     
    153600   76.8           156.25412     -3357.9163      10.078518      5780.1106      5714.3855      17.878175      17.878175      17.878175    
    153800   76.9           154.67175     -3357.8119      9.9764533      4104.6363      5714.371       17.87816       17.87816       17.87816     
    154000   77             164.79386     -3358.4625      10.629338      2962.5424      5714.3567      17.878145      17.878145      17.878145    
    154200   77.1           156.3499      -3357.9156      10.084696      3669.0837      5714.3426      17.87813       17.87813       17.87813     
    154400   77.2           163.50481     -3358.3748      10.546193      3812.0631      5714.3287      17.878116      17.878116      17.878116    
    154600   77.3           168.81567     -3358.7151      10.888748      4623.2393      5714.315       17.878101      17.878101      17.878101    
    154800   77.4           160.43318     -3358.1721      10.34807       3700.4842      5714.3015      17.878087      17.878087      17.878087    
    155000   77.5           164.3107      -3358.4199      10.598174      4424.4986      5714.2882      17.878073      17.878073      17.878073    
    155200   77.6           157.06185     -3357.9499      10.130617      4324.024       5714.2751      17.87806       17.87806       17.87806     
    155400   77.7           164.43004     -3358.4229      10.605871      4387.2603      5714.2622      17.878046      17.878046      17.878046    
    155600   77.8           159.27657     -3358.0883      10.273468      5420.5576      5714.2495      17.878033      17.878033      17.878033    
    155800   77.9           168.44799     -3358.6776      10.865032      4450.776       5714.2369      17.87802       17.87802       17.87802     
    156000   78             158.2732      -3358.0189      10.20875       5073.538       5714.2246      17.878007      17.878007      17.878007    
    156200   78.1           162.03473     -3358.2592      10.451372      4591.8506      5714.2124      17.877994      17.877994      17.877994    
    156400   78.2           156.99065     -3357.9315      10.126025      3100.6133      5714.2005      17.877982      17.877982      17.877982    
    156600   78.3           152.52248     -3357.641       9.8378241      5440.6632      5714.1887      17.87797       17.87797       17.87797     
    156800   78.4           166.01309     -3358.5089      10.707979      3331.8307      5714.1771      17.877957      17.877957      17.877957    
    157000   78.5           159.70581     -3358.0997      10.301154      3650.8222      5714.1658      17.877946      17.877946      17.877946    
    157200   78.6           158.83        -3358.041       10.244664      4728.0969      5714.1546      17.877934      17.877934      17.877934    
    157400   78.7           161.17579     -3358.19        10.39597       4193.8047      5714.1437      17.877923      17.877923      17.877923    
    157600   78.8           159.77719     -3358.0975      10.305759      4592.4189      5714.1329      17.877911      17.877911      17.877911    
    157800   78.9           159.55215     -3358.0806      10.291243      4829.8014      5714.1224      17.8779        17.8779        17.8779      
    158000   79             151.32449     -3357.5474      9.7605525      3454.1231      5714.1121      17.87789       17.87789       17.87789     
    158200   79.1           154.42213     -3357.7449      9.9603525      4701.6661      5714.102       17.877879      17.877879      17.877879    
    158400   79.2           164.39742     -3358.3861      10.603767      3523.3933      5714.092       17.877869      17.877869      17.877869    
    158600   79.3           164.19511     -3358.3708      10.590718      4100.5081      5714.0823      17.877859      17.877859      17.877859    
    158800   79.4           157.27277     -3357.9219      10.144221      4320.2036      5714.0727      17.877849      17.877849      17.877849    
    159000   79.5           158.75627     -3358.0152      10.239909      4085.6401      5714.0633      17.877839      17.877839      17.877839    
    159200   79.6           156.9944      -3357.8993      10.126266      6503.0183      5714.0541      17.877829      17.877829      17.877829    
    159400   79.7           165.62482     -3358.4536      10.682936      4177.517       5714.0452      17.87782       17.87782       17.87782     
    159600   79.8           163.11281     -3358.2893      10.520909      3743.7242      5714.0365      17.877811      17.877811      17.877811    
    159800   79.9           165.13339     -3358.4172      10.651238      3309.7489      5714.028       17.877802      17.877802      17.877802    
    160000   80             168.99656     -3358.6641      10.900415      3811.7812      5714.0196      17.877793      17.877793      17.877793    
    160200   80.1           162.96366     -3358.2726      10.511288      3703.5486      5714.0115      17.877785      17.877785      17.877785    
    160400   80.2           160.60075     -3358.1178      10.358879      5094.2601      5714.0035      17.877776      17.877776      17.877776    
    160600   80.3           163.33208     -3358.2917      10.535052      4620.6705      5713.9957      17.877768      17.877768      17.877768    
    160800   80.4           157.93722     -3357.9413      10.187079      3149.5172      5713.9882      17.87776       17.87776       17.87776     
    161000   80.5           162.26606     -3358.2183      10.466293      4259.6775      5713.9809      17.877753      17.877753      17.877753    
    161200   80.6           155.37025     -3357.771       10.021508      3871.407       5713.9737      17.877745      17.877745      17.877745    
    161400   80.7           161.18172     -3358.1436      10.396352      5283.1042      5713.9667      17.877738      17.877738      17.877738    
    161600   80.8           165.94417     -3358.4485      10.703534      5054.2129      5713.9599      17.877731      17.877731      17.877731    
    161800   80.9           164.87335     -3358.3769      10.634465      3935.012       5713.9534      17.877724      17.877724      17.877724    
    162000   81             158.41099     -3357.9578      10.217638      4127.3716      5713.9472      17.877718      17.877718      17.877718    
    162200   81.1           161.19042     -3358.1346      10.396913      3793.8385      5713.9411      17.877711      17.877711      17.877711    
    162400   81.2           167.03972     -3358.5096      10.774198      4525.5212      5713.9352      17.877705      17.877705      17.877705    
    162600   81.3           164.86992     -3358.3673      10.634244      4492.2621      5713.9295      17.877699      17.877699      17.877699    
    162800   81.4           162.96557     -3358.2421      10.511412      2741.9005      5713.9241      17.877694      17.877694      17.877694    
    163000   81.5           161.04361     -3358.1158      10.387444      5069.7138      5713.9188      17.877688      17.877688      17.877688    
    163200   81.6           156.56407     -3357.8244      10.09851       3594.6634      5713.9138      17.877683      17.877683      17.877683    
    163400   81.7           161.38667     -3358.1331      10.409571      4759.2844      5713.9089      17.877678      17.877678      17.877678    
    163600   81.8           158.84232     -3357.9666      10.245459      6475.7891      5713.9043      17.877673      17.877673      17.877673    
    163800   81.9           164.35251     -3358.3197      10.600871      3757.7143      5713.8999      17.877668      17.877668      17.877668    
    164000   82             165.37884     -3358.3836      10.66707       3836.5971      5713.8956      17.877664      17.877664      17.877664    
    164200   82.1           157.61594     -3357.8804      10.166356      6417.9164      5713.8916      17.87766       17.87766       17.87766     
    164400   82.2           162.7496      -3358.2092      10.497481      3735.6277      5713.8879      17.877656      17.877656      17.877656    
    164600   82.3           159.73892     -3358.0125      10.30329       3423.2104      5713.8843      17.877652      17.877652      17.877652    
    164800   82.4           167.57109     -3358.5154      10.808471      3731.537       5713.8809      17.877649      17.877649      17.877649    
    165000   82.5           168.85534     -3358.5959      10.891306      3124.1998      5713.8777      17.877645      17.877645      17.877645    
    165200   82.6           160.82641     -3358.0756      10.373434      3975.0636      5713.8747      17.877642      17.877642      17.877642    
    165400   82.7           162.86229     -3358.2045      10.50475       5139.5899      5713.8719      17.877639      17.877639      17.877639    
    165600   82.8           156.45925     -3357.7891      10.091749      5185.1533      5713.8694      17.877637      17.877637      17.877637    
    165800   82.9           165.09619     -3358.3438      10.648838      4810.1628      5713.867       17.877634      17.877634      17.877634    
    166000   83             160.84815     -3358.0673      10.374836      4290.4869      5713.8649      17.877632      17.877632      17.877632    
    166200   83.1           167.13202     -3358.4703      10.780151      3511.8291      5713.8629      17.87763       17.87763       17.87763     
    166400   83.2           158.08579     -3357.8844      10.196662      4334.7725      5713.8611      17.877628      17.877628      17.877628    
    166600   83.3           161.75155     -3358.1185      10.433106      4988.9852      5713.8595      17.877626      17.877626      17.877626    
    166800   83.4           163.29253     -3358.2154      10.532501      5508.1169      5713.8582      17.877625      17.877625      17.877625    
    167000   83.5           160.01411     -3358.0015      10.32104       4781.4562      5713.8571      17.877624      17.877624      17.877624    
    167200   83.6           159.80108     -3357.9854      10.307299      4521.5571      5713.8561      17.877623      17.877623      17.877623    
    167400   83.7           154.97116     -3357.6714      9.9957659      4358.4035      5713.8554      17.877622      17.877622      17.877622    
    167600   83.8           164.90547     -3358.3099      10.636537      3852.9931      5713.8549      17.877621      17.877621      17.877621    
    167800   83.9           165.67534     -3358.3571      10.686194      4381.8335      5713.8546      17.877621      17.877621      17.877621    
    168000   84             156.11619     -3357.7379      10.069621      6007.8421      5713.8545      17.877621      17.877621      17.877621    
    168200   84.1           164.0363      -3358.2465      10.580475      3551.0112      5713.8546      17.877621      17.877621      17.877621    
    168400   84.2           167.52386     -3358.469       10.805425      4897.135       5713.8549      17.877621      17.877621      17.877621    
    168600   84.3           158.25743     -3357.8689      10.207733      3861.6453      5713.8555      17.877622      17.877622      17.877622    
    168800   84.4           159.98791     -3357.9781      10.31935       4221.808       5713.8562      17.877623      17.877623      17.877623    
    169000   84.5           159.09319     -3357.9179      10.26164       3306.0354      5713.8571      17.877624      17.877624      17.877624    
    169200   84.6           162.03277     -3358.1051      10.451246      4752.6947      5713.8582      17.877625      17.877625      17.877625    
    169400   84.7           161.56717     -3358.0726      10.421214      6543.2378      5713.8595      17.877626      17.877626      17.877626    
    169600   84.8           164.68563     -3358.2713      10.622357      4759.3571      5713.8611      17.877628      17.877628      17.877628    
    169800   84.9           165.30134     -3358.3086      10.662071      3376.3219      5713.863       17.87763       17.87763       17.87763     
    170000   85             167.00966     -3358.4163      10.772258      3760.5005      5713.865       17.877632      17.877632      17.877632    
    170200   85.1           163.68731     -3358.1996      10.557965      5174.9252      5713.8672      17.877634      17.877634      17.877634    
    170400   85.2           158.40557     -3357.8565      10.217288      3514.8838      5713.8696      17.877637      17.877637      17.877637    
    170600   85.3           164.03156     -3358.2169      10.580169      2891.0483      5713.8722      17.877639      17.877639      17.877639    
    170800   85.4           162.7359      -3358.1309      10.496598      3685.2025      5713.875       17.877642      17.877642      17.877642    
    171000   85.5           155.58597     -3357.6673      10.035422      6079.7078      5713.878       17.877646      17.877646      17.877646    
    171200   85.6           161.0003      -3358.0141      10.38465       5099.9778      5713.8812      17.877649      17.877649      17.877649    
    171400   85.7           155.80839     -3357.6766      10.049768      5000.3603      5713.8847      17.877652      17.877652      17.877652    
    171600   85.8           166.09875     -3358.3379      10.713504      3663.62        5713.8883      17.877656      17.877656      17.877656    
    171800   85.9           166.64768     -3358.3709      10.748911      3996.0068      5713.8921      17.87766       17.87766       17.87766     
    172000   86             163.21614     -3358.1472      10.527574      3856.3468      5713.8961      17.877664      17.877664      17.877664    
    172200   86.1           162.55502     -3358.102       10.484931      4770.921       5713.9004      17.877669      17.877669      17.877669    
    172400   86.2           165.24503     -3358.2731      10.658438      5044.7792      5713.9048      17.877673      17.877673      17.877673    
    172600   86.3           161.26768     -3358.0141      10.401896      5167.9295      5713.9095      17.877678      17.877678      17.877678    
    172800   86.4           167.09001     -3358.3872      10.777441      4724.7756      5713.9144      17.877683      17.877683      17.877683    
    173000   86.5           157.28192     -3357.752       10.144811      3971.2547      5713.9195      17.877689      17.877689      17.877689    
    173200   86.6           169.23273     -3358.5205      10.915648      2530.3577      5713.9248      17.877694      17.877694      17.877694    
    173400   86.7           153.96522     -3357.5331      9.9308816      5597.844       5713.9303      17.8777        17.8777        17.8777      
    173600   86.8           164.4352      -3358.206       10.606204      4915.7091      5713.936       17.877706      17.877706      17.877706    
    173800   86.9           165.71098     -3358.2859      10.688493      4658.932       5713.9419      17.877712      17.877712      17.877712    
    174000   87             164.82833     -3358.2264      10.631561      3258.7226      5713.9481      17.877719      17.877719      17.877719    
    174200   87.1           162.82074     -3358.0944      10.50207       5167.0107      5713.9544      17.877725      17.877725      17.877725    
    174400   87.2           164.18433     -3358.1799      10.590023      4698.688       5713.961       17.877732      17.877732      17.877732    
    174600   87.3           160.71778     -3357.9538      10.366427      4320.9756      5713.9678      17.877739      17.877739      17.877739    
    174800   87.4           160.69696     -3357.9499      10.365085      4640.6809      5713.9748      17.877746      17.877746      17.877746    
    175000   87.5           163.64779     -3358.1378      10.555415      4490.8429      5713.982       17.877754      17.877754      17.877754    
    175200   87.6           158.81845     -3357.8238      10.243919      4155.8396      5713.9894      17.877762      17.877762      17.877762    
    175400   87.7           172.0933      -3358.6776      11.100157      3884.6794      5713.997       17.87777       17.87777       17.87777     
    175600   87.8           176.17523     -3358.9384      11.363445      4003.0151      5714.0048      17.877778      17.877778      17.877778    
    175800   87.9           171.72364     -3358.6488      11.076314      5287.1948      5714.0128      17.877786      17.877786      17.877786    
    176000   88             158.20011     -3357.7739      10.204036      3598.3879      5714.0211      17.877795      17.877795      17.877795    
    176200   88.1           173.6843      -3358.7702      11.202779      3323.946       5714.0296      17.877804      17.877804      17.877804    
    176400   88.2           167.66651     -3358.3795      10.814626      4512.7927      5714.0382      17.877813      17.877813      17.877813    
    176600   88.3           165.84018     -3358.2593      10.696826      2469.2013      5714.0471      17.877822      17.877822      17.877822    
    176800   88.4           157.30867     -3357.7064      10.146537      4331.0634      5714.0561      17.877831      17.877831      17.877831    
    177000   88.5           160.20754     -3357.8908      10.333517      4896.54        5714.0654      17.877841      17.877841      17.877841    
    177200   88.6           159.27221     -3357.8279      10.273187      3916.3635      5714.0748      17.877851      17.877851      17.877851    
    177400   88.7           161.56544     -3357.9734      10.421102      4227.2519      5714.0845      17.877861      17.877861      17.877861    
    177600   88.8           167.89335     -3358.3791      10.829257      2871.5953      5714.0944      17.877871      17.877871      17.877871    
    177800   88.9           168.28235     -3358.4015      10.854348      4739.6069      5714.1044      17.877882      17.877882      17.877882    
    178000   89             171.45747     -3358.6038      11.059146      4815.7162      5714.1146      17.877892      17.877892      17.877892    
    178200   89.1           170.21232     -3358.5211      10.978833      5955.4855      5714.1251      17.877903      17.877903      17.877903    
    178400   89.2           161.03442     -3357.9265      10.386851      5246.0045      5714.1358      17.877914      17.877914      17.877914    
    178600   89.3           169.14077     -3358.4469      10.909717      5325.6034      5714.1468      17.877926      17.877926      17.877926    
    178800   89.4           165.47164     -3358.2076      10.673055      4782.7245      5714.158       17.877937      17.877937      17.877937    
    179000   89.5           164.71987     -3358.1566      10.624565      5117.7264      5714.1694      17.877949      17.877949      17.877949    
    179200   89.6           170.24264     -3358.5103      10.980789      4242.6306      5714.1811      17.877962      17.877962      17.877962    
    179400   89.7           165.01583     -3358.1706      10.643655      5075.3275      5714.193       17.877974      17.877974      17.877974    
    179600   89.8           159.84955     -3357.8348      10.310426      4459.5963      5714.2051      17.877987      17.877987      17.877987    
    179800   89.9           162.88183     -3358.0279      10.50601       3939.8022      5714.2175      17.878         17.878         17.878       
    180000   90             165.01407     -3358.1629      10.643541      3906.0178      5714.23        17.878013      17.878013      17.878013    
    180200   90.1           165.2974      -3358.1786      10.661817      3672.816       5714.2427      17.878026      17.878026      17.878026    
    180400   90.2           162.66292     -3358.0061      10.491891      3428.9131      5714.2556      17.878039      17.878039      17.878039    
    180600   90.3           164.14697     -3358.0993      10.587613      4848.2613      5714.2688      17.878053      17.878053      17.878053    
    180800   90.4           168.67261     -3358.3887      10.879521      4048.7841      5714.2821      17.878067      17.878067      17.878067    
    181000   90.5           165.07145     -3358.1538      10.647243      3250.0566      5714.2956      17.878081      17.878081      17.878081    
    181200   90.6           168.46365     -3358.37        10.866042      5601.7047      5714.3093      17.878095      17.878095      17.878095    
    181400   90.7           162.9133      -3358.0094      10.50804       5197.0082      5714.3232      17.87811       17.87811       17.87811     
    181600   90.8           156.08249     -3357.5663      10.067448      3788.5598      5714.3374      17.878125      17.878125      17.878125    
    181800   90.9           162.34393     -3357.9676      10.471316      4327.8315      5714.3517      17.87814       17.87814       17.87814     
    182000   91             160.94481     -3357.8748      10.381071      4134.5465      5714.3663      17.878155      17.878155      17.878155    
    182200   91.1           157.75291     -3357.6662      10.175191      6510.1043      5714.381       17.87817       17.87817       17.87817     
    182400   91.2           162.79217     -3357.9888      10.500227      4409.343       5714.396       17.878186      17.878186      17.878186    
    182600   91.3           160.71454     -3357.8522      10.366218      4290.3809      5714.4112      17.878202      17.878202      17.878202    
    182800   91.4           164.42658     -3358.0891      10.605648      4372.5018      5714.4265      17.878218      17.878218      17.878218    
    183000   91.5           161.44819     -3357.8943      10.41354       4927.3862      5714.4421      17.878234      17.878234      17.878234    
    183200   91.6           164.17634     -3358.0678      10.589507      3199.1116      5714.4579      17.87825       17.87825       17.87825     
    183400   91.7           169.7448      -3358.4244      10.948677      4652.5189      5714.4739      17.878267      17.878267      17.878267    
    183600   91.8           152.42837     -3357.3047      9.831754       4531.0676      5714.4901      17.878284      17.878284      17.878284    
    183800   91.9           159.91115     -3357.7849      10.314399      5227.3332      5714.5065      17.878301      17.878301      17.878301    
    184000   92             165.57703     -3358.1478      10.679853      3790.217       5714.5231      17.878318      17.878318      17.878318    
    184200   92.1           166.24283     -3358.1881      10.722798      4136.0923      5714.54        17.878336      17.878336      17.878336    
    184400   92.2           149.3334      -3357.0947      9.6321257      4467.0494      5714.557       17.878354      17.878354      17.878354    
    184600   92.3           164.14122     -3358.0473      10.587242      3354.5039      5714.5743      17.878372      17.878372      17.878372    
    184800   92.4           162.51489     -3357.9397      10.482342      3627.8858      5714.5917      17.87839       17.87839       17.87839     
    185000   92.5           165.6782      -3358.1413      10.686378      5095.5336      5714.6093      17.878408      17.878408      17.878408    
    185200   92.6           168.36737     -3358.3121      10.859832      4250.6363      5714.6272      17.878427      17.878427      17.878427    
    185400   92.7           164.38976     -3358.0529      10.603273      3414.0062      5714.6453      17.878446      17.878446      17.878446    
    185600   92.8           165.87558     -3358.1462      10.69911       4619.7458      5714.6635      17.878465      17.878465      17.878465    
    185800   92.9           165.57811     -3358.1244      10.679923      3334.2802      5714.682       17.878484      17.878484      17.878484    
    186000   93             167.68586     -3358.2578      10.815874      3773.8591      5714.7006      17.878503      17.878503      17.878503    
    186200   93.1           161.99332     -3357.8879      10.448701      5598.5187      5714.7195      17.878523      17.878523      17.878523    
    186400   93.2           160.33961     -3357.7785      10.342035      4618.925       5714.7385      17.878543      17.878543      17.878543    
    186600   93.3           161.77908     -3357.8688      10.434882      4195.1583      5714.7578      17.878563      17.878563      17.878563    
    186800   93.4           166.47977     -3358.1694      10.738081      4153.8715      5714.7773      17.878583      17.878583      17.878583    
    187000   93.5           160.68074     -3357.7928      10.364038      5185.6862      5714.7969      17.878604      17.878604      17.878604    
    187200   93.6           159.71645     -3357.7279      10.301841      4146.9992      5714.8167      17.878624      17.878624      17.878624    
    187400   93.7           167.8458      -3358.2497      10.82619       5408.9541      5714.8368      17.878645      17.878645      17.878645    
    187600   93.8           158.08071     -3357.6171      10.196334      4980.7562      5714.857       17.878666      17.878666      17.878666    
    187800   93.9           161.81232     -3357.8552      10.437026      3386.1616      5714.8775      17.878688      17.878688      17.878688    
    188000   94             167.33919     -3358.2091      10.793514      2517.0333      5714.8981      17.878709      17.878709      17.878709    
    188200   94.1           159.81603     -3357.7211      10.308264      5549.9861      5714.9189      17.878731      17.878731      17.878731    
    188400   94.2           162.49397     -3357.8912      10.480993      4576.6448      5714.94        17.878753      17.878753      17.878753    
    188600   94.3           160.56601     -3357.7643      10.356638      6116.9622      5714.9612      17.878775      17.878775      17.878775    
    188800   94.4           157.7551      -3357.5803      10.175332      4112.7375      5714.9827      17.878798      17.878798      17.878798    
    189000   94.5           165.88168     -3358.1019      10.699503      4189.8377      5715.0044      17.87882       17.87882       17.87882     
    189200   94.6           161.68089     -3357.8282      10.428548      5054.0383      5715.0264      17.878843      17.878843      17.878843    
    189400   94.7           164.83718     -3358.0292      10.632132      4411.9729      5715.0485      17.878866      17.878866      17.878866    
    189600   94.8           162.80625     -3357.8955      10.501135      3857.1177      5715.0709      17.87889       17.87889       17.87889     
    189800   94.9           165.32677     -3358.0554      10.663711      3495.286       5715.0935      17.878913      17.878913      17.878913    
    190000   95             165.63714     -3358.0728      10.68373       4793.714       5715.1162      17.878937      17.878937      17.878937    
    190200   95.1           165.80624     -3358.081       10.694637      5266.6304      5715.1391      17.878961      17.878961      17.878961    
    190400   95.2           159.87952     -3357.6961      10.312359      4793.932       5715.1623      17.878985      17.878985      17.878985    
    190600   95.3           167.61903     -3358.1927      10.811564      3553.1469      5715.1856      17.879009      17.879009      17.879009    
    190800   95.4           169.7352      -3358.3266      10.948058      4623.584       5715.2092      17.879034      17.879034      17.879034    
    191000   95.5           166.34965     -3358.1055      10.729688      4352.7841      5715.2329      17.879058      17.879058      17.879058    
    191200   95.6           157.56802     -3357.5363      10.163265      4568.0871      5715.2569      17.879083      17.879083      17.879083    
    191400   95.7           170.4535      -3358.3648      10.994389      2578.6041      5715.281       17.879109      17.879109      17.879109    
    191600   95.8           162.61555     -3357.8566      10.488835      5159.9064      5715.3053      17.879134      17.879134      17.879134    
    191800   95.9           163.5349      -3357.9131      10.548134      4807.9226      5715.3298      17.87916       17.87916       17.87916     
    192000   96             165.39043     -3358.0303      10.667817      3478.7581      5715.3545      17.879185      17.879185      17.879185    
    192200   96.1           159.55844     -3357.6513      10.291649      4369.8846      5715.3795      17.879211      17.879211      17.879211    
    192400   96.2           165.97649     -3358.0626      10.705619      2598.2118      5715.4046      17.879237      17.879237      17.879237    
    192600   96.3           167.99268     -3358.19        10.835664      4006.6942      5715.4298      17.879264      17.879264      17.879264    
    192800   96.4           170.41311     -3358.3435      10.991784      3616.6039      5715.4553      17.87929       17.87929       17.87929     
    193000   96.5           165.06139     -3357.9956      10.646594      3737.0288      5715.4809      17.879317      17.879317      17.879317    
    193200   96.6           166.02511     -3358.055       10.708755      3403.2353      5715.5068      17.879344      17.879344      17.879344    
    193400   96.7           167.60965     -3358.1545      10.810958      4321.4122      5715.5328      17.879371      17.879371      17.879371    
    193600   96.8           165.47019     -3358.0138      10.672961      4954.1187      5715.559       17.879398      17.879398      17.879398    
    193800   96.9           164.87283     -3357.9725      10.634431      5949.4709      5715.5854      17.879426      17.879426      17.879426    
    194000   97             170.97396     -3358.3635      11.02796       3455.2689      5715.612       17.879454      17.879454      17.879454    
    194200   97.1           156.48128     -3357.4259      10.093169      3061.3905      5715.6388      17.879482      17.879482      17.879482    
    194400   97.2           163.72137     -3357.8902      10.560161      3867.6612      5715.6657      17.87951       17.87951       17.87951     
    194600   97.3           164.8431      -3357.9598      10.632514      5157.0593      5715.6928      17.879538      17.879538      17.879538    
    194800   97.4           160.87449     -3357.7011      10.376535      4436.615       5715.7201      17.879566      17.879566      17.879566    
    195000   97.5           166.24549     -3358.0449      10.722969      3782.2398      5715.7476      17.879595      17.879595      17.879595    
    195200   97.6           165.38532     -3357.9867      10.667488      3273.2056      5715.7753      17.879624      17.879624      17.879624    
    195400   97.7           164.14944     -3357.9042      10.587772      4728.0895      5715.8032      17.879653      17.879653      17.879653    
    195600   97.8           167.50075     -3358.1177      10.803935      3655.792       5715.8312      17.879682      17.879682      17.879682    
    195800   97.9           163.4123      -3357.8512      10.540226      4670.2218      5715.8595      17.879712      17.879712      17.879712    
    196000   98             167.69432     -3358.1248      10.81642       3769.2293      5715.8879      17.879741      17.879741      17.879741    
    196200   98.1           165.51687     -3357.9815      10.675973      4052.4147      5715.9165      17.879771      17.879771      17.879771    
    196400   98.2           166.22479     -3358.0245      10.721634      4777.3516      5715.9452      17.879801      17.879801      17.879801    
    196600   98.3           167.1238      -3358.0798      10.779621      3599.3611      5715.9742      17.879831      17.879831      17.879831    
    196800   98.4           164.1726      -3357.8866      10.589266      3825.4412      5716.0033      17.879862      17.879862      17.879862    
    197000   98.5           167.41849     -3358.0932      10.798629      2956.3977      5716.0326      17.879892      17.879892      17.879892    
    197200   98.6           163.05001     -3357.8087      10.516858      3480.0867      5716.0621      17.879923      17.879923      17.879923    
    197400   98.7           158.18454     -3357.4921      10.203031      3747.1804      5716.0918      17.879954      17.879954      17.879954    
    197600   98.8           159.42129     -3357.5692      10.282803      5324.2884      5716.1216      17.879985      17.879985      17.879985    
    197800   98.9           157.85854     -3357.4656      10.182004      4899.401       5716.1517      17.880017      17.880017      17.880017    
    198000   99             177.30797     -3358.7176      11.436508      4279.0968      5716.182       17.880048      17.880048      17.880048    
    198200   99.1           179.9617      -3358.886       11.607676      2030.6515      5716.2124      17.88008       17.88008       17.88008     
    198400   99.2           165.47148     -3357.9485      10.673045      4347.2693      5716.2431      17.880112      17.880112      17.880112    
    198600   99.3           168.90269     -3358.1671      10.894361      2859.5461      5716.2739      17.880144      17.880144      17.880144    
    198800   99.4           165.59908     -3357.9511      10.681275      3902.0056      5716.3048      17.880176      17.880176      17.880176    
    199000   99.5           170.24398     -3358.248       10.980875      3420.1777      5716.3359      17.880209      17.880209      17.880209    
    199200   99.6           175.4834      -3358.5833      11.318822      4687.1982      5716.3672      17.880241      17.880241      17.880241    
    199400   99.7           166.40944     -3357.9952      10.733544      4631.6549      5716.3987      17.880274      17.880274      17.880274    
    199600   99.8           166.6384      -3358.0073      10.748312      3940.9011      5716.4304      17.880307      17.880307      17.880307    
    199800   99.9           168.05252     -3358.0957      10.839524      4277.5839      5716.4623      17.88034       17.88034       17.88034     
    200000   100            161.01563     -3357.6391      10.385639      3639.8642      5716.4945      17.880374      17.880374      17.880374    
    200200   100.1          157.05424     -3357.3808      10.130126      2514.2568      5716.5268      17.880408      17.880408      17.880408    
    200400   100.2          164.39785     -3357.8516      10.603795      2490.1897      5716.5592      17.880441      17.880441      17.880441    
    200600   100.3          160.44275     -3357.5938      10.348688      3390.1634      5716.5918      17.880475      17.880475      17.880475    
    200800   100.4          158.86937     -3357.4895      10.247204      4570.0978      5716.6245      17.880509      17.880509      17.880509    
    201000   100.5          169.4228      -3358.1676      10.927908      5506.8585      5716.6575      17.880544      17.880544      17.880544    
    201200   100.6          157.4633      -3357.3932      10.156511      4001.6692      5716.6907      17.880578      17.880578      17.880578    
    201400   100.7          174.17039     -3358.4681      11.234132      3969.1918      5716.7241      17.880613      17.880613      17.880613    
    201600   100.8          164.5222      -3357.8431      10.611815      2943.834       5716.7576      17.880648      17.880648      17.880648    
    201800   100.9          168.80121     -3358.1163      10.887815      4165.5329      5716.7914      17.880683      17.880683      17.880683    
    202000   101            169.91625     -3358.1855      10.959736      4083.3965      5716.8253      17.880719      17.880719      17.880719    
    202200   101.1          161.75789     -3357.6564      10.433516      2714.7387      5716.8595      17.880754      17.880754      17.880754    
    202400   101.2          162.22211     -3357.6836      10.463458      4381.2019      5716.8938      17.88079       17.88079       17.88079     
    202600   101.3          172.83151     -3358.3652      11.147773      3317.8097      5716.9282      17.880826      17.880826      17.880826    
    202800   101.4          164.67948     -3357.8366      10.62196       3002.5248      5716.9629      17.880862      17.880862      17.880862    
    203000   101.5          170.64045     -3358.2183      11.006448      4209.0427      5716.9977      17.880899      17.880899      17.880899    
    203200   101.6          166.10272     -3357.9227      10.71376       5266.8019      5717.0328      17.880935      17.880935      17.880935    
    203400   101.7          168.27224     -3358.0599      10.853696      2916.8671      5717.068       17.880972      17.880972      17.880972    
    203600   101.8          167.45744     -3358.0045      10.801141      2463.318       5717.1033      17.881009      17.881009      17.881009    
    203800   101.9          171.05484     -3358.2336      11.033176      4355.7017      5717.1389      17.881046      17.881046      17.881046    
    204000   102            171.58461     -3358.2651      11.067347      3686.1135      5717.1746      17.881083      17.881083      17.881083    
    204200   102.1          162.53005     -3357.6782      10.48332       3387.4966      5717.2104      17.88112       17.88112       17.88112     
    204400   102.2          169.26081     -3358.1096      10.91746       2447.7289      5717.2465      17.881158      17.881158      17.881158    
    204600   102.3          161.7833      -3357.6244      10.435154      3843.7005      5717.2826      17.881196      17.881196      17.881196    
    204800   102.4          168.73678     -3358.0702      10.883659      4394.2423      5717.3189      17.881233      17.881233      17.881233    
    205000   102.5          166.78001     -3357.9411      10.757446      2226.6507      5717.3554      17.881271      17.881271      17.881271    
    205200   102.6          174.37757     -3358.4284      11.247495      4252.038       5717.3921      17.88131       17.88131       17.88131     
    205400   102.7          169.88004     -3358.1355      10.957401      5511.4548      5717.4289      17.881348      17.881348      17.881348    
    205600   102.8          161.13483     -3357.5685      10.393327      2865.1549      5717.466       17.881387      17.881387      17.881387    
    205800   102.9          166.98009     -3357.9427      10.770351      3206.5385      5717.5031      17.881425      17.881425      17.881425    
    206000   103            162.39045     -3357.6438      10.474316      4346.8196      5717.5405      17.881464      17.881464      17.881464    
    206200   103.1          175.4273      -3358.482       11.315204      3528.3205      5717.578       17.881504      17.881504      17.881504    
    206400   103.2          162.06188     -3357.617       10.453123      2778.777       5717.6157      17.881543      17.881543      17.881543    
    206600   103.3          164.24889     -3357.7553      10.594187      2580.3835      5717.6536      17.881582      17.881582      17.881582    
    206800   103.4          156.02644     -3357.222       10.063832      4085.498       5717.6915      17.881622      17.881622      17.881622    
    207000   103.5          166.27508     -3357.8803      10.724878      4328.5317      5717.7297      17.881662      17.881662      17.881662    
    207200   103.6          161.9406      -3357.5978      10.4453        3048.1462      5717.768       17.881702      17.881702      17.881702    
    207400   103.7          169.18354     -3358.0622      10.912476      4188.9935      5717.8065      17.881742      17.881742      17.881742    
    207600   103.8          164.48723     -3357.7565      10.60956       3661.1126      5717.8452      17.881782      17.881782      17.881782    
    207800   103.9          169.58084     -3358.0822      10.938102      2676.122       5717.884       17.881823      17.881823      17.881823    
    208000   104            166.84828     -3357.9031      10.76185       3523.06        5717.923       17.881863      17.881863      17.881863    
    208200   104.1          165.79258     -3357.8322      10.693756      3394.9674      5717.9621      17.881904      17.881904      17.881904    
    208400   104.2          162.99011     -3357.6486      10.512994      3494.3894      5718.0015      17.881945      17.881945      17.881945    
    208600   104.3          162.70898     -3357.6275      10.494862      2667.0955      5718.041       17.881986      17.881986      17.881986    
    208800   104.4          163.6648      -3357.6865      10.556513      5092.5699      5718.0806      17.882027      17.882027      17.882027    
    209000   104.5          166.24053     -3357.8497      10.722649      3094.8198      5718.1205      17.882069      17.882069      17.882069    
    209200   104.6          160.02559     -3357.4459      10.32178       2874.408       5718.1605      17.882111      17.882111      17.882111    
    209400   104.7          166.01747     -3357.8297      10.708261      3550.1539      5718.2007      17.882153      17.882153      17.882153    
    209600   104.8          172.4947      -3358.2446      11.126048      3114.279       5718.241       17.882195      17.882195      17.882195    
    209800   104.9          171.28183     -3358.1635      11.047817      3987.5646      5718.2815      17.882237      17.882237      17.882237    
    210000   105            163.06807     -3357.6308      10.518023      2758.6305      5718.3222      17.882279      17.882279      17.882279    
    210200   105.1          168.90206     -3358.0043      10.89432       3225.3887      5718.363       17.882322      17.882322      17.882322    
    210400   105.2          170.27745     -3358.0902      10.983034      3786.0127      5718.404       17.882365      17.882365      17.882365    
    210600   105.3          174.42922     -3358.355       11.250826      4078.9471      5718.4452      17.882408      17.882408      17.882408    
    210800   105.4          169.72068     -3358.0485      10.947122      2186.5636      5718.4866      17.882451      17.882451      17.882451    
    211000   105.5          169.43954     -3358.0275      10.928988      3115.3902      5718.528       17.882494      17.882494      17.882494    
    211200   105.6          172.83458     -3358.2436      11.147971      2091.248       5718.5696      17.882537      17.882537      17.882537    
    211400   105.7          163.2409      -3357.6218      10.529171      3307.6358      5718.6114      17.882581      17.882581      17.882581    
    211600   105.8          167.70766     -3357.9072      10.81728       4418.8042      5718.6533      17.882624      17.882624      17.882624    
    211800   105.9          169.95159     -3358.0491      10.962015      3998.8393      5718.6953      17.882668      17.882668      17.882668    
    212000   106            166.69598     -3357.8361      10.752026      1360.2419      5718.7376      17.882712      17.882712      17.882712    
    212200   106.1          165.52878     -3357.758       10.676741      5107.8715      5718.7799      17.882756      17.882756      17.882756    
    212400   106.2          166.515       -3357.8187      10.740353      5067.4349      5718.8225      17.882801      17.882801      17.882801    
    212600   106.3          168.10328     -3357.9183      10.842798      4042.8137      5718.8653      17.882845      17.882845      17.882845    
    212800   106.4          168.26896     -3357.9262      10.853484      1993.9649      5718.9082      17.88289       17.88289       17.88289     
    213000   106.5          161.97845     -3357.5174      10.447742      3043.5075      5718.9513      17.882935      17.882935      17.882935    
    213200   106.6          170.31036     -3358.052       10.985156      2635.2376      5718.9945      17.88298       17.88298       17.88298     
    213400   106.7          163.61213     -3357.617       10.553115      3724.1742      5719.0379      17.883025      17.883025      17.883025    
    213600   106.8          159.5594      -3357.3527      10.291711      2773.7464      5719.0814      17.883071      17.883071      17.883071    
    213800   106.9          160.40628     -3357.4046      10.346335      3591.8015      5719.125       17.883116      17.883116      17.883116    
    214000   107            165.48919     -3357.7294      10.674187      2834.3988      5719.1689      17.883162      17.883162      17.883162    
    214200   107.1          165.43104     -3357.7227      10.670436      2428.1327      5719.2128      17.883208      17.883208      17.883208    
    214400   107.2          169.42476     -3357.9776      10.928035      2204.1207      5719.2569      17.883254      17.883254      17.883254    
    214600   107.3          163.49705     -3357.5923      10.545693      3867.1597      5719.3011      17.8833        17.8833        17.8833      
    214800   107.4          164.56311     -3357.6581      10.614454      3235.7505      5719.3455      17.883346      17.883346      17.883346    
    215000   107.5          156.18375     -3357.1146      10.073979      3139.2902      5719.39        17.883392      17.883392      17.883392    
    215200   107.6          165.24577     -3357.6963      10.658487      2332.863       5719.4347      17.883439      17.883439      17.883439    
    215400   107.7          172.95169     -3358.1904      11.155525      3530.7647      5719.4794      17.883486      17.883486      17.883486    
    215600   107.8          164.7595      -3357.6591      10.627121      2017.14        5719.5244      17.883532      17.883532      17.883532    
    215800   107.9          176.22806     -3358.396       11.366853      1747.1693      5719.5694      17.883579      17.883579      17.883579    
    216000   108            170.49644     -3358.0234      10.997159      3710.0339      5719.6146      17.883626      17.883626      17.883626    
    216200   108.1          166.43094     -3357.7582      10.734931      3576.3856      5719.6599      17.883674      17.883674      17.883674    
    216400   108.2          165.30639     -3357.6827      10.662397      1645.5331      5719.7054      17.883721      17.883721      17.883721    
    216600   108.3          165.67743     -3357.7038      10.686329      2750.6789      5719.751       17.883769      17.883769      17.883769    
    216800   108.4          162.51332     -3357.4967      10.482241      3172.0465      5719.7967      17.883816      17.883816      17.883816    
    217000   108.5          158.4936      -3357.2345      10.222966      4120.9049      5719.8425      17.883864      17.883864      17.883864    
    217200   108.6          165.71587     -3357.6975      10.688808      4745.8427      5719.8885      17.883912      17.883912      17.883912    
    217400   108.7          163.55416     -3357.5551      10.549376      2891.1508      5719.9347      17.88396       17.88396       17.88396     
    217600   108.8          155.95037     -3357.0618      10.058925      4346.1876      5719.981       17.884008      17.884008      17.884008    
    217800   108.9          167.00479     -3357.7719      10.771945      2776.4153      5720.0275      17.884057      17.884057      17.884057    
    218000   109            171.02775     -3358.0285      11.031429      1509.219       5720.0741      17.884105      17.884105      17.884105    
    218200   109.1          161.82154     -3357.4316      10.437621      2637.2249      5720.1209      17.884154      17.884154      17.884154    
    218400   109.2          169.32369     -3357.9126      10.921516      1967.8453      5720.1677      17.884203      17.884203      17.884203    
    218600   109.3          164.41011     -3357.5927      10.604585      3725.2529      5720.2147      17.884252      17.884252      17.884252    
    218800   109.4          169.8233      -3357.939       10.953741      1935.8843      5720.2618      17.884301      17.884301      17.884301    
    219000   109.5          166.4115      -3357.716       10.733677      1712.505       5720.3091      17.88435       17.88435       17.88435     
    219200   109.6          163.83676     -3357.547       10.567604      1497.6368      5720.3565      17.8844        17.8844        17.8844      
    219400   109.7          167.28796     -3357.7666      10.790209      3782.1533      5720.4039      17.884449      17.884449      17.884449    
    219600   109.8          165.56024     -3357.6522      10.67877       3448.5084      5720.4516      17.884499      17.884499      17.884499    
    219800   109.9          164.85292     -3357.6036      10.633147      2373.2755      5720.4993      17.884548      17.884548      17.884548    
    220000   110            169.59319     -3357.9065      10.938898      3273.5776      5720.5472      17.884598      17.884598      17.884598    
Loop time of 6511.89 on 1 procs for 200000 steps with 500 atoms

Performance: 1.327 ns/day, 18.089 hours/ns, 30.713 timesteps/s, 15.357 katom-step/s
98.8% CPU use with 1 MPI tasks x 1 OpenMP threads

MPI task timing breakdown:
Section |  min time  |  avg time  |  max time  |%varavg| %total
---------------------------------------------------------------
Pair    | 6255.2     | 6255.2     | 6255.2     |   0.0 | 96.06
Neigh   | 0.00040363 | 0.00040363 | 0.00040363 |   0.0 |  0.00
Comm    | 7.5095     | 7.5095     | 7.5095     |   0.0 |  0.12
Output  | 0.28156    | 0.28156    | 0.28156    |   0.0 |  0.00
Modify  | 240.75     | 240.75     | 240.75     |   0.0 |  3.70
Other   |            | 8.158      |            |       |  0.13

Nlocal:            500 ave         500 max         500 min
Histogram: 1 0 0 0 0 0 0 0 0 0
Nghost:           2024 ave        2024 max        2024 min
Histogram: 1 0 0 0 0 0 0 0 0 0
Neighs:              0 ave           0 max           0 min
Histogram: 1 0 0 0 0 0 0 0 0 0
FullNghs:        66138 ave       66138 max       66138 min
Histogram: 1 0 0 0 0 0 0 0 0 0

Total # of neighbors = 66138
Ave neighs/atom = 132.276
Neighbor list builds = 1
Dangerous builds = 0
unfix          npt_run
unfix          boxdump
print "### NPT complete at 300 K ###"
### NPT complete at 300 K ###

# ── Print final lattice parameter ─────────────────────
variable       a0_npt equal lx/5.0
print "NPT_RESULT: a0_at_300K = ${a0_npt} Angstrom"
NPT_RESULT: a0_at_300K = 3.57691966250855 Angstrom
Total wall time: 1:59:19
