LAMMPS (11 Feb 2026 - Development - patch_11Feb2026-99-gb75dfcc930-modified)
KOKKOS mode with Kokkos version 5.0.2 is enabled
  using double precision
  using view layout = legacy
  will use up to 1 GPU(s) per node
  using 1 OpenMP thread(s) per MPI task
package kokkos
package kokkos newton on neigh half
# ════════════════════════════════════════════════════
# LAMMPS NPT — Lattice Parameter at 300 K
# Notebook 02 | Refs: [2,3,13,14,15,16]
# ════════════════════════════════════════════════════

units          metal
atom_style     atomic
newton         on
boundary       p p p

# ── Load minimized structure ──────────────────────────
read_data      structures/02_bulk_energy_minimization/Hastelloy_N_42_minimized.lammps
Reading data file ...
  orthogonal box = (-0.006101846 -0.006101846 -0.006101846) to (17.861102 17.861102 17.861102)
  1 by 1 by 1 MPI processor grid
  reading atoms ...
  500 atoms
  reading velocities ...
  500 velocities
  read_data CPU = 0.015 seconds

# ── MACE-MP-0b2 via mliap unified ─────────────────────
pair_style     mliap unified /projects/westgroup/akinyemi.az/mace_lammps/models/mace-mp-0b2-medium.model-mliap_lammps.pt 0
pair_coeff     * * Al B C Cr Fe Mo Ni H

neighbor       2.0 bin
neigh_modify   every 1 delay 0 check yes

timestep       0.0005   # ps = 0.5 fs [your setup]

# ── Initialize velocities (matches your production script) ─
velocity       all create 300.0 12345 mom yes rot yes dist gaussian

# ── Thermo output ─────────────────────────────────────
thermo         200
thermo_style   custom step time temp pe ke  press vol lx ly lz

# ── Stage 1: Heat 10K → 300 K over 10 ps ──────
# NPT with temperature ramp + isotropic barostat [13,14]
# thermo_damp = 100.0 fs (matches your production value)
# baro_damp   = 1000.0 fs = 10× thermo [13,14]
fix            heat all npt temp 10.0 300.0 100.0                iso 0.0 0.0 1000.0
run            20000   # 10000 ps

CITE-CITE-CITE-CITE-CITE-CITE-CITE-CITE-CITE-CITE-CITE-CITE-CITE

Your simulation uses code contributions which should be cited:

- KOKKOS package: https://doi.org/10.1145/3731599.3767498

@inproceedings{Johansson25,
 author = {A. Johansson and E. Weinberg and C. Trott and M. McCarthy and S. Moore},
 title = {{LAMMPS-KOKKOS}: {P}erformance Portable Molecular Dynamics Across Exascale Architectures},
 year = 2025,
 booktitle = {Proceedings of the SC '25 Workshops of the International Conference for High Performance Computing,
  Networking, Storage and Analysis},
 pages = {1217–1232},
}

CITE-CITE-CITE-CITE-CITE-CITE-CITE-CITE-CITE-CITE-CITE-CITE-CITE

Neighbor list info ...
  update: every = 1 steps, delay = 0 steps, check = yes
  max neighbors/atom: 2000, page size: 100000
  master list distance cutoff = 7
  ghost atom cutoff = 7
  binsize = 7, bins = 3 3 3
  1 neighbor lists, perpetual/occasional/extra = 1 0 0
  (1) pair mliap/kk, perpetual
      attributes: full, newton on, kokkos_device
      pair build: full/bin/kk/device
      stencil: full/bin/3d
      bin: kk/device
Per MPI rank memory allocation (min/avg/max) = 81 | 81 | 81 Mbytes
   Step          Time           Temp          PotEng         KinEng         Press          Volume           Lx             Ly             Lz      
         0   0              300           -3366.3942      19.350244      3623.5626      5703.8719      17.867204      17.867204      17.867204    
       200   0.1            139.44714     -3356.0374      8.994454       10977.759      5703.8793      17.867211      17.867211      17.867211    
       400   0.2            153.29433     -3356.9312      9.887609       10706.168      5703.9022      17.867235      17.867235      17.867235    
       600   0.3            147.93685     -3356.5863      9.5420473      10638.353      5703.9401      17.867275      17.867275      17.867275    
       800   0.4            153.77936     -3356.9641      9.9188935      8588.8414      5703.992       17.867329      17.867329      17.867329    
      1000   0.5            150.92092     -3356.7809      9.7345221      10083.672      5704.0564      17.867396      17.867396      17.867396    
      1200   0.6            149.6137      -3356.6979      9.6502053      7512.3876      5704.1338      17.867477      17.867477      17.867477    
      1400   0.7            152.78108     -3356.9035      9.8545038      9133.1825      5704.2223      17.86757       17.86757       17.86757     
      1600   0.8            158.3379      -3357.2637      10.212923      10817.066      5704.3238      17.867676      17.867676      17.867676    
      1800   0.9            161.99491     -3357.5014      10.448803      9061.6209      5704.4405      17.867797      17.867797      17.867797    
      2000   1              160.3436      -3357.3971      10.342293      10326.232      5704.5713      17.867934      17.867934      17.867934    
      2200   1.1            150.55689     -3356.7679      9.7110417      12166.036      5704.7164      17.868085      17.868085      17.868085    
      2400   1.2            154.06336     -3356.9965      9.9372117      10749.912      5704.8769      17.868253      17.868253      17.868253    
      2600   1.3            155.00369     -3357.0597      9.9978641      10503.153      5705.0523      17.868436      17.868436      17.868436    
      2800   1.4            158.03999     -3357.258       10.193708      9073.7117      5705.2419      17.868634      17.868634      17.868634    
      3000   1.5            162.57011     -3357.5529      10.485904      8864.5617      5705.4444      17.868845      17.868845      17.868845    
      3200   1.6            153.54738     -3356.9737      9.9039305      11367.898      5705.6602      17.869071      17.869071      17.869071    
      3400   1.7            161.40462     -3357.4836      10.410729      9950.3398      5705.891       17.869312      17.869312      17.869312    
      3600   1.8            154.39666     -3357.0347      9.9587099      11213.763      5706.1361      17.869568      17.869568      17.869568    
      3800   1.9            161.85715     -3357.5193      10.439918      10045.667      5706.3965      17.869839      17.869839      17.869839    
      4000   2              157.69759     -3357.2543      10.171623      9303.4485      5706.6717      17.870127      17.870127      17.870127    
      4200   2.1            161.33421     -3357.4923      10.406188      10251.048      5706.9607      17.870428      17.870428      17.870428    
      4400   2.2            154.45488     -3357.0522      9.962465       9119.6058      5707.2638      17.870745      17.870745      17.870745    
      4600   2.3            161.55319     -3357.5136      10.420312      8583.4642      5707.5813      17.871076      17.871076      17.871076    
      4800   2.4            160.50741     -3357.4498      10.352859      8887.0021      5707.9117      17.871421      17.871421      17.871421    
      5000   2.5            165.17676     -3357.7547      10.654035      9440.5249      5708.2549      17.871779      17.871779      17.871779    
      5200   2.6            155.24654     -3357.1179      10.013528      8852.4243      5708.6113      17.872151      17.872151      17.872151    
      5400   2.7            154.91215     -3357.1002      9.9919597      8291.436       5708.9808      17.872537      17.872537      17.872537    
      5600   2.8            158.19067     -3357.3156      10.203427      9304.8535      5709.3627      17.872935      17.872935      17.872935    
      5800   2.9            157.46276     -3357.2724      10.156476      8092.3998      5709.757       17.873347      17.873347      17.873347    
      6000   3              158.38336     -3357.3357      10.215855      8472.7472      5710.1632      17.87377       17.87377       17.87377     
      6200   3.1            157.92301     -3357.3103      10.186162      8577.2965      5710.5818      17.874207      17.874207      17.874207    
      6400   3.2            158.79505     -3357.3705      10.24241       6334.5304      5711.0128      17.874657      17.874657      17.874657    
      6600   3.3            157.02051     -3357.2598      10.12795       8347.1802      5711.454       17.875117      17.875117      17.875117    
      6800   3.4            155.27398     -3357.1514      10.015298      7078.115       5711.9068      17.875589      17.875589      17.875589    
      7000   3.5            154.67888     -3357.1172      9.9769133      7919.8385      5712.371       17.876074      17.876074      17.876074    
      7200   3.6            152.43941     -3356.9771      9.8324661      7606.5407      5712.8467      17.87657       17.87657       17.87657     
      7400   3.7            148.1533      -3356.7047      9.5560084      8666.1481      5713.3335      17.877078      17.877078      17.877078    
      7600   3.8            156.15253     -3357.2251      10.071965      7345.3883      5713.8315      17.877597      17.877597      17.877597    
      7800   3.9            152.87463     -3357.0178      9.8605376      7930.754       5714.3404      17.878128      17.878128      17.878128    
      8000   4              153.48419     -3357.0612      9.899855       5623.5027      5714.8597      17.878669      17.878669      17.878669    
      8200   4.1            152.05979     -3356.9737      9.8079797      9110.5939      5715.3886      17.879221      17.879221      17.879221    
      8400   4.2            163.32604     -3357.705       10.534662      7593.0919      5715.9289      17.879784      17.879784      17.879784    
      8600   4.3            154.05657     -3357.111       9.9367742      5661.6688      5716.4795      17.880358      17.880358      17.880358    
      8800   4.4            146.03828     -3356.5979      9.4195879      8190.4763      5717.0382      17.880941      17.880941      17.880941    
      9000   4.5            153.15124     -3357.0614      9.8783791      8109.8935      5717.6075      17.881534      17.881534      17.881534    
      9200   4.6            156.6913      -3357.2937      10.106716      6457.9469      5718.1863      17.882138      17.882138      17.882138    
      9400   4.7            157.62847     -3357.3582      10.167164      4531.2634      5718.7734      17.88275       17.88275       17.88275     
      9600   4.8            158.0032      -3357.386       10.191335      4077.2778      5719.3679      17.883369      17.883369      17.883369    
      9800   4.9            161.31619     -3357.6034      10.405026      4344.7479      5719.9692      17.883996      17.883996      17.883996    
     10000   5              160.96903     -3357.5846      10.382633      3932.1739      5720.5773      17.88463       17.88463       17.88463     
     10200   5.1            155.73463     -3357.2507      10.04501       5452.0066      5721.1918      17.88527       17.88527       17.88527     
     10400   5.2            153.92523     -3357.1379      9.9283024      5993.8982      5721.814       17.885918      17.885918      17.885918    
     10600   5.3            152.40508     -3357.0439      9.8302515      5147.4747      5722.4439      17.886575      17.886575      17.886575    
     10800   5.4            152.91454     -3357.0804      9.8631117      4731.7044      5723.0809      17.887238      17.887238      17.887238    
     11000   5.5            155.84101     -3357.2735      10.051872      5112.5648      5723.7253      17.88791       17.88791       17.88791     
     11200   5.6            156.44677     -3357.3163      10.090944      3795.6601      5724.3774      17.888589      17.888589      17.888589    
     11400   5.7            161.05725     -3357.6169      10.388324      3098.3982      5725.0352      17.889274      17.889274      17.889274    
     11600   5.8            155.63949     -3357.2706      10.038874      3539.4635      5725.6976      17.889964      17.889964      17.889964    
     11800   5.9            150.72396     -3356.957       9.7218181      3118.9353      5726.365       17.890659      17.890659      17.890659    
     12000   6              148.92323     -3356.8441      9.6056692      2806.8041      5727.0373      17.891359      17.891359      17.891359    
     12200   6.1            152.79428     -3357.0966      9.855355       2382.6905      5727.7135      17.892063      17.892063      17.892063    
     12400   6.2            149.57407     -3356.8915      9.6476491      2048.9995      5728.3929      17.892771      17.892771      17.892771    
     12600   6.3            147.96302     -3356.7904      9.5437352      1481.5125      5729.0753      17.893481      17.893481      17.893481    
     12800   6.4            152.89599     -3357.1115      9.8619154      2610.102       5729.7612      17.894195      17.894195      17.894195    
     13000   6.5            147.39092     -3356.7594      9.5068343      1982.9049      5730.4509      17.894913      17.894913      17.894913    
     13200   6.6            157.97962     -3357.4449      10.189814      1112.6006      5731.1433      17.895634      17.895634      17.895634    
     13400   6.7            155.25017     -3357.2714      10.013762      1440.6834      5731.8381      17.896357      17.896357      17.896357    
     13600   6.8            149.30715     -3356.8906      9.6304324      1811.0654      5732.5353      17.897083      17.897083      17.897083    
     13800   6.9            155.9792      -3357.3231      10.060785      351.01088      5733.2346      17.89781       17.89781       17.89781     
     14000   7              154.72449     -3357.2441      9.979855       1061.9148      5733.9347      17.898539      17.898539      17.898539    
     14200   7.1            154.84486     -3357.254       9.9876195     -576.33256      5734.6358      17.899268      17.899268      17.899268    
     14400   7.2            156.85479     -3357.3857      10.117261     -944.25739      5735.3377      17.899999      17.899999      17.899999    
     14600   7.3            153.11799     -3357.1461      9.8762347      24.563677      5736.0393      17.900729      17.900729      17.900729    
     14800   7.4            153.72165     -3357.1869      9.9151712     -218.94203      5736.7406      17.901458      17.901458      17.901458    
     15000   7.5            151.24094     -3357.0285      9.7551637      612.91631      5737.442       17.902188      17.902188      17.902188    
     15200   7.6            148.63412     -3356.8619      9.5870214     -574.13         5738.143       17.902917      17.902917      17.902917    
     15400   7.7            143.51717     -3356.5328      9.2569741     -1158.3091      5738.8424      17.903644      17.903644      17.903644    
     15600   7.8            161.69321     -3357.7063      10.429343     -1925.3837      5739.5395      17.904369      17.904369      17.904369    
     15800   7.9            149.15531     -3356.8989      9.6206386     -893.06621      5740.2346      17.905092      17.905092      17.905092    
     16000   8              151.1107      -3357.0258      9.746763      -2360.8963      5740.9278      17.905812      17.905812      17.905812    
     16200   8.1            147.46732     -3356.7915      9.5117618     -2536.4554      5741.6177      17.90653       17.90653       17.90653     
     16400   8.2            156.4323      -3357.3705      10.09001      -1726.1797      5742.3043      17.907243      17.907243      17.907243    
     16600   8.3            160.4512      -3357.6305      10.349233     -3632.5336      5742.9879      17.907954      17.907954      17.907954    
     16800   8.4            160.40131     -3357.6273      10.346015     -3693.265       5743.6669      17.90866       17.90866       17.90866     
     17000   8.5            154.36951     -3357.2385      9.9569587     -3609.5805      5744.3408      17.90936       17.90936       17.90936     
     17200   8.6            161.95516     -3357.7281      10.446239     -4254.569       5745.0098      17.910055      17.910055      17.910055    
     17400   8.7            156.51037     -3357.3768      10.095046     -5899.5848      5745.6735      17.910745      17.910745      17.910745    
     17600   8.8            155.36003     -3357.302       10.020848     -5198.3776      5746.3299      17.911427      17.911427      17.911427    
     17800   8.9            160.212       -3357.6148      10.333804     -4077.2754      5746.9788      17.912101      17.912101      17.912101    
     18000   9              153.17212     -3357.16        9.8797263     -6500.5934      5747.6209      17.912768      17.912768      17.912768    
     18200   9.1            159.30274     -3357.5552      10.275156     -4616.2988      5748.2548      17.913427      17.913427      17.913427    
     18400   9.2            158.98008     -3357.5338      10.254344     -5533.3713      5748.8815      17.914078      17.914078      17.914078    
     18600   9.3            152.07635     -3357.088       9.8090484     -3398.6202      5749.5001      17.91472       17.91472       17.91472     
     18800   9.4            158.95268     -3357.5313      10.252577     -5625.3758      5750.1116      17.915355      17.915355      17.915355    
     19000   9.5            152.96496     -3357.1444      9.8663643     -6388.7858      5750.7147      17.915982      17.915982      17.915982    
     19200   9.6            157.17707     -3357.4151      10.138048     -6266.7522      5751.3087      17.916598      17.916598      17.916598    
     19400   9.7            166.68496     -3358.0279      10.751316     -6041.0638      5751.893       17.917205      17.917205      17.917205    
     19600   9.8            154.51515     -3357.2423      9.966353      -6376.0591      5752.4686      17.917803      17.917803      17.917803    
     19800   9.9            161.60295     -3357.6988      10.423522     -5896.0992      5753.0351      17.918391      17.918391      17.918391    
     20000   10             152.73665     -3357.1263      9.8516378     -6074.6052      5753.593       17.91897       17.91897       17.91897     
Loop time of 687.596 on 1 procs for 20000 steps with 500 atoms

Performance: 1.257 ns/day, 19.100 hours/ns, 29.087 timesteps/s, 14.543 katom-step/s
99.1% CPU use with 1 MPI tasks x 1 OpenMP threads

MPI task timing breakdown:
Section |  min time  |  avg time  |  max time  |%varavg| %total
---------------------------------------------------------------
Pair    | 683.79     | 683.79     | 683.79     |   0.0 | 99.45
Neigh   | 0.0038593  | 0.0038593  | 0.0038593  |   0.0 |  0.00
Comm    | 0.80241    | 0.80241    | 0.80241    |   0.0 |  0.12
Output  | 0.0060539  | 0.0060539  | 0.0060539  |   0.0 |  0.00
Modify  | 2.1076     | 2.1076     | 2.1076     |   0.0 |  0.31
Other   |            | 0.8848     |            |       |  0.13

Nlocal:            500 ave         500 max         500 min
Histogram: 1 0 0 0 0 0 0 0 0 0
Nghost:           2019 ave        2019 max        2019 min
Histogram: 1 0 0 0 0 0 0 0 0 0
Neighs:              0 ave           0 max           0 min
Histogram: 1 0 0 0 0 0 0 0 0 0
FullNghs:        66034 ave       66034 max       66034 min
Histogram: 1 0 0 0 0 0 0 0 0 0

Total # of neighbors = 66034
Ave neighs/atom = 132.068
Neighbor list builds = 8
Dangerous builds = 0
unfix          heat
print "### Heating complete ###"
### Heating complete ###

# ── Stage 2: NPT equilibration at 300 K ────────
fix            npt_run all npt temp 300.0 300.0 100.0                iso 0.0 0.0 1000.0

# Record box dimensions for lattice parameter analysis
# fix            boxdump all ave/time 1 1 200 lx ly lz #                file results/02_bulk_energy_minimization/Hastelloy_N_42_npt_box.txt

variable       lx_val equal lx
variable       ly_val equal ly
variable       lz_val equal lz
fix            boxdump all ave/time 1 1 200 v_lx_val v_ly_val v_lz_val                file results/02_bulk_energy_minimization/Hastelloy_N_42_npt_box.txt


run            200000   # 100000 ps NPT
Per MPI rank memory allocation (min/avg/max) = 87.55 | 87.55 | 87.55 Mbytes
   Step          Time           Temp          PotEng         KinEng         Press          Volume           Lx             Ly             Lz      
     20000   10             152.73665     -3357.1263      9.8516378     -6074.6052      5753.593       17.91897       17.91897       17.91897     
     20200   10.1           166.48785     -3358.0134      10.738601     -6105.4606      5753.5928      17.91897       17.91897       17.91897     
     20400   10.2           154.24526     -3357.2238      9.9489446     -4618.0793      5753.5924      17.918969      17.918969      17.918969    
     20600   10.3           166.63419     -3358.0229      10.748041     -4771.6188      5753.5917      17.918969      17.918969      17.918969    
     20800   10.4           161.31123     -3357.6794      10.404706     -8068.141       5753.5909      17.918968      17.918968      17.918968    
     21000   10.5           173.11669     -3358.4409      11.166167     -6459.8397      5753.5896      17.918967      17.918967      17.918967    
     21200   10.6           169.03163     -3358.1774      10.902677     -5379.1958      5753.5881      17.918965      17.918965      17.918965    
     21400   10.7           157.69839     -3357.4462      10.171674     -4772.4607      5753.5863      17.918963      17.918963      17.918963    
     21600   10.8           165.48671     -3357.9486      10.674027     -6469.7199      5753.5843      17.918961      17.918961      17.918961    
     21800   10.9           163.67063     -3357.8313      10.556889     -5315.3344      5753.582       17.918959      17.918959      17.918959    
     22000   11             167.1611      -3358.0565      10.782027     -5613.0013      5753.5793      17.918956      17.918956      17.918956    
     22200   11.1           170.30932     -3358.2593      10.98509      -6142.1501      5753.5765      17.918953      17.918953      17.918953    
     22400   11.2           171.94738     -3358.365       11.090745     -6888.2289      5753.5733      17.91895       17.91895       17.91895     
     22600   11.3           163.49052     -3357.8193      10.545272     -6497.235       5753.5699      17.918946      17.918946      17.918946    
     22800   11.4           168.50889     -3358.1429      10.86896      -6390.1745      5753.5662      17.918942      17.918942      17.918942    
     23000   11.5           162.91527     -3357.782       10.508167     -5910.4305      5753.5621      17.918938      17.918938      17.918938    
     23200   11.6           163.92457     -3357.8469      10.573268     -7151.6936      5753.5578      17.918934      17.918934      17.918934    
     23400   11.7           165.39595     -3357.9417      10.668173     -6501.4033      5753.5532      17.918929      17.918929      17.918929    
     23600   11.8           163.07224     -3357.7917      10.518292     -3659.7409      5753.5483      17.918924      17.918924      17.918924    
     23800   11.9           169.81685     -3358.2267      10.953325     -5740.07        5753.5431      17.918918      17.918918      17.918918    
     24000   12             170.27352     -3358.2558      10.98278      -6850.5983      5753.5377      17.918913      17.918913      17.918913    
     24200   12.1           160.31929     -3357.6136      10.340724     -5541.3367      5753.532       17.918907      17.918907      17.918907    
     24400   12.2           171.19642     -3358.3151      11.042308     -7452.5888      5753.526       17.918901      17.918901      17.918901    
     24600   12.3           166.27361     -3357.9973      10.724783     -5376.2074      5753.5197      17.918894      17.918894      17.918894    
     24800   12.4           164.21319     -3357.8643      10.591884     -5634.5682      5753.5132      17.918887      17.918887      17.918887    
     25000   12.5           160.60105     -3357.631       10.358898     -5840.8654      5753.5063      17.91888       17.91888       17.91888     
     25200   12.6           167.47666     -3358.0743      10.80238      -6200.1992      5753.4992      17.918873      17.918873      17.918873    
     25400   12.7           164.17561     -3357.8611      10.58946      -7548.53        5753.4917      17.918865      17.918865      17.918865    
     25600   12.8           172.74155     -3358.4136      11.14197      -6578.1197      5753.484       17.918857      17.918857      17.918857    
     25800   12.9           162.35665     -3357.7432      10.472136     -5492.5114      5753.4759      17.918849      17.918849      17.918849    
     26000   13             166.74058     -3358.0259      10.754903     -6621.4354      5753.4675      17.91884       17.91884       17.91884     
     26200   13.1           163.40794     -3357.8106      10.539945     -4789.3449      5753.4589      17.918831      17.918831      17.918831    
     26400   13.2           161.5191      -3357.6886      10.418113     -3883.2561      5753.45        17.918822      17.918822      17.918822    
     26600   13.3           163.62368     -3357.824       10.55386      -6256.3804      5753.4409      17.918812      17.918812      17.918812    
     26800   13.4           168.46876     -3358.1362      10.866372     -7460.5613      5753.4315      17.918802      17.918802      17.918802    
     27000   13.5           163.49199     -3357.8149      10.545366     -6537.6971      5753.4218      17.918792      17.918792      17.918792    
     27200   13.6           164.20067     -3357.8604      10.591076     -6614.8233      5753.4118      17.918782      17.918782      17.918782    
     27400   13.7           161.53893     -3357.6883      10.419392     -5452.8683      5753.4015      17.918771      17.918771      17.918771    
     27600   13.8           163.04982     -3357.7855      10.516846     -7542.7652      5753.3909      17.91876       17.91876       17.91876     
     27800   13.9           171.48473     -3358.3294      11.060905     -5159.9317      5753.38        17.918749      17.918749      17.918749    
     28000   14             159.75778     -3357.5724      10.304507     -5362.6967      5753.3689      17.918738      17.918738      17.918738    
     28200   14.1           166.3806      -3357.9994      10.731684     -6014.9319      5753.3575      17.918726      17.918726      17.918726    
     28400   14.2           164.28114     -3357.8635      10.596267     -5714.8091      5753.3459      17.918714      17.918714      17.918714    
     28600   14.3           163.49444     -3357.8125      10.545524     -4659.9565      5753.334       17.918701      17.918701      17.918701    
     28800   14.4           162.40536     -3357.7418      10.475278     -5059.6621      5753.3218      17.918689      17.918689      17.918689    
     29000   14.5           164.22746     -3357.859       10.592804     -5691.8578      5753.3093      17.918676      17.918676      17.918676    
     29200   14.6           168.24318     -3358.1176      10.851822     -4959.8847      5753.2965      17.918662      17.918662      17.918662    
     29400   14.7           166.23309     -3357.9876      10.722169     -5818.0435      5753.2835      17.918649      17.918649      17.918649    
     29600   14.8           170.4629      -3358.2599      10.994996     -5938.3244      5753.2701      17.918635      17.918635      17.918635    
     29800   14.9           158.90512     -3357.5139      10.249509     -6618.7396      5753.2565      17.918621      17.918621      17.918621    
     30000   15             169.574       -3358.2018      10.937661     -6058.4609      5753.2426      17.918606      17.918606      17.918606    
     30200   15.1           162.45042     -3357.7419      10.478184     -5415.9155      5753.2284      17.918592      17.918592      17.918592    
     30400   15.2           170.70957     -3358.2742      11.010906     -5438.2451      5753.2139      17.918577      17.918577      17.918577    
     30600   15.3           165.88089     -3357.9621      10.699452     -5996.8334      5753.1991      17.918561      17.918561      17.918561    
     30800   15.4           171.29562     -3358.311       11.048707     -5652.6576      5753.1841      17.918546      17.918546      17.918546    
     31000   15.5           158.67958     -3357.4968      10.234962     -5865.125       5753.1689      17.91853       17.91853       17.91853     
     31200   15.6           169.6186      -3358.202       10.940538     -5765.1637      5753.1533      17.918514      17.918514      17.918514    
     31400   15.7           170.20888     -3358.2395      10.978611     -5679.0805      5753.1375      17.918497      17.918497      17.918497    
     31600   15.8           173.73974     -3358.4668      11.206354     -5077.5205      5753.1215      17.918481      17.918481      17.918481    
     31800   15.9           161.9317      -3357.7047      10.444726     -5249.8442      5753.1052      17.918464      17.918464      17.918464    
     32000   16             164.36748     -3357.8611      10.601836     -5095.6266      5753.0886      17.918446      17.918446      17.918446    
     32200   16.1           164.15716     -3357.8471      10.58827      -5230.8613      5753.0718      17.918429      17.918429      17.918429    
     32400   16.2           168.81238     -3358.1469      10.888536     -5903.8104      5753.0547      17.918411      17.918411      17.918411    
     32600   16.3           170.33546     -3358.2445      10.986775     -4448.7256      5753.0374      17.918393      17.918393      17.918393    
     32800   16.4           167.94819     -3358.09        10.832795     -5453.2547      5753.0198      17.918375      17.918375      17.918375    
     33000   16.5           166.82229     -3358.0169      10.760173     -6075.5338      5753.002       17.918357      17.918357      17.918357    
     33200   16.6           161.61168     -3357.6803      10.424085     -6164.522       5752.9839      17.918338      17.918338      17.918338    
     33400   16.7           165.69641     -3357.9431      10.687553     -6590.4456      5752.9655      17.918319      17.918319      17.918319    
     33600   16.8           169.26471     -3358.1727      10.917711     -4173.6258      5752.9468      17.918299      17.918299      17.918299    
     33800   16.9           166.36388     -3357.985       10.730605     -4145.871       5752.9279      17.91828       17.91828       17.91828     
     34000   17             166.37245     -3357.9849      10.731158     -5885.0788      5752.9087      17.91826       17.91826       17.91826     
     34200   17.1           170.20454     -3358.2314      10.978331     -6188.0573      5752.8893      17.91824       17.91824       17.91824     
     34400   17.2           162.52684     -3357.7355      10.483113     -4428.1381      5752.8696      17.918219      17.918219      17.918219    
     34600   17.3           168.53543     -3358.1226      10.870672     -5589.5076      5752.8496      17.918198      17.918198      17.918198    
     34800   17.4           167.51527     -3358.0561      10.804871     -5712.4055      5752.8294      17.918177      17.918177      17.918177    
     35000   17.5           165.22417     -3357.9077      10.657093     -5782.767       5752.809       17.918156      17.918156      17.918156    
     35200   17.6           173.79829     -3358.4601      11.210131     -6411.3066      5752.7882      17.918135      17.918135      17.918135    
     35400   17.7           166.68047     -3358.0004      10.751025     -6051.326       5752.7671      17.918113      17.918113      17.918113    
     35600   17.8           161.64365     -3357.6747      10.426146     -5361.1748      5752.7458      17.918091      17.918091      17.918091    
     35800   17.9           162.99318     -3357.7611      10.513192     -5795.4952      5752.7242      17.918068      17.918068      17.918068    
     36000   18             166.1596      -3357.9647      10.717429     -4900.0618      5752.7023      17.918045      17.918045      17.918045    
     36200   18.1           154.29483     -3357.1986      9.952142      -4609.1781      5752.6802      17.918022      17.918022      17.918022    
     36400   18.2           169.57533     -3358.1836      10.937746     -5026.2688      5752.6579      17.917999      17.917999      17.917999    
     36600   18.3           167.56261     -3358.053       10.807924     -6007.3013      5752.6353      17.917976      17.917976      17.917976    
     36800   18.4           166.26835     -3357.9688      10.724444     -5145.2249      5752.6124      17.917952      17.917952      17.917952    
     37000   18.5           169.13819     -3358.1532      10.909551     -5798.4023      5752.5892      17.917928      17.917928      17.917928    
     37200   18.6           166.67835     -3357.9938      10.750889     -5238.835       5752.5658      17.917904      17.917904      17.917904    
     37400   18.7           166.07589     -3357.9542      10.71203      -4716.564       5752.5421      17.917879      17.917879      17.917879    
     37600   18.8           161.05996     -3357.6298      10.388498     -4308.1642      5752.5182      17.917854      17.917854      17.917854    
     37800   18.9           172.93153     -3358.3949      11.154224     -6246.3507      5752.494       17.917829      17.917829      17.917829    
     38000   19             167.14036     -3358.0205      10.780689     -4861.8366      5752.4696      17.917804      17.917804      17.917804    
     38200   19.1           169.54508     -3358.175       10.935795     -6262.4951      5752.4449      17.917778      17.917778      17.917778    
     38400   19.2           173.53913     -3358.4317      11.193415     -6372.1939      5752.4199      17.917752      17.917752      17.917752    
     38600   19.3           171.22596     -3358.2818      11.044213     -5613.7292      5752.3946      17.917726      17.917726      17.917726    
     38800   19.4           166.46883     -3357.974       10.737375     -5705.8074      5752.3691      17.9177        17.9177        17.9177      
     39000   19.5           172.39714     -3358.3557      11.119755     -6286.1116      5752.3434      17.917673      17.917673      17.917673    
     39200   19.6           161.31212     -3357.6397      10.404763     -4831.479       5752.3174      17.917646      17.917646      17.917646    
     39400   19.7           165.96953     -3357.9394      10.70517      -4885.9087      5752.2911      17.917618      17.917618      17.917618    
     39600   19.8           168.72046     -3358.116       10.882607     -4343.2911      5752.2646      17.917591      17.917591      17.917591    
     39800   19.9           165.22533     -3357.8897      10.657168     -5541.7321      5752.2378      17.917563      17.917563      17.917563    
     40000   20             160.8947      -3357.6094      10.377839     -5153.8196      5752.2108      17.917535      17.917535      17.917535    
     40200   20.1           170.54128     -3358.2309      11.000051     -6263.088       5752.1835      17.917507      17.917507      17.917507    
     40400   20.2           161.64957     -3357.6563      10.426529     -7205.455       5752.1559      17.917478      17.917478      17.917478    
     40600   20.3           163.43807     -3357.7709      10.541889     -4712.0252      5752.1281      17.917449      17.917449      17.917449    
     40800   20.4           179.5736      -3358.8108      11.582643     -5545.4648      5752.1         17.91742       17.91742       17.91742     
     41000   20.5           164.02795     -3357.8071      10.579936     -4757.259       5752.0717      17.917391      17.917391      17.917391    
     41200   20.6           169.0495      -3358.1301      10.90383      -6731.7014      5752.0432      17.917361      17.917361      17.917361    
     41400   20.7           166.3895      -3357.9576      10.732258     -6638.6474      5752.0143      17.917331      17.917331      17.917331    
     41600   20.8           174.4224      -3358.475       11.250387     -4849.4874      5751.9851      17.917301      17.917301      17.917301    
     41800   20.9           162.57919     -3357.71        10.48649      -5912.5462      5751.9557      17.91727       17.91727       17.91727     
     42000   21             167.65012     -3358.0361      10.813569     -3810.8794      5751.9261      17.917239      17.917239      17.917239    
     42200   21.1           166.08082     -3357.9338      10.712348     -4656.3722      5751.8963      17.917209      17.917209      17.917209    
     42400   21.2           160.57467     -3357.5778      10.357197     -4616.7612      5751.8662      17.917177      17.917177      17.917177    
     42600   21.3           160.8944      -3357.5973      10.377819     -4365.7328      5751.8359      17.917146      17.917146      17.917146    
     42800   21.4           167.8947      -3358.0479      10.829344     -2897.8377      5751.8054      17.917114      17.917114      17.917114    
     43000   21.5           167.15553     -3357.9991      10.781667     -5309.146       5751.7748      17.917082      17.917082      17.917082    
     43200   21.6           175.76104     -3358.5532      11.33673      -5492.5664      5751.7439      17.91705       17.91705       17.91705     
     43400   21.7           168.79555     -3358.103       10.88745      -4778.489       5751.7127      17.917018      17.917018      17.917018    
     43600   21.8           156.50925     -3357.3094      10.094973     -4380.9071      5751.6814      17.916985      17.916985      17.916985    
     43800   21.9           167.09496     -3357.9912      10.777761     -5362.8571      5751.6498      17.916953      17.916953      17.916953    
     44000   22             167.75398     -3358.0327      10.820268     -5063.6235      5751.6179      17.916919      17.916919      17.916919    
     44200   22.1           171.22874     -3358.2557      11.044393     -5426.0478      5751.5858      17.916886      17.916886      17.916886    
     44400   22.2           169.98874     -3358.1746      10.964412     -4108.3558      5751.5534      17.916853      17.916853      17.916853    
     44600   22.3           164.20137     -3357.8002      10.591122     -4338.0806      5751.5208      17.916819      17.916819      17.916819    
     44800   22.4           166.99244     -3357.9792      10.771148     -6109.8887      5751.488       17.916785      17.916785      17.916785    
     45000   22.5           169.73673     -3358.1552      10.948157     -4878.6566      5751.4549      17.91675       17.91675       17.91675     
     45200   22.6           169.32704     -3358.1277      10.921731     -6466.5013      5751.4216      17.916716      17.916716      17.916716    
     45400   22.7           161.14114     -3357.5985      10.393734     -4854.547       5751.388       17.916681      17.916681      17.916681    
     45600   22.8           164.29312     -3357.8007      10.597039     -4108.3618      5751.3541      17.916646      17.916646      17.916646    
     45800   22.9           165.39187     -3357.8705      10.66791      -4710.7849      5751.32        17.91661       17.91661       17.91661     
     46000   23             164.44742     -3357.8084      10.606992     -3690.9388      5751.2857      17.916575      17.916575      17.916575    
     46200   23.1           165.77652     -3357.8929      10.69272      -5077.5643      5751.2511      17.916539      17.916539      17.916539    
     46400   23.2           171.301       -3358.2482      11.049054     -4883.8457      5751.2164      17.916503      17.916503      17.916503    
     46600   23.3           166.46949     -3357.9353      10.737418     -5668.4415      5751.1814      17.916466      17.916466      17.916466    
     46800   23.4           170.39533     -3358.1874      10.990637     -6083.8068      5751.1461      17.91643       17.91643       17.91643     
     47000   23.5           166.34825     -3357.9251      10.729597     -3919.1511      5751.1106      17.916393      17.916393      17.916393    
     47200   23.6           167.53454     -3358.0005      10.806114     -5027.2085      5751.0748      17.916356      17.916356      17.916356    
     47400   23.7           169.38        -3358.1183      10.925148     -5471.2606      5751.0389      17.916318      17.916318      17.916318    
     47600   23.8           159.38462     -3357.4723      10.280438     -5806.3642      5751.0027      17.916281      17.916281      17.916281    
     47800   23.9           168.7083      -3358.0726      10.881822     -4886.0089      5750.9663      17.916243      17.916243      17.916243    
     48000   24             159.1184      -3357.4528      10.263266     -5672.1479      5750.9296      17.916205      17.916205      17.916205    
     48200   24.1           176.10057     -3358.5471      11.35863      -4294.035       5750.8926      17.916166      17.916166      17.916166    
     48400   24.2           160.7881      -3357.558       10.370963     -2055.9707      5750.8554      17.916128      17.916128      17.916128    
     48600   24.3           164.47746     -3357.7947      10.60893      -3857.283       5750.818       17.916089      17.916089      17.916089    
     48800   24.4           163.03075     -3357.7001      10.515616     -5252.528       5750.7805      17.91605       17.91605       17.91605     
     49000   24.5           172.73572     -3358.3249      11.141595     -5359.7307      5750.7426      17.916011      17.916011      17.916011    
     49200   24.6           167.53489     -3357.9881      10.806136     -4142.0978      5750.7046      17.915971      17.915971      17.915971    
     49400   24.7           169.36675     -3358.1051      10.924293     -4427.084       5750.6663      17.915931      17.915931      17.915931    
     49600   24.8           171.08289     -3358.2144      11.034986     -4130.7274      5750.6278      17.915891      17.915891      17.915891    
     49800   24.9           170.49027     -3358.1748      10.996761     -5316.5094      5750.5891      17.915851      17.915851      17.915851    
     50000   25             164.48938     -3357.7864      10.609698     -5973.8549      5750.5502      17.915811      17.915811      17.915811    
     50200   25.1           165.82385     -3357.8712      10.695773     -4873.4994      5750.511       17.91577       17.91577       17.91577     
     50400   25.2           174.11161     -3358.4046      11.23034      -4458.2719      5750.4716      17.915729      17.915729      17.915729    
     50600   25.3           165.47441     -3357.8459      10.673234     -3488.2979      5750.4319      17.915688      17.915688      17.915688    
     50800   25.4           169.68561     -3358.1162      10.94486      -4667.971       5750.3921      17.915647      17.915647      17.915647    
     51000   25.5           168.43202     -3358.034       10.864002     -4678.6761      5750.352       17.915605      17.915605      17.915605    
     51200   25.6           164.38265     -3357.7715      10.602814     -5001.0285      5750.3118      17.915563      17.915563      17.915563    
     51400   25.7           158.71807     -3357.4046      10.237445     -3599.7878      5750.2712      17.915521      17.915521      17.915521    
     51600   25.8           163.38885     -3357.7045      10.538714     -4987.3265      5750.2305      17.915479      17.915479      17.915479    
     51800   25.9           163.78936     -3357.729       10.564547     -4760.3053      5750.1895      17.915436      17.915436      17.915436    
     52000   26             157.64344     -3357.3312      10.16813      -3832.9366      5750.1483      17.915393      17.915393      17.915393    
     52200   26.1           164.483       -3357.7709      10.609287     -4263.5156      5750.1069      17.91535       17.91535       17.91535     
     52400   26.2           166.46599     -3357.8975      10.737191     -5005.2023      5750.0652      17.915307      17.915307      17.915307    
     52600   26.3           157.12255     -3357.2933      10.134532     -3885.6881      5750.0233      17.915264      17.915264      17.915264    
     52800   26.4           164.97076     -3357.7982      10.640748     -3936.5382      5749.9812      17.91522       17.91522       17.91522     
     53000   26.5           164.72122     -3357.7806      10.624652     -3982.3653      5749.9389      17.915176      17.915176      17.915176    
     53200   26.6           167.67278     -3357.9695      10.81503      -5348.6537      5749.8963      17.915132      17.915132      17.915132    
     53400   26.7           168.70804     -3358.0349      10.881806     -4442.3808      5749.8536      17.915087      17.915087      17.915087    
     53600   26.8           154.1547      -3357.0946      9.9431034     -3617.3758      5749.8106      17.915043      17.915043      17.915043    
     53800   26.9           163.80471     -3357.7156      10.565537     -3393.6596      5749.7674      17.914998      17.914998      17.914998    
     54000   27             167.63324     -3357.961       10.81248      -4233.9978      5749.7241      17.914953      17.914953      17.914953    
     54200   27.1           170.1524      -3358.122       10.974968     -4450.7277      5749.6805      17.914908      17.914908      17.914908    
     54400   27.2           163.92289     -3357.7186      10.573159     -4806.572       5749.6367      17.914862      17.914862      17.914862    
     54600   27.3           158.4921      -3357.3669      10.222869     -4610.9515      5749.5927      17.914816      17.914816      17.914816    
     54800   27.4           163.13137     -3357.6646      10.522106     -4189.9108      5749.5484      17.91477       17.91477       17.91477     
     55000   27.5           175.54207     -3358.4636      11.322606     -3956.926       5749.504       17.914724      17.914724      17.914724    
     55200   27.6           173.6715      -3358.3414      11.201953     -4560.0044      5749.4593      17.914678      17.914678      17.914678    
     55400   27.7           165.25822     -3357.797       10.65929      -5809.6848      5749.4144      17.914631      17.914631      17.914631    
     55600   27.8           167.64729     -3357.9497      10.813387     -3635.6915      5749.3693      17.914584      17.914584      17.914584    
     55800   27.9           162.60473     -3357.6228      10.488137     -5598.981       5749.324       17.914537      17.914537      17.914537    
     56000   28             171.93584     -3358.2231      11.090001     -3748.743       5749.2785      17.91449       17.91449       17.91449     
     56200   28.1           163.57568     -3357.6822      10.550764     -3559.2161      5749.2328      17.914443      17.914443      17.914443    
     56400   28.2           160.62971     -3357.4906      10.360747     -4629.4567      5749.1869      17.914395      17.914395      17.914395    
     56600   28.3           169.63748     -3358.0701      10.941755     -4346.1659      5749.1408      17.914347      17.914347      17.914347    
     56800   28.4           161.70322     -3357.5566      10.429989     -4535.0392      5749.0944      17.914299      17.914299      17.914299    
     57000   28.5           164.9046      -3357.7615      10.636481     -3000.4322      5749.0479      17.91425       17.91425       17.91425     
     57200   28.6           164.73792     -3357.7491      10.625729     -3745.6376      5749.0012      17.914202      17.914202      17.914202    
     57400   28.7           163.45065     -3357.6644      10.5427       -3513.2786      5748.9543      17.914153      17.914153      17.914153    
     57600   28.8           160.11793     -3357.4478      10.327736     -3856.4843      5748.9072      17.914104      17.914104      17.914104    
     57800   28.9           165.36802     -3357.7848      10.666371     -3985.9243      5748.8598      17.914055      17.914055      17.914055    
     58000   29             167.1012      -3357.8949      10.778163     -4143.7546      5748.8123      17.914006      17.914006      17.914006    
     58200   29.1           168.38293     -3357.9759      10.860836     -4048.1841      5748.7646      17.913956      17.913956      17.913956    
     58400   29.2           168.9677      -3358.0119      10.898554     -4567.3734      5748.7167      17.913906      17.913906      17.913906    
     58600   29.3           169.35912     -3358.0356      10.923801     -5724.1153      5748.6686      17.913856      17.913856      17.913856    
     58800   29.4           166.84003     -3357.8713      10.761317     -5034.5643      5748.6203      17.913806      17.913806      17.913806    
     59000   29.5           166.26466     -3357.8325      10.724205     -5206.0919      5748.5717      17.913756      17.913756      17.913756    
     59200   29.6           172.258       -3358.2173      11.110781     -6151.594       5748.5229      17.913705      17.913705      17.913705    
     59400   29.7           167.21145     -3357.8901      10.785275     -3833.2685      5748.4739      17.913654      17.913654      17.913654    
     59600   29.8           161.99156     -3357.5516      10.448587     -2088.5703      5748.4247      17.913603      17.913603      17.913603    
     59800   29.9           170.70327     -3358.1118      11.0105       -5320.8752      5748.3753      17.913552      17.913552      17.913552    
     60000   30             170.42263     -3358.092       10.992398     -3398.7879      5748.3258      17.9135        17.9135        17.9135      
     60200   30.1           164.07329     -3357.6806      10.58286      -5704.7052      5748.276       17.913449      17.913449      17.913449    
     60400   30.2           166.30962     -3357.8231      10.727106     -3574.2264      5748.226       17.913397      17.913397      17.913397    
     60600   30.3           163.52965     -3357.6419      10.547795     -4360.2916      5748.1759      17.913345      17.913345      17.913345    
     60800   30.4           164.20323     -3357.6837      10.591242     -3943.6933      5748.1255      17.913292      17.913292      17.913292    
     61000   30.5           171.2839      -3358.1386      11.047951     -2733.1838      5748.075       17.91324       17.91324       17.91324     
     61200   30.6           165.05569     -3357.7349      10.646226     -3170.7176      5748.0243      17.913187      17.913187      17.913187    
     61400   30.7           168.99163     -3357.987       10.900097     -3475.8983      5747.9734      17.913134      17.913134      17.913134    
     61600   30.8           167.61254     -3357.8963      10.811145     -4428.2431      5747.9224      17.913081      17.913081      17.913081    
     61800   30.9           171.06276     -3358.117       11.033687     -5395.4         5747.8711      17.913028      17.913028      17.913028    
     62000   31             167.38271     -3357.8778      10.796321     -3864.7426      5747.8196      17.912975      17.912975      17.912975    
     62200   31.1           164.09554     -3357.6639      10.584295     -2536.6148      5747.7679      17.912921      17.912921      17.912921    
     62400   31.2           173.50462     -3358.269       11.191189     -3906.0223      5747.7161      17.912867      17.912867      17.912867    
     62600   31.3           169.00924     -3357.9771      10.901234     -5107.9914      5747.664       17.912813      17.912813      17.912813    
     62800   31.4           168.16524     -3357.9209      10.846795     -3578.0473      5747.6118      17.912759      17.912759      17.912759    
     63000   31.5           169.08418     -3357.9783      10.906067     -3912.5842      5747.5593      17.912704      17.912704      17.912704    
     63200   31.6           162.46148     -3357.5491      10.478897     -4034.1913      5747.5067      17.912649      17.912649      17.912649    
     63400   31.7           174.27292     -3358.3092      11.240745     -3217.9118      5747.4538      17.912595      17.912595      17.912595    
     63600   31.8           169.87945     -3358.0238      10.957363     -4197.7288      5747.4008      17.91254       17.91254       17.91254     
     63800   31.9           170.49943     -3358.0619      10.997352     -4857.8756      5747.3476      17.912484      17.912484      17.912484    
     64000   32             163.87396     -3357.6326      10.570004     -2652.0761      5747.2942      17.912429      17.912429      17.912429    
     64200   32.1           170.16428     -3358.0364      10.975734     -3788.741       5747.2407      17.912373      17.912373      17.912373    
     64400   32.2           161.65738     -3357.4856      10.427032     -4221.7457      5747.187       17.912317      17.912317      17.912317    
     64600   32.3           165.67086     -3357.7426      10.685905     -4039.5503      5747.1332      17.912261      17.912261      17.912261    
     64800   32.4           165.84254     -3357.7518      10.696978     -3799.2924      5747.0791      17.912205      17.912205      17.912205    
     65000   32.5           167.38627     -3357.8494      10.79655      -3558.9996      5747.0249      17.912149      17.912149      17.912149    
     65200   32.6           166.53378     -3357.7925      10.741564     -3472.5582      5746.9704      17.912092      17.912092      17.912092    
     65400   32.7           175.36618     -3358.3602      11.311261     -2965.524       5746.9158      17.912036      17.912036      17.912036    
     65600   32.8           164.3728      -3357.649       10.602179     -3363.7666      5746.8611      17.911979      17.911979      17.911979    
     65800   32.9           173.64152     -3358.2449      11.200019     -4663.9472      5746.8062      17.911922      17.911922      17.911922    
     66000   33             168.25378     -3357.8953      10.852505     -2225.8744      5746.7511      17.911865      17.911865      17.911865    
     66200   33.1           172.1459      -3358.1444      11.103551     -3006.3379      5746.6959      17.911807      17.911807      17.911807    
     66400   33.2           169.59522     -3357.9777      10.939029     -2200.5302      5746.6406      17.91175       17.91175       17.91175     
     66600   33.3           169.58624     -3357.9751      10.93845      -3210.8539      5746.5851      17.911692      17.911692      17.911692    
     66800   33.4           162.80752     -3357.5357      10.501217     -2828.4778      5746.5295      17.911634      17.911634      17.911634    
     67000   33.5           169.82066     -3357.9861      10.953571     -3371.0393      5746.4737      17.911576      17.911576      17.911576    
     67200   33.6           175.4123      -3358.3448      11.314236     -2821.9675      5746.4179      17.911518      17.911518      17.911518    
     67400   33.7           162.60693     -3357.5166      10.488279     -3338.2482      5746.3619      17.91146       17.91146       17.91146     
     67600   33.8           165.9665      -3357.7312      10.704974     -2597.0181      5746.3057      17.911402      17.911402      17.911402    
     67800   33.9           171.44746     -3358.0827      11.058501     -3278.8883      5746.2494      17.911343      17.911343      17.911343    
     68000   34             160.32417     -3357.3631      10.341039     -3718.9658      5746.1929      17.911285      17.911285      17.911285    
     68200   34.1           163.62475     -3357.5739      10.55393      -3593.4626      5746.1362      17.911226      17.911226      17.911226    
     68400   34.2           160.22317     -3357.3523      10.334525     -3454.9168      5746.0793      17.911167      17.911167      17.911167    
     68600   34.3           175.2274      -3358.3182      11.30231      -3694.5639      5746.0223      17.911107      17.911107      17.911107    
     68800   34.4           173.13779     -3358.1813      11.167528     -4782.6128      5745.9651      17.911048      17.911048      17.911048    
     69000   34.5           163.83221     -3357.5788      10.567311     -2027.4377      5745.9077      17.910988      17.910988      17.910988    
     69200   34.6           172.76527     -3358.1529      11.1435       -4429.2749      5745.8502      17.910928      17.910928      17.910928    
     69400   34.7           170.32127     -3357.9932      10.98586      -3716.5083      5745.7925      17.910869      17.910869      17.910869    
     69600   34.8           169.40863     -3357.9322      10.926994     -3247.2787      5745.7346      17.910808      17.910808      17.910808    
     69800   34.9           171.17365     -3358.0438      11.040839     -1719.8922      5745.6767      17.910748      17.910748      17.910748    
     70000   35             176.47137     -3358.3834      11.382547     -4652.6059      5745.6186      17.910688      17.910688      17.910688    
     70200   35.1           172.03284     -3358.0949      11.096258     -2143.3407      5745.5604      17.910627      17.910627      17.910627    
     70400   35.2           163.56081     -3357.5462      10.549805     -2223.1053      5745.502       17.910567      17.910567      17.910567    
     70600   35.3           170.32129     -3357.9801      10.985862     -3424.3723      5745.4435      17.910506      17.910506      17.910506    
     70800   35.4           164.58788     -3357.6081      10.616052     -2520.279       5745.3849      17.910445      17.910445      17.910445    
     71000   35.5           163.09282     -3357.5093      10.519619     -3489.2315      5745.3261      17.910384      17.910384      17.910384    
     71200   35.6           173.06866     -3358.1507      11.163069     -2980.7381      5745.2672      17.910323      17.910323      17.910323    
     71400   35.7           167.06657     -3357.7613      10.77593      -3220.512       5745.2081      17.910261      17.910261      17.910261    
     71600   35.8           159.21451     -3357.2526      10.269465     -2788.1623      5745.1488      17.9102        17.9102        17.9102      
     71800   35.9           167.08621     -3357.7582      10.777196     -2300.2518      5745.0894      17.910138      17.910138      17.910138    
     72000   36             176.61149     -3358.3703      11.391585     -3100.1597      5745.0299      17.910076      17.910076      17.910076    
     72200   36.1           174.02056     -3358.201       11.224467     -3195.2947      5744.9703      17.910014      17.910014      17.910014    
     72400   36.2           163.98071     -3357.5511      10.576889     -2784.8042      5744.9105      17.909952      17.909952      17.909952    
     72600   36.3           171.08577     -3358.0071      11.035171     -3120.1076      5744.8505      17.90989       17.90989       17.90989     
     72800   36.4           167.43245     -3357.7691      10.799529     -2482.1879      5744.7905      17.909827      17.909827      17.909827    
     73000   36.5           165.20617     -3357.6233      10.655932     -2103.4267      5744.7303      17.909765      17.909765      17.909765    
     73200   36.6           172.85731     -3358.1145      11.149437     -3556.5582      5744.67        17.909702      17.909702      17.909702    
     73400   36.7           162.60655     -3357.451       10.488254     -2734.3103      5744.6095      17.909639      17.909639      17.909639    
     73600   36.8           166.95869     -3357.7295      10.768971     -2803.6735      5744.5489      17.909576      17.909576      17.909576    
     73800   36.9           168.75609     -3357.8432      10.884905     -1995.05        5744.4881      17.909513      17.909513      17.909513    
     74000   37             169.3752      -3357.8808      10.924838     -3738.2822      5744.4272      17.90945       17.90945       17.90945     
     74200   37.1           170.94924     -3357.98        11.026365     -2805.9153      5744.3662      17.909386      17.909386      17.909386    
     74400   37.2           172.32293     -3358.0663      11.114969     -2013.3177      5744.305       17.909323      17.909323      17.909323    
     74600   37.3           172.16811     -3358.054       11.104983     -3154.2478      5744.2437      17.909259      17.909259      17.909259    
     74800   37.4           170.14654     -3357.9212      10.97459      -2535.9896      5744.1822      17.909195      17.909195      17.909195    
     75000   37.5           171.28795     -3357.9925      11.048212     -1147.3796      5744.1207      17.909131      17.909131      17.909131    
     75200   37.6           168.87284     -3357.8344      10.892435     -2075.2175      5744.059       17.909067      17.909067      17.909067    
     75400   37.7           170.14547     -3357.9141      10.974521     -2576.116       5743.9972      17.909003      17.909003      17.909003    
     75600   37.8           171.3727      -3357.991       11.053678     -3899.0558      5743.9353      17.908939      17.908939      17.908939    
     75800   37.9           166.19719     -3357.6547      10.719854     -2425.2335      5743.8732      17.908874      17.908874      17.908874    
     76000   38             166.98484     -3357.7032      10.770658     -2294.6011      5743.8111      17.908809      17.908809      17.908809    
     76200   38.1           166.32499     -3357.6582      10.728097     -1629.1289      5743.7487      17.908745      17.908745      17.908745    
     76400   38.2           168.91994     -3357.8232      10.895473     -1876.3539      5743.6863      17.90868       17.90868       17.90868     
     76600   38.3           163.68913     -3357.4834      10.558082     -2450.8733      5743.6238      17.908615      17.908615      17.908615    
     76800   38.4           160.99801     -3357.3074      10.384503     -940.67837      5743.5612      17.90855       17.90855       17.90855     
     77000   38.5           168.47512     -3357.7873      10.866782     -2001.4289      5743.4985      17.908485      17.908485      17.908485    
     77200   38.6           168.06329     -3357.7583      10.840219     -3167.9608      5743.4357      17.908419      17.908419      17.908419    
     77400   38.7           175.74897     -3358.2517      11.335952     -2000.7328      5743.3728      17.908354      17.908354      17.908354    
     77600   38.8           170.51989     -3357.9119      10.998671     -2438.5655      5743.3098      17.908288      17.908288      17.908288    
     77800   38.9           174.60302     -3358.1729      11.262036     -2346.7766      5743.2466      17.908223      17.908223      17.908223    
     78000   39             171.17721     -3357.9494      11.041069     -1924.9606      5743.1834      17.908157      17.908157      17.908157    
     78200   39.1           175.38354     -3358.2183      11.312381     -1023.0134      5743.1201      17.908091      17.908091      17.908091    
     78400   39.2           163.28598     -3357.4355      10.532078     -2336.0228      5743.0566      17.908025      17.908025      17.908025    
     78600   39.3           172.65346     -3358.0373      11.136288     -2049.8778      5742.9931      17.907959      17.907959      17.907959    
     78800   39.4           166.30154     -3357.6251      10.726585     -519.36099      5742.9294      17.907893      17.907893      17.907893    
     79000   39.5           168.51084     -3357.7651      10.869086     -2554.8709      5742.8657      17.907827      17.907827      17.907827    
     79200   39.6           174.12225     -3358.1246      11.231026     -2447.888       5742.8019      17.907761      17.907761      17.907761    
     79400   39.7           165.41877     -3357.5607      10.669645     -869.44245      5742.738       17.907694      17.907694      17.907694    
     79600   39.8           170.71017     -3357.8996      11.010945     -2670.8342      5742.674       17.907628      17.907628      17.907628    
     79800   39.9           173.8982      -3358.1029      11.216575     -1832.6887      5742.6099      17.907561      17.907561      17.907561    
     80000   40             170.45968     -3357.8785      10.994788     -2132.7813      5742.5457      17.907494      17.907494      17.907494    
     80200   40.1           162.54719     -3357.3656      10.484426     -1525.7245      5742.4814      17.907427      17.907427      17.907427    
     80400   40.2           162.10253     -3357.3344      10.455745     -1319.0153      5742.4169      17.90736       17.90736       17.90736     
     80600   40.3           161.92497     -3357.3204      10.444292     -1525.1719      5742.3524      17.907293      17.907293      17.907293    
     80800   40.4           165.21887     -3357.5304      10.656751     -2683.0708      5742.2878      17.907226      17.907226      17.907226    
     81000   40.5           165.95758     -3357.5756      10.704399     -2197.8677      5742.2231      17.907159      17.907159      17.907159    
     81200   40.6           170.79044     -3357.8848      11.016122     -1212.8119      5742.1583      17.907092      17.907092      17.907092    
     81400   40.7           172.6851      -3358.0045      11.138329     -2165.9452      5742.0934      17.907024      17.907024      17.907024    
     81600   40.8           176.52495     -3358.2497      11.386003     -1905.7828      5742.0284      17.906956      17.906956      17.906956    
     81800   40.9           176.16448     -3358.2239      11.362752     -811.39968      5741.9633      17.906889      17.906889      17.906889    
     82000   41             167.40389     -3357.6561      10.797687     -1154.3689      5741.8981      17.906821      17.906821      17.906821    
     82200   41.1           176.36789     -3358.232       11.375872     -2104.2271      5741.8329      17.906753      17.906753      17.906753    
     82400   41.2           167.51226     -3357.6582      10.804677     -1306.3541      5741.7676      17.906685      17.906685      17.906685    
     82600   41.3           174.61313     -3358.1136      11.262689     -1614.5868      5741.7022      17.906617      17.906617      17.906617    
     82800   41.4           167.09727     -3357.6262      10.777909     -1762.4354      5741.6367      17.906549      17.906549      17.906549    
     83000   41.5           176.55987     -3358.2341      11.388255     -2018.0287      5741.5712      17.906481      17.906481      17.906481    
     83200   41.6           168.33759     -3357.7011      10.857911     -866.17687      5741.5056      17.906413      17.906413      17.906413    
     83400   41.7           175.75305     -3358.1769      11.336215     -2239.3123      5741.4399      17.906345      17.906345      17.906345    
     83600   41.8           168.17022     -3357.6852      10.847115     -185.00524      5741.3742      17.906276      17.906276      17.906276    
     83800   41.9           169.75074     -3357.7845      10.94906      -882.41961      5741.3084      17.906208      17.906208      17.906208    
     84000   42             167.52712     -3357.6385      10.805635     -1138.9643      5741.2425      17.90614       17.90614       17.90614     
     84200   42.1           172.64882     -3357.9662      11.135989     -1493.3684      5741.1766      17.906071      17.906071      17.906071    
     84400   42.2           174.19935     -3358.0638      11.235999     -1563.0523      5741.1106      17.906002      17.906002      17.906002    
     84600   42.3           174.52723     -3358.0823      11.257148     -196.60027      5741.0446      17.905934      17.905934      17.905934    
     84800   42.4           164.36376     -3357.4239      10.601596     -1526.4271      5740.9785      17.905865      17.905865      17.905865    
     85000   42.5           164.43416     -3357.4259      10.606137      977.29679      5740.9123      17.905796      17.905796      17.905796    
     85200   42.6           176.19958     -3358.1824      11.365016     -2385.003       5740.846       17.905727      17.905727      17.905727    
     85400   42.7           176.91004     -3358.2256      11.410841     -2453.0972      5740.7797      17.905658      17.905658      17.905658    
     85600   42.8           171.69052     -3357.8863      11.074178     -41.537587      5740.7133      17.905589      17.905589      17.905589    
     85800   42.9           167.84737     -3357.6358      10.826292     -2593.0756      5740.6469      17.90552       17.90552       17.90552     
     86000   43             166.37322     -3357.538       10.731208     -1358.5241      5740.5804      17.905451      17.905451      17.905451    
     86200   43.1           174.98721     -3358.091       11.286817     -1458.6861      5740.5138      17.905382      17.905382      17.905382    
     86400   43.2           173.50778     -3357.993       11.191393     -990.68145      5740.4472      17.905313      17.905313      17.905313    
     86600   43.3           172.52836     -3357.9272      11.12822      -1995.5493      5740.3805      17.905243      17.905243      17.905243    
     86800   43.4           173.90461     -3358.0134      11.216989     -2451.391       5740.3137      17.905174      17.905174      17.905174    
     87000   43.5           168.63567     -3357.6707      10.877138      595.89226      5740.2469      17.905104      17.905104      17.905104    
     87200   43.6           167.42621     -3357.5901      10.799127      522.33028      5740.1801      17.905035      17.905035      17.905035    
     87400   43.7           176.92706     -3358.2004      11.411939     -2349.063       5740.1132      17.904965      17.904965      17.904965    
     87600   43.8           168.98711     -3357.6856      10.899806     -1189.3669      5740.0462      17.904896      17.904896      17.904896    
     87800   43.9           170.2488      -3357.7643      10.981186     -1392.9666      5739.9792      17.904826      17.904826      17.904826    
     88000   44             166.20219     -3357.5006      10.720176     -376.53503      5739.9121      17.904756      17.904756      17.904756    
     88200   44.1           165.87687     -3357.477       10.699193     -2013.8867      5739.8449      17.904686      17.904686      17.904686    
     88400   44.2           173.18923     -3357.9461      11.170846     -775.16796      5739.7777      17.904617      17.904617      17.904617    
     88600   44.3           161.14979     -3357.1668      10.394292     -883.59124      5739.7105      17.904547      17.904547      17.904547    
     88800   44.4           167.86204     -3357.5972      10.827238     -1562.1188      5739.6431      17.904477      17.904477      17.904477    
     89000   44.5           182.94367     -3358.5674      11.800015     -1374.7117      5739.5757      17.904407      17.904407      17.904407    
     89200   44.6           171.61262     -3357.8338      11.069153      53.659798      5739.5082      17.904336      17.904336      17.904336    
     89400   44.7           176.45534     -3358.1434      11.381513     -1700.03        5739.4408      17.904266      17.904266      17.904266    
     89600   44.8           167.63091     -3357.5715      10.81233      -1056.774       5739.3732      17.904196      17.904196      17.904196    
     89800   44.9           180.00346     -3358.367       11.61037      -294.6135       5739.3056      17.904126      17.904126      17.904126    
     90000   45             169.99326     -3357.7186      10.964704     -1209.2428      5739.238       17.904055      17.904055      17.904055    
     90200   45.1           167.08068     -3357.5279      10.776839     -2446.2583      5739.1703      17.903985      17.903985      17.903985    
     90400   45.2           167.0796      -3357.5254      10.77677      -1501.6432      5739.1026      17.903915      17.903915      17.903915    
     90600   45.3           168.89269     -3357.6396      10.893716      976.98389      5739.0348      17.903844      17.903844      17.903844    
     90800   45.4           168.98683     -3357.6429      10.899788     -988.90371      5738.9669      17.903773      17.903773      17.903773    
     91000   45.5           168.25279     -3357.593       10.852442     -1982.4369      5738.8991      17.903703      17.903703      17.903703    
     91200   45.6           170.51629     -3357.7363      10.998439     -21.423891      5738.8312      17.903632      17.903632      17.903632    
     91400   45.7           171.50497     -3357.7973      11.06221      -784.92741      5738.7632      17.903562      17.903562      17.903562    
     91600   45.8           173.82069     -3357.9442      11.211576      136.82009      5738.6953      17.903491      17.903491      17.903491    
     91800   45.9           180.15103     -3358.3498      11.619888     -494.15408      5738.6272      17.90342       17.90342       17.90342     
     92000   46             171.71451     -3357.8029      11.075725     -1225.4538      5738.5592      17.903349      17.903349      17.903349    
     92200   46.1           173.71511     -3357.9292      11.204766     -147.00182      5738.4911      17.903279      17.903279      17.903279    
     92400   46.2           174.42338     -3357.9722      11.25045      -88.89836       5738.4229      17.903208      17.903208      17.903208    
     92600   46.3           177.66193     -3358.1785      11.459339     -1040.9027      5738.3548      17.903137      17.903137      17.903137    
     92800   46.4           172.02599     -3357.8122      11.095816     -834.07511      5738.2866      17.903066      17.903066      17.903066    
     93000   46.5           168.08303     -3357.5551      10.841492     -1358.9715      5738.2184      17.902995      17.902995      17.902995    
     93200   46.6           174.99679     -3357.9983      11.287435     -758.35186      5738.1502      17.902924      17.902924      17.902924    
     93400   46.7           171.19547     -3357.7505      11.042247     -965.67735      5738.082       17.902853      17.902853      17.902853    
     93600   46.8           160.82843     -3357.079       10.373565      572.02498      5738.0138      17.902782      17.902782      17.902782    
     93800   46.9           170.95783     -3357.7298      11.026919      28.224362      5737.9456      17.902711      17.902711      17.902711    
     94000   47             158.37741     -3356.9154      10.215471     -1443.5379      5737.8773      17.90264       17.90264       17.90264     
     94200   47.1           169.91659     -3357.6571      10.959758      827.11005      5737.809       17.902569      17.902569      17.902569    
     94400   47.2           175.14835     -3357.9919      11.297211     -291.76757      5737.7407      17.902498      17.902498      17.902498    
     94600   47.3           174.26344     -3357.9321      11.240134     -994.63052      5737.6724      17.902427      17.902427      17.902427    
     94800   47.4           172.00075     -3357.7835      11.094188     -192.63866      5737.6041      17.902356      17.902356      17.902356    
     95000   47.5           172.23752     -3357.7961      11.10946      -1276.0046      5737.5357      17.902285      17.902285      17.902285    
     95200   47.6           175.96198     -3358.0337      11.349691     -542.47705      5737.4673      17.902214      17.902214      17.902214    
     95400   47.7           164.39632     -3357.2848      10.603696      1550.882       5737.3989      17.902143      17.902143      17.902143    
     95600   47.8           173.15309     -3357.847       11.168515      120.35945      5737.3305      17.902072      17.902072      17.902072    
     95800   47.9           165.4281      -3357.3459      10.670247     -696.35473      5737.2621      17.902         17.902         17.902       
     96000   48             174.47545     -3357.9268      11.253808     -178.39686      5737.1936      17.901929      17.901929      17.901929    
     96200   48.1           173.17351     -3357.8401      11.169832      1431.0943      5737.1252      17.901858      17.901858      17.901858    
     96400   48.2           170.02583     -3357.6344      10.966804     -1674.3025      5737.0568      17.901787      17.901787      17.901787    
     96600   48.3           168.60109     -3357.5397      10.874907     -40.685539      5736.9884      17.901716      17.901716      17.901716    
     96800   48.4           171.84438     -3357.7463      11.084102      608.98885      5736.9199      17.901645      17.901645      17.901645    
     97000   48.5           175.02763     -3357.9489      11.289424      1016.2551      5736.8515      17.901573      17.901573      17.901573    
     97200   48.6           168.55754     -3357.5288      10.872098     -854.86858      5736.783       17.901502      17.901502      17.901502    
     97400   48.7           177.707       -3358.1162      11.462246      860.68298      5736.7146      17.901431      17.901431      17.901431    
     97600   48.8           179.87894     -3358.2537      11.602338     -1050.5954      5736.6461      17.90136       17.90136       17.90136     
     97800   48.9           165.09703     -3357.2974      10.648892      355.12635      5736.5777      17.901289      17.901289      17.901289    
     98000   49             175.65716     -3357.9758      11.33003      -925.37586      5736.5093      17.901217      17.901217      17.901217    
     98200   49.1           173.65329     -3357.8439      11.200778     -1303.4297      5736.4408      17.901146      17.901146      17.901146    
     98400   49.2           169.81116     -3357.5934      10.952958     -1132.735       5736.3723      17.901075      17.901075      17.901075    
     98600   49.3           165.17983     -3357.2919      10.654233     -149.62193      5736.3038      17.901004      17.901004      17.901004    
     98800   49.4           166.7558      -3357.3909      10.755884      233.86761      5736.2353      17.900932      17.900932      17.900932    
     99000   49.5           171.98989     -3357.7258      11.093487      3.5354423      5736.1668      17.900861      17.900861      17.900861    
     99200   49.6           168.57031     -3357.5024      10.872922      837.84259      5736.0983      17.90079       17.90079       17.90079     
     99400   49.7           180.29141     -3358.2558      11.628942     -418.35797      5736.0298      17.900719      17.900719      17.900719    
     99600   49.8           171.74889     -3357.7021      11.077943     -462.14334      5735.9613      17.900647      17.900647      17.900647    
     99800   49.9           169.20296     -3357.5351      10.913729      123.38085      5735.8928      17.900576      17.900576      17.900576    
    100000   50             166.31613     -3357.3463      10.727525      2346.3264      5735.8243      17.900505      17.900505      17.900505    
    100200   50.1           174.04899     -3357.8423      11.226302      376.57291      5735.7559      17.900434      17.900434      17.900434    
    100400   50.2           166.40336     -3357.3464      10.733152     -78.055355      5735.6875      17.900363      17.900363      17.900363    
    100600   50.3           173.91289     -3357.828       11.217523      219.99742      5735.6191      17.900291      17.900291      17.900291    
    100800   50.4           171.56134     -3357.6737      11.065846      1012.4175      5735.5507      17.90022       17.90022       17.90022     
    101000   50.5           170.07783     -3357.5753      10.970158      189.3727       5735.4823      17.900149      17.900149      17.900149    
    101200   50.6           164.68858     -3357.2249      10.622547      1034.9455      5735.4139      17.900078      17.900078      17.900078    
    101400   50.7           172.16194     -3357.7043      11.104585      548.9089       5735.3455      17.900007      17.900007      17.900007    
    101600   50.8           176.64208     -3357.9906      11.393558     -445.2207       5735.2771      17.899936      17.899936      17.899936    
    101800   50.9           173.84361     -3357.8074      11.213054     -463.19216      5735.2088      17.899865      17.899865      17.899865    
    102000   51             170.84831     -3357.6116      11.019855      385.1805       5735.1405      17.899793      17.899793      17.899793    
    102200   51.1           174.10792     -3357.819       11.230102     -121.66607      5735.0722      17.899722      17.899722      17.899722    
    102400   51.2           169.32252     -3357.5077      10.92144      -222.57749      5735.0039      17.899651      17.899651      17.899651    
    102600   51.3           171.85228     -3357.6682      11.084612      1576.025       5734.9356      17.89958       17.89958       17.89958     
    102800   51.4           179.25071     -3358.1428      11.561816      93.013904      5734.8673      17.899509      17.899509      17.899509    
    103000   51.5           178.20688     -3358.0727      11.494488      50.630397      5734.799       17.899438      17.899438      17.899438    
    103200   51.6           175.64144     -3357.9046      11.329016     -876.06846      5734.7307      17.899367      17.899367      17.899367    
    103400   51.7           171.65926     -3357.645       11.072161      484.79302      5734.6625      17.899296      17.899296      17.899296    
    103600   51.8           173.875       -3357.7852      11.215078      925.58894      5734.5943      17.899225      17.899225      17.899225    
    103800   51.9           164.86589     -3357.2013      10.633984      1688.4992      5734.5261      17.899154      17.899154      17.899154    
    104000   52             174.13033     -3357.7962      11.231548      268.65409      5734.458       17.899083      17.899083      17.899083    
    104200   52.1           167.85501     -3357.3888      10.826785      1474.7342      5734.3899      17.899013      17.899013      17.899013    
    104400   52.2           177.93136     -3358.036       11.476717     -156.28702      5734.3218      17.898942      17.898942      17.898942    
    104600   52.3           177.49472     -3358.0052      11.448554      611.14388      5734.2538      17.898871      17.898871      17.898871    
    104800   52.4           169.83464     -3357.5084      10.954473      1678.8566      5734.1857      17.8988        17.8988        17.8988      
    105000   52.5           170.60015     -3357.555       11.003848      703.60817      5734.1178      17.898729      17.898729      17.898729    
    105200   52.6           179.54784     -3358.1295      11.580982      1155.329       5734.0498      17.898659      17.898659      17.898659    
    105400   52.7           167.87542     -3357.3739      10.828101      1334.6209      5733.9819      17.898588      17.898588      17.898588    
    105600   52.8           175.49996     -3357.863       11.31989       622.8969       5733.9141      17.898518      17.898518      17.898518    
    105800   52.9           180.03471     -3358.1529      11.612385      1660.6788      5733.8463      17.898447      17.898447      17.898447    
    106000   53             171.33228     -3357.5888      11.051071      1673.7458      5733.7786      17.898377      17.898377      17.898377    
    106200   53.1           175.93182     -3357.8828      11.347745     -894.30155      5733.7109      17.898306      17.898306      17.898306    
    106400   53.2           174.32776     -3357.7766      11.244282      951.54009      5733.6433      17.898236      17.898236      17.898236    
    106600   53.3           175.493       -3357.8491      11.319441      176.87498      5733.5757      17.898165      17.898165      17.898165    
    106800   53.4           171.78466     -3357.6073      11.08025       1704.1517      5733.5081      17.898095      17.898095      17.898095    
    107000   53.5           180.16874     -3358.1454      11.62103       2106.4736      5733.4405      17.898025      17.898025      17.898025    
    107200   53.6           168.61582     -3357.3975      10.875857      909.67772      5733.3731      17.897955      17.897955      17.897955    
    107400   53.7           171.68019     -3357.5925      11.073512      1169.8691      5733.3057      17.897884      17.897884      17.897884    
    107600   53.8           173.07312     -3357.6798      11.163357      152.89499      5733.2383      17.897814      17.897814      17.897814    
    107800   53.9           160.88264     -3356.8906      10.377061      2713.9773      5733.171       17.897744      17.897744      17.897744    
    108000   54             175.68265     -3357.8426      11.331674      586.85926      5733.1038      17.897674      17.897674      17.897674    
    108200   54.1           185.23583     -3358.4563      11.947862     -636.7284       5733.0367      17.897604      17.897604      17.897604    
    108400   54.2           173.7087      -3357.7099      11.204352      2977.8194      5732.9695      17.897535      17.897535      17.897535    
    108600   54.3           176.63612     -3357.8961      11.393173      1027.4612      5732.9025      17.897465      17.897465      17.897465    
    108800   54.4           181.2033      -3358.1881      11.68776       2656.2703      5732.8356      17.897395      17.897395      17.897395    
    109000   54.5           177.41711     -3357.9412      11.443548      71.465919      5732.7687      17.897326      17.897326      17.897326    
    109200   54.6           171.36711     -3357.5482      11.053318      1249.264       5732.7019      17.897256      17.897256      17.897256    
    109400   54.7           172.68415     -3357.6305      11.138268      562.15015      5732.6351      17.897187      17.897187      17.897187    
    109600   54.8           163.2726      -3357.0208      10.531215      3820.7395      5732.5685      17.897117      17.897117      17.897117    
    109800   54.9           174.16269     -3357.7205      11.233635      1802.0126      5732.5019      17.897048      17.897048      17.897048    
    110000   55             168.06753     -3357.3246      10.840492      3237.1769      5732.4354      17.896979      17.896979      17.896979    
    110200   55.1           175.83389     -3357.823       11.341429     -187.65281      5732.369       17.89691       17.89691       17.89691     
    110400   55.2           178.46013     -3357.9899      11.510823      1053.849       5732.3026      17.896841      17.896841      17.896841    
    110600   55.3           179.83247     -3358.0758      11.59934       1540.4279      5732.2363      17.896772      17.896772      17.896772    
    110800   55.4           178.42884     -3357.9825      11.508805      1127.6151      5732.1701      17.896703      17.896703      17.896703    
    111000   55.5           174.68436     -3357.7384      11.267283      888.272        5732.1039      17.896634      17.896634      17.896634    
    111200   55.6           166.1127      -3357.1829      10.714404      2116.9644      5732.0377      17.896565      17.896565      17.896565    
    111400   55.7           172.59374     -3357.5983      11.132436      3111.9941      5731.9716      17.896496      17.896496      17.896496    
    111600   55.8           183.30507     -3358.2865      11.823326      959.47617      5731.9057      17.896427      17.896427      17.896427    
    111800   55.9           171.01434     -3357.4911      11.030564      343.34141      5731.8398      17.896359      17.896359      17.896359    
    112000   56             172.75112     -3357.6004      11.142588      1190.5508      5731.7739      17.89629       17.89629       17.89629     
    112200   56.1           171.56325     -3357.5212      11.065969      2263.9276      5731.7081      17.896222      17.896222      17.896222    
    112400   56.2           169.69555     -3357.3982      10.945501      2673.3352      5731.6424      17.896154      17.896154      17.896154    
    112600   56.3           171.2042      -3357.4927      11.04281       2796.5354      5731.5769      17.896085      17.896085      17.896085    
    112800   56.4           171.34348     -3357.4991      11.051793      1718.7346      5731.5114      17.896017      17.896017      17.896017    
    113000   56.5           178.28465     -3357.9443      11.499505      2014.6636      5731.446       17.895949      17.895949      17.895949    
    113200   56.6           184.13014     -3358.3186      11.876544      1367.5518      5731.3807      17.895881      17.895881      17.895881    
    113400   56.7           170.27193     -3357.4221      10.982678      959.96217      5731.3155      17.895813      17.895813      17.895813    
    113600   56.8           176.97325     -3357.8519      11.414918      1108.3081      5731.2503      17.895745      17.895745      17.895745    
    113800   56.9           172.625       -3357.5687      11.134453      1673.1651      5731.1852      17.895678      17.895678      17.895678    
    114000   57             179.1504      -3357.987       11.555346      2508.2488      5731.1202      17.89561       17.89561       17.89561     
    114200   57.1           164.38256     -3357.0318      10.602809      1028.8809      5731.0553      17.895542      17.895542      17.895542    
    114400   57.2           172.02651     -3357.5223      11.095849      1896.1934      5730.9905      17.895475      17.895475      17.895475    
    114600   57.3           174.86304     -3357.7027      11.278808      2310.0733      5730.9257      17.895408      17.895408      17.895408    
    114800   57.4           170.83948     -3357.4405      11.019285      1558.0505      5730.8611      17.89534       17.89534       17.89534     
    115000   57.5           175.23667     -3357.7216      11.302908      2234.0275      5730.7965      17.895273      17.895273      17.895273    
    115200   57.6           169.62955     -3357.3573      10.941244      1538.5265      5730.732       17.895206      17.895206      17.895206    
    115400   57.7           176.37414     -3357.7898      11.376276      2501.0867      5730.6676      17.895139      17.895139      17.895139    
    115600   57.8           174.27658     -3357.6519      11.240981      4524.2179      5730.6033      17.895072      17.895072      17.895072    
    115800   57.9           172.69265     -3357.547       11.138816      3102.026       5730.5392      17.895005      17.895005      17.895005    
    116000   58             173.50808     -3357.597       11.191412      2869.7875      5730.4752      17.894939      17.894939      17.894939    
    116200   58.1           170.29309     -3357.3871      10.984043      1267.4634      5730.4114      17.894872      17.894872      17.894872    
    116400   58.2           175.04962     -3357.6913      11.290843      1185.9086      5730.3476      17.894806      17.894806      17.894806    
    116600   58.3           169.86636     -3357.3543      10.956518      2111.8622      5730.2838      17.894739      17.894739      17.894739    
    116800   58.4           176.23367     -3357.7625      11.367215      1567.3064      5730.2202      17.894673      17.894673      17.894673    
    117000   58.5           173.17375     -3357.5626      11.169848      2274.2495      5730.1567      17.894607      17.894607      17.894607    
    117200   58.6           166.93895     -3357.1578      10.767698      2373.5238      5730.0933      17.894541      17.894541      17.894541    
    117400   58.7           175.87509     -3357.7317      11.344086      2514.1622      5730.03        17.894475      17.894475      17.894475    
    117600   58.8           179.1183      -3357.9383      11.553276      1393.9963      5729.9668      17.894409      17.894409      17.894409    
    117800   58.9           179.31945     -3357.9487      11.56625       2436.223       5729.9037      17.894344      17.894344      17.894344    
    118000   59             171.90525     -3357.468       11.088029      2134.7929      5729.8407      17.894278      17.894278      17.894278    
    118200   59.1           171.31474     -3357.4274      11.04994       1545.815       5729.7778      17.894213      17.894213      17.894213    
    118400   59.2           165.00971     -3357.018       10.64326       1317.0816      5729.715       17.894147      17.894147      17.894147    
    118600   59.3           170.41625     -3357.3644      10.991986      1139.6906      5729.6523      17.894082      17.894082      17.894082    
    118800   59.4           170.87109     -3357.3911      11.021324      2183.5931      5729.5896      17.894017      17.894017      17.894017    
    119000   59.5           177.52426     -3357.8178      11.450459      734.8023       5729.527       17.893952      17.893952      17.893952    
    119200   59.6           176.72773     -3357.764       11.399082      2170.6996      5729.4645      17.893886      17.893886      17.893886    
    119400   59.7           175.739       -3357.6976      11.335308      2121.9813      5729.4021      17.893821      17.893821      17.893821    
    119600   59.8           181.0411      -3358.0371      11.677298      2957.3704      5729.3398      17.893757      17.893757      17.893757    
    119800   59.9           171.70285     -3357.4321      11.074973      2384.3348      5729.2776      17.893692      17.893692      17.893692    
    120000   60             173.41315     -3357.54        11.185289      986.02088      5729.2155      17.893627      17.893627      17.893627    
    120200   60.1           170.30804     -3357.3371      10.985007      3145.7409      5729.1535      17.893563      17.893563      17.893563    
    120400   60.2           183.05414     -3358.1569      11.807141      1478.369       5729.0917      17.893498      17.893498      17.893498    
    120600   60.3           178.3272      -3357.8495      11.502249      1559.4395      5729.0299      17.893434      17.893434      17.893434    
    120800   60.4           174.55691     -3357.6038      11.259063      622.19882      5728.9682      17.89337       17.89337       17.89337     
    121000   60.5           174.13988     -3357.5743      11.232164      4319.4958      5728.9066      17.893306      17.893306      17.893306    
    121200   60.6           174.21405     -3357.5766      11.236948      3462.1135      5728.8451      17.893242      17.893242      17.893242    
    121400   60.7           174.74377     -3357.6082      11.271115      3006.2843      5728.7838      17.893178      17.893178      17.893178    
    121600   60.8           172.57786     -3357.466       11.131412      1008.2309      5728.7226      17.893114      17.893114      17.893114    
    121800   60.9           176.26731     -3357.7016      11.369385      1603.4652      5728.6614      17.89305       17.89305       17.89305     
    122000   61             173.55981     -3357.5243      11.194749      3194.403       5728.6004      17.892987      17.892987      17.892987    
    122200   61.1           177.57442     -3357.7808      11.453694      2031.3543      5728.5395      17.892923      17.892923      17.892923    
    122400   61.2           173.89202     -3357.5408      11.216177      2550.0301      5728.4787      17.89286       17.89286       17.89286     
    122600   61.3           164.18514     -3356.9121      10.590075      2107.9827      5728.418       17.892797      17.892797      17.892797    
    122800   61.4           168.69926     -3357.2008      10.881239      2463.4974      5728.3574      17.892734      17.892734      17.892734    
    123000   61.5           171.81118     -3357.3992      11.081961      2408.0503      5728.2969      17.892671      17.892671      17.892671    
    123200   61.6           177.02491     -3357.7329      11.41825       2369.2424      5728.2365      17.892608      17.892608      17.892608    
    123400   61.7           180.7063      -3357.968       11.655703      1293.5646      5728.1762      17.892545      17.892545      17.892545    
    123600   61.8           172.88913     -3357.4613      11.151489      2278.0359      5728.1161      17.892483      17.892483      17.892483    
    123800   61.9           176.84478     -3357.7139      11.406632      2616.0588      5728.056       17.89242       17.89242       17.89242     
    124000   62             176.6453      -3357.6986      11.393765      1579.7296      5727.9961      17.892358      17.892358      17.892358    
    124200   62.1           171.78405     -3357.3825      11.080211      4848.4709      5727.9363      17.892295      17.892295      17.892295    
    124400   62.2           170.71759     -3357.3112      11.011423      2507.9632      5727.8767      17.892233      17.892233      17.892233    
    124600   62.3           170.88914     -3357.3197      11.022488      3079.8512      5727.8173      17.892171      17.892171      17.892171    
    124800   62.4           181.94666     -3358.0306      11.735708      513.29942      5727.7579      17.89211       17.89211       17.89211     
    125000   62.5           177.65584     -3357.7513      11.458946      3725.4704      5727.6986      17.892048      17.892048      17.892048    
    125200   62.6           171.89099     -3357.3769      11.087109      4717.2404      5727.6395      17.891986      17.891986      17.891986    
    125400   62.7           177.99206     -3357.768       11.480633      1655.8962      5727.5806      17.891925      17.891925      17.891925    
    125600   62.8           172.4799      -3357.41        11.125093      2835.5801      5727.5219      17.891864      17.891864      17.891864    
    125800   62.9           178.25404     -3357.78        11.49753       3034.2424      5727.4632      17.891803      17.891803      17.891803    
    126000   63             172.76036     -3357.4231      11.143184      4899.4299      5727.4047      17.891742      17.891742      17.891742    
    126200   63.1           181.05381     -3357.9557      11.678118      2644.5608      5727.3464      17.891681      17.891681      17.891681    
    126400   63.2           169.07861     -3357.1807      10.905707      1355.749       5727.2882      17.891621      17.891621      17.891621    
    126600   63.3           175.07519     -3357.5651      11.292492      3671.8384      5727.2302      17.89156       17.89156       17.89156     
    126800   63.4           175.74309     -3357.6056      11.335572      2647.8173      5727.1723      17.8915        17.8915        17.8915      
    127000   63.5           172.35402     -3357.3846      11.116974      2909.0103      5727.1145      17.89144       17.89144       17.89144     
    127200   63.6           177.6976      -3357.7268      11.46164       3482.7637      5727.0569      17.89138       17.89138       17.89138     
    127400   63.7           173.08976     -3357.4271      11.16443       3646.5367      5726.9994      17.89132       17.89132       17.89132     
    127600   63.8           181.02798     -3357.9368      11.676452      2994.5163      5726.9421      17.89126       17.89126       17.89126     
    127800   63.9           174.58569     -3357.5188      11.260919      2291.3802      5726.885       17.891201      17.891201      17.891201    
    128000   64             177.06235     -3357.676       11.420666      3695.0896      5726.8279      17.891141      17.891141      17.891141    
    128200   64.1           177.71565     -3357.7157      11.462804      3364.5209      5726.7711      17.891082      17.891082      17.891082    
    128400   64.2           172.88128     -3357.4015      11.150983      3058.8262      5726.7143      17.891023      17.891023      17.891023    
    128600   64.3           176.4543      -3357.6294      11.381446      3786.1974      5726.6577      17.890964      17.890964      17.890964    
    128800   64.4           184.95595     -3358.1755      11.929809      795.31171      5726.6013      17.890905      17.890905      17.890905    
    129000   64.5           179.62207     -3357.8289      11.58577       3549.3031      5726.545       17.890847      17.890847      17.890847    
    129200   64.6           187.0386      -3358.3049      12.064141      4166.8009      5726.4888      17.890788      17.890788      17.890788    
    129400   64.7           177.85215     -3357.7099      11.471608      3146.2287      5726.4329      17.89073       17.89073       17.89073     
    129600   64.8           174.33981     -3357.4808      11.245059      1373.5491      5726.3771      17.890672      17.890672      17.890672    
    129800   64.9           179.33236     -3357.8005      11.567083      2851.131       5726.3214      17.890614      17.890614      17.890614    
    130000   65             172.14718     -3357.3346      11.103633      3432.1409      5726.2658      17.890556      17.890556      17.890556    
    130200   65.1           169.65394     -3357.1713      10.942817      2408.7109      5726.2105      17.890498      17.890498      17.890498    
    130400   65.2           182.42145     -3357.9926      11.766332      2221.7815      5726.1552      17.890441      17.890441      17.890441    
    130600   65.3           167.49879     -3357.0275      10.803808      4340.9545      5726.1         17.890383      17.890383      17.890383    
    130800   65.4           177.87476     -3357.6945      11.473067      3014.8939      5726.0451      17.890326      17.890326      17.890326    
    131000   65.5           179.4586      -3357.7941      11.575225      3793.7897      5725.9903      17.890269      17.890269      17.890269    
    131200   65.6           179.10633     -3357.769       11.552504      3930.8477      5725.9357      17.890212      17.890212      17.890212    
    131400   65.7           170.39641     -3357.2047      10.990707      3719.549       5725.8813      17.890155      17.890155      17.890155    
    131600   65.8           170.27569     -3357.1945      10.98292       4025.4863      5725.8271      17.890099      17.890099      17.890099    
    131800   65.9           174.79725     -3357.4837      11.274564      4266.6603      5725.773       17.890043      17.890043      17.890043    
    132000   66             175.48711     -3357.5257      11.319061      3130.925       5725.7192      17.889987      17.889987      17.889987    
    132200   66.1           171.47285     -3357.2643      11.060138      5166.3706      5725.6654      17.889931      17.889931      17.889931    
    132400   66.2           176.87348     -3357.6103      11.408483      3663.2319      5725.6119      17.889875      17.889875      17.889875    
    132600   66.3           180.72004     -3357.8558      11.656589      5629.7515      5725.5585      17.889819      17.889819      17.889819    
    132800   66.4           182.95564     -3357.9975      11.800787      4105.4598      5725.5054      17.889764      17.889764      17.889764    
    133000   66.5           179.48981     -3357.7714      11.577239      2702.6949      5725.4524      17.889709      17.889709      17.889709    
    133200   66.6           178.39775     -3357.6986      11.5068        3034.0312      5725.3996      17.889654      17.889654      17.889654    
    133400   66.7           178.13798     -3357.6795      11.490044      3859.4075      5725.3469      17.889599      17.889599      17.889599    
    133600   66.8           183.75836     -3358.0395      11.852563      2502.5837      5725.2944      17.889544      17.889544      17.889544    
    133800   66.9           171.79576     -3357.2655      11.080966      1934.2223      5725.242       17.88949       17.88949       17.88949     
    134000   67             184.40921     -3358.0767      11.894544      3003.2744      5725.1897      17.889435      17.889435      17.889435    
    134200   67.1           174.79417     -3357.454       11.274366      4587.1545      5725.1376      17.889381      17.889381      17.889381    
    134400   67.2           186.00916     -3358.1749      11.997742      1558.3007      5725.0856      17.889327      17.889327      17.889327    
    134600   67.3           196.49985     -3358.8493      12.6744        1485.8155      5725.0337      17.889273      17.889273      17.889273    
    134800   67.4           171.63978     -3357.2431      11.070905      3520.2182      5724.9819      17.889219      17.889219      17.889219    
    135000   67.5           177.41417     -3357.6131      11.443358      2706.3469      5724.9303      17.889165      17.889165      17.889165    
    135200   67.6           180.44509     -3357.8063      11.638855      2470.5115      5724.8788      17.889111      17.889111      17.889111    
    135400   67.7           182.59146     -3357.9422      11.777298      3108.8883      5724.8275      17.889058      17.889058      17.889058    
    135600   67.8           177.45993     -3357.6087      11.446309      2642.2271      5724.7763      17.889005      17.889005      17.889005    
    135800   67.9           181.79947     -3357.8862      11.726213      2132.2066      5724.7253      17.888951      17.888951      17.888951    
    136000   68             184.58401     -3358.0634      11.905819      3137.8722      5724.6743      17.888898      17.888898      17.888898    
    136200   68.1           178.81769     -3357.689       11.533886      4269.0485      5724.6235      17.888845      17.888845      17.888845    
    136400   68.2           182.5784      -3357.9291      11.776455      2134.2525      5724.5729      17.888793      17.888793      17.888793    
    136600   68.3           181.40574     -3357.8511      11.700818      2512.597       5724.5224      17.88874       17.88874       17.88874     
    136800   68.4           181.50616     -3357.8552      11.707295      2443.0362      5724.4721      17.888688      17.888688      17.888688    
    137000   68.5           172.09395     -3357.2456      11.1002        3175.5958      5724.4218      17.888635      17.888635      17.888635    
    137200   68.6           182.53278     -3357.9165      11.773512      3161.9856      5724.3717      17.888583      17.888583      17.888583    
    137400   68.7           185.70783     -3358.1188      11.978306      4273.2103      5724.3217      17.888531      17.888531      17.888531    
    137600   68.8           182.09005     -3357.883       11.744956      2861.457       5724.272       17.888479      17.888479      17.888479    
    137800   68.9           183.28103     -3357.9575      11.821775      3468.9505      5724.2223      17.888427      17.888427      17.888427    
    138000   69             181.5031      -3357.8404      11.707097      3071.8036      5724.1728      17.888376      17.888376      17.888376    
    138200   69.1           176.73014     -3357.5301      11.399237      3666.8383      5724.1235      17.888325      17.888325      17.888325    
    138400   69.2           186.83182     -3358.1793      12.050804      1912.6591      5724.0743      17.888273      17.888273      17.888273    
    138600   69.3           187.73949     -3358.2355      12.10935       2909.7388      5724.0252      17.888222      17.888222      17.888222    
    138800   69.4           182.51978     -3357.8963      11.772674      3853.2902      5723.9762      17.888171      17.888171      17.888171    
    139000   69.5           188.95759     -3358.3092      12.187918      2639.9182      5723.9274      17.88812       17.88812       17.88812     
    139200   69.6           179.69045     -3357.7089      11.59018       4167.6843      5723.8787      17.88807       17.88807       17.88807     
    139400   69.7           191.01569     -3358.437       12.320667      1072.2016      5723.8302      17.888019      17.888019      17.888019    
    139600   69.8           186.63981     -3358.1525      12.038419      3340.6737      5723.7818      17.887969      17.887969      17.887969    
    139800   69.9           181.29177     -3357.805       11.693467      5053.4003      5723.7336      17.887918      17.887918      17.887918    
    140000   70             188.88458     -3358.2923      12.183209      1639.2777      5723.6856      17.887868      17.887868      17.887868    
    140200   70.1           178.45175     -3357.6169      11.510283      3724.0991      5723.6377      17.887818      17.887818      17.887818    
    140400   70.2           177.20532     -3357.534       11.429887      5593.5076      5723.59        17.887769      17.887769      17.887769    
    140600   70.3           183.11711     -3357.9131      11.811202      3903.1188      5723.5425      17.887719      17.887719      17.887719    
    140800   70.4           183.85349     -3357.9581      11.858699      2417.1093      5723.4952      17.88767       17.88767       17.88767     
    141000   70.5           180.44469     -3357.7359      11.638829      2467.3403      5723.4481      17.887621      17.887621      17.887621    
    141200   70.6           175.31605     -3357.4025      11.308027      2276.9944      5723.401       17.887572      17.887572      17.887572    
    141400   70.7           173.27808     -3357.2687      11.176577      2817.8962      5723.3541      17.887523      17.887523      17.887523    
    141600   70.8           186.31318     -3358.1072      12.017351      3112.6772      5723.3073      17.887474      17.887474      17.887474    
    141800   70.9           173.0496      -3357.2492      11.161839      3431.8916      5723.2607      17.887426      17.887426      17.887426    
    142000   71             184.64966     -3357.9951      11.910053      3414.8187      5723.2142      17.887377      17.887377      17.887377    
    142200   71.1           185.13138     -3358.0238      11.941125      2361.6868      5723.1678      17.887329      17.887329      17.887329    
    142400   71.2           182.91053     -3357.8782      11.797878      2686.38        5723.1216      17.887281      17.887281      17.887281    
    142600   71.3           181.952       -3357.8139      11.736052      3853.828       5723.0755      17.887233      17.887233      17.887233    
    142800   71.4           172.05552     -3357.1732      11.097721      3340.5044      5723.0295      17.887185      17.887185      17.887185    
    143000   71.5           186.85049     -3358.1252      12.052008      1889.1442      5722.9837      17.887137      17.887137      17.887137    
    143200   71.6           180.64546     -3357.7225      11.651779      3566.7754      5722.9381      17.88709       17.88709       17.88709     
    143400   71.7           189.89703     -3358.3168      12.248513      3407.0589      5722.8926      17.887042      17.887042      17.887042    
    143600   71.8           181.21646     -3357.7545      11.688609      4327.1288      5722.8472      17.886995      17.886995      17.886995    
    143800   71.9           182.23702     -3357.8179      11.754436      3554.0981      5722.8021      17.886948      17.886948      17.886948    
    144000   72             178.25986     -3357.559       11.497906      4733.8969      5722.7571      17.886901      17.886901      17.886901    
    144200   72.1           188.08379     -3358.1903      12.131557      5710.7833      5722.7124      17.886854      17.886854      17.886854    
    144400   72.2           182.95193     -3357.8568      11.800548      3892.7651      5722.6678      17.886808      17.886808      17.886808    
    144600   72.3           179.85182     -3357.6544      11.600588      4834.2338      5722.6235      17.886762      17.886762      17.886762    
    144800   72.4           177.64329     -3357.5094      11.458137      5005.0677      5722.5794      17.886716      17.886716      17.886716    
    145000   72.5           187.59766     -3358.1491      12.100202      3937.9842      5722.5355      17.88667       17.88667       17.88667     
    145200   72.6           184.64096     -3357.956       11.909492      3565.0421      5722.4919      17.886625      17.886625      17.886625    
    145400   72.7           184.10306     -3357.9189      11.874797      3744.5704      5722.4483      17.886579      17.886579      17.886579    
    145600   72.8           178.89209     -3357.5804      11.538685      3666.4518      5722.405       17.886534      17.886534      17.886534    
    145800   72.9           180.30743     -3357.6692      11.629976      5504.057       5722.3618      17.886489      17.886489      17.886489    
    146000   73             187.67467     -3358.1421      12.105169      3636.0868      5722.3189      17.886444      17.886444      17.886444    
    146200   73.1           183.33793     -3357.8599      11.825445      5287.1005      5722.2762      17.8864        17.8864        17.8864      
    146400   73.2           181.43989     -3357.7351      11.70302       4942.7676      5722.2336      17.886356      17.886356      17.886356    
    146600   73.3           186.8049      -3358.0787      12.049067      3954.7731      5722.1913      17.886312      17.886312      17.886312    
    146800   73.4           182.85017     -3357.8212      11.793984      3292.9149      5722.1492      17.886268      17.886268      17.886268    
    147000   73.5           184.63248     -3357.9338      11.908945      4192.8372      5722.1073      17.886224      17.886224      17.886224    
    147200   73.6           177.83404     -3357.4929      11.47044       4789.5356      5722.0655      17.886181      17.886181      17.886181    
    147400   73.7           188.40217     -3358.1722      12.152093      4816.3175      5722.024       17.886137      17.886137      17.886137    
    147600   73.8           183.83492     -3357.8751      11.857501      3631.303       5721.9827      17.886094      17.886094      17.886094    
    147800   73.9           184.82612     -3357.9366      11.921435      1149.9489      5721.9416      17.886051      17.886051      17.886051    
    148000   74             183.98086     -3357.8798      11.866915      3764.5354      5721.9006      17.886009      17.886009      17.886009    
    148200   74.1           179.59233     -3357.5942      11.583851      6756.7373      5721.8597      17.885966      17.885966      17.885966    
    148400   74.2           185.19656     -3357.9533      11.945328      2556.5336      5721.8192      17.885924      17.885924      17.885924    
    148600   74.3           181.00366     -3357.6804      11.674883      3394.5061      5721.7788      17.885882      17.885882      17.885882    
    148800   74.4           184.28736     -3357.8899      11.886684      4678.2888      5721.7386      17.88584       17.88584       17.88584     
    149000   74.5           179.95792     -3357.6082      11.607432      3781.6883      5721.6986      17.885798      17.885798      17.885798    
    149200   74.6           187.93873     -3358.1207      12.122201      5861.573       5721.6588      17.885757      17.885757      17.885757    
    149400   74.7           188.03598     -3358.1245      12.128473      3614.9247      5721.6192      17.885715      17.885715      17.885715    
    149600   74.8           185.75083     -3357.9747      11.981079      3359.794       5721.5798      17.885674      17.885674      17.885674    
    149800   74.9           188.19074     -3358.1296      12.138456      3941.968       5721.5407      17.885634      17.885634      17.885634    
    150000   75             191.32143     -3358.3292      12.340387      3964.0511      5721.5016      17.885593      17.885593      17.885593    
    150200   75.1           187.17396     -3358.0593      12.072873      5107.5727      5721.4628      17.885553      17.885553      17.885553    
    150400   75.2           186.00941     -3357.9817      11.997758      4821.4775      5721.4243      17.885512      17.885512      17.885512    
    150600   75.3           190.4431      -3358.2653      12.283734      2782.0254      5721.3859      17.885472      17.885472      17.885472    
    150800   75.4           190.41605     -3358.2612      12.28199       5553.7458      5721.3477      17.885433      17.885433      17.885433    
    151000   75.5           179.09637     -3357.5285      11.551861      4759.1139      5721.3097      17.885393      17.885393      17.885393    
    151200   75.6           191.57001     -3358.3308      12.356421      4073.6353      5721.272       17.885354      17.885354      17.885354    
    151400   75.7           179.39645     -3357.543       11.571217      3316.5153      5721.2345      17.885315      17.885315      17.885315    
    151600   75.8           187.72195     -3358.0778      12.108218      3572.3732      5721.1971      17.885276      17.885276      17.885276    
    151800   75.9           184.3344      -3357.8568      11.889718      5894.5644      5721.16        17.885237      17.885237      17.885237    
    152000   76             187.37759     -3358.0508      12.086007      5494.1657      5721.1231      17.885198      17.885198      17.885198    
    152200   76.1           185.18856     -3357.907       11.944812      4024.4351      5721.0864      17.88516       17.88516       17.88516     
    152400   76.2           186.667       -3358           12.040173      2240.4295      5721.0499      17.885122      17.885122      17.885122    
    152600   76.3           179.8198      -3357.5559      11.598523      4500.2804      5721.0136      17.885084      17.885084      17.885084    
    152800   76.4           179.10405     -3357.5073      11.552357      4308.0115      5720.9774      17.885047      17.885047      17.885047    
    153000   76.5           187.22702     -3358.0289      12.076295      5736.1792      5720.9415      17.885009      17.885009      17.885009    
    153200   76.6           193.51528     -3358.4321      12.481893      3862.4922      5720.9058      17.884972      17.884972      17.884972    
    153400   76.7           183.00917     -3357.7519      11.80424       4881.9284      5720.8704      17.884935      17.884935      17.884935    
    153600   76.8           184.66304     -3357.8563      11.910916      4058.0279      5720.8352      17.884898      17.884898      17.884898    
    153800   76.9           185.15175     -3357.8854      11.942439      4705.6153      5720.8002      17.884862      17.884862      17.884862    
    154000   77             188.60714     -3358.1059      12.165314      4907.773       5720.7653      17.884826      17.884826      17.884826    
    154200   77.1           183.90389     -3357.8001      11.86195       4578.0289      5720.7307      17.88479       17.88479       17.88479     
    154400   77.2           183.46031     -3357.7691      11.833339      3765.9296      5720.6963      17.884754      17.884754      17.884754    
    154600   77.3           196.5489      -3358.611       12.677564      3995.5834      5720.6621      17.884718      17.884718      17.884718    
    154800   77.4           184.50748     -3357.8318      11.900883      4764.6601      5720.6282      17.884683      17.884683      17.884683    
    155000   77.5           184.35353     -3357.8193      11.890952      5193.1363      5720.5945      17.884648      17.884648      17.884648    
    155200   77.6           181.32829     -3357.6218      11.695822      4960.7815      5720.561       17.884613      17.884613      17.884613    
    155400   77.7           194.61779     -3358.4767      12.553006      3958.6067      5720.5278      17.884578      17.884578      17.884578    
    155600   77.8           189.35135     -3358.1345      12.213316      5865.7347      5720.4948      17.884544      17.884544      17.884544    
    155800   77.9           184.51139     -3357.82        11.901134      3404.6548      5720.4621      17.88451       17.88451       17.88451     
    156000   78             182.94768     -3357.7166      11.800274      5032.9306      5720.4295      17.884476      17.884476      17.884476    
    156200   78.1           184.63711     -3357.8231      11.909243      5118.8774      5720.3971      17.884442      17.884442      17.884442    
    156400   78.2           181.91686     -3357.6453      11.733785      5707.8732      5720.365       17.884408      17.884408      17.884408    
    156600   78.3           173.60621     -3357.1068      11.197741      4204.8333      5720.3332      17.884375      17.884375      17.884375    
    156800   78.4           186.10903     -3357.9109      12.004184      4195.9534      5720.3015      17.884342      17.884342      17.884342    
    157000   78.5           194.90086     -3358.4755      12.571264      3694.1277      5720.27        17.884309      17.884309      17.884309    
    157200   78.6           178.72705     -3357.4298      11.52804       5872.1215      5720.2388      17.884277      17.884277      17.884277    
    157400   78.7           176.69335     -3357.2962      11.396865      3648.2681      5720.2078      17.884245      17.884245      17.884245    
    157600   78.8           185.07702     -3357.8346      11.937618      2848.7769      5720.177       17.884213      17.884213      17.884213    
    157800   78.9           184.32979     -3357.784       11.889421      4346.0525      5720.1463      17.884181      17.884181      17.884181    
    158000   79             187.2747      -3357.9717      12.07937       4452.3607      5720.1159      17.884149      17.884149      17.884149    
    158200   79.1           176.53954     -3357.2766      11.386944      5055.4158      5720.0856      17.884117      17.884117      17.884117    
    158400   79.2           182.6747      -3357.67        11.782667      5119.6521      5720.0556      17.884086      17.884086      17.884086    
    158600   79.3           186.01682     -3357.8831      11.998236      6280.7489      5720.0258      17.884055      17.884055      17.884055    
    158800   79.4           186.7842      -3357.9303      12.047733      4623.4113      5719.9963      17.884024      17.884024      17.884024    
    159000   79.5           183.10753     -3357.6906      11.810585      4434.6586      5719.967       17.883994      17.883994      17.883994    
    159200   79.6           192.45694     -3358.2913      12.413629      5532.8181      5719.9379      17.883963      17.883963      17.883963    
    159400   79.7           187.09215     -3357.9428      12.067595      5036.9741      5719.909       17.883933      17.883933      17.883933    
    159600   79.8           183.95541     -3357.738       11.865273      6095.8863      5719.8804      17.883903      17.883903      17.883903    
    159800   79.9           192.20031     -3358.2674      12.397076      2358.5598      5719.8521      17.883874      17.883874      17.883874    
    160000   80             185.28008     -3357.8186      11.950715      5790.1334      5719.8239      17.883845      17.883845      17.883845    
    160200   80.1           183.57229     -3357.706       11.840562      5838.3751      5719.7959      17.883815      17.883815      17.883815    
    160400   80.2           189.82804     -3358.1072      12.244063      5896.5204      5719.7682      17.883787      17.883787      17.883787    
    160600   80.3           184.68484     -3357.7728      11.912322      4606.5523      5719.7408      17.883758      17.883758      17.883758    
    160800   80.4           196.05576     -3358.5039      12.645756      3555.9157      5719.7137      17.88373       17.88373       17.88373     
    161000   80.5           187.09977     -3357.9237      12.068087      4474.3476      5719.6867      17.883702      17.883702      17.883702    
    161200   80.6           185.19269     -3357.7984      11.945079      4740.4828      5719.6599      17.883674      17.883674      17.883674    
    161400   80.7           180.0851      -3357.4664      11.615635      4270.282       5719.6333      17.883646      17.883646      17.883646    
    161600   80.8           189.97946     -3358.1023      12.253829      6890.4368      5719.607       17.883618      17.883618      17.883618    
    161800   80.9           181.65361     -3357.5626      11.716805      7513.1015      5719.5809      17.883591      17.883591      17.883591    
    162000   81             179.46328     -3357.419       11.575527      4127.6059      5719.5552      17.883564      17.883564      17.883564    
    162200   81.1           184.78269     -3357.7596      11.918634      4403.9039      5719.5297      17.883538      17.883538      17.883538    
    162400   81.2           176.68669     -3357.2349      11.396435      4508.5818      5719.5044      17.883512      17.883512      17.883512    
    162600   81.3           185.82681     -3357.8222      11.98598       5181.236       5719.4793      17.883485      17.883485      17.883485    
    162800   81.4           178.32519     -3357.3358      11.502119      6599.7152      5719.4544      17.883459      17.883459      17.883459    
    163000   81.5           187.69891     -3357.938       12.106732      6148.0513      5719.4299      17.883434      17.883434      17.883434    
    163200   81.6           179.69145     -3357.419       11.590245      5213.0258      5719.4055      17.883409      17.883409      17.883409    
    163400   81.7           183.82442     -3357.6832      11.856824      4660.594       5719.3814      17.883383      17.883383      17.883383    
    163600   81.8           185.66681     -3357.7996      11.97566       6599.8294      5719.3576      17.883359      17.883359      17.883359    
    163800   81.9           183.31831     -3357.6456      11.82418       4988.8796      5719.3341      17.883334      17.883334      17.883334    
    164000   82             185.63494     -3357.7925      11.973604      5578.7988      5719.3107      17.88331       17.88331       17.88331     
    164200   82.1           178.27833     -3357.3156      11.499097      4958.8967      5719.2877      17.883286      17.883286      17.883286    
    164400   82.2           185.82224     -3357.7998      11.985685      6308.1459      5719.2648      17.883262      17.883262      17.883262    
    164600   82.3           184.68799     -3357.7241      11.912525      6500.3115      5719.2423      17.883238      17.883238      17.883238    
    164800   82.4           181.38872     -3357.5088      11.69972       5991.859       5719.22        17.883215      17.883215      17.883215    
    165000   82.5           178.96442     -3357.35        11.54335       5989.8624      5719.198       17.883192      17.883192      17.883192    
    165200   82.6           187.51126     -3357.8988      12.094629      4126.4729      5719.1763      17.88317       17.88317       17.88317     
    165400   82.7           189.7495      -3358.0408      12.238997      4456.28        5719.1548      17.883147      17.883147      17.883147    
    165600   82.8           184.59745     -3357.706       11.906685      5237.6256      5719.1336      17.883125      17.883125      17.883125    
    165800   82.9           185.5417      -3357.7644      11.96759       4395.7832      5719.1126      17.883103      17.883103      17.883103    
    166000   83             188.79023     -3357.9715      12.177123      3739.0195      5719.0918      17.883082      17.883082      17.883082    
    166200   83.1           179.21737     -3357.3516      11.559666      6384.2597      5719.0713      17.88306       17.88306       17.88306     
    166400   83.2           184.56234     -3357.694       11.904421      6265.8009      5719.051       17.883039      17.883039      17.883039    
    166600   83.3           183.93889     -3357.6511      11.864208      4168.1035      5719.031       17.883018      17.883018      17.883018    
    166800   83.4           186.84202     -3357.836       12.051462      5656.0064      5719.0112      17.882998      17.882998      17.882998    
    167000   83.5           183.05378     -3357.5892      11.807118      5466.8995      5718.9917      17.882977      17.882977      17.882977    
    167200   83.6           189.33988     -3357.9922      12.212576      6229.1944      5718.9724      17.882957      17.882957      17.882957    
    167400   83.7           190.61226     -3358.0717      12.294646      4349.0239      5718.9534      17.882937      17.882937      17.882937    
    167600   83.8           186.13262     -3357.7803      12.005705      3641.339       5718.9346      17.882918      17.882918      17.882918    
    167800   83.9           189.04457     -3357.9657      12.193528      4114.5422      5718.9161      17.882898      17.882898      17.882898    
    168000   84             186.0323      -3357.769       11.999235      6260.9778      5718.8978      17.882879      17.882879      17.882879    
    168200   84.1           193.23804     -3358.2314      12.464011      4870.525       5718.8798      17.882861      17.882861      17.882861    
    168400   84.2           180.16699     -3357.3856      11.620917      5127.9124      5718.8621      17.882842      17.882842      17.882842    
    168600   84.3           187.33528     -3357.8456      12.083278      5263.1434      5718.8445      17.882824      17.882824      17.882824    
    168800   84.4           185.36828     -3357.7161      11.956405      5524.8468      5718.8272      17.882806      17.882806      17.882806    
    169000   84.5           183.384       -3357.5857      11.828417      5201.8713      5718.8102      17.882788      17.882788      17.882788    
    169200   84.6           181.90057     -3357.4874      11.732734      5456.6661      5718.7934      17.88277       17.88277       17.88277     
    169400   84.7           188.8413      -3357.9327      12.180418      4583.327       5718.7769      17.882753      17.882753      17.882753    
    169600   84.8           182.32162     -3357.5096      11.759892      5039.4417      5718.7606      17.882736      17.882736      17.882736    
    169800   84.9           183.73995     -3357.5987      11.851376      5515.7246      5718.7445      17.882719      17.882719      17.882719    
    170000   85             183.59103     -3357.5866      11.841771      7127.9325      5718.7286      17.882703      17.882703      17.882703    
    170200   85.1           183.00913     -3357.5466      11.804238      7247.0427      5718.7131      17.882687      17.882687      17.882687    
    170400   85.2           180.92396     -3357.4095      11.669742      5139.7121      5718.6979      17.882671      17.882671      17.882671    
    170600   85.3           182.54475     -3357.5116      11.774285      6508.9106      5718.6829      17.882655      17.882655      17.882655    
    170800   85.4           180.19395     -3357.3575      11.622656      5475.0523      5718.6682      17.88264       17.88264       17.88264     
    171000   85.5           186.32861     -3357.7508      12.018347      4418.659       5718.6537      17.882625      17.882625      17.882625    
    171200   85.6           179.58689     -3357.3133      11.5835        5897.6201      5718.6395      17.88261       17.88261       17.88261     
    171400   85.7           182.41095     -3357.493       11.765655      6196.7235      5718.6255      17.882596      17.882596      17.882596    
    171600   85.8           179.4094      -3357.2969      11.572052      5591.1196      5718.6119      17.882581      17.882581      17.882581    
    171800   85.9           177.55169     -3357.1745      11.452228      6052.314       5718.5985      17.882567      17.882567      17.882567    
    172000   86             187.19255     -3357.794       12.074071      4167.1307      5718.5853      17.882554      17.882554      17.882554    
    172200   86.1           185.14864     -3357.6597      11.942238      4599.1566      5718.5724      17.88254       17.88254       17.88254     
    172400   86.2           186.45225     -3357.7412      12.026322      6021.6969      5718.5597      17.882527      17.882527      17.882527    
    172600   86.3           192.34376     -3358.1187      12.406329      5007.4031      5718.5473      17.882514      17.882514      17.882514    
    172800   86.4           183.78494     -3357.5642      11.854278      5877.0909      5718.5351      17.882501      17.882501      17.882501    
    173000   86.5           180.5521      -3357.3531      11.645757      4308.3847      5718.5232      17.882489      17.882489      17.882489    
    173200   86.6           174.63277     -3356.9687      11.263956      4390.8768      5718.5115      17.882477      17.882477      17.882477    
    173400   86.7           191.90816     -3358.0806      12.378232      5885.2189      5718.5         17.882465      17.882465      17.882465    
    173600   86.8           195.60653     -3358.3167      12.61678       5154.6776      5718.4888      17.882453      17.882453      17.882453    
    173800   86.9           187.22191     -3357.7734      12.075965      7116.0316      5718.4778      17.882442      17.882442      17.882442    
    174000   87             180.01359     -3357.3057      11.611023      7216.652       5718.4672      17.88243       17.88243       17.88243     
    174200   87.1           192.85131     -3358.1314      12.439066      4441.7488      5718.4568      17.88242       17.88242       17.88242     
    174400   87.2           180.15904     -3357.3101      11.620404      3742.99        5718.4466      17.882409      17.882409      17.882409    
    174600   87.3           183.98298     -3357.5543      11.867052      2976.6037      5718.4366      17.882399      17.882399      17.882399    
    174800   87.4           188.62539     -3357.8513      12.166491      5678.0965      5718.4268      17.882388      17.882388      17.882388    
    175000   87.5           182.4896      -3357.4529      11.770728      6367.1208      5718.4173      17.882378      17.882378      17.882378    
    175200   87.6           185.45603     -3357.6418      11.962065      5482.1045      5718.408       17.882369      17.882369      17.882369    
    175400   87.7           176.91691     -3357.0884      11.411284      5533.382       5718.399       17.882359      17.882359      17.882359    
    175600   87.8           182.7218      -3357.4604      11.785704      6433.4061      5718.3902      17.88235       17.88235       17.88235     
    175800   87.9           195.71161     -3358.2957      12.623558      4472.3162      5718.3817      17.882341      17.882341      17.882341    
    176000   88             189.39374     -3357.8858      12.21605       3368.6339      5718.3735      17.882333      17.882333      17.882333    
    176200   88.1           182.28782     -3357.4248      11.757712      4227.4943      5718.3654      17.882324      17.882324      17.882324    
    176400   88.2           175.72332     -3356.9988      11.334297      5249.8575      5718.3576      17.882316      17.882316      17.882316    
    176600   88.3           186.22839     -3357.6739      12.011882      4892.8947      5718.35        17.882308      17.882308      17.882308    
    176800   88.4           190.689       -3357.9592      12.299596      5663.3018      5718.3426      17.882301      17.882301      17.882301    
    177000   88.5           177.48355     -3357.1048      11.447833      4813.9065      5718.3355      17.882293      17.882293      17.882293    
    177200   88.6           190.57858     -3357.947       12.292473      4541.5997      5718.3287      17.882286      17.882286      17.882286    
    177400   88.7           188.65389     -3357.8204      12.168329      6394.4862      5718.322       17.882279      17.882279      17.882279    
    177600   88.8           190.91806     -3357.9639      12.31437       5802.8958      5718.3156      17.882272      17.882272      17.882272    
    177800   88.9           184.97877     -3357.5782      11.931281      5136.6523      5718.3095      17.882266      17.882266      17.882266    
    178000   89             189.12966     -3357.8434      12.199017      3716.7456      5718.3036      17.88226       17.88226       17.88226     
    178200   89.1           187.38422     -3357.7283      12.086434      5475.1425      5718.2979      17.882254      17.882254      17.882254    
    178400   89.2           182.76419     -3357.4277      11.788439      6420.1043      5718.2925      17.882248      17.882248      17.882248    
    178600   89.3           192.63587     -3358.062       12.42517       5234.2865      5718.2873      17.882243      17.882243      17.882243    
    178800   89.4           185.57796     -3357.6041      11.969929      6498.4559      5718.2824      17.882238      17.882238      17.882238    
    179000   89.5           186.04427     -3357.6315      12.000007      4616.7901      5718.2778      17.882233      17.882233      17.882233    
    179200   89.6           186.0535      -3357.6296      12.000602      3803.863       5718.2734      17.882228      17.882228      17.882228    
    179400   89.7           184.27527     -3357.5124      11.885904      7482.0529      5718.2692      17.882224      17.882224      17.882224    
    179600   89.8           182.9087      -3357.4216      11.79776       5277.8497      5718.2653      17.88222       17.88222       17.88222     
    179800   89.9           186.06343     -3357.6227      12.001242      3947.5019      5718.2616      17.882216      17.882216      17.882216    
    180000   90             185.11868     -3357.5592      11.940305      4171.2134      5718.2582      17.882213      17.882213      17.882213    
    180200   90.1           197.32349     -3358.3439      12.727525      6531.8019      5718.255       17.882209      17.882209      17.882209    
    180400   90.2           194.1725      -3358.138       12.524284      5781.5947      5718.2521      17.882206      17.882206      17.882206    
    180600   90.3           182.04795     -3357.3534      11.742241      5165.3562      5718.2495      17.882204      17.882204      17.882204    
    180800   90.4           185.14757     -3357.5508      11.942168      5309.123       5718.2471      17.882201      17.882201      17.882201    
    181000   90.5           195.39261     -3358.2089      12.602982      6104.9649      5718.245       17.882199      17.882199      17.882199    
    181200   90.6           181.94044     -3357.3385      11.735306      5223.5443      5718.2431      17.882197      17.882197      17.882197    
    181400   90.7           192.69014     -3358.0294      12.428671      4955.2465      5718.2416      17.882195      17.882195      17.882195    
    181600   90.8           192.5931      -3358.0207      12.422412      5417.0105      5718.2402      17.882194      17.882194      17.882194    
    181800   90.9           184.13855     -3357.4727      11.877086      5719.4438      5718.2392      17.882193      17.882193      17.882193    
    182000   91             188.49548     -3357.7513      12.158111      6183.9105      5718.2384      17.882192      17.882192      17.882192    
    182200   91.1           184.0205      -3357.4599      11.869472      4984.7417      5718.2379      17.882191      17.882191      17.882191    
    182400   91.2           184.85066     -3357.5109      11.923018      4829.7158      5718.2376      17.882191      17.882191      17.882191    
    182600   91.3           183.77121     -3357.4387      11.853392      5243.3266      5718.2375      17.882191      17.882191      17.882191    
    182800   91.4           186.75054     -3357.6283      12.045562      5779.6613      5718.2377      17.882191      17.882191      17.882191    
    183000   91.5           191.49215     -3357.9315      12.351399      5002.9194      5718.2382      17.882192      17.882192      17.882192    
    183200   91.6           187.78268     -3357.6897      12.112135      4500.063       5718.2389      17.882193      17.882193      17.882193    
    183400   91.7           190.1953      -3357.8427      12.267751      6506.9791      5718.2399      17.882194      17.882194      17.882194    
    183600   91.8           196.30843     -3358.2345      12.662053      5868.6293      5718.2412      17.882195      17.882195      17.882195    
    183800   91.9           194.5128      -3358.1161      12.546234      5054.4284      5718.2427      17.882196      17.882196      17.882196    
    184000   92             191.14905     -3357.8965      12.329269      3771.3678      5718.2444      17.882198      17.882198      17.882198    
    184200   92.1           185.4977      -3357.5293      11.964753      7512.2714      5718.2464      17.8822        17.8822        17.8822      
    184400   92.2           184.57387     -3357.4671      11.905165      6113.986       5718.2487      17.882203      17.882203      17.882203    
    184600   92.3           194.76284     -3358.1218      12.562362      5035.6803      5718.2512      17.882205      17.882205      17.882205    
    184800   92.4           179.33606     -3357.124       11.567322      5860.3994      5718.254       17.882208      17.882208      17.882208    
    185000   92.5           190.46712     -3357.8395      12.285284      6067.6673      5718.257       17.882211      17.882211      17.882211    
    185200   92.6           177.20008     -3356.981       11.429549      7360.8669      5718.2603      17.882215      17.882215      17.882215    
    185400   92.7           189.05309     -3357.743       12.194078      3680.6131      5718.2638      17.882218      17.882218      17.882218    
    185600   92.8           196.6562      -3358.2309      12.684485      6453.0088      5718.2676      17.882222      17.882222      17.882222    
    185800   92.9           184.8105      -3357.4641      11.920427      6182.642       5718.2717      17.882227      17.882227      17.882227    
    186000   93             181.75677     -3357.2645      11.723459      5257.6865      5718.2761      17.882231      17.882231      17.882231    
    186200   93.1           192.36445     -3357.9461      12.407664      5329.5215      5718.2807      17.882236      17.882236      17.882236    
    186400   93.2           192.24081     -3357.9356      12.399688      7417.5567      5718.2856      17.882241      17.882241      17.882241    
    186600   93.3           191.89988     -3357.9109      12.377698      4646.5757      5718.2908      17.882247      17.882247      17.882247    
    186800   93.4           185.19591     -3357.4758      11.945287      6874.0796      5718.2963      17.882252      17.882252      17.882252    
    187000   93.5           187.15009     -3357.5993      12.071333      6878.9292      5718.302       17.882258      17.882258      17.882258    
    187200   93.6           191.28713     -3357.8635      12.338175      5864.3949      5718.308       17.882265      17.882265      17.882265    
    187400   93.7           190.18421     -3357.7898      12.267036      4189.6553      5718.3143      17.882271      17.882271      17.882271    
    187600   93.8           191.38955     -3357.865       12.344782      5383.6266      5718.3208      17.882278      17.882278      17.882278    
    187800   93.9           183.0523      -3357.3245      11.807022      5050.6623      5718.3276      17.882285      17.882285      17.882285    
    188000   94             191.56618     -3357.8709      12.356174      5341.3579      5718.3347      17.882292      17.882292      17.882292    
    188200   94.1           190.78832     -3357.8182      12.306002      4911.5343      5718.342       17.8823        17.8823        17.8823      
    188400   94.2           190.74028     -3357.8125      12.302903      4991.4864      5718.3496      17.882308      17.882308      17.882308    
    188600   94.3           177.28126     -3356.9416      11.434785      7241.9506      5718.3575      17.882316      17.882316      17.882316    
    188800   94.4           187.33089     -3357.5872      12.082994      4547.6463      5718.3656      17.882325      17.882325      17.882325    
    189000   94.5           193.72226     -3357.9968      12.495243      6247.3172      5718.374       17.882333      17.882333      17.882333    
    189200   94.6           184.53719     -3357.4017      11.902799      6275.8518      5718.3827      17.882342      17.882342      17.882342    
    189400   94.7           183.43687     -3357.3281      11.831827      6513.57        5718.3916      17.882352      17.882352      17.882352    
    189600   94.8           184.93571     -3357.4221      11.928503      5359.7668      5718.4009      17.882361      17.882361      17.882361    
    189800   94.9           187.01097     -3357.5533      12.062359      4957.7691      5718.4104      17.882371      17.882371      17.882371    
    190000   95             189.18623     -3357.691       12.202665      4649.4578      5718.4202      17.882381      17.882381      17.882381    
    190200   95.1           192.69677     -3357.9148      12.429098      6543.714       5718.4302      17.882392      17.882392      17.882392    
    190400   95.2           185.77273     -3357.4656      11.982492      4429.7052      5718.4405      17.882403      17.882403      17.882403    
    190600   95.3           196.32159     -3358.1434      12.662902      5663.376       5718.4511      17.882414      17.882414      17.882414    
    190800   95.4           188.90407     -3357.6622      12.184466      5098.049       5718.4619      17.882425      17.882425      17.882425    
    191000   95.5           181.29836     -3357.1689      11.693891      5307.4432      5718.473       17.882437      17.882437      17.882437    
    191200   95.6           191.52086     -3357.8256      12.353251      5118.5738      5718.4844      17.882448      17.882448      17.882448    
    191400   95.7           196.06106     -3358.1159      12.646098      6113.8379      5718.496       17.88246       17.88246       17.88246     
    191600   95.8           187.57018     -3357.5655      12.098429      5886.5999      5718.5079      17.882473      17.882473      17.882473    
    191800   95.9           185.93365     -3357.4573      11.992871      5450.7272      5718.5201      17.882486      17.882486      17.882486    
    192000   96             189.18198     -3357.6642      12.202391      5115.6279      5718.5325      17.882498      17.882498      17.882498    
    192200   96.1           181.85132     -3357.1886      11.729558      5626.4706      5718.5451      17.882512      17.882512      17.882512    
    192400   96.2           187.83579     -3357.572       12.115561      6320.4232      5718.558       17.882525      17.882525      17.882525    
    192600   96.3           187.48312     -3357.5466      12.092814      3863.2208      5718.5712      17.882539      17.882539      17.882539    
    192800   96.4           189.04641     -3357.6447      12.193647      4128.901       5718.5846      17.882553      17.882553      17.882553    
    193000   96.5           192.1787      -3357.8441      12.395682      3940.4795      5718.5982      17.882567      17.882567      17.882567    
    193200   96.6           188.14961     -3357.5815      12.135803      4872.7587      5718.612       17.882581      17.882581      17.882581    
    193400   96.7           183.53481     -3357.2812      11.838145      4228.8513      5718.626       17.882596      17.882596      17.882596    
    193600   96.8           183.19125     -3357.2564      11.815984      6268.7947      5718.6403      17.882611      17.882611      17.882611    
    193800   96.9           192.7315      -3357.8691      12.431338      5474.6025      5718.6549      17.882626      17.882626      17.882626    
    194000   97             180.91878     -3357.1044      11.669408      5051.1629      5718.6697      17.882642      17.882642      17.882642    
    194200   97.1           186.0826      -3357.4348      12.002479      3740.9239      5718.6847      17.882657      17.882657      17.882657    
    194400   97.2           193.09501     -3357.8845      12.454785      5180.4422      5718.7         17.882673      17.882673      17.882673    
    194600   97.3           191.74984     -3357.795       12.36802       5044.9494      5718.7155      17.882689      17.882689      17.882689    
    194800   97.4           188.13629     -3357.5593      12.134944      5883.2543      5718.7312      17.882706      17.882706      17.882706    
    195000   97.5           182.79814     -3357.2122      11.790628      5386.3777      5718.7472      17.882722      17.882722      17.882722    
    195200   97.6           187.9521      -3357.542       12.123063      5534.7376      5718.7634      17.882739      17.882739      17.882739    
    195400   97.7           183.41093     -3357.2463      11.830154      2630.6563      5718.7799      17.882756      17.882756      17.882756    
    195600   97.8           180.7459      -3357.0716      11.658258      6051.2593      5718.7966      17.882774      17.882774      17.882774    
    195800   97.9           184.91341     -3357.3379      11.927065      6520.055       5718.8135      17.882791      17.882791      17.882791    
    196000   98             181.8322      -3357.1364      11.728324      6294.4713      5718.8306      17.882809      17.882809      17.882809    
    196200   98.1           188.91819     -3357.5908      12.185377      5718.9671      5718.848       17.882827      17.882827      17.882827    
    196400   98.2           184.78695     -3357.3216      11.918909      3602.133       5718.8657      17.882846      17.882846      17.882846    
    196600   98.3           190.90082     -3357.7132      12.313258      5969.5771      5718.8835      17.882864      17.882864      17.882864    
    196800   98.4           188.65474     -3357.5656      12.168384      5033.9199      5718.9016      17.882883      17.882883      17.882883    
    197000   98.5           184.4748      -3357.2933      11.898774      4681.9407      5718.92        17.882902      17.882902      17.882902    
    197200   98.6           187.48546     -3357.4848      12.092964      6665.8897      5718.9386      17.882922      17.882922      17.882922    
    197400   98.7           187.44867     -3357.4797      12.090591      5979.1997      5718.9575      17.882942      17.882942      17.882942    
    197600   98.8           188.85876     -3357.568       12.181544      5749.1557      5718.9767      17.882962      17.882962      17.882962    
    197800   98.9           195.51976     -3357.9949      12.611184      4998.8237      5718.9962      17.882982      17.882982      17.882982    
    198000   99             195.74749     -3358.0069      12.625872      5269.3066      5719.0159      17.883002      17.883002      17.883002    
    198200   99.1           190.53185     -3357.6677      12.289459      6182.199       5719.0359      17.883023      17.883023      17.883023    
    198400   99.2           178.70468     -3356.9021      11.526597      4706.016       5719.0561      17.883044      17.883044      17.883044    
    198600   99.3           187.94865     -3357.4955      12.122841      4902.049       5719.0766      17.883066      17.883066      17.883066    
    198800   99.4           190.91496     -3357.6843      12.31417       6750.6499      5719.0973      17.883087      17.883087      17.883087    
    199000   99.5           186.3836      -3357.3892      12.021894      3659.8815      5719.1183      17.883109      17.883109      17.883109    
    199200   99.6           182.66746     -3357.1469      11.7822        5167.9433      5719.1395      17.883131      17.883131      17.883131    
    199400   99.7           200.95038     -3358.3234      12.961463      5301.8668      5719.161       17.883154      17.883154      17.883154    
    199600   99.8           183.79335     -3357.214       11.854821      3726.2091      5719.1828      17.883176      17.883176      17.883176    
    199800   99.9           196.142       -3358.0077      12.651318      4915.2536      5719.2047      17.883199      17.883199      17.883199    
    200000   100            180.48117     -3356.9947      11.641182      4962.7051      5719.2269      17.883222      17.883222      17.883222    
    200200   100.1          192.49377     -3357.7669      12.416004      5549.1413      5719.2493      17.883246      17.883246      17.883246    
    200400   100.2          192.13648     -3357.7411      12.392959      4200.0959      5719.272       17.883269      17.883269      17.883269    
    200600   100.3          184.95396     -3357.2752      11.929681      6093.6585      5719.295       17.883293      17.883293      17.883293    
    200800   100.4          186.01578     -3357.3408      11.998169      4995.4941      5719.3182      17.883317      17.883317      17.883317    
    201000   100.5          189.1513      -3357.5402      12.200412      6544.8496      5719.3417      17.883342      17.883342      17.883342    
    201200   100.6          192.40014     -3357.7471      12.409965      4368.8541      5719.3654      17.883367      17.883367      17.883367    
    201400   100.7          187.28935     -3357.4147      12.080315      4345.6342      5719.3893      17.883392      17.883392      17.883392    
    201600   100.8          189.36967     -3357.5461      12.214498      4740.8718      5719.4135      17.883417      17.883417      17.883417    
    201800   100.9          191.28249     -3357.6667      12.337876      5010.2785      5719.4379      17.883442      17.883442      17.883442    
    202000   101            194.4037      -3357.8653      12.539197      4831.6414      5719.4625      17.883468      17.883468      17.883468    
    202200   101.1          193.60624     -3357.8111      12.487759      5605.7279      5719.4874      17.883494      17.883494      17.883494    
    202400   101.2          188.86303     -3357.5023      12.181819      4265.1427      5719.5125      17.88352       17.88352       17.88352     
    202600   101.3          195.22351     -3357.91        12.592075      6654.6402      5719.5379      17.883546      17.883546      17.883546    
    202800   101.4          185.69675     -3357.2927      11.977591      5079.6555      5719.5636      17.883573      17.883573      17.883573    
    203000   101.5          184.30816     -3357.2003      11.888026      3153.4264      5719.5895      17.8836        17.8836        17.8836      
    203200   101.6          189.43233     -3357.528       12.218539      5218.2855      5719.6156      17.883627      17.883627      17.883627    
    203400   101.7          181.79519     -3357.0327      11.725938      5886.489       5719.6419      17.883655      17.883655      17.883655    
    203600   101.8          194.71476     -3357.8632      12.55926       3906.63        5719.6684      17.883683      17.883683      17.883683    
    203800   101.9          190.45716     -3357.5858      12.284642      5853.621       5719.6952      17.88371       17.88371       17.88371     
    204000   102            184.39512     -3357.192       11.893635      6003.0356      5719.7223      17.883739      17.883739      17.883739    
    204200   102.1          191.51703     -3357.6487      12.353004      5069.9768      5719.7497      17.883767      17.883767      17.883767    
    204400   102.2          201.42798     -3358.2852      12.992268      4187.3298      5719.7772      17.883796      17.883796      17.883796    
    204600   102.3          187.42161     -3357.3789      12.088846      5466.6598      5719.805       17.883825      17.883825      17.883825    
    204800   102.4          196.45716     -3357.959       12.671646      5435.099       5719.8331      17.883854      17.883854      17.883854    
    205000   102.5          189.51526     -3357.5084      12.223888      4646.1599      5719.8614      17.883884      17.883884      17.883884    
    205200   102.6          193.68299     -3357.7745      12.49271       5853.2385      5719.89        17.883913      17.883913      17.883913    
    205400   102.7          193.45301     -3357.7568      12.477877      5385.9582      5719.9188      17.883943      17.883943      17.883943    
    205600   102.8          187.64917     -3357.3796      12.103524      5282.2006      5719.9479      17.883974      17.883974      17.883974    
    205800   102.9          186.00597     -3357.2709      11.997536      5612.227       5719.9772      17.884004      17.884004      17.884004    
    206000   103            193.30703     -3357.739       12.468461      5004.2236      5720.0068      17.884035      17.884035      17.884035    
    206200   103.1          191.20811     -3357.6008      12.333078      4744.6058      5720.0365      17.884066      17.884066      17.884066    
    206400   103.2          191.19526     -3357.5971      12.33225       4392.296       5720.0665      17.884097      17.884097      17.884097    
    206600   103.3          190.09282     -3357.5233      12.261141      5078.5997      5720.0968      17.884129      17.884129      17.884129    
    206800   103.4          192.44194     -3357.672       12.412661      4870.071       5720.1272      17.884161      17.884161      17.884161    
    207000   103.5          178.98783     -3356.8013      11.544861      5027.5295      5720.1578      17.884193      17.884193      17.884193    
    207200   103.6          191.45352     -3357.6027      12.348907      5305.4669      5720.1888      17.884225      17.884225      17.884225    
    207400   103.7          197.89005     -3358.0151      12.764069      6172.1182      5720.2199      17.884257      17.884257      17.884257    
    207600   103.8          191.96366     -3357.6299      12.381812      5538.9759      5720.2514      17.88429       17.88429       17.88429     
    207800   103.9          186.01524     -3357.2434      11.998134      4610.2363      5720.283       17.884323      17.884323      17.884323    
    208000   104            193.76281     -3357.7404      12.497859      5400.4292      5720.3149      17.884356      17.884356      17.884356    
    208200   104.1          182.34816     -3357.0012      11.761604      5347.2885      5720.3471      17.88439       17.88439       17.88439     
    208400   104.2          186.45823     -3357.2635      12.026707      4788.5952      5720.3794      17.884424      17.884424      17.884424    
    208600   104.3          183.83452     -3357.0915      11.857476      4873.7943      5720.412       17.884457      17.884457      17.884457    
    208800   104.4          194.05306     -3357.7478      12.51658       5193.6353      5720.4448      17.884492      17.884492      17.884492    
    209000   104.5          189.7859      -3357.4698      12.241345      4168.2727      5720.4779      17.884526      17.884526      17.884526    
    209200   104.6          188.27535     -3357.3695      12.143913      5996.0159      5720.5112      17.884561      17.884561      17.884561    
    209400   104.7          191.50598     -3357.5751      12.352291      6100.2336      5720.5447      17.884596      17.884596      17.884596    
    209600   104.8          190.97396     -3357.5379      12.317976      4782.6726      5720.5785      17.884631      17.884631      17.884631    
    209800   104.9          189.65964     -3357.4503      12.233201      5274.3178      5720.6125      17.884666      17.884666      17.884666    
    210000   105            199.46385     -3358.0798      12.865581      4404.5959      5720.6468      17.884702      17.884702      17.884702    
    210200   105.1          197.00454     -3357.9184      12.706953      4072.7613      5720.6813      17.884738      17.884738      17.884738    
    210400   105.2          185.49351     -3357.173       11.964482      4427.4302      5720.716       17.884774      17.884774      17.884774    
    210600   105.3          191.1292      -3357.5337      12.327989      4404.0453      5720.7509      17.884811      17.884811      17.884811    
    210800   105.4          187.76079     -3357.3135      12.110724      4588.1056      5720.786       17.884847      17.884847      17.884847    
    211000   105.5          188.46791     -3357.3564      12.156333      5795.1117      5720.8213      17.884884      17.884884      17.884884    
    211200   105.6          186.88902     -3357.2517      12.054494      4561.063       5720.8569      17.884921      17.884921      17.884921    
    211400   105.7          196.42865     -3357.8642      12.669808      3713.7348      5720.8927      17.884958      17.884958      17.884958    
    211600   105.8          188.34195     -3357.3397      12.148209      5087.6401      5720.9287      17.884996      17.884996      17.884996    
    211800   105.9          181.83257     -3356.9169      11.728349      5026.3964      5720.965       17.885034      17.885034      17.885034    
    212000   106            194.8374      -3357.753       12.567171      4784.8247      5721.0014      17.885072      17.885072      17.885072    
    212200   106.1          189.26129     -3357.3904      12.207507      5549.0843      5721.0382      17.88511       17.88511       17.88511     
    212400   106.2          190.62041     -3357.4753      12.295172      4302.3613      5721.0751      17.885148      17.885148      17.885148    
    212600   106.3          185.7477      -3357.1582      11.980877      5670.5865      5721.1123      17.885187      17.885187      17.885187    
    212800   106.4          187.80884     -3357.2882      12.113823      7093.566       5721.1498      17.885226      17.885226      17.885226    
    213000   106.5          193.6236      -3357.6605      12.488879      4562.5728      5721.1875      17.885266      17.885266      17.885266    
    213200   106.6          197.31906     -3357.896       12.72724       5708.9685      5721.2254      17.885305      17.885305      17.885305    
    213400   106.7          191.83125     -3357.5391      12.373271      5162.1499      5721.2636      17.885345      17.885345      17.885345    
    213600   106.8          190.6402      -3357.4594      12.296448      3842.5247      5721.3021      17.885385      17.885385      17.885385    
    213800   106.9          192.39976     -3357.57        12.409941      4044.9077      5721.3407      17.885425      17.885425      17.885425    
    214000   107            188.87894     -3357.3401      12.182845      3680.1812      5721.3795      17.885466      17.885466      17.885466    
    214200   107.1          188.67091     -3357.3238      12.169427      5606.3289      5721.4186      17.885506      17.885506      17.885506    
    214400   107.2          194.33833     -3357.6866      12.53498       3712.3007      5721.4578      17.885547      17.885547      17.885547    
    214600   107.3          194.03874     -3357.6644      12.515656      4135.336       5721.4973      17.885588      17.885588      17.885588    
    214800   107.4          193.86222     -3357.6502      12.504271      4060.0993      5721.537       17.88563       17.88563       17.88563     
    215000   107.5          199.78384     -3358.0292      12.88622       2866.2356      5721.5769      17.885671      17.885671      17.885671    
    215200   107.6          191.6672      -3357.5027      12.36269       2943.0764      5721.6169      17.885713      17.885713      17.885713    
    215400   107.7          190.81099     -3357.4446      12.307464      4570.9704      5721.6572      17.885755      17.885755      17.885755    
    215600   107.8          189.90999     -3357.3836      12.249349      4554.039       5721.6976      17.885797      17.885797      17.885797    
    215800   107.9          188.52271     -3357.2913      12.159868      4013.9689      5721.7383      17.88584       17.88584       17.88584     
    216000   108            189.69173     -3357.3638      12.235271      6187.6956      5721.7792      17.885882      17.885882      17.885882    
    216200   108.1          189.41509     -3357.3431      12.217427      5194.1756      5721.8204      17.885925      17.885925      17.885925    
    216400   108.2          190.28293     -3357.3962      12.273404      5148.459       5721.8618      17.885968      17.885968      17.885968    
    216600   108.3          195.10497     -3357.7043      12.584429      5116.6612      5721.9035      17.886012      17.886012      17.886012    
    216800   108.4          194.40552     -3357.6563      12.539314      4699.951       5721.9454      17.886055      17.886055      17.886055    
    217000   108.5          184.21213     -3356.996       11.881832      5127.5643      5721.9876      17.886099      17.886099      17.886099    
    217200   108.6          188.06256     -3357.2414      12.130188      4505.7924      5722.0299      17.886143      17.886143      17.886143    
    217400   108.7          189.35454     -3357.3219      12.213522      4612.6112      5722.0725      17.886188      17.886188      17.886188    
    217600   108.8          184.88136     -3357.0303      11.924998      5642.7908      5722.1153      17.886232      17.886232      17.886232    
    217800   108.9          196.8515      -3357.7997      12.697082      4888.666       5722.1583      17.886277      17.886277      17.886277    
    218000   109            189.32753     -3357.3115      12.211779      6280.5255      5722.2015      17.886322      17.886322      17.886322    
    218200   109.1          204.35012     -3358.2776      13.180748      4365.8373      5722.245       17.886368      17.886368      17.886368    
    218400   109.2          204.83999     -3358.3064      13.212346      4758.9816      5722.2888      17.886413      17.886413      17.886413    
    218600   109.3          184.05784     -3356.9629      11.87188       4133.5969      5722.3328      17.886459      17.886459      17.886459    
    218800   109.4          197.63833     -3357.836       12.747833      5577.0496      5722.3771      17.886505      17.886505      17.886505    
    219000   109.5          186.00876     -3357.0829      11.997716      5544.5616      5722.4215      17.886551      17.886551      17.886551    
    219200   109.6          191.63273     -3357.4429      12.360467      3993.145       5722.4662      17.886598      17.886598      17.886598    
    219400   109.7          193.8317      -3357.5818      12.502302      2139.2824      5722.5111      17.886645      17.886645      17.886645    
    219600   109.8          191.31735     -3357.4166      12.340125      4705.5026      5722.5562      17.886692      17.886692      17.886692    
    219800   109.9          199.14413     -3357.9186      12.844958      4314.7643      5722.6015      17.886739      17.886739      17.886739    
    220000   110            190.80383     -3357.3777      12.307002      4261.9974      5722.647       17.886786      17.886786      17.886786    
Loop time of 6994.31 on 1 procs for 200000 steps with 500 atoms

Performance: 1.235 ns/day, 19.429 hours/ns, 28.595 timesteps/s, 14.297 katom-step/s
99.2% CPU use with 1 MPI tasks x 1 OpenMP threads

MPI task timing breakdown:
Section |  min time  |  avg time  |  max time  |%varavg| %total
---------------------------------------------------------------
Pair    | 6790.1     | 6790.1     | 6790.1     |   0.0 | 97.08
Neigh   | 0.015989   | 0.015989   | 0.015989   |   0.0 |  0.00
Comm    | 7.9056     | 7.9056     | 7.9056     |   0.0 |  0.11
Output  | 0.21506    | 0.21506    | 0.21506    |   0.0 |  0.00
Modify  | 187.65     | 187.65     | 187.65     |   0.0 |  2.68
Other   |            | 8.445      |            |       |  0.12

Nlocal:            500 ave         500 max         500 min
Histogram: 1 0 0 0 0 0 0 0 0 0
Nghost:           2011 ave        2011 max        2011 min
Histogram: 1 0 0 0 0 0 0 0 0 0
Neighs:              0 ave           0 max           0 min
Histogram: 1 0 0 0 0 0 0 0 0 0
FullNghs:        66276 ave       66276 max       66276 min
Histogram: 1 0 0 0 0 0 0 0 0 0

Total # of neighbors = 66276
Ave neighs/atom = 132.552
Neighbor list builds = 38
Dangerous builds = 0
unfix          npt_run
unfix          boxdump
print "### NPT complete at 300 K ###"
### NPT complete at 300 K ###

# ── Print final lattice parameter ─────────────────────
variable       a0_npt equal lx/5.0
print "NPT_RESULT: a0_at_300K = ${a0_npt} Angstrom"
NPT_RESULT: a0_at_300K = 3.57735726464935 Angstrom
Total wall time: 2:08:21
