LAMMPS data file via write_data, version 11 Feb 2026, timestep = 159, units = metal

362 atoms
8 atom types

0 12.447907776 xlo xhi
0 12.9362452296 ylo yhi
0 52.3600831054 zlo zhi

Masses

1 26.9815
2 10.811
3 12.011
4 51.9961
5 55.845
6 95.95999999999999
7 58.6934
8 1.008

Atoms # atomic/kk

1 7 1.114989444 0.8241503832 14.6407783181 0 0 0
2 7 3.553477686 0.7398029021 14.869296237 0 0 0
3 5 6.0142049939 0.8689432778 14.9359613149 0 0 0
9 7 7.2851893293 3.0643325572 14.8913628103 0 0 0
4 6 8.6351701867 0.9729781698 14.9445441973 0 0 0
5 7 11.0230220257 1.2548691179 14.4602631541 0 0 0
6 7 12.2652716755 3.4799516596 14.641697061 -1 0 0
10 7 9.8073920606 3.3814640211 14.721296295 0 0 0
16 4 0.2151465225 7.6757861182 14.6106330087 0 0 0
14 7 8.5737850661 5.641093339 14.8921602926 0 0 0
20 7 10.2274390859 7.6599003207 13.9880208475 0 0 0
22 7 3.6166885142 9.5147628342 14.9176597849 0 0 0
23 7 6.5844472083 9.089012157 14.8499830035 0 0 0
28 7 4.8172302698 11.6124198767 14.8175606501 0 0 0
29 6 7.3735936439 11.5011549579 14.9158127846 0 0 0
24 7 9.0516695641 9.6700861377 14.6547001464 0 0 0
25 7 11.9446879802 9.8813607519 14.7098977737 0 0 0
30 7 9.923264644 11.8593534748 14.5774054404 0 0 0
7 7 2.2257386057 2.9731242132 15.1056169409 0 0 0
32 7 2.3070937724 1.2561866411 16.9294965459 0 0 0
36 7 1.1365755733 3.971083389 17.0614881584 0 0 0
37 7 3.569580956 3.6485324318 17.0919580553 0 0 0
8 7 4.7793129645 2.9873663102 15.0192983065 0 0 0
33 7 4.8286474846 1.537930404 16.9813487154 0 0 0
34 7 7.3564192226 1.7136843942 16.9450523667 0 0 0
38 5 6.0754545769 3.7442472007 16.9689294581 0 0 0
31 6 12.392584956599999 1.8912187692 16.4844089459 -1 0 0
35 7 9.9203821557 1.7157721014 16.9032531978 0 0 0
39 7 8.6347395128 3.866508314 16.8129302516 0 0 0
40 7 11.071074818 3.9552823533 16.9635438552 0 0 0
11 7 1.1337821817 5.4350998136 15.0246801287 0 0 0
12 7 3.5518256196 5.1487263912 15.1204888958 0 0 0
17 7 2.4277191022 7.5076783018 15.0900561249 0 0 0
42 7 2.3721595508 6.0778902481 17.1107519164 0 0 0
46 7 0.8178433362 8.4161024684 16.8589310295 0 0 0
47 7 3.8153315511 8.0120924404 17.0257080373 0 0 0
13 7 6.0456764195 5.1883492958 15.0070699613 0 0 0
18 7 4.8949185934 7.3045469007 14.9756481912 0 0 0
19 2 6.8427525227 6.9775787488 15.314978967 0 0 0
43 7 4.8539816272 5.8134453555 17.0758161825 0 0 0
44 7 7.3422015403 5.8828629639 17.0220489479 0 0 0
48 7 6.2251141834 7.9952281184 17.0167836766 0 0 0
15 6 11.0470248555 5.64123665 15.0842081091 0 0 0
41 7 12.315819827599999 6.1123794075 17.1268243112 -1 0 0
45 7 9.8072141839 6.1133592998 17.1784164411 0 0 0
49 7 8.4697184415 7.8606308539 16.0209332848 0 0 0
50 7 10.9056338385 8.1192618339 16.2133365376 0 0 0
85 6 9.8304924268 8.5202413197 18.4486230869 0 0 0
21 2 1.5481816597 9.4756275244 15.2091438783 0 0 0
26 7 0.3142291902 10.8050469944 16.8280689185 0 0 0
27 7 2.0319436491 11.4795575226 15.1498195993 0 0 0
52 7 2.6137732934 10.083644372 17.0419345365 0 0 0
56 2 0.9268448723 12.7076232887 16.3532112945 0 0 0
57 7 3.7034220117 12.2285125691 16.9282830314 0 0 0
61 6 0.1049732894 12.916944729 18.5749626947 0 -1 0
53 7 5.128012403 10.1133103942 16.7780437244 0 0 0
54 7 7.6938253077 10.0466682687 16.9203896466 0 0 0
58 6 6.2943628089 12.3414438967 17.0109597016 0 0 0
51 3 11.6204817274 9.373248974 17.4980401051 -1 0 0
55 7 10.2434383328 10.4111331685 16.6448897325 0 0 0
59 7 8.8426955192 12.3738005397 16.8893259177 0 0 0
60 7 11.2985836391 12.6255372513 16.3493488448 0 0 0
62 7 2.5627973552 0.0390798381 19.142466689 0 0 0
66 6 1.3533826668 2.2347231553 19.0655135419 0 0 0
67 5 3.7978061832 2.1873916596 19.103647748 0 0 0
91 4 1.3646791232 0.7902416319 21.2518871152 0 0 0
92 7 3.7955458849 0.7460763594 21.1322212582 0 0 0
96 7 0.0831044793 2.8693476403 21.1761908911 0 0 0
97 7 2.6050134802 2.8673315598 21.2085937245 0 0 0
63 5 5.0143395578 0.1230289873 19.063019142 0 0 0
64 7 7.4968988588 0.1131547364 19.0921586045 0 0 0
68 7 6.1924673465 2.1804278188 19.0489911511 0 0 0
93 7 6.322868991 0.7451009386 21.2063114318 0 0 0
98 7 5.0477753814 2.8817256837 21.1514297367 0 0 0
99 5 7.5025208511 2.8485339795 21.1415676198 0 0 0
65 7 10.0813719614 0.1093600305 18.9637163681 0 0 0
69 7 8.7323571691 2.1917792486 18.9620647538 0 0 0
70 7 11.2916275198 2.2955526839 18.9069914587 0 0 0
94 7 8.7786126409 0.7582148209 21.1773512807 0 0 0
95 7 11.3641064774 0.7291378425 21.030189705 0 0 0
100 6 10.0459712055 2.8459957353 21.018711419 0 0 0
72 7 2.4496803369 4.4260442112 19.1156555451 0 0 0
76 7 1.1671547255 6.5023565096 19.1893587656 0 0 0
77 7 3.7601588613 6.5034593563 19.1435017206 0 0 0
82 6 2.4344489606 8.5418888116 19.0231886299 0 0 0
101 7 1.2098934295 5.0356323407 21.2315200369 0 0 0
102 6 3.7394075118 5.0516425199 21.2256428831 0 0 0
107 7 2.4737856705 7.1763010349 21.2368022657 0 0 0
73 7 4.9412855932 4.3144567964 19.0756111389 0 0 0
74 6 7.4703171554 4.3209490005 19.0253589297 0 0 0
78 7 6.1715598974 6.5288991712 19.1042567398 0 0 0
103 7 6.2797624293 5.0622747139 21.1555850972 0 0 0
108 7 5.0206311815 7.2264083749 21.206499319 0 0 0
109 7 7.4278927495 7.270737491 21.2387873523 0 0 0
71 1 12.3292762257 4.4596924977 19.1947922575 -1 0 0
75 5 9.8624521366 4.3697650633 19.009535292 0 0 0
79 7 8.6146588298 6.5223309931 19.2847114525 0 0 0
80 7 11.0938629611 6.5151344248 19.2824276437 0 0 0
81 4 12.3713569719 8.5882198348 19.1871075231 -1 0 0
104 7 8.7402172893 5.0665728954 21.2149772063 0 0 0
105 3 10.089859390781267 4.428088944714223 22.26206814107526 0 0 0
106 7 12.443249992799998 7.1422554979 21.2728480648 -1 0 0
110 7 9.903037282 7.1989599412 21.2706713444 0 0 0
86 7 1.3053180197 10.7624014441 19.1694410778 0 0 0
87 1 3.8472800874 10.8854634052 19.0084101123 0 0 0
111 7 1.2026032908 9.3393063962 21.2155488966 0 0 0
112 6 3.7492161744 9.3443404208 21.2376211937 0 0 0
116 1 0.0599701229 11.5536935712 21.1754665147 0 0 0
117 7 2.5233499995 11.544957688 21.1739694896 0 0 0
83 7 4.969960936 8.7335165331 19.0320586507 0 0 0
84 7 7.4239821862 8.6438134415 19.0101490609 0 0 0
88 7 6.2764507031 10.8271646611 19.0206057778 0 0 0
113 7 6.2421205591 9.4021832128 21.0330259599 0 0 0
118 7 5.0428712758 11.5647559915 21.1420658991 0 0 0
119 4 7.4735910142 11.5808872982 21.0759130973 0 0 0
89 6 8.7842213611 10.8756645366 18.9786641852 0 0 0
90 4 11.2865035325 10.8138026435 18.8904183 0 0 0
114 7 8.708534258 9.3486857933 20.9330836106 0 0 0
115 6 11.1216022641 9.2958867955 21.1667915182 0 0 0
120 7 10.0204109317 11.5631537095 21.121655142 0 0 0
121 7 0.08478776380430453 1.4140634307197755 23.25555693040772 0 0 0
122 7 2.5732861088379635 1.4108955305172337 23.315717094212864 0 0 0
126 6 1.3562864872470226 3.610605959421651 23.259567069216725 0 0 0
127 7 3.8575667337437856 3.59502054643744 23.3650219151588 0 0 0
152 7 2.6583840099546148 0.01675998612303572 25.37263287053243 0 0 0
156 1 1.4905077613145603 2.1468195673510433 25.499931429239545 0 0 0
157 7 3.979010774818955 2.1440135422315643 25.442821091304555 0 0 0
162 7 2.6079190730610873 4.274478388328164 25.42726950230404 0 0 0
123 7 5.014302569604577 1.4364898509947828 23.19901999638015 0 0 0
124 7 7.419432377886065 1.5272067286209408 23.479010211469387 0 0 0
128 7 6.312147482532788 3.6731933624705864 23.169923712078187 0 0 0
153 7 5.203972793252174 0.07044773741856605 25.329123821614854 0 0 0
154 7 7.615428571319162 0.015494780779199227 25.457922597028524 0 0 0
158 2 5.803786344399319 2.489267330502991 24.642388084693312 0 0 0
163 7 5.124061267073152 4.257055986045429 25.42291687098754 0 0 0
164 5 7.483339504478448 4.068997969406311 25.343922590885853 0 0 0
125 7 10.068135403547593 1.45211565335172 23.300176259958555 0 0 0
129 7 8.763591962414123 3.569505676148115 23.328581042013674 0 0 0
130 4 11.366519484711333 3.649061801340971 23.38201981713869 0 0 0
155 4 10.139440354135735 0.07903334338465837 25.51721430157103 0 0 0
159 7 8.892942258684482 2.112625173419745 25.422463211342453 0 0 0
160 7 11.416590048012303 2.1751641186215456 25.390373527241174 0 0 0
165 7 10.073382512340535 4.237516952259458 25.39730441224454 0 0 0
131 7 0.07967890345643944 5.800250062448489 23.384455145882992 0 0 0
132 7 2.553242545294025 5.802475349491973 23.36395942986778 0 0 0
136 7 1.3173323328859785 7.928097664016964 23.294257645021915 0 0 0
137 7 3.79340887608841 7.969545719324427 23.320393551109927 0 0 0
161 4 0.11893477001095741 4.359220982289538 25.452801481565537 0 0 0
166 7 1.3470696952695922 6.429976005952692 25.42260321372423 0 0 0
167 7 3.8191032348432 6.4417474138686766 25.448473108278577 0 0 0
172 7 2.6324339993453014 8.61595476938154 25.39361882174448 0 0 0
133 6 5.077589649735497 5.856110891592563 23.38429955073768 0 0 0
134 7 7.567284870987897 5.79224299808831 23.301074542482574 0 0 0
138 7 6.321215788184614 8.000963246282282 23.338414954604183 0 0 0
168 7 6.374379500453958 6.399079405331952 25.430903163308194 0 0 0
173 7 5.122333008743918 8.556658243152144 25.352714688436883 0 0 0
135 7 10.07170072715754 5.852810783474104 23.372663217534146 0 0 0
139 4 8.707710929125406 7.961077069676002 23.210576130653294 0 0 0
140 4 11.296049263331266 7.914029873967404 23.293246357175533 0 0 0
169 7 8.782404777456673 6.348271807259715 25.371275845892924 0 0 0
170 7 11.299633812682703 6.4253674403190475 25.433481478355247 0 0 0
175 6 9.902134537452241 8.581022558454679 25.499873453456278 0 0 0
141 7 0.029682348382426706 10.098735417471802 23.326039885772882 0 0 0
142 7 2.511703231987201 10.112892012857301 23.297117526738766 0 0 0
146 7 1.309499489265624 12.247419192064992 23.31193230089706 0 0 0
147 7 3.8237436713296726 12.246749270060667 23.2287036950614 0 0 0
151 4 0.10335718390843995 12.892103296560348 25.36799096183714 0 -1 0
171 6 0.12192502625859387 8.634645394995706 25.407985029816878 0 0 0
176 7 1.353082907249893 10.81792322577628 25.428769575717975 0 0 0
177 6 3.8951297168656613 10.820123145200505 25.313105589844362 0 0 0
143 7 5.083364037754425 10.115042642313288 23.23292816439214 0 0 0
144 7 7.518547732389634 10.102253161653715 22.902948256190175 0 0 0
148 4 6.239032527872802 12.286334101876035 23.260156460363657 0 0 0
178 6 6.652709516613854 10.52921722605553 25.23734939206357 0 0 0
145 7 10.005124081835813 10.102821264196551 23.29835507951165 0 0 0
149 6 8.73023687981901 12.3028631736674 23.28962137659255 0 0 0
150 7 11.267293283016844 12.241945207937784 23.33095856924658 0 0 0
174 3 8.427493543429808 9.517594690406693 24.40455692005528 0 0 0
179 5 9.020511218410695 10.941553256207154 25.55822951363549 0 0 0
180 5 11.352517625597232 10.890938240765893 25.47790260305591 0 0 0
181 7 1.3959722172470805 0.6760708242950699 27.480558793537018 0 0 0
182 7 3.884949473663122 0.7090424788365236 27.441817854346922 0 0 0
186 7 0.180465809278437 2.873220086842554 27.47712826950689 0 0 0
187 7 2.6689987542664055 2.861131376373772 27.56145234275819 0 0 0
211 7 0.2175518682603607 1.4584035312941304 29.57356042585955 0 0 0
212 7 2.718263985799398 1.3738516003909296 29.573290397621417 0 0 0
216 7 1.4188482792274897 3.5672691590888252 29.58173059231588 0 0 0
217 4 3.833551933913867 3.581421407865211 29.60009415700414 0 0 0
183 7 6.323975023092695 0.7231753060230512 27.56691257027173 0 0 0
188 7 5.093411054680884 2.8796260483326974 27.575109628217202 0 0 0
189 7 7.608797490219952 2.8016394425125983 27.448287293454616 0 0 0
213 5 5.148303280587255 1.4330994143255225 29.59603677322367 0 0 0
214 7 7.627868001688251 1.363629701210971 29.581867207423585 0 0 0
218 7 6.375223874874642 3.541951941896944 29.542206359933086 0 0 0
184 7 8.90343669038738 0.731409617402982 27.548373673415824 0 0 0
185 4 11.396072230883266 0.73625958323158 27.514450078580754 0 0 0
190 7 10.15816831439509 2.847071258127928 27.47377127150954 0 0 0
215 7 10.136960944023388 1.4174372648364455 29.615255187121562 0 0 0
219 7 8.849015635935126 3.5233840509015644 29.518113046152756 0 0 0
220 7 11.378297104287567 3.574607592192377 29.5102083377974 0 0 0
191 7 1.3998594206522994 5.019702815486608 27.468257729252038 0 0 0
192 7 3.843076412447027 4.995896385403127 27.488433030261202 0 0 0
196 7 0.1451282811448721 7.174860594415158 27.48591434054139 0 0 0
197 7 2.588932578430761 7.198928792877367 27.480463369822196 0 0 0
221 7 0.12891138553195283 5.740897636544312 29.563076029507325 0 0 0
222 7 2.6002248883212022 5.73634982335041 29.553944770514065 0 0 0
226 7 1.3718008213178376 7.91280339424283 29.548545715785195 0 0 0
227 7 3.8699754392809926 7.916209608637717 29.47708341823852 0 0 0
193 7 6.3804979334776935 4.980153235671688 27.41517834173246 0 0 0
198 7 5.113249140595897 7.175370100497069 27.420437667984906 0 0 0
199 7 7.625815816171672 7.195818473370132 27.44803596806926 0 0 0
223 6 5.16463014998976 5.724236195176971 29.497189333982888 0 0 0
224 7 7.654652993991643 5.745678933130011 29.581478610824377 0 0 0
228 7 6.403118248023209 7.915885402678297 29.501561192549403 0 0 0
194 6 8.856712580238565 5.010721087041624 27.48293868851238 0 0 0
195 7 11.370071674460423 5.011431412424731 27.497366768536438 0 0 0
200 7 10.130426789397196 7.173066081985154 27.526615693688004 0 0 0
225 7 10.109275378487753 5.754960645090197 29.59619029618119 0 0 0
229 7 8.854202507288823 7.894093514511199 29.51758960713973 0 0 0
230 7 11.376208429000433 7.9455938678935905 29.511150138984352 0 0 0
201 5 1.3864964123790637 9.338364037809395 27.510763569334408 0 0 0
202 7 3.8827149307170186 9.32290745223985 27.394213095222728 0 0 0
206 4 0.19604172047329083 11.494069565123821 27.5123929863723 0 0 0
207 7 2.620161162434168 11.468143662496791 27.448479488347164 0 0 0
231 7 0.1716905889996247 10.09258313456912 29.554694402263966 0 0 0
232 7 2.639728503047787 10.031191221880372 29.429816218093336 0 0 0
236 7 1.4799238280743041 12.19632528236866 29.547516845501416 0 0 0
203 7 6.38273599003837 9.293285380284232 27.406158221569964 0 0 0
208 7 5.151835686868517 11.503185073895146 27.35115960975767 0 0 0
209 6 7.60092937779825 11.538092249862737 27.631049417593008 0 0 0
233 7 5.1584891786080656 10.055418378007564 29.338659150172433 0 0 0
234 7 7.612775718679576 10.095085649730871 29.65846450055927 0 0 0
238 7 6.231133076633581 12.242905876616366 29.677845525992552 0 0 0
204 7 8.8467534042132 9.379185511326982 27.604556494490275 0 0 0
205 7 11.35469237740462 9.432332007641568 27.52720159852469 0 0 0
210 7 10.165295665208738 11.569215539298805 27.56383026656233 0 0 0
235 7 10.094533281033327 10.190402887650595 29.584804871203144 0 0 0
239 4 8.893387961269475 12.265445051441667 29.721107969865354 0 0 0
240 7 11.40390629542897 12.281176604882269 29.54679916400377 0 0 0
237 3 4.041205922182291 0.31358183120934 30.548112755106427 0 1 0
241 7 0.21014069393717333 0.11555606811396525 31.619701430042014 0 0 0
242 7 2.5756757974230773 0.15745651454166715 31.72979534215968 0 0 0
246 4 1.3535437493300162 2.259244919064176 31.651616302523212 0 0 0
247 7 3.8914142076412626 2.1656322306240883 31.636938903159102 0 0 0
244 7 7.638970481064275 0.01547579652545058 31.70405943215877 0 0 0
248 7 6.4188479764237325 2.1624998634437906 31.644074972984154 0 0 0
249 7 8.862398737061124 2.118492494576668 31.669408815172886 0 0 0
250 7 11.394458915024806 2.157253841621291 31.645112171659097 0 0 0
255 1 10.111691324552789 4.2383692502718695 31.494500770651737 0 0 0
251 7 0.1555354168161046 4.345157266483713 31.642449822629967 0 0 0
252 7 2.640938757694613 4.336242464139066 31.66694019939368 0 0 0
256 7 1.3386429553106702 6.518611276439084 31.631393620613157 0 0 0
257 6 3.8015916890835637 6.516034195306846 31.667103802011194 0 0 0
286 7 0.09942553406093732 7.300315679810595 33.608524580316775 0 0 0
253 7 5.121856541483212 4.323773938660366 31.62859420332761 0 0 0
254 7 7.630249940791318 4.325209719270725 31.590153099959366 0 0 0
258 7 6.36154689127637 6.508004833896176 31.63153787483368 0 0 0
264 7 7.5973008310530705 8.589738148891128 31.624258140444596 0 0 0
259 4 8.827461153446846 6.477442813427176 31.629429291481284 0 0 0
260 7 11.321904324926015 6.510762868830327 31.582105687953696 0 0 0
284 5 8.893514395692673 5.132214162056258 33.58501740200062 0 0 0
285 4 11.354243458035718 5.175767216283786 33.62119980039622 0 0 0
290 7 10.087629629631161 7.2755426645504695 33.589258410304 0 0 0
261 7 0.18493409900902627 8.728364376131717 31.638533871567876 0 0 0
262 7 2.674207105251704 8.737074797811916 31.535127833990753 0 0 0
266 7 1.5706275944945378 10.850417897496794 31.558139533762855 0 0 0
267 4 3.92642719900213 11.30062666353044 30.837255604888924 0 0 0
292 7 3.9732241865893894 9.376835189968157 33.518735391587896 0 0 0
243 7 5.181178773966772 12.918640632462843 32.08547103495853 0 -1 0
263 1 5.09933633839911 8.775461526900079 31.42775711717683 0 0 0
268 7 6.26863593701096 10.77572811520068 31.5780790555668 0 0 0
293 4 6.458358550419138 9.334480874349723 33.64250761937814 0 0 0
245 7 10.123196596499636 12.903485949504462 31.857189163228195 0 -1 0
265 6 10.109220366766296 8.700807676935217 31.532919945683695 0 0 0
269 7 8.784360827537382 10.817160507691112 31.74217032204898 0 0 0
270 7 11.436811849390024 10.924533700435452 31.600442547254588 0 0 0
296 3 11.08256868440147 11.85173150314468 33.32013075281258 -1 0 0
271 7 1.4908772119876184 0.9185638804727015 33.76396411953302 0 0 0
272 7 3.9355669866623937 0.970552662205556 33.906600853291835 0 0 0
276 7 0.19251751624240782 3.0127999594217276 33.72142232817815 0 0 0
277 7 2.655943238156815 3.0953593123742635 33.78655441991822 0 0 0
301 7 0.21138690753100656 1.572304377428206 35.743855038178516 0 0 0
302 7 2.631503270793648 1.6827104553432084 35.8455463265803 0 0 0
306 4 1.4453047289646141 3.8472316696287443 35.948079506012625 0 0 0
307 7 4.010422200157433 3.7450671350864138 35.82562993080903 0 0 0
273 7 6.475525597351649 0.9827103012735208 33.8959380528083 0 0 0
278 1 5.22966292103907 3.0110318206466196 33.72251979634541 0 0 0
279 7 7.7430627712338955 3.0508624692578654 33.72476377672946 0 0 0
303 7 5.25688505506004 1.6765792442904484 35.93002396024177 0 0 0
304 4 7.787552264305865 1.6297788222032068 35.91005476734011 0 0 0
308 7 6.549977389895606 3.7129080120548985 35.799782717893386 0 0 0
274 7 8.854494100735936 0.9119147960450019 33.82359508770593 0 0 0
275 4 11.46109493398773 0.816305979975288 33.69950878179373 0 0 0
280 7 10.21854110632018 3.012157700970247 33.694388071487126 0 0 0
305 7 10.2477493891361 1.5785157146097115 35.706195971758056 0 0 0
309 7 9.03752135039006 3.6829422285317883 35.773207613589996 0 0 0
310 4 11.616589661201697 3.9606851043407625 35.83667612049612 0 0 0
281 7 1.3324070078284187 5.203810876216874 33.87358500794572 0 0 0
282 4 3.8547228422868507 5.154354197870155 33.773501464979304 0 0 0
287 7 2.6421596522253212 7.302708345566376 33.74516217448062 0 0 0
312 7 2.7530783238734062 5.815636347147174 35.80080590938926 0 0 0
316 7 1.2231824709285706 7.62014641974318 35.77354065911912 0 0 0
317 7 3.9624384396516277 8.070141633568237 35.74198084295375 0 0 0
283 7 6.392358627870405 5.111113690425813 33.67514067887789 0 0 0
288 7 5.1990938475043915 7.280295588039648 33.677758838967485 0 0 0
289 7 7.637369303352084 7.201470602764013 33.739138202751796 0 0 0
313 7 5.28942466476803 5.924715002911039 35.73413602722326 0 0 0
314 7 7.734868999379049 5.833025722332416 35.782416746829995 0 0 0
318 4 6.556480716069194 8.110459627230874 35.828988202987865 0 0 0
311 2 12.374364277852315 6.023853163785269 35.31512090862722 -1 0 0
315 7 10.146534996741392 5.822847818552416 35.575473297634915 0 0 0
319 7 8.9532172020295 7.989111537864346 35.84082212168701 0 0 0
320 7 11.35636250997741 7.9511283510346855 35.57448158076431 0 0 0
350 7 11.69501068638214 6.3035004264794345 37.29295433572054 0 0 0
355 3 10.466541499539842 7.905543976040808 37.268126723249075 0 0 0
291 7 1.4750437615666365 9.441896774621549 33.711057350460145 0 0 0
297 6 3.0394089650976657 11.583562068052585 33.6491821403719 0 0 0
321 6 0.21904603227943986 10.080620784311778 35.89084686687518 0 0 0
322 7 2.7090557033685685 10.200586500302805 35.73088533784762 0 0 0
326 7 0.5177086426765285 11.669543396979579 33.661344863609926 0 0 0
327 6 3.9207626088360232 12.517464626554272 36.07237449004302 0 0 0
356 4 1.4072019460352925 12.37089950691421 35.827601987834406 0 0 0
298 2 5.215745859918592 12.294982136931715 34.18982642541526 0 0 0
299 7 7.008764845533975 11.588643265313976 33.67751974256453 0 0 0
323 6 5.250410077900429 10.255870694426626 35.57382696701458 0 0 0
324 7 7.919685841310588 10.36427519886109 35.710098122436754 0 0 0
328 7 6.475430203743025 12.53059985403028 35.91368543352427 0 0 0
294 7 8.775126062870033 9.302376256716867 33.68928862803788 0 0 0
295 6 11.275110052484495 9.718282462496461 33.74570831159729 0 0 0
300 7 9.389723204929831 11.558215697398017 34.157619418322234 0 0 0
325 7 10.250711810055103 9.844991369849707 37.00189773878118 0 0 0
329 3 9.537897268490745 11.418555061874978 36.1846501782999 0 0 0
330 4 11.271353740811218 12.091350124835838 35.55771210327254 0 0 0
335 5 9.921854205859479 12.931566708411529 37.363944798740604 0 -1 0
332 7 2.497272638271295 0.12252762616760729 38.01008656066371 0 0 0
336 7 1.3495336730454355 2.2118165247561565 37.822200169800816 0 0 0
337 7 3.8828376047338704 2.2201158050153547 37.85124758179856 0 0 0
341 7 0.23692079791911808 4.285104905235742 38.0433568021544 0 0 0
342 7 2.741938467010234 4.324508777972102 37.913206073487515 0 0 0
333 7 5.21640771295877 0.17956618764795337 38.09448203709738 0 0 0
334 7 7.672212230725591 0.09041511809719886 37.99867019760853 0 0 0
338 7 6.5429013821298145 2.2628263485861067 37.89019063953844 0 0 0
339 7 9.011763476728763 2.213808803804033 37.841531103156434 0 0 0
340 7 11.387109631810779 2.228491688613679 37.70763190534288 0 0 0
346 7 1.532929157896086 6.43687200508818 37.98649090349636 0 0 0
347 6 4.012271637738086 6.503279939303745 37.77819887504966 0 0 0
343 7 5.3016847722938465 4.391472980509212 37.848078249633026 0 0 0
344 7 7.844566927959028 4.436957414123204 37.88442283335028 0 0 0
348 6 6.659655230218971 6.69018788537171 37.902430277470735 0 0 0
362 8 6.522478801570359 5.057991162067141 38.852752901845776 0 0 0
345 4 10.241918984836378 4.358344997296309 37.77401210046634 0 0 0
349 7 9.23721711862543 6.633943819225759 37.842985928577306 0 0 0
351 7 12.263258409272277 8.594632759575084 37.83001553749963 -1 0 0
352 6 2.5014983048652564 8.681226660383754 37.663858553831005 0 0 0
357 7 3.847734540213581 10.826732169857701 37.919538510169495 0 0 0
360 7 1.3987011930708348 10.923900735405338 37.87090497780698 1 0 0
353 7 5.136635295468516 8.748714396634048 37.84545058298686 0 0 0
354 7 7.942100769845546 8.98920422001638 37.853739524903936 0 0 0
358 6 6.42580370483283 10.900706373521638 37.80372359442233 0 0 0
361 8 6.610817806111298 8.369072541744396 38.78347865851949 0 0 0
331 7 12.404636794025848 12.913612463366363 37.6088886046033 -1 -1 0
359 2 8.610000355735314 11.191497462244866 37.41573222480351 0 0 0

Velocities

1 0 0 0
2 0 0 0
3 0 0 0
9 0 0 0
4 0 0 0
5 0 0 0
6 0 0 0
10 0 0 0
16 0 0 0
14 0 0 0
20 0 0 0
22 0 0 0
23 0 0 0
28 0 0 0
29 0 0 0
24 0 0 0
25 0 0 0
30 0 0 0
7 0 0 0
32 0 0 0
36 0 0 0
37 0 0 0
8 0 0 0
33 0 0 0
34 0 0 0
38 0 0 0
31 0 0 0
35 0 0 0
39 0 0 0
40 0 0 0
11 0 0 0
12 0 0 0
17 0 0 0
42 0 0 0
46 0 0 0
47 0 0 0
13 0 0 0
18 0 0 0
19 0 0 0
43 0 0 0
44 0 0 0
48 0 0 0
15 0 0 0
41 0 0 0
45 0 0 0
49 0 0 0
50 0 0 0
85 0 0 0
21 0 0 0
26 0 0 0
27 0 0 0
52 0 0 0
56 0 0 0
57 0 0 0
61 0 0 0
53 0 0 0
54 0 0 0
58 0 0 0
51 0 0 0
55 0 0 0
59 0 0 0
60 0 0 0
62 0 0 0
66 0 0 0
67 0 0 0
91 0 0 0
92 0 0 0
96 0 0 0
97 0 0 0
63 0 0 0
64 0 0 0
68 0 0 0
93 0 0 0
98 0 0 0
99 0 0 0
65 0 0 0
69 0 0 0
70 0 0 0
94 0 0 0
95 0 0 0
100 0 0 0
72 0 0 0
76 0 0 0
77 0 0 0
82 0 0 0
101 0 0 0
102 0 0 0
107 0 0 0
73 0 0 0
74 0 0 0
78 0 0 0
103 0 0 0
108 0 0 0
109 0 0 0
71 0 0 0
75 0 0 0
79 0 0 0
80 0 0 0
81 0 0 0
104 0 0 0
105 0 0 0
106 0 0 0
110 0 0 0
86 0 0 0
87 0 0 0
111 0 0 0
112 0 0 0
116 0 0 0
117 0 0 0
83 0 0 0
84 0 0 0
88 0 0 0
113 0 0 0
118 0 0 0
119 0 0 0
89 0 0 0
90 0 0 0
114 0 0 0
115 0 0 0
120 0 0 0
121 0 0 0
122 0 0 0
126 0 0 0
127 0 0 0
152 0 0 0
156 0 0 0
157 0 0 0
162 0 0 0
123 0 0 0
124 0 0 0
128 0 0 0
153 0 0 0
154 0 0 0
158 0 0 0
163 0 0 0
164 0 0 0
125 0 0 0
129 0 0 0
130 0 0 0
155 0 0 0
159 0 0 0
160 0 0 0
165 0 0 0
131 0 0 0
132 0 0 0
136 0 0 0
137 0 0 0
161 0 0 0
166 0 0 0
167 0 0 0
172 0 0 0
133 0 0 0
134 0 0 0
138 0 0 0
168 0 0 0
173 0 0 0
135 0 0 0
139 0 0 0
140 0 0 0
169 0 0 0
170 0 0 0
175 0 0 0
141 0 0 0
142 0 0 0
146 0 0 0
147 0 0 0
151 0 0 0
171 0 0 0
176 0 0 0
177 0 0 0
143 0 0 0
144 0 0 0
148 0 0 0
178 0 0 0
145 0 0 0
149 0 0 0
150 0 0 0
174 0 0 0
179 0 0 0
180 0 0 0
181 0 0 0
182 0 0 0
186 0 0 0
187 0 0 0
211 0 0 0
212 0 0 0
216 0 0 0
217 0 0 0
183 0 0 0
188 0 0 0
189 0 0 0
213 0 0 0
214 0 0 0
218 0 0 0
184 0 0 0
185 0 0 0
190 0 0 0
215 0 0 0
219 0 0 0
220 0 0 0
191 0 0 0
192 0 0 0
196 0 0 0
197 0 0 0
221 0 0 0
222 0 0 0
226 0 0 0
227 0 0 0
193 0 0 0
198 0 0 0
199 0 0 0
223 0 0 0
224 0 0 0
228 0 0 0
194 0 0 0
195 0 0 0
200 0 0 0
225 0 0 0
229 0 0 0
230 0 0 0
201 0 0 0
202 0 0 0
206 0 0 0
207 0 0 0
231 0 0 0
232 0 0 0
236 0 0 0
203 0 0 0
208 0 0 0
209 0 0 0
233 0 0 0
234 0 0 0
238 0 0 0
204 0 0 0
205 0 0 0
210 0 0 0
235 0 0 0
239 0 0 0
240 0 0 0
237 0 0 0
241 0 0 0
242 0 0 0
246 0 0 0
247 0 0 0
244 0 0 0
248 0 0 0
249 0 0 0
250 0 0 0
255 0 0 0
251 0 0 0
252 0 0 0
256 0 0 0
257 0 0 0
286 0 0 0
253 0 0 0
254 0 0 0
258 0 0 0
264 0 0 0
259 0 0 0
260 0 0 0
284 0 0 0
285 0 0 0
290 0 0 0
261 0 0 0
262 0 0 0
266 0 0 0
267 0 0 0
292 0 0 0
243 0 0 0
263 0 0 0
268 0 0 0
293 0 0 0
245 0 0 0
265 0 0 0
269 0 0 0
270 0 0 0
296 0 0 0
271 0 0 0
272 0 0 0
276 0 0 0
277 0 0 0
301 0 0 0
302 0 0 0
306 0 0 0
307 0 0 0
273 0 0 0
278 0 0 0
279 0 0 0
303 0 0 0
304 0 0 0
308 0 0 0
274 0 0 0
275 0 0 0
280 0 0 0
305 0 0 0
309 0 0 0
310 0 0 0
281 0 0 0
282 0 0 0
287 0 0 0
312 0 0 0
316 0 0 0
317 0 0 0
283 0 0 0
288 0 0 0
289 0 0 0
313 0 0 0
314 0 0 0
318 0 0 0
311 0 0 0
315 0 0 0
319 0 0 0
320 0 0 0
350 0 0 0
355 0 0 0
291 0 0 0
297 0 0 0
321 0 0 0
322 0 0 0
326 0 0 0
327 0 0 0
356 0 0 0
298 0 0 0
299 0 0 0
323 0 0 0
324 0 0 0
328 0 0 0
294 0 0 0
295 0 0 0
300 0 0 0
325 0 0 0
329 0 0 0
330 0 0 0
335 0 0 0
332 0 0 0
336 0 0 0
337 0 0 0
341 0 0 0
342 0 0 0
333 0 0 0
334 0 0 0
338 0 0 0
339 0 0 0
340 0 0 0
346 0 0 0
347 0 0 0
343 0 0 0
344 0 0 0
348 0 0 0
362 0 0 0
345 0 0 0
349 0 0 0
351 0 0 0
352 0 0 0
357 0 0 0
360 0 0 0
353 0 0 0
354 0 0 0
358 0 0 0
361 0 0 0
331 0 0 0
359 0 0 0
