LAMMPS (11 Feb 2026 - Development - patch_11Feb2026-99-gb75dfcc930-modified)
KOKKOS mode with Kokkos version 5.0.2 is enabled
  using double precision
  using view layout = legacy
  will use up to 1 GPU(s) per node
  using 1 OpenMP thread(s) per MPI task
package kokkos
package kokkos newton on neigh half
# ═══════════════════════════════════════════════════
# LAMMPS Minimization — top_mo
# Notebook 05 | H2 at Top-Mo
# ═══════════════════════════════════════════════════

units          metal
atom_style     atomic
newton         on
boundary       p p f

read_data      structures/notebook05-adsorption-energy/1234/ads_top_mo.lammps
Reading data file ...
  orthogonal box = (0 0 0) to (12.447908 12.936245 52.360083)
  1 by 1 by 1 MPI processor grid
  reading atoms ...
  362 atoms
  read_data CPU = 0.020 seconds

pair_style     mliap unified /projects/westgroup/akinyemi.az/mace_lammps/models/mace-mp-0b2-medium.model-mliap_lammps.pt 0
pair_coeff     * * Al B C Cr Fe Mo Ni H

neighbor       2.0 bin
neigh_modify   every 1 delay 0 check yes

thermo         50
thermo_style   custom step pe fmax fnorm press

minimize       0  1e-06  10000  100000

CITE-CITE-CITE-CITE-CITE-CITE-CITE-CITE-CITE-CITE-CITE-CITE-CITE

Your simulation uses code contributions which should be cited:

- KOKKOS package: https://doi.org/10.1145/3731599.3767498

@inproceedings{Johansson25,
 author = {A. Johansson and E. Weinberg and C. Trott and M. McCarthy and S. Moore},
 title = {{LAMMPS-KOKKOS}: {P}erformance Portable Molecular Dynamics Across Exascale Architectures},
 year = 2025,
 booktitle = {Proceedings of the SC '25 Workshops of the International Conference for High Performance Computing,
  Networking, Storage and Analysis},
 pages = {1217–1232},
}

CITE-CITE-CITE-CITE-CITE-CITE-CITE-CITE-CITE-CITE-CITE-CITE-CITE

Neighbor list info ...
  update: every = 1 steps, delay = 0 steps, check = yes
  max neighbors/atom: 2000, page size: 100000
  master list distance cutoff = 7
  ghost atom cutoff = 7
  binsize = 7, bins = 2 2 8
  1 neighbor lists, perpetual/occasional/extra = 1 0 0
  (1) pair mliap/kk, perpetual
      attributes: full, newton on, kokkos_device
      pair build: full/bin/kk/device
      stencil: full/bin/3d
      bin: kk/device
WARNING: Fix MINIMIZE/kk not compatible with sending data in Kokkos communication (src/KOKKOS/comm_kokkos.cpp:842)
WARNING: Fix with atom-based arrays not compatible with sending data in Kokkos communication, switching to legacy exchange/border communication (src/KOKKOS/comm_kokkos.cpp:849)
WARNING: Fix MINIMIZE/kk not (yet) compatible with Kokkos sorting on device (src/KOKKOS/atom_kokkos.cpp:219)
WARNING: Fix with atom-based arrays not (yet) compatible with Kokkos sorting on device, switching to legacy host sorting (src/KOKKOS/atom_kokkos.cpp:225)
Per MPI rank memory allocation (min/avg/max) = 61.31 | 61.31 | 61.31 Mbytes
   Step         PotEng          Fmax          Fnorm          Press     
         0  -2370.2346      2.7219987      17.911402      14406.933    
        50  -2397.0429      0.070570846    0.20124239     8286.0833    
       100  -2397.2873      0.28733642     0.77702169     8785.9301    
       150  -2397.5663      0.010573063    0.050673313    8037.7412    
       200  -2397.5678      0.0012346559   0.0036450375   8032.2686    
       250  -2397.5678      0.00010945421  0.00022951501  8033.1439    
       300  -2397.5678      5.117618e-06   1.128244e-05   8033.0427    
       339  -2397.5678      2.6543051e-07  9.7350623e-07  8033.0337    
Loop time of 22.8153 on 1 procs for 339 steps with 362 atoms

98.8% CPU use with 1 MPI tasks x 1 OpenMP threads

Minimization stats:
  Stopping criterion = force tolerance
  Energy initial, next-to-last, final = 
     -2370.23464901697  -2397.56783329924  -2397.56783329924
  Force two-norm initial, final = 17.911402 9.7350623e-07
  Force max component initial, final = 2.7219987 2.6543051e-07
  Final line search alpha, max atom move = 1 2.6543051e-07
  Iterations, force evaluations = 339 659

MPI task timing breakdown:
Section |  min time  |  avg time  |  max time  |%varavg| %total
---------------------------------------------------------------
Pair    | 22.72      | 22.72      | 22.72      |   0.0 | 99.58
Neigh   | 0.0019268  | 0.0019268  | 0.0019268  |   0.0 |  0.01
Comm    | 0.017212   | 0.017212   | 0.017212   |   0.0 |  0.08
Output  | 0.00049468 | 0.00049468 | 0.00049468 |   0.0 |  0.00
Modify  | 0          | 0          | 0          |   0.0 |  0.00
Other   |            | 0.07589    |            |       |  0.33

Nlocal:            362 ave         362 max         362 min
Histogram: 1 0 0 0 0 0 0 0 0 0
Nghost:           1216 ave        1216 max        1216 min
Histogram: 1 0 0 0 0 0 0 0 0 0
Neighs:              0 ave           0 max           0 min
Histogram: 1 0 0 0 0 0 0 0 0 0
FullNghs:        43306 ave       43306 max       43306 min
Histogram: 1 0 0 0 0 0 0 0 0 0

Total # of neighbors = 43306
Ave neighs/atom = 119.62983
Neighbor list builds = 3
Dangerous builds = 0

variable  pe_final  equal  pe
variable  fmax_f    equal  fmax
variable  natoms    equal  atoms

print "ENERGY_RESULTS_START"
ENERGY_RESULTS_START
print "  job_name         : top_mo"
  job_name         : top_mo
print "  pe_final_eV      : ${pe_final}"
  pe_final_eV      : -2397.56783329924
print "  fmax_eV_per_Ang  : ${fmax_f}"
  fmax_eV_per_Ang  : 2.65430510156331e-07
print "  natoms           : ${natoms}"
  natoms           : 362
print "ENERGY_RESULTS_END"
ENERGY_RESULTS_END

write_data     structures/notebook05-adsorption-energy/1234/ads_top_mo_relaxed.lammps
System init for write_data ...
print "Written: structures/notebook05-adsorption-energy/1234/ads_top_mo_relaxed.lammps"
Written: structures/notebook05-adsorption-energy/1234/ads_top_mo_relaxed.lammps
Total wall time: 0:00:44
