LAMMPS (11 Feb 2026 - Development - patch_11Feb2026-99-gb75dfcc930-modified)
KOKKOS mode with Kokkos version 5.0.2 is enabled
  using double precision
  using view layout = legacy
  will use up to 1 GPU(s) per node
  using 1 OpenMP thread(s) per MPI task
package kokkos
package kokkos newton on neigh half
# ═══════════════════════════════════════════════════
# LAMMPS Minimization — fcc_hollow
# Notebook 05 | H2 at FCC Hollow
# ═══════════════════════════════════════════════════

units          metal
atom_style     atomic
newton         on
boundary       p p f

read_data      structures/notebook05-adsorption-energy/1234/ads_fcc_hollow.lammps
Reading data file ...
  orthogonal box = (0 0 0) to (12.447908 12.936245 52.360083)
  1 by 1 by 1 MPI processor grid
  reading atoms ...
  362 atoms
  read_data CPU = 0.017 seconds

pair_style     mliap unified /projects/westgroup/akinyemi.az/mace_lammps/models/mace-mp-0b2-medium.model-mliap_lammps.pt 0
pair_coeff     * * Al B C Cr Fe Mo Ni H

neighbor       2.0 bin
neigh_modify   every 1 delay 0 check yes

thermo         50
thermo_style   custom step pe fmax fnorm press

minimize       0  1e-06  10000  100000

CITE-CITE-CITE-CITE-CITE-CITE-CITE-CITE-CITE-CITE-CITE-CITE-CITE

Your simulation uses code contributions which should be cited:

- KOKKOS package: https://doi.org/10.1145/3731599.3767498

@inproceedings{Johansson25,
 author = {A. Johansson and E. Weinberg and C. Trott and M. McCarthy and S. Moore},
 title = {{LAMMPS-KOKKOS}: {P}erformance Portable Molecular Dynamics Across Exascale Architectures},
 year = 2025,
 booktitle = {Proceedings of the SC '25 Workshops of the International Conference for High Performance Computing,
  Networking, Storage and Analysis},
 pages = {1217–1232},
}

CITE-CITE-CITE-CITE-CITE-CITE-CITE-CITE-CITE-CITE-CITE-CITE-CITE

Neighbor list info ...
  update: every = 1 steps, delay = 0 steps, check = yes
  max neighbors/atom: 2000, page size: 100000
  master list distance cutoff = 7
  ghost atom cutoff = 7
  binsize = 7, bins = 2 2 8
  1 neighbor lists, perpetual/occasional/extra = 1 0 0
  (1) pair mliap/kk, perpetual
      attributes: full, newton on, kokkos_device
      pair build: full/bin/kk/device
      stencil: full/bin/3d
      bin: kk/device
WARNING: Fix MINIMIZE/kk not compatible with sending data in Kokkos communication (src/KOKKOS/comm_kokkos.cpp:842)
WARNING: Fix with atom-based arrays not compatible with sending data in Kokkos communication, switching to legacy exchange/border communication (src/KOKKOS/comm_kokkos.cpp:849)
WARNING: Fix MINIMIZE/kk not (yet) compatible with Kokkos sorting on device (src/KOKKOS/atom_kokkos.cpp:219)
WARNING: Fix with atom-based arrays not (yet) compatible with Kokkos sorting on device, switching to legacy host sorting (src/KOKKOS/atom_kokkos.cpp:225)
Per MPI rank memory allocation (min/avg/max) = 61.32 | 61.32 | 61.32 Mbytes
   Step         PotEng          Fmax          Fnorm          Press     
         0  -2370.0824      2.7219987      17.897437      14378.862    
        50  -2396.9953      0.22481179     0.53763337     8444.3036    
       100  -2397.3004      0.19026943     0.79003984     8627.4769    
       150  -2397.5652      0.096750888    0.18233591     8138.8367    
       200  -2397.6001      0.032187169    0.054219495    7995.3757    
       250  -2397.611       0.017327431    0.032232436    8041.323     
       300  -2397.613       0.0012104316   0.003642558    8045.996     
       350  -2397.613       0.00014450579  0.00030454952  8046.2839    
       400  -2397.613       4.4602248e-06  1.1005601e-05  8045.9714    
       450  -2397.613       3.2779131e-07  1.0638493e-06  8045.9544    
       454  -2397.613       2.3446088e-07  9.5323347e-07  8045.9538    
Loop time of 28.6608 on 1 procs for 454 steps with 362 atoms

98.8% CPU use with 1 MPI tasks x 1 OpenMP threads

Minimization stats:
  Stopping criterion = force tolerance
  Energy initial, next-to-last, final = 
     -2370.08240749903  -2397.61296564016  -2397.61296564016
  Force two-norm initial, final = 17.897437 9.5323347e-07
  Force max component initial, final = 2.7219987 2.3446088e-07
  Final line search alpha, max atom move = 1 2.3446088e-07
  Iterations, force evaluations = 454 895

MPI task timing breakdown:
Section |  min time  |  avg time  |  max time  |%varavg| %total
---------------------------------------------------------------
Pair    | 28.521     | 28.521     | 28.521     |   0.0 | 99.51
Neigh   | 0.0030168  | 0.0030168  | 0.0030168  |   0.0 |  0.01
Comm    | 0.025362   | 0.025362   | 0.025362   |   0.0 |  0.09
Output  | 0.00069789 | 0.00069789 | 0.00069789 |   0.0 |  0.00
Modify  | 0          | 0          | 0          |   0.0 |  0.00
Other   |            | 0.1108     |            |       |  0.39

Nlocal:            362 ave         362 max         362 min
Histogram: 1 0 0 0 0 0 0 0 0 0
Nghost:           1218 ave        1218 max        1218 min
Histogram: 1 0 0 0 0 0 0 0 0 0
Neighs:              0 ave           0 max           0 min
Histogram: 1 0 0 0 0 0 0 0 0 0
FullNghs:        43306 ave       43306 max       43306 min
Histogram: 1 0 0 0 0 0 0 0 0 0

Total # of neighbors = 43306
Ave neighs/atom = 119.62983
Neighbor list builds = 4
Dangerous builds = 0

variable  pe_final  equal  pe
variable  fmax_f    equal  fmax
variable  natoms    equal  atoms

print "ENERGY_RESULTS_START"
ENERGY_RESULTS_START
print "  job_name         : fcc_hollow"
  job_name         : fcc_hollow
print "  pe_final_eV      : ${pe_final}"
  pe_final_eV      : -2397.61296564016
print "  fmax_eV_per_Ang  : ${fmax_f}"
  fmax_eV_per_Ang  : 2.34460876602505e-07
print "  natoms           : ${natoms}"
  natoms           : 362
print "ENERGY_RESULTS_END"
ENERGY_RESULTS_END

write_data     structures/notebook05-adsorption-energy/1234/ads_fcc_hollow_relaxed.lammps
System init for write_data ...
print "Written: structures/notebook05-adsorption-energy/1234/ads_fcc_hollow_relaxed.lammps"
Written: structures/notebook05-adsorption-energy/1234/ads_fcc_hollow_relaxed.lammps
Total wall time: 0:00:55
