LAMMPS (11 Feb 2026 - Development - patch_11Feb2026-99-gb75dfcc930-modified)
KOKKOS mode with Kokkos version 5.0.2 is enabled
  using double precision
  using view layout = legacy
  will use up to 1 GPU(s) per node
  using 1 OpenMP thread(s) per MPI task
package kokkos
package kokkos newton on neigh half
# ═══════════════════════════════════════════════════
# LAMMPS Minimization — bridge
# Notebook 05 | H2 at Bridge
# ═══════════════════════════════════════════════════

units          metal
atom_style     atomic
newton         on
boundary       p p f

read_data      structures/notebook05-adsorption-energy/1234/ads_bridge.lammps
Reading data file ...
  orthogonal box = (0 0 0) to (12.447908 12.936245 52.360083)
  1 by 1 by 1 MPI processor grid
  reading atoms ...
  362 atoms
  read_data CPU = 0.017 seconds

pair_style     mliap unified /projects/westgroup/akinyemi.az/mace_lammps/models/mace-mp-0b2-medium.model-mliap_lammps.pt 0
pair_coeff     * * Al B C Cr Fe Mo Ni H

neighbor       2.0 bin
neigh_modify   every 1 delay 0 check yes

thermo         50
thermo_style   custom step pe fmax fnorm press

minimize       0  1e-06  10000  100000

CITE-CITE-CITE-CITE-CITE-CITE-CITE-CITE-CITE-CITE-CITE-CITE-CITE

Your simulation uses code contributions which should be cited:

- KOKKOS package: https://doi.org/10.1145/3731599.3767498

@inproceedings{Johansson25,
 author = {A. Johansson and E. Weinberg and C. Trott and M. McCarthy and S. Moore},
 title = {{LAMMPS-KOKKOS}: {P}erformance Portable Molecular Dynamics Across Exascale Architectures},
 year = 2025,
 booktitle = {Proceedings of the SC '25 Workshops of the International Conference for High Performance Computing,
  Networking, Storage and Analysis},
 pages = {1217–1232},
}

CITE-CITE-CITE-CITE-CITE-CITE-CITE-CITE-CITE-CITE-CITE-CITE-CITE

Neighbor list info ...
  update: every = 1 steps, delay = 0 steps, check = yes
  max neighbors/atom: 2000, page size: 100000
  master list distance cutoff = 7
  ghost atom cutoff = 7
  binsize = 7, bins = 2 2 8
  1 neighbor lists, perpetual/occasional/extra = 1 0 0
  (1) pair mliap/kk, perpetual
      attributes: full, newton on, kokkos_device
      pair build: full/bin/kk/device
      stencil: full/bin/3d
      bin: kk/device
WARNING: Fix MINIMIZE/kk not compatible with sending data in Kokkos communication (src/KOKKOS/comm_kokkos.cpp:842)
WARNING: Fix with atom-based arrays not compatible with sending data in Kokkos communication, switching to legacy exchange/border communication (src/KOKKOS/comm_kokkos.cpp:849)
WARNING: Fix MINIMIZE/kk not (yet) compatible with Kokkos sorting on device (src/KOKKOS/atom_kokkos.cpp:219)
WARNING: Fix with atom-based arrays not (yet) compatible with Kokkos sorting on device, switching to legacy host sorting (src/KOKKOS/atom_kokkos.cpp:225)
Per MPI rank memory allocation (min/avg/max) = 61.32 | 61.32 | 61.32 Mbytes
   Step         PotEng          Fmax          Fnorm          Press     
         0  -2369.9862      2.7219987      17.911523      14449.99     
        50  -2397.0271      0.15955083     0.51133587     8348.2029    
       100  -2397.5102      0.13423719     0.34305623     7918.1953    
       150  -2397.5431      0.0078081014   0.032897482    8079.3606    
       200  -2397.5435      0.00086700128  0.0021218604   8090.8869    
       250  -2397.5435      0.0002385802   0.00043685976  8090.0244    
       300  -2397.5435      1.1179872e-05  3.2838751e-05  8089.6496    
       350  -2397.5435      2.0188103e-06  5.6508428e-06  8089.6294    
       387  -2397.5435      3.7911706e-07  8.884347e-07   8089.6321    
Loop time of 24.1214 on 1 procs for 387 steps with 362 atoms

98.8% CPU use with 1 MPI tasks x 1 OpenMP threads

Minimization stats:
  Stopping criterion = force tolerance
  Energy initial, next-to-last, final = 
     -2369.98619848481  -2397.54345358048  -2397.54345358048
  Force two-norm initial, final = 17.911523 8.884347e-07
  Force max component initial, final = 2.7219987 3.7911706e-07
  Final line search alpha, max atom move = 1 3.7911706e-07
  Iterations, force evaluations = 387 758

MPI task timing breakdown:
Section |  min time  |  avg time  |  max time  |%varavg| %total
---------------------------------------------------------------
Pair    | 24.02      | 24.02      | 24.02      |   0.0 | 99.58
Neigh   | 0.0016034  | 0.0016034  | 0.0016034  |   0.0 |  0.01
Comm    | 0.018498   | 0.018498   | 0.018498   |   0.0 |  0.08
Output  | 0.00042689 | 0.00042689 | 0.00042689 |   0.0 |  0.00
Modify  | 0          | 0          | 0          |   0.0 |  0.00
Other   |            | 0.08065    |            |       |  0.33

Nlocal:            362 ave         362 max         362 min
Histogram: 1 0 0 0 0 0 0 0 0 0
Nghost:           1214 ave        1214 max        1214 min
Histogram: 1 0 0 0 0 0 0 0 0 0
Neighs:              0 ave           0 max           0 min
Histogram: 1 0 0 0 0 0 0 0 0 0
FullNghs:        43276 ave       43276 max       43276 min
Histogram: 1 0 0 0 0 0 0 0 0 0

Total # of neighbors = 43276
Ave neighs/atom = 119.54696
Neighbor list builds = 3
Dangerous builds = 0

variable  pe_final  equal  pe
variable  fmax_f    equal  fmax
variable  natoms    equal  atoms

print "ENERGY_RESULTS_START"
ENERGY_RESULTS_START
print "  job_name         : bridge"
  job_name         : bridge
print "  pe_final_eV      : ${pe_final}"
  pe_final_eV      : -2397.54345358048
print "  fmax_eV_per_Ang  : ${fmax_f}"
  fmax_eV_per_Ang  : 3.79117055138156e-07
print "  natoms           : ${natoms}"
  natoms           : 362
print "ENERGY_RESULTS_END"
ENERGY_RESULTS_END

write_data     structures/notebook05-adsorption-energy/1234/ads_bridge_relaxed.lammps
System init for write_data ...
print "Written: structures/notebook05-adsorption-energy/1234/ads_bridge_relaxed.lammps"
Written: structures/notebook05-adsorption-energy/1234/ads_bridge_relaxed.lammps
Total wall time: 0:00:53
