LAMMPS (11 Feb 2026 - Development - patch_11Feb2026-99-gb75dfcc930-modified)
KOKKOS mode with Kokkos version 5.0.2 is enabled
  using double precision
  using view layout = legacy
  will use up to 1 GPU(s) per node
  using 1 OpenMP thread(s) per MPI task
Reading data file ...
  orthogonal box = (0 0 0) to (12.447908 12.936245 52.360083)
  1 by 1 by 1 MPI processor grid
  reading atoms ...
  362 atoms
  read_data CPU = 0.020 seconds
/home/akinyemi.az/miniforge3/envs/mace-lammps/lib/python3.11/site-packages/e3nn/o3/_wigner.py:10: FutureWarning: You are using `torch.load` with `weights_only=False` (the current default value), which uses the default pickle module implicitly. It is possible to construct malicious pickle data which will execute arbitrary code during unpickling (See https://github.com/pytorch/pytorch/blob/main/SECURITY.md#untrusted-models for more details). In a future release, the default value for `weights_only` will be flipped to `True`. This limits the functions that could be executed during unpickling. Arbitrary objects will no longer be allowed to be loaded via this mode unless they are explicitly allowlisted by the user via `torch.serialization.add_safe_globals`. We recommend you start setting `weights_only=True` for any use case where you don't have full control of the loaded file. Please open an issue on GitHub for any issues related to this experimental feature.
  _Jd, _W3j_flat, _W3j_indices = torch.load(os.path.join(os.path.dirname(__file__), 'constants.pt'))

CITE-CITE-CITE-CITE-CITE-CITE-CITE-CITE-CITE-CITE-CITE-CITE-CITE

Your simulation uses code contributions which should be cited:
- KOKKOS package: https://doi.org/10.1145/3731599.3767498
The log file lists these citations in BibTeX format.

CITE-CITE-CITE-CITE-CITE-CITE-CITE-CITE-CITE-CITE-CITE-CITE-CITE

Neighbor list info ...
  update: every = 1 steps, delay = 0 steps, check = yes
  max neighbors/atom: 2000, page size: 100000
  master list distance cutoff = 7
  ghost atom cutoff = 7
  binsize = 7, bins = 2 2 8
  1 neighbor lists, perpetual/occasional/extra = 1 0 0
  (1) pair mliap/kk, perpetual
      attributes: full, newton on, kokkos_device
      pair build: full/bin/kk/device
      stencil: full/bin/3d
      bin: kk/device
Setting up cg/kk style minimization ...
  Unit style    : metal
  Current step  : 0
WARNING: Fix MINIMIZE/kk not compatible with sending data in Kokkos communication (src/KOKKOS/comm_kokkos.cpp:842)
WARNING: Fix with atom-based arrays not compatible with sending data in Kokkos communication, switching to legacy exchange/border communication (src/KOKKOS/comm_kokkos.cpp:849)
WARNING: Fix MINIMIZE/kk not (yet) compatible with Kokkos sorting on device (src/KOKKOS/atom_kokkos.cpp:219)
WARNING: Fix with atom-based arrays not (yet) compatible with Kokkos sorting on device, switching to legacy host sorting (src/KOKKOS/atom_kokkos.cpp:225)
Per MPI rank memory allocation (min/avg/max) = 61.31 | 61.31 | 61.31 Mbytes
   Step         PotEng          Fmax          Fnorm          Press     
         0  -2370.0626      2.7219987      17.880847      14451.861    
        50  -2396.9897      0.14728261     0.40934289     8369.2116    
       100  -2397.293       0.37087703     0.84152191     8497.017     
       150  -2397.5351      0.022353007    0.074283828    8029.6049    
       200  -2397.5378      0.0024507553   0.0067925946   8038.3715    
       250  -2397.5378      0.00010982495  0.00032122591  8040.4333    
       300  -2397.5378      2.0530326e-06  1.1321276e-05  8040.623     
       342  -2397.5378      2.5342688e-07  9.9833477e-07  8040.634     
Loop time of 22.7002 on 1 procs for 342 steps with 362 atoms

98.7% CPU use with 1 MPI tasks x 1 OpenMP threads

Minimization stats:
  Stopping criterion = force tolerance
  Energy initial, next-to-last, final = 
     -2370.06257338668  -2397.53776034248  -2397.53776034248
  Force two-norm initial, final = 17.880847 9.9833477e-07
  Force max component initial, final = 2.7219987 2.5342688e-07
  Final line search alpha, max atom move = 1 2.5342688e-07
  Iterations, force evaluations = 342 662

MPI task timing breakdown:
Section |  min time  |  avg time  |  max time  |%varavg| %total
---------------------------------------------------------------
Pair    | 22.603     | 22.603     | 22.603     |   0.0 | 99.57
Neigh   | 0.0017055  | 0.0017055  | 0.0017055  |   0.0 |  0.01
Comm    | 0.017092   | 0.017092   | 0.017092   |   0.0 |  0.08
Output  | 0.0025525  | 0.0025525  | 0.0025525  |   0.0 |  0.01
Modify  | 0          | 0          | 0          |   0.0 |  0.00
Other   |            | 0.07556    |            |       |  0.33

Nlocal:            362 ave         362 max         362 min
Histogram: 1 0 0 0 0 0 0 0 0 0
Nghost:           1216 ave        1216 max        1216 min
Histogram: 1 0 0 0 0 0 0 0 0 0
Neighs:              0 ave           0 max           0 min
Histogram: 1 0 0 0 0 0 0 0 0 0
FullNghs:        43296 ave       43296 max       43296 min
Histogram: 1 0 0 0 0 0 0 0 0 0

Total # of neighbors = 43296
Ave neighs/atom = 119.60221
Neighbor list builds = 3
Dangerous builds = 0
ENERGY_RESULTS_START
  job_name         : top_c
  pe_final_eV      : -2397.53776034248
  fmax_eV_per_Ang  : 2.53426875671935e-07
  natoms           : 362
ENERGY_RESULTS_END
System init for write_data ...
Written: structures/notebook05-adsorption-energy/1234/ads_top_c_relaxed.lammps
Total wall time: 0:00:43
/home/akinyemi.az/miniforge3/envs/mace-lammps/lib/python3.11/tempfile.py:934: ResourceWarning: Implicitly cleaning up <TemporaryDirectory '/tmp/tmpx_fhud86'>
  _warnings.warn(warn_message, ResourceWarning)
Job top_c finished: Sat May 16 04:07:53 AM EDT 2026
