LAMMPS data file via write_data, version 11 Feb 2026, timestep = 156, units = metal

362 atoms
8 atom types

0 12.447907776 xlo xhi
0 12.9362452296 ylo yhi
0 52.3600831054 zlo zhi

Masses

1 26.9815
2 10.811
3 12.011
4 51.9961
5 55.845
6 95.95999999999999
7 58.6934
8 1.008

Atoms # atomic/kk

1 7 1.1258466585 0.8238897812 14.6422938276 0 0 0
2 7 3.5643659884 0.7395322579 14.8707344081 0 0 0
3 5 6.025108482 0.868674738 14.9374995012 0 0 0
9 7 7.2960841274 3.0640627172 14.8928840014 0 0 0
4 6 8.6460647334 0.9727011669 14.9461359803 0 0 0
5 7 11.0338965836 1.2546061387 14.4617852771 0 0 0
6 7 12.276140525699999 3.479705423 14.6432066611 -1 0 0
10 7 9.8182658326 3.3811991561 14.7228078386 0 0 0
16 4 0.2259814519 7.6755482258 14.6122028552 0 0 0
14 7 8.5846403821 5.6408339332 14.8936750376 0 0 0
20 7 10.2382885855 7.6596590826 13.9895786276 0 0 0
22 7 3.6275672669 9.5145490974 14.9191976737 0 0 0
23 7 6.5953547399 9.0887663636 14.8515429278 0 0 0
28 7 4.8281525095 11.6121679587 14.8190861513 0 0 0
29 6 7.3844965689 11.5008861096 14.9174134271 0 0 0
24 7 9.0625840854 9.6698238411 14.6563310832 0 0 0
25 7 11.955569227 9.8811333051 14.711502925 0 0 0
30 7 9.9341535035 11.8590816825 14.5789921021 0 0 0
7 7 2.2366275412 2.9728554832 15.107019974 0 0 0
32 7 2.3179736881 1.2559057992 16.9309167949 0 0 0
36 7 1.1474574169 3.9708655556 17.0628370478 0 0 0
37 7 3.5804601598 3.6482723083 17.0933666219 0 0 0
8 7 4.7902088582 2.9871060268 15.0207457225 0 0 0
33 7 4.8395372481 1.5376847564 16.9828118622 0 0 0
34 7 7.3673113469 1.7134447529 16.9466095923 0 0 0
38 5 6.0863328811 3.7439962659 16.9704045537 0 0 0
31 6 12.4034430084 1.8909701279 16.4859238419 -1 0 0
35 7 9.9312454135 1.7155270943 16.9048412711 0 0 0
39 7 8.6456229872 3.8662562756 16.8144456376 0 0 0
40 7 11.0819410424 3.9550305269 16.965056305 0 0 0
11 7 1.1446469324 5.4348818376 15.0260694713 0 0 0
12 7 3.5626900949 5.1484805577 15.1219206343 0 0 0
17 7 2.4385770546 7.5074786302 15.0915466828 0 0 0
42 7 2.383026307 6.0776576292 17.1121693546 0 0 0
46 7 0.8286859941 8.4158989619 16.8604808114 0 0 0
47 7 3.8261955571 8.0118781577 17.0271996095 0 0 0
13 7 6.05655161 5.1880970737 15.0085441604 0 0 0
18 7 4.9057925003 7.3043180487 14.9771488543 0 0 0
19 2 6.8536186495 6.977322444 15.3165061377 0 0 0
43 7 4.8648420644 5.813203138 17.0772632937 0 0 0
44 7 7.3530650486 5.8825877453 17.0235615538 0 0 0
48 7 6.2359860304 7.9949701301 17.0183179437 0 0 0
15 6 11.0578650057 5.640977567 15.0857099726 0 0 0
41 7 12.326697432 6.1121527479 17.1282591442 -1 0 0
45 7 9.8180962713 6.113097881 17.1799470035 0 0 0
49 7 8.4805823599 7.8603568623 16.0225049768 0 0 0
50 7 10.9164802038 8.1190485303 16.2149166215 0 0 0
85 6 9.8413720948 8.5199856099 18.4502400156 0 0 0
21 2 1.5590526246 9.4753946373 15.2106705632 0 0 0
26 7 0.3250709551 10.8048357361 16.829685923 0 0 0
27 7 2.0427785984 11.4793243543 15.1513638937 0 0 0
52 7 2.6246336227 10.0834386148 17.0434612153 0 0 0
56 2 0.9376495606 12.7073769653 16.3547446491 0 0 0
57 7 3.7143440256 12.2282740215 16.9297674244 0 0 0
61 6 0.1157897204 12.9166925065 18.5765511058 0 -1 0
53 7 5.1389182954 10.1130770845 16.7795785273 0 0 0
54 7 7.7047226421 10.046412777 16.9219980073 0 0 0
58 6 6.305279419 12.3412079951 17.0125464704 0 0 0
51 3 11.631332556499999 9.3730274319 17.4996517185 -1 0 0
55 7 10.2543068487 10.4109151438 16.6465322716 0 0 0
59 7 8.8535717872 12.373568992 16.8909683908 0 0 0
60 7 11.3094244623 12.6253103691 16.3509139157 0 0 0
62 7 2.5736646259 0.0388543075 19.1439181185 0 0 0
66 6 1.3642494207 2.2344944668 19.0668712525 0 0 0
67 5 3.8086827999 2.1871528118 19.105059664 0 0 0
91 4 1.3755439329 0.790024294 21.253306303 0 0 0
92 7 3.8064369689 0.745857905 21.1336665129 0 0 0
96 7 0.0939459262 2.8690908483 21.1775742489 0 0 0
97 7 2.6158864852 2.8670949948 21.2098995492 0 0 0
63 5 5.0252028261 0.1227941709 19.0645022981 0 0 0
64 7 7.5077679081 0.1128785971 19.0938368095 0 0 0
68 7 6.2033384106 2.1801628394 19.0505078471 0 0 0
93 7 6.3337088693 0.7448682495 21.2078824526 0 0 0
98 7 5.0586466718 2.8815029423 21.1528906657 0 0 0
99 5 7.5133856754 2.8482187768 21.1431811117 0 0 0
65 7 10.0922092776 0.1090864113 18.9654187322 0 0 0
69 7 8.7432136098 2.1914622413 18.9636777837 0 0 0
70 7 11.3024681549 2.295283526 18.9085484184 0 0 0
94 7 8.7894094669 0.7578687308 21.1792249102 0 0 0
95 7 11.3749407028 0.7288366803 21.0318315824 0 0 0
100 6 10.0567896019 2.8455960262 21.0202929669 0 0 0
72 7 2.4605423122 4.4258259732 19.1170056027 0 0 0
76 7 1.1780168301 6.5021615521 19.1907840514 0 0 0
77 7 3.7710111135 6.503244874 19.1449010506 0 0 0
82 6 2.4453133351 8.5417008278 19.0246931511 0 0 0
101 7 1.2207539353 5.0354041389 21.2328311338 0 0 0
102 6 3.7502624146 5.0514131419 21.2269806199 0 0 0
106 7 0.0062088604 7.1420591461 21.2743147916 0 0 0
107 7 2.4846365166 7.1760998099 21.2382210242 0 0 0
73 7 4.9521603916 4.3142071081 19.0770368338 0 0 0
74 6 7.481201084 4.3206408963 19.0268684431 0 0 0
78 7 6.1824319863 6.5286180772 19.1057408001 0 0 0
103 7 6.2906548943 5.0619734735 21.1570669213 0 0 0
108 7 5.0314909174 7.2261626129 21.2078828844 0 0 0
109 7 7.4387948978 7.2704210269 21.2403010346 0 0 0
71 1 12.340172513099999 4.459446799 19.1961468083 -1 0 0
75 5 9.873323622 4.3694564698 19.0110814807 0 0 0
79 7 8.6255400165 6.5220273249 19.2862313998 0 0 0
80 7 11.1047447389 6.5148575118 19.2839343666 0 0 0
81 4 12.3822152269 8.5880181156 19.188710651 -1 0 0
104 7 8.751111802 5.0662506007 21.2164813896 0 0 0
105 3 10.101098442389384 4.427827004238567 22.263252368147437 0 0 0
110 7 9.9139017778 7.198695077 21.2721959597 0 0 0
86 7 1.3161877581 10.7622064303 19.171019448 0 0 0
87 1 3.8581632427 10.8852458026 19.0099092325 0 0 0
111 7 1.2134752876 9.3391291416 21.2171104299 0 0 0
112 6 3.7600854135 9.3441431032 21.2390959322 0 0 0
116 1 0.0708371451 11.5534654431 21.1771192258 0 0 0
117 7 2.5342404801 11.5447751173 21.1754992157 0 0 0
83 7 4.9808377868 8.7332858144 19.0335570843 0 0 0
84 7 7.4348603463 8.643529659 19.0117104416 0 0 0
88 7 6.2873403272 10.8269194883 19.0221870342 0 0 0
113 7 6.2530137818 9.4019100759 21.0345662247 0 0 0
118 7 5.0537678294 11.5645202769 21.1435680943 0 0 0
119 4 7.4844615931 11.580616948 21.0776114583 0 0 0
89 6 8.7950866138 10.8754011447 18.9803225004 0 0 0
90 4 11.2973558935 10.8135521432 18.8920940342 0 0 0
114 7 8.7193989602 9.3483986978 20.9346854699 0 0 0
115 6 11.1324548665 9.2956620624 21.1684680922 0 0 0
120 7 10.0312385576 11.5628781625 21.1234253441 0 0 0
121 7 0.09574577484314487 1.413593228149397 23.257294119669364 0 0 0
122 7 2.584185847859331 1.4104566036228856 23.317660828405387 0 0 0
126 6 1.3672258744902794 3.609955184482017 23.260970635800057 0 0 0
127 7 3.8683965536469946 3.5945816974350078 23.36607123171372 0 0 0
152 7 2.6691274631458572 0.016854883613128577 25.375496933347616 0 0 0
156 1 1.5015518473835197 2.1463659028877746 25.502433601488516 0 0 0
157 7 3.990046018258398 2.143877585180772 25.444604977256226 0 0 0
162 7 2.6189556265186145 4.273744140914065 25.428148294938197 0 0 0
123 7 5.025125158674614 1.436233871972185 23.200540059195824 0 0 0
124 7 7.430493150082745 1.5271852364575969 23.48003308044658 0 0 0
128 7 6.3230117441686025 3.6728280144156704 23.171313326749733 0 0 0
153 7 5.214874290134301 0.07070210249585601 25.33120057335753 0 0 0
154 7 7.626255536549473 0.016890331179219547 25.459268296373004 0 0 0
158 2 5.815345536025456 2.488246032328529 24.643911917587864 0 0 0
163 7 5.1353510275949885 4.256591500989245 25.423248299975487 0 0 0
164 5 7.494820022293834 4.069302682980331 25.344517781848115 0 0 0
125 7 10.079206316669937 1.4518871494859706 23.301810472730434 0 0 0
129 7 8.774677128842828 3.569335339714139 23.329696126463983 0 0 0
130 4 11.377646371170803 3.6485674340510075 23.383214168148992 0 0 0
155 4 10.150347027728863 0.0796995645199718 25.519219978597786 0 0 0
159 7 8.904265074524465 2.1131096975560184 25.42381278852408 0 0 0
160 7 11.427989517991456 2.174953505274509 25.392394332582835 0 0 0
165 7 10.085107533686353 4.237354108445309 25.397930827689695 0 0 0
131 7 0.09082873121467323 5.79973800783598 23.385828774776876 0 0 0
132 7 2.5640515317471664 5.802078808448855 23.365134953274683 0 0 0
136 7 1.3282365449244238 7.927877661375428 23.296049443143616 0 0 0
137 7 3.8041789571805094 7.969422442041886 23.32190081053375 0 0 0
161 4 0.13029607845327965 4.358671725099809 25.45423452760881 0 0 0
166 7 1.3582986294620598 6.429653372776514 25.423923218183887 0 0 0
167 7 3.8300795008053985 6.441547652353179 25.449142102072425 0 0 0
172 7 2.643450839712822 8.615976993259059 25.39569507025412 0 0 0
133 6 5.088330986828391 5.855773129021695 23.384988071179915 0 0 0
134 7 7.578285710844139 5.792073445259433 23.301827478930786 0 0 0
138 7 6.331884093158356 8.000898203707676 23.339640438318224 0 0 0
168 7 6.385329880714626 6.399419254462874 25.430546606992802 0 0 0
173 7 5.1331156986912 8.557322881658108 25.354069160373736 0 0 0
135 7 10.083103111010313 5.852639014842308 23.37350644441401 0 0 0
139 4 8.718656145331307 7.961170427433586 23.211962821807965 0 0 0
140 4 11.307355724136636 7.913842696121223 23.294894529677205 0 0 0
169 7 8.793869043003522 6.3484590175115025 25.371130283403627 0 0 0
170 7 11.31103749378685 6.425071766469296 25.434656553616577 0 0 0
175 6 9.913496395397303 8.581397720088779 25.500860504097187 0 0 0
141 7 0.04077516606046363 10.098525128638528 23.328204257727567 0 0 0
142 7 2.5226104162348384 10.112745824695715 23.299147232362593 0 0 0
146 7 1.3203583951407714 12.247142334602795 23.314213175275725 0 0 0
147 7 3.8345228480377287 12.246598802093288 23.23067084329356 0 0 0
151 4 0.11426120291094202 12.891879713395172 25.37103969843595 0 -1 0
171 6 0.13315665287612247 8.634526276502454 25.41033547310574 0 0 0
176 7 1.3640489793835857 10.817837797794368 25.431749342744684 0 0 0
177 6 3.9057094575138613 10.820469418337348 25.315497830944327 0 0 0
143 7 5.093950516832624 10.115124470966096 23.23482376323096 0 0 0
144 7 7.52923383932994 10.102097290547773 22.904404364755322 0 0 0
148 4 6.249797299045705 12.286345491087008 23.26178932708406 0 0 0
178 6 6.66388451761584 10.529759216287955 25.23882402457144 0 0 0
145 7 10.016270434687224 10.10283482184452 23.299757520991083 0 0 0
149 6 8.741078319290342 12.302732425562855 23.291247276649607 0 0 0
150 7 11.278268053437294 12.241729979867166 23.333328349872236 0 0 0
174 3 8.438663248305403 9.518034483281198 24.40583561925489 0 0 0
179 5 9.031652890969978 10.9425146763641 25.558925200966193 0 0 0
180 5 11.36367827538155 10.89095549149677 25.480627524371542 0 0 0
181 7 1.4063249460964005 0.675839364126736 27.485439085047766 0 0 0
182 7 3.8955186108823563 0.7095569212164604 27.444880054667045 0 0 0
186 7 0.19152604357050293 2.8720955163576627 27.479939080858003 0 0 0
187 7 2.6799125187302173 2.8596069471907866 27.56401829902573 0 0 0
211 7 0.22783178308161825 1.4573780318885345 29.580137926951735 0 0 0
212 7 2.729569849181897 1.3696550024359664 29.57939914468902 0 0 0
216 7 1.4301865660245319 3.565145213433544 29.58310338693713 0 0 0
217 4 3.8446963958776954 3.5782794489256227 29.60070186086833 0 0 0
183 7 6.334387382128924 0.7242977738390459 27.569888036576113 0 0 0
188 7 5.104575002256718 2.8793291977529774 27.57630649012377 0 0 0
189 7 7.619955397487997 2.8023385575711512 27.449084085442756 0 0 0
213 5 5.156848128759279 1.4304850105236948 29.601146270674008 0 0 0
214 7 7.637977503147348 1.365164389941583 29.58438164075647 0 0 0
218 7 6.38572941611125 3.541579730394647 29.54184924973306 0 0 0
184 7 8.914407867476987 0.7329060293130021 27.550616104506165 0 0 0
185 4 11.40676880767469 0.7365490187578793 27.517717682125152 0 0 0
190 7 10.169459068987344 2.847434967866744 27.475531169607972 0 0 0
215 7 10.147558315134964 1.418432848091615 29.619527681773064 0 0 0
219 7 8.860738318711661 3.5242203615952197 29.518912580716172 0 0 0
220 7 11.390214265389911 3.5730130134090223 29.513265121374022 0 0 0
191 7 1.4110119252354993 5.01857776701634 27.46900313706709 0 0 0
192 7 3.8537820068751008 4.994487201428734 27.487798364209798 0 0 0
196 7 0.156938546356021 7.1742453368496 27.48749663340758 0 0 0
197 7 2.600408353397618 7.1985356540420975 27.481475824283624 0 0 0
221 7 0.14093182237314725 5.739664317994118 29.564309241552568 0 0 0
222 7 2.6115603570363706 5.7351308983069975 29.553101638570663 0 0 0
226 7 1.3838469377793898 7.912951251268171 29.550195538623107 0 0 0
227 7 3.8816712012318457 7.9173324804775325 29.47785537241294 0 0 0
193 7 6.391805244311781 4.980560377485288 27.414125796549424 0 0 0
198 7 5.124126731670766 7.175718412916493 27.419932176221874 0 0 0
199 7 7.637177285502858 7.197744038305699 27.4453166951972 0 0 0
223 6 5.174627645157368 5.723362802576995 29.49459245792519 0 0 0
224 7 7.66576278387352 5.747180811098427 29.576655105130005 0 0 0
228 7 6.413588604040237 7.917437350728595 29.498368623698028 0 0 0
194 6 8.868292804592407 5.0111458700889795 27.48213599557275 0 0 0
195 7 11.381843800298855 5.0104787953519905 27.498634458977005 0 0 0
200 7 10.142358971998927 7.173071753454623 27.527054205948197 0 0 0
225 7 10.121860604264903 5.753917773119696 29.59606450883014 0 0 0
229 7 8.865921244798658 7.895850765712493 29.514676388900185 0 0 0
230 7 11.388586038511155 7.944469235649881 29.51276605482885 0 0 0
201 5 1.3979258572761584 9.33854587200276 27.51413990600965 0 0 0
202 7 3.893123965698278 9.32400367361795 27.39658505297246 0 0 0
206 4 0.20685182826962425 11.493807851609274 27.516490577217937 0 0 0
207 7 2.630216849619982 11.469224248143801 27.451894390010256 0 0 0
231 7 0.18277201328187354 10.091847596830167 29.559652667005697 0 0 0
232 7 2.651064343865103 10.03418477783874 29.433920612529256 0 0 0
236 7 1.487509946064476 12.196048825361915 29.554512232057476 0 0 0
203 7 6.392331910086499 9.295485866327644 27.407941811576727 0 0 0
208 7 5.16202573810271 11.504309452508632 27.353542816078857 0 0 0
209 6 7.61134830487347 11.540157941163846 27.631066047854826 0 0 0
233 7 5.167557493974853 10.05799045689912 29.342791567840052 0 0 0
234 7 7.622972049125068 10.09729709235704 29.656403897432707 0 0 0
238 7 6.242010910000563 12.243745208142402 29.680453263296172 0 0 0
204 7 8.857431214825786 9.381069152363523 27.603597372136544 0 0 0
205 7 11.366195214360019 9.432398522479838 27.529706219106433 0 0 0
210 7 10.17606457008788 11.57018101094372 27.565418452601243 0 0 0
235 7 10.1053239228914 10.191350555178838 29.5848720122496 0 0 0
239 4 8.903387925044301 12.267553109362483 29.721359239482837 0 0 0
240 7 11.413819318815388 12.28154728869613 29.550526870490806 0 0 0
237 3 4.052165340702036 0.309381792562209 30.558090235220675 0 1 0
241 7 0.2167615419852078 0.1161888444793537 31.63049180595598 0 0 0
242 7 2.5853586876468997 0.15581013837358104 31.738632862672176 0 0 0
246 4 1.3636494300741402 2.258115549885965 31.654709025371897 0 0 0
247 7 3.9018891360827057 2.164071130958959 31.64251550982827 0 0 0
244 7 7.648057649081163 0.018079137565616858 31.70591148014176 0 0 0
248 7 6.4277454543493935 2.1641538054209786 31.64658763108574 0 0 0
249 7 8.871790904829064 2.1202243592529193 31.673437338203588 0 0 0
250 7 11.402858895513022 2.1556656789691315 31.655031757540428 0 0 0
255 1 10.125216480295093 4.2362739057701875 31.497257490863852 0 0 0
251 7 0.1672657458663782 4.343063614392577 31.644231973358096 0 0 0
252 7 2.6529534816524016 4.333970864871791 31.6648628155907 0 0 0
256 7 1.350330918121349 6.5192943239925425 31.63141684922608 0 0 0
257 6 3.811937303392058 6.515530150688586 31.664895021674898 0 0 0
286 7 0.11689277564826671 7.2993370824525785 33.614573065875696 0 0 0
253 7 5.132105868600349 4.323659349524179 31.627085340272092 0 0 0
254 7 7.64173485473807 4.326897475807475 31.585488752254125 0 0 0
258 7 6.372911961099381 6.509440049416642 31.622945435106615 0 0 0
264 7 7.61029150770428 8.59508370369802 31.61761382015739 0 0 0
259 4 8.841658961371328 6.479007054388245 31.6207176137145 0 0 0
260 7 11.335396765864745 6.509562428497459 31.58421491450318 0 0 0
284 5 8.90735009430303 5.13485981165244 33.57445828546478 0 0 0
285 4 11.368032945177749 5.173562592505328 33.62602166187791 0 0 0
290 7 10.104203312823351 7.277267685555533 33.58567601078579 0 0 0
261 7 0.19716157421282396 8.727934065173143 31.644533953604128 0 0 0
262 7 2.685988552212026 8.737100809399994 31.535330892274864 0 0 0
266 7 1.5820624299154473 10.849823632453276 31.567238703247785 0 0 0
267 4 3.9375812519718827 11.294569638321017 30.854572579802277 0 0 0
292 7 3.9818458801593892 9.39070179832427 33.512366278625585 0 0 0
243 7 5.191249979907208 12.91768198540754 32.096616679554465 0 -1 0
263 1 5.114157760135387 8.77427774442555 31.430804802730297 0 0 0
268 7 6.283658569081097 10.776895766310478 31.580705251627986 0 0 0
293 4 6.469614960378927 9.339376526880924 33.650127216891136 0 0 0
245 7 10.131170305939188 12.904681144171999 31.859589172148393 0 -1 0
265 6 10.122127763678634 8.701895285459635 31.531126408540104 0 0 0
269 7 8.797434407463163 10.821195154850937 31.738785112595334 0 0 0
270 7 11.446702791015563 10.924680239437608 31.60362028562767 0 0 0
296 3 11.095655226789928 11.847875133047271 33.32208347719367 -1 0 0
271 7 1.4939452327172515 0.9198139923831353 33.768701965210056 0 0 0
272 7 3.941700615255238 0.9715820874029149 33.915818874230474 0 0 0
276 7 0.19570896513885747 3.008180028839786 33.72539409404277 0 0 0
277 7 2.6632174887986344 3.095373960345892 33.78822951193363 0 0 0
301 7 0.20720489175631474 1.5662041642464166 35.746671072061396 0 0 0
302 7 2.633575110394904 1.682931640885787 35.84960847684692 0 0 0
306 4 1.4337780034385796 3.8483368726348988 35.94124659007858 0 0 0
307 7 4.009754459852755 3.7491402366733904 35.82873386323229 0 0 0
273 7 6.480822649891045 0.9907477788728456 33.898628863929964 0 0 0
278 1 5.238063657744783 3.017948095570086 33.72922708255716 0 0 0
279 7 7.747941600397204 3.059474575235611 33.72292473379772 0 0 0
303 7 5.263424954317327 1.686658329666655 35.92639040026512 0 0 0
304 4 7.770907093995291 1.660839086104895 35.911559627036205 0 0 0
308 7 6.551976673661967 3.73405354236998 35.794516756180165 0 0 0
274 7 8.856080246388617 0.9182003564391906 33.82810034047713 0 0 0
275 4 11.452202689812603 0.810002469725795 33.71573735070601 0 0 0
280 7 10.224726887332121 3.010798593349736 33.709514998017205 0 0 0
305 7 10.235717607712179 1.5661239630372683 35.7307517643373 0 0 0
309 7 9.041376259427873 3.685110537591488 35.776405847069896 0 0 0
310 4 11.624417992444693 3.9699521425315925 35.843212250976286 0 0 0
281 7 1.3449698376182433 5.200586847530314 33.856628689891885 0 0 0
282 4 3.86189839602186 5.156618907929504 33.770890536618325 0 0 0
287 7 2.6576739543373034 7.306804834455754 33.74706521946341 0 0 0
312 7 2.746295573616482 5.81592199904178 35.793618414270284 0 0 0
316 7 1.2411915038506098 7.631395940572866 35.78112532672527 0 0 0
317 7 3.962862039114154 8.064706218905405 35.74154190080686 0 0 0
283 7 6.403161351588978 5.119337031672537 33.66640081137863 0 0 0
288 7 5.206912343540619 7.288355511384468 33.6694447949349 0 0 0
289 7 7.653336661155873 7.206001514847084 33.71134600526471 0 0 0
313 7 5.2840947345743965 5.925006765599346 35.71964835417537 0 0 0
314 7 7.7415233392444325 5.846029290751285 35.74445112046631 0 0 0
318 4 6.572230851702935 8.122118840411733 35.80652404256808 0 0 0
311 2 12.397429377636573 6.024746113064921 35.314096907490296 -1 0 0
315 7 10.15062405990624 5.822899947809446 35.57184500262462 0 0 0
319 7 8.975491893906579 7.994510241807265 35.80468637102505 0 0 0
320 7 11.37147326664942 7.946757011010729 35.57976179937809 0 0 0
350 7 11.697267256354703 6.295937050606179 37.291770588734224 0 0 0
355 3 10.462988900683506 7.913750746653666 37.26342263777675 0 0 0
291 7 1.488631665673287 9.443579124319589 33.72022757942358 0 0 0
297 6 3.043259797907224 11.591613277118954 33.66885574000029 0 0 0
321 6 0.23640856598292315 10.076698033654203 35.894390219923395 0 0 0
322 7 2.726740302855256 10.206241444076062 35.75361494473065 0 0 0
326 7 0.5276196467196492 11.670379351971164 33.66879032929658 0 0 0
327 6 3.939792778451347 12.524939906263747 36.09897600517306 0 0 0
356 4 1.4208878487210812 12.374792710388189 35.83940955392416 0 0 0
298 2 5.2258857417666675 12.303424849161612 34.20705985293621 0 0 0
299 7 7.017890597262158 11.599814141120417 33.67988448173248 0 0 0
323 6 5.2581148355796286 10.260873075422836 35.580294115928055 0 0 0
324 7 7.928664220577261 10.367512906174712 35.696730632559586 0 0 0
328 7 6.49252626172994 12.542819326353488 35.9224238760303 0 0 0
294 7 8.788520250222936 9.310354558420185 33.680165025671414 0 0 0
295 6 11.287606035510542 9.717121830986867 33.750624734427355 0 0 0
300 7 9.406642628708571 11.56590766451251 34.16387207549416 0 0 0
325 7 10.269916855965516 9.857064821730225 37.01426106901863 0 0 0
329 3 9.552686635705482 11.42552075299389 36.18438899681969 0 0 0
330 4 11.292222954080982 12.091333825867176 35.576142332202416 0 0 0
335 5 9.923203395687764 12.885117652081865 37.43429962660339 0 -1 0
332 7 2.5047937733719894 0.12049921847306193 38.028058481854046 0 0 0
336 7 1.35849643492837 2.2090794308982757 37.82308142377349 0 0 0
337 7 3.893092529328961 2.2136635576181476 37.85555474910864 0 0 0
341 7 0.23575595176372874 4.281748815850083 38.05886134858787 0 0 0
333 7 5.2300747532483385 0.18308167762051764 38.113428196073336 0 0 0
334 7 7.668120523905847 0.10456336076988486 38.0638907768908 0 0 0
338 7 6.533613954000748 2.2761897356174305 37.88662523016711 0 0 0
339 7 9.021991879496428 2.190021486345752 37.89178333876935 0 0 0
340 7 11.400766106001019 2.233620087279759 37.71112760851025 0 0 0
342 7 2.7310854165648584 4.31690050664732 37.90375916392128 0 0 0
346 7 1.5311004163545032 6.448452538124792 37.9815311692095 0 0 0
347 6 4.000833438997714 6.483962889539132 37.79344205838678 0 0 0
343 7 5.3192698826372 4.3734390471372935 37.84865236471332 0 0 0
344 7 7.854376269270615 4.456214874408525 37.833052029966375 0 0 0
348 6 6.660655068731357 6.684499820982736 37.839289633460105 0 0 0
361 8 5.391024722113385 5.738361427089568 38.94035770422471 0 0 0
345 4 10.235867168152602 4.365390053520176 37.78928159961125 0 0 0
349 7 9.244334758631215 6.64626845269711 37.836363382676986 0 0 0
351 7 12.269087157923185 8.584448778209845 37.827991909381886 -1 0 0
352 6 2.521563132632118 8.681805265563966 37.68234871103596 0 0 0
357 7 3.8652731088860848 10.834176006848198 37.94711459863492 0 0 0
360 7 1.408715004581402 10.920591904091676 37.87573466131902 1 0 0
353 7 5.1556510842361 8.7301569066239 37.817451375192135 0 0 0
354 7 7.973916650069514 8.962015003633354 37.79460889217257 0 0 0
358 6 6.451669190641289 10.8794643330536 37.80138602637306 0 0 0
331 7 12.423628147692941 12.922134602140865 37.62620477714221 -1 -1 0
359 2 8.611673464684973 11.166491835144237 37.397079333116835 0 0 0
362 8 9.100941498894018 0.7537840519397874 38.83047934490394 0 1 0

Velocities

1 0 0 0
2 0 0 0
3 0 0 0
9 0 0 0
4 0 0 0
5 0 0 0
6 0 0 0
10 0 0 0
16 0 0 0
14 0 0 0
20 0 0 0
22 0 0 0
23 0 0 0
28 0 0 0
29 0 0 0
24 0 0 0
25 0 0 0
30 0 0 0
7 0 0 0
32 0 0 0
36 0 0 0
37 0 0 0
8 0 0 0
33 0 0 0
34 0 0 0
38 0 0 0
31 0 0 0
35 0 0 0
39 0 0 0
40 0 0 0
11 0 0 0
12 0 0 0
17 0 0 0
42 0 0 0
46 0 0 0
47 0 0 0
13 0 0 0
18 0 0 0
19 0 0 0
43 0 0 0
44 0 0 0
48 0 0 0
15 0 0 0
41 0 0 0
45 0 0 0
49 0 0 0
50 0 0 0
85 0 0 0
21 0 0 0
26 0 0 0
27 0 0 0
52 0 0 0
56 0 0 0
57 0 0 0
61 0 0 0
53 0 0 0
54 0 0 0
58 0 0 0
51 0 0 0
55 0 0 0
59 0 0 0
60 0 0 0
62 0 0 0
66 0 0 0
67 0 0 0
91 0 0 0
92 0 0 0
96 0 0 0
97 0 0 0
63 0 0 0
64 0 0 0
68 0 0 0
93 0 0 0
98 0 0 0
99 0 0 0
65 0 0 0
69 0 0 0
70 0 0 0
94 0 0 0
95 0 0 0
100 0 0 0
72 0 0 0
76 0 0 0
77 0 0 0
82 0 0 0
101 0 0 0
102 0 0 0
106 0 0 0
107 0 0 0
73 0 0 0
74 0 0 0
78 0 0 0
103 0 0 0
108 0 0 0
109 0 0 0
71 0 0 0
75 0 0 0
79 0 0 0
80 0 0 0
81 0 0 0
104 0 0 0
105 0 0 0
110 0 0 0
86 0 0 0
87 0 0 0
111 0 0 0
112 0 0 0
116 0 0 0
117 0 0 0
83 0 0 0
84 0 0 0
88 0 0 0
113 0 0 0
118 0 0 0
119 0 0 0
89 0 0 0
90 0 0 0
114 0 0 0
115 0 0 0
120 0 0 0
121 0 0 0
122 0 0 0
126 0 0 0
127 0 0 0
152 0 0 0
156 0 0 0
157 0 0 0
162 0 0 0
123 0 0 0
124 0 0 0
128 0 0 0
153 0 0 0
154 0 0 0
158 0 0 0
163 0 0 0
164 0 0 0
125 0 0 0
129 0 0 0
130 0 0 0
155 0 0 0
159 0 0 0
160 0 0 0
165 0 0 0
131 0 0 0
132 0 0 0
136 0 0 0
137 0 0 0
161 0 0 0
166 0 0 0
167 0 0 0
172 0 0 0
133 0 0 0
134 0 0 0
138 0 0 0
168 0 0 0
173 0 0 0
135 0 0 0
139 0 0 0
140 0 0 0
169 0 0 0
170 0 0 0
175 0 0 0
141 0 0 0
142 0 0 0
146 0 0 0
147 0 0 0
151 0 0 0
171 0 0 0
176 0 0 0
177 0 0 0
143 0 0 0
144 0 0 0
148 0 0 0
178 0 0 0
145 0 0 0
149 0 0 0
150 0 0 0
174 0 0 0
179 0 0 0
180 0 0 0
181 0 0 0
182 0 0 0
186 0 0 0
187 0 0 0
211 0 0 0
212 0 0 0
216 0 0 0
217 0 0 0
183 0 0 0
188 0 0 0
189 0 0 0
213 0 0 0
214 0 0 0
218 0 0 0
184 0 0 0
185 0 0 0
190 0 0 0
215 0 0 0
219 0 0 0
220 0 0 0
191 0 0 0
192 0 0 0
196 0 0 0
197 0 0 0
221 0 0 0
222 0 0 0
226 0 0 0
227 0 0 0
193 0 0 0
198 0 0 0
199 0 0 0
223 0 0 0
224 0 0 0
228 0 0 0
194 0 0 0
195 0 0 0
200 0 0 0
225 0 0 0
229 0 0 0
230 0 0 0
201 0 0 0
202 0 0 0
206 0 0 0
207 0 0 0
231 0 0 0
232 0 0 0
236 0 0 0
203 0 0 0
208 0 0 0
209 0 0 0
233 0 0 0
234 0 0 0
238 0 0 0
204 0 0 0
205 0 0 0
210 0 0 0
235 0 0 0
239 0 0 0
240 0 0 0
237 0 0 0
241 0 0 0
242 0 0 0
246 0 0 0
247 0 0 0
244 0 0 0
248 0 0 0
249 0 0 0
250 0 0 0
255 0 0 0
251 0 0 0
252 0 0 0
256 0 0 0
257 0 0 0
286 0 0 0
253 0 0 0
254 0 0 0
258 0 0 0
264 0 0 0
259 0 0 0
260 0 0 0
284 0 0 0
285 0 0 0
290 0 0 0
261 0 0 0
262 0 0 0
266 0 0 0
267 0 0 0
292 0 0 0
243 0 0 0
263 0 0 0
268 0 0 0
293 0 0 0
245 0 0 0
265 0 0 0
269 0 0 0
270 0 0 0
296 0 0 0
271 0 0 0
272 0 0 0
276 0 0 0
277 0 0 0
301 0 0 0
302 0 0 0
306 0 0 0
307 0 0 0
273 0 0 0
278 0 0 0
279 0 0 0
303 0 0 0
304 0 0 0
308 0 0 0
274 0 0 0
275 0 0 0
280 0 0 0
305 0 0 0
309 0 0 0
310 0 0 0
281 0 0 0
282 0 0 0
287 0 0 0
312 0 0 0
316 0 0 0
317 0 0 0
283 0 0 0
288 0 0 0
289 0 0 0
313 0 0 0
314 0 0 0
318 0 0 0
311 0 0 0
315 0 0 0
319 0 0 0
320 0 0 0
350 0 0 0
355 0 0 0
291 0 0 0
297 0 0 0
321 0 0 0
322 0 0 0
326 0 0 0
327 0 0 0
356 0 0 0
298 0 0 0
299 0 0 0
323 0 0 0
324 0 0 0
328 0 0 0
294 0 0 0
295 0 0 0
300 0 0 0
325 0 0 0
329 0 0 0
330 0 0 0
335 0 0 0
332 0 0 0
336 0 0 0
337 0 0 0
341 0 0 0
333 0 0 0
334 0 0 0
338 0 0 0
339 0 0 0
340 0 0 0
342 0 0 0
346 0 0 0
347 0 0 0
343 0 0 0
344 0 0 0
348 0 0 0
361 0 0 0
345 0 0 0
349 0 0 0
351 0 0 0
352 0 0 0
357 0 0 0
360 0 0 0
353 0 0 0
354 0 0 0
358 0 0 0
331 0 0 0
359 0 0 0
362 0 0 0
