# Hastelloy N bulk 5x5x5 + 1H at octahedral site — NB10

3751 atoms
9 atom types

0.0  24.7596430168  xlo xhi
0.0  24.7596430168  ylo yhi
0.0  66.9005554313  zlo zhi

Masses

1  26.9815  # Al
2  10.811  # B
3  12.011  # C
4  51.9961  # Cr
5  55.845  # Fe
6  95.96  # Mo
7  58.6934  # Ni
8  15.999  # O
9  1.008  # H

Atoms # atomic

1  4  0.1089118555  2.4350065769  0.6014268316
2  4  2.6060300874  0.8872220144  6.8747815580
3  4  0.1052401373  -0.8353760185  5.1182497137
4  4  0.1137166977  2.3406798132  11.3089479922
5  4  2.6209290600  0.9684627304  9.5342614292
6  4  0.2513118385  -0.6874472145  2.2657342667
7  4  2.5862554991  0.8872220143  13.5648371011
8  4  0.1314451277  2.4350065770  7.2914823747
9  4  0.1266402855  2.3406798132  4.6188924491
10  4  0.1351168458  -0.8353760185  11.8083052569
11  4  -0.0109548553  -0.6874472145  8.9557898099
12  4  2.5713565265  0.9684627304  2.8442058860
13  8  0.8444997373  3.7694713269  12.6249226470
14  8  -1.4243060259  2.3871074400  12.6428903703
15  8  0.8710514257  0.9631714368  12.6360374456
16  8  3.3170476912  2.2652686333  8.1823489885
17  8  3.2142306221  -0.4117215683  8.2280871291
18  8  1.0433205855  0.8885588848  8.2172590958
19  8  0.8447222172  0.6236685349  3.7630219316
20  8  1.0366969032  3.9180343485  3.7147953166
21  8  -1.6127482722  2.5864867461  3.7198533139
22  8  1.9780549644  -0.4117215683  1.5380315859
23  8  4.1489650011  0.8885588849  1.5272035526
24  8  1.8752378954  2.2652686334  1.4922934453
25  8  -0.6306944425  0.9631714368  5.9459819024
26  8  -0.6041427541  3.7694713269  5.9348671038
27  8  1.6646630092  2.3871074400  5.9528348272
28  8  1.8531052554  2.5864867462  10.4099088571
29  8  -0.6043652341  0.6236685349  10.4530774747
30  8  -0.7963399200  3.9180343485  10.4048508597
31  4  0.1089118555  2.4350065769  13.9815379179
32  4  2.6060300874  0.8872220144  20.2548926442
33  4  0.1052401374  -0.8353760185  18.4983608000
34  4  0.1137166977  2.3406798132  24.6890590785
35  4  2.6209290601  0.9684627304  22.9143725154
36  4  0.2513118385  -0.6874472145  15.6458453530
37  4  2.5862554992  0.8872220143  26.9449481873
38  4  0.1314451277  2.4350065770  20.6715934610
39  4  0.1266402856  2.3406798132  17.9990035353
40  4  0.1351168459  -0.8353760185  25.1884163432
41  4  -0.0109548553  -0.6874472144  22.3359008961
42  4  2.5713565265  0.9684627304  16.2243169723
43  8  0.8444997373  3.7694713269  26.0050337333
44  8  -1.4243060259  2.3871074400  26.0230014566
45  8  0.8710514258  0.9631714368  26.0161485318
46  8  3.3170476911  2.2652686334  21.5624600747
47  8  3.2142306222  -0.4117215683  21.6081982153
48  8  1.0433205855  0.8885588848  21.5973701820
49  8  0.8447222172  0.6236685349  17.1431330179
50  8  1.0366969032  3.9180343485  17.0949064029
51  8  -1.6127482722  2.5864867462  17.0999644002
52  8  1.9780549644  -0.4117215684  14.9181426722
53  8  4.1489650011  0.8885588848  14.9073146389
54  8  1.8752378954  2.2652686333  14.8724045316
55  8  -0.6306944425  0.9631714368  19.3260929887
56  8  -0.6041427541  3.7694713269  19.3149781901
57  8  1.6646630092  2.3871074400  19.3329459134
58  8  1.8531052554  2.5864867462  23.7900199433
59  8  -0.6043652341  0.6236685349  23.8331885610
60  8  -0.7963399200  3.9180343485  23.7849619460
61  4  0.1089118555  2.4350065769  27.3616490041
62  4  2.6060300874  0.8872220144  33.6350037305
63  4  0.1052401373  -0.8353760185  31.8784718862
64  4  0.1137166976  2.3406798133  38.0691701647
65  4  2.6209290600  0.9684627304  36.2944836017
66  4  0.2513118385  -0.6874472145  29.0259564391
67  4  2.5862554990  0.8872220144  40.3250592736
68  4  0.1314451277  2.4350065770  34.0517045472
69  4  0.1266402856  2.3406798132  31.3791146215
70  4  0.1351168459  -0.8353760185  38.5685274294
71  4  -0.0109548552  -0.6874472144  35.7160119823
72  4  2.5713565266  0.9684627303  29.6044280585
73  8  0.8444997372  3.7694713270  39.3851448195
74  8  -1.4243060260  2.3871074400  39.4031125428
75  8  0.8710514256  0.9631714369  39.3962596181
76  8  3.3170476912  2.2652686334  34.9425711610
77  8  3.2142306222  -0.4117215683  34.9883093015
78  8  1.0433205855  0.8885588849  34.9774812682
79  8  0.8447222173  0.6236685349  30.5232441041
80  8  1.0366969032  3.9180343485  30.4750174891
81  8  -1.6127482722  2.5864867461  30.4800754864
82  8  1.9780549644  -0.4117215684  28.2982537584
83  8  4.1489650011  0.8885588848  28.2874257251
84  8  1.8752378954  2.2652686333  28.2525156178
85  8  -0.6306944425  0.9631714368  32.7062040749
86  8  -0.6041427540  3.7694713269  32.6950892763
87  8  1.6646630092  2.3871074400  32.7130569996
88  8  1.8531052553  2.5864867462  37.1701310296
89  8  -0.6043652340  0.6236685350  37.2132996472
90  8  -0.7963399200  3.9180343485  37.1650730323
91  4  0.1089118554  2.4350065770  40.7417600904
92  4  2.6060300875  0.8872220144  47.0151148167
93  4  0.1052401373  -0.8353760185  45.2585829726
94  4  0.1137166977  2.3406798132  51.4492812510
95  4  2.6209290602  0.9684627304  49.6745946879
96  4  0.2513118384  -0.6874472144  42.4060675256
97  4  2.5862554991  0.8872220144  53.7051703599
98  4  0.1314451278  2.4350065769  47.4318156335
99  4  0.1266402855  2.3406798132  44.7592257078
100  4  0.1351168459  -0.8353760185  51.9486385157
101  4  -0.0109548552  -0.6874472144  49.0961230687
102  4  2.5713565265  0.9684627304  42.9845391448
103  8  0.8444997373  3.7694713269  52.7652559057
104  8  -1.4243060260  2.3871074400  52.7832236291
105  8  0.8710514257  0.9631714368  52.7763707044
106  8  3.3170476912  2.2652686334  48.3226822472
107  8  3.2142306223  -0.4117215683  48.3684203878
108  8  1.0433205856  0.8885588848  48.3575923546
109  8  0.8447222172  0.6236685349  43.9033551905
110  8  1.0366969032  3.9180343485  43.8551285754
111  8  -1.6127482722  2.5864867462  43.8601865727
112  8  1.9780549642  -0.4117215683  41.6783648447
113  8  4.1489650010  0.8885588848  41.6675368114
114  8  1.8752378953  2.2652686334  41.6326267041
115  8  -0.6306944425  0.9631714368  46.0863151612
116  8  -0.6041427541  3.7694713269  46.0752003626
117  8  1.6646630092  2.3871074400  46.0931680859
118  8  1.8531052554  2.5864867462  50.5502421158
119  8  -0.6043652340  0.6236685350  50.5934107335
120  8  -0.7963399199  3.9180343485  50.5451841185
121  4  0.1089118555  2.4350065770  54.1218711767
122  4  2.6060300875  0.8872220144  60.3952259031
123  4  0.1052401374  -0.8353760185  58.6386940589
124  4  0.1137166977  2.3406798132  64.8293923372
125  4  2.6209290601  0.9684627304  63.0547057742
126  4  0.2513118384  -0.6874472145  55.7861786118
127  4  2.5862554991  0.8872220144  67.0852814461
128  4  0.1314451278  2.4350065769  60.8119267198
129  4  0.1266402856  2.3406798133  58.1393367941
130  4  0.1351168458  -0.8353760185  65.3287496020
131  4  -0.0109548553  -0.6874472145  62.4762341549
132  4  2.5713565265  0.9684627304  56.3646502311
133  8  0.8444997373  3.7694713269  66.1453669920
134  8  -1.4243060259  2.3871074400  66.1633347153
135  8  0.8710514257  0.9631714368  66.1564817906
136  8  3.3170476912  2.2652686333  61.7027933335
137  8  3.2142306223  -0.4117215683  61.7485314741
138  8  1.0433205855  0.8885588848  61.7377034408
139  8  0.8447222172  0.6236685350  57.2834662767
140  8  1.0366969032  3.9180343485  57.2352396617
141  8  -1.6127482722  2.5864867462  57.2402976590
142  8  1.9780549643  -0.4117215683  55.0584759310
143  8  4.1489650011  0.8885588849  55.0476478977
144  8  1.8752378954  2.2652686334  55.0127377904
145  8  -0.6306944425  0.9631714368  59.4664262475
146  8  -0.6041427541  3.7694713269  59.4553114489
147  8  1.6646630092  2.3871074400  59.4732791722
148  8  1.8531052554  2.5864867462  63.9303532021
149  8  -0.6043652340  0.6236685349  63.9735218198
150  8  -0.7963399199  3.9180343485  63.9252952047
151  4  -2.3616672388  7.0378652605  0.5682141081
152  4  0.1116329365  5.4717572420  6.8148261117
153  4  -2.3650551023  3.9540427200  5.0495449070
154  4  -2.3607743649  7.0090652296  11.2686559530
155  4  0.1160528140  5.4927925328  9.5037870409
156  4  -2.3661768878  3.9551264944  2.3709908474
157  4  0.1287240468  5.4717572420  13.5048816548
158  4  -2.3499043813  7.0378652606  7.2582696512
159  4  -2.3507972552  7.0090652295  4.5786004099
160  4  -2.3465165179  3.9540427200  11.7396004501
161  4  -2.3453947323  3.9551264944  9.0610463906
162  4  0.1243041693  5.4927925329  2.8137314978
163  8  -1.6229610715  8.3922743091  12.6076500330
164  8  -3.9083032580  7.0213719023  12.6081627857
165  8  -1.6249415459  5.6457073755  12.6073037291
166  8  0.8477152261  6.8470665760  8.1594043009
167  8  0.8530574059  4.1185315757  8.1490448896
168  8  -1.4317221948  5.4896898308  8.1629823811
169  8  -1.6305414938  5.3175859653  3.7126716894
170  8  -1.4367951387  8.5552046629  3.6762893737
171  8  -4.1056266665  7.1800658689  3.6796233067
172  8  -0.6127004226  4.1185315756  1.4589893464
173  8  1.6720791780  5.4896898308  1.4729268379
174  8  -0.6073582428  6.8470665760  1.4693487578
175  8  -3.0866300742  5.6457073755  5.9172481860
176  8  -3.0886105486  8.3922743092  5.9175944899
177  8  -0.8032683622  7.0213719023  5.9181072426
178  8  -0.6059449535  7.1800658689  10.3696788499
179  8  -3.0810301263  5.3175859653  10.4027272326
180  8  -3.2747764815  8.5552046629  10.3663449169
181  4  -2.3616672388  7.0378652605  13.9483251944
182  4  0.1116329364  5.4717572420  20.1949371979
183  4  -2.3650551023  3.9540427200  18.4296559932
184  4  -2.3607743649  7.0090652296  24.6487670393
185  4  0.1160528139  5.4927925329  22.8838981272
186  4  -2.3661768878  3.9551264944  15.7511019337
187  4  0.1287240468  5.4717572420  26.8849927411
188  4  -2.3499043813  7.0378652606  20.6383807375
189  4  -2.3507972553  7.0090652296  17.9587114961
190  4  -2.3465165179  3.9540427200  25.1197115364
191  4  -2.3453947323  3.9551264945  22.4411574768
192  4  0.1243041693  5.4927925328  16.1938425840
193  8  -1.6229610715  8.3922743092  25.9877611193
194  8  -3.9083032580  7.0213719023  25.9882738720
195  8  -1.6249415460  5.6457073755  25.9874148154
196  8  0.8477152260  6.8470665760  21.5395153872
197  8  0.8530574059  4.1185315757  21.5291559758
198  8  -1.4317221948  5.4896898308  21.5430934674
199  8  -1.6305414938  5.3175859653  17.0927827757
200  8  -1.4367951386  8.5552046629  17.0564004599
201  8  -4.1056266666  7.1800658688  17.0597343930
202  8  -0.6127004226  4.1185315756  14.8391004327
203  8  1.6720791780  5.4896898308  14.8530379242
204  8  -0.6073582428  6.8470665759  14.8494598441
205  8  -3.0866300742  5.6457073755  19.2973592722
206  8  -3.0886105486  8.3922743092  19.2977055761
207  8  -0.8032683622  7.0213719023  19.2982183288
208  8  -0.6059449536  7.1800658689  23.7497899361
209  8  -3.0810301263  5.3175859653  23.7828383189
210  8  -3.2747764815  8.5552046629  23.7464560031
211  4  -2.3616672389  7.0378652606  27.3284362806
212  4  0.1116329365  5.4717572420  33.5750482842
213  4  -2.3650551023  3.9540427200  31.8097670795
214  4  -2.3607743649  7.0090652296  38.0288781255
215  4  0.1160528139  5.4927925329  36.2640092134
216  4  -2.3661768878  3.9551264944  29.1312130200
217  4  0.1287240468  5.4717572421  40.2651038274
218  4  -2.3499043813  7.0378652605  34.0184918238
219  4  -2.3507972552  7.0090652295  31.3388225824
220  4  -2.3465165179  3.9540427200  38.4998226226
221  4  -2.3453947323  3.9551264944  35.8212685631
222  4  0.1243041692  5.4927925328  29.5739536703
223  8  -1.6229610715  8.3922743092  39.3678722055
224  8  -3.9083032580  7.0213719023  39.3683849583
225  8  -1.6249415460  5.6457073755  39.3675259017
226  8  0.8477152260  6.8470665760  34.9196264735
227  8  0.8530574059  4.1185315757  34.9092670620
228  8  -1.4317221948  5.4896898307  34.9232045536
229  8  -1.6305414938  5.3175859653  30.4728938620
230  8  -1.4367951387  8.5552046629  30.4365115463
231  8  -4.1056266666  7.1800658689  30.4398454792
232  8  -0.6127004227  4.1185315756  28.2192115189
233  8  1.6720791780  5.4896898308  28.2331490105
234  8  -0.6073582428  6.8470665760  28.2295709303
235  8  -3.0866300742  5.6457073755  32.6774703585
236  8  -3.0886105486  8.3922743091  32.6778166624
237  8  -0.8032683621  7.0213719023  32.6783294151
238  8  -0.6059449535  7.1800658689  37.1299010224
239  8  -3.0810301263  5.3175859653  37.1629494051
240  8  -3.2747764815  8.5552046629  37.1265670894
241  4  -2.3616672388  7.0378652606  40.7085473669
242  4  0.1116329365  5.4717572420  46.9551593705
243  4  -2.3650551023  3.9540427200  45.1898781658
244  4  -2.3607743649  7.0090652296  51.4089892118
245  4  0.1160528140  5.4927925329  49.6441202997
246  4  -2.3661768879  3.9551264945  42.5113241063
247  4  0.1287240468  5.4717572420  53.6452149136
248  4  -2.3499043812  7.0378652606  47.3986029100
249  4  -2.3507972552  7.0090652296  44.7189336687
250  4  -2.3465165179  3.9540427200  51.8799337089
251  4  -2.3453947323  3.9551264944  49.2013796494
252  4  0.1243041693  5.4927925329  42.9540647566
253  8  -1.6229610715  8.3922743092  52.7479832918
254  8  -3.9083032580  7.0213719023  52.7484960445
255  8  -1.6249415459  5.6457073755  52.7476369879
256  8  0.8477152261  6.8470665760  48.2997375597
257  8  0.8530574059  4.1185315757  48.2893781483
258  8  -1.4317221948  5.4896898308  48.3033156399
259  8  -1.6305414938  5.3175859653  43.8530049483
260  8  -1.4367951386  8.5552046629  43.8166226325
261  8  -4.1056266665  7.1800658689  43.8199565655
262  8  -0.6127004227  4.1185315757  41.5993226052
263  8  1.6720791780  5.4896898308  41.6132600968
264  8  -0.6073582428  6.8470665760  41.6096820166
265  8  -3.0866300742  5.6457073756  46.0575814448
266  8  -3.0886105486  8.3922743092  46.0579277486
267  8  -0.8032683621  7.0213719023  46.0584405014
268  8  -0.6059449535  7.1800658689  50.5100121086
269  8  -3.0810301263  5.3175859653  50.5430604914
270  8  -3.2747764815  8.5552046629  50.5066781756
271  4  -2.3616672389  7.0378652606  54.0886584531
272  4  0.1116329365  5.4717572420  60.3352704567
273  4  -2.3650551022  3.9540427200  58.5699892520
274  4  -2.3607743649  7.0090652296  64.7891002980
275  4  0.1160528140  5.4927925329  63.0242313859
276  4  -2.3661768879  3.9551264945  55.8914351925
277  4  0.1287240468  5.4717572420  67.0253259998
278  4  -2.3499043813  7.0378652606  60.7787139962
279  4  -2.3507972553  7.0090652296  58.0990447549
280  4  -2.3465165178  3.9540427200  65.2600447951
281  4  -2.3453947323  3.9551264945  62.5814907356
282  4  0.1243041692  5.4927925329  56.3341758428
283  8  -1.6229610715  8.3922743092  66.1280943780
284  8  -3.9083032579  7.0213719023  66.1286071307
285  8  -1.6249415459  5.6457073755  66.1277480741
286  8  0.8477152261  6.8470665760  61.6798486459
287  8  0.8530574059  4.1185315757  61.6694892346
288  8  -1.4317221948  5.4896898308  61.6834267261
289  8  -1.6305414938  5.3175859653  57.2331160345
290  8  -1.4367951387  8.5552046629  57.1967337187
291  8  -4.1056266666  7.1800658689  57.2000676517
292  8  -0.6127004227  4.1185315757  54.9794336914
293  8  1.6720791780  5.4896898308  54.9933711830
294  8  -0.6073582428  6.8470665760  54.9897931028
295  8  -3.0866300742  5.6457073755  59.4376925310
296  8  -3.0886105486  8.3922743092  59.4380388349
297  8  -0.8032683622  7.0213719023  59.4385515876
298  8  -0.6059449535  7.1800658689  63.8901231948
299  8  -3.0810301263  5.3175859653  63.9231715776
300  8  -3.2747764814  8.5552046629  63.8867892619
301  4  -4.8396472319  11.6452463871  0.5382801728
302  4  -2.3635988785  10.0826131455  6.7865601466
303  4  -4.8414158534  8.5716415749  5.0184332780
304  4  -4.8382733062  11.6171118627  11.2370544565
305  4  -2.3630654376  10.1079900913  9.4684962429
306  4  -4.8395108174  8.5430086263  2.3367182458
307  4  -2.3479727417  10.0826131455  13.4766156897
308  4  -4.8238529916  11.6452463871  7.2283357160
309  4  -4.8252269173  11.6171118627  4.5469989134
310  4  -4.8220843701  8.5716415749  11.7084888212
311  4  -4.8239894061  8.5430086263  9.0267737890
312  4  -2.3485061826  10.1079900913  2.7784406997
313  8  -4.1012960818  13.0043289209  12.5759351951
314  8  -6.3880281369  11.6291129402  12.5772118450
315  8  -4.1002721722  10.2547820365  12.5788966809
316  8  -1.6250353508  11.4661079245  8.1268243771
317  8  -1.6255421048  8.7185433024  8.1279612750
318  8  -3.9124274255  10.0917976544  8.1271639413
319  8  -4.1013801588  9.9278503543  3.6765609039
320  8  -3.9142068070  13.1610078725  3.6475949293
321  8  -6.5769196610  11.7900885253  3.6483081805
322  8  -3.0860295154  8.7185433024  1.4379057318
323  8  -0.7991441947  10.0917976543  1.4371083981
324  8  -3.0865362694  11.4661079245  1.4367688339
325  8  -5.5632280513  10.2547820365  5.8888411378
326  8  -5.5622041417  13.0043289209  5.8858796520
327  8  -3.2754720866  11.6291129402  5.8871563018
328  8  -3.0865805625  11.7900885253  10.3383637237
329  8  -5.5621200648  9.9278503543  10.3666164471
330  8  -5.7492934165  13.1610078725  10.3376504725
331  4  -4.8396472319  11.6452463871  13.9183912591
332  4  -2.3635988784  10.0826131455  20.1666712328
333  4  -4.8414158535  8.5716415749  18.3985443643
334  4  -4.8382733062  11.6171118627  24.6171655428
335  4  -2.3630654376  10.1079900913  22.8486073291
336  4  -4.8395108174  8.5430086263  15.7168293321
337  4  -2.3479727417  10.0826131455  26.8567267760
338  4  -4.8238529916  11.6452463871  20.6084468022
339  4  -4.8252269173  11.6171118627  17.9271099996
340  4  -4.8220843701  8.5716415750  25.0885999075
341  4  -4.8239894061  8.5430086263  22.4068848752
342  4  -2.3485061825  10.1079900913  16.1585517860
343  8  -4.1012960818  13.0043289209  25.9560462814
344  8  -6.3880281369  11.6291129403  25.9573229313
345  8  -4.1002721722  10.2547820365  25.9590077672
346  8  -1.6250353508  11.4661079245  21.5069354633
347  8  -1.6255421048  8.7185433024  21.5080723613
348  8  -3.9124274254  10.0917976544  21.5072750275
349  8  -4.1013801587  9.9278503542  17.0566719902
350  8  -3.9142068069  13.1610078725  17.0277060156
351  8  -6.5769196609  11.7900885253  17.0284192668
352  8  -3.0860295154  8.7185433024  14.8180168181
353  8  -0.7991441947  10.0917976544  14.8172194844
354  8  -3.0865362694  11.4661079245  14.8168799202
355  8  -5.5632280514  10.2547820365  19.2689522240
356  8  -5.5622041417  13.0043289209  19.2659907382
357  8  -3.2754720866  11.6291129402  19.2672673880
358  8  -3.0865805625  11.7900885253  23.7184748100
359  8  -5.5621200647  9.9278503543  23.7467275333
360  8  -5.7492934165  13.1610078725  23.7177615588
361  4  -4.8396472319  11.6452463871  27.2985023454
362  4  -2.3635988784  10.0826131455  33.5467823191
363  4  -4.8414158534  8.5716415749  31.7786554506
364  4  -4.8382733062  11.6171118627  37.9972766290
365  4  -2.3630654376  10.1079900913  36.2287184154
366  4  -4.8395108174  8.5430086263  29.0969404184
367  4  -2.3479727417  10.0826131455  40.2368378622
368  4  -4.8238529916  11.6452463871  33.9885578885
369  4  -4.8252269173  11.6171118627  31.3072210859
370  4  -4.8220843700  8.5716415749  38.4687109937
371  4  -4.8239894061  8.5430086263  35.7869959615
372  4  -2.3485061826  10.1079900913  29.5386628723
373  8  -4.1012960818  13.0043289209  39.3361573676
374  8  -6.3880281369  11.6291129402  39.3374340175
375  8  -4.1002721722  10.2547820365  39.3391188534
376  8  -1.6250353508  11.4661079245  34.8870465496
377  8  -1.6255421048  8.7185433024  34.8881834475
378  8  -3.9124274255  10.0917976544  34.8873861138
379  8  -4.1013801588  9.9278503543  30.4367830765
380  8  -3.9142068069  13.1610078725  30.4078171019
381  8  -6.5769196610  11.7900885253  30.4085303531
382  8  -3.0860295154  8.7185433024  28.1981279044
383  8  -0.7991441947  10.0917976544  28.1973305707
384  8  -3.0865362694  11.4661079246  28.1969910065
385  8  -5.5632280513  10.2547820365  32.6490633103
386  8  -5.5622041417  13.0043289209  32.6461018245
387  8  -3.2754720866  11.6291129402  32.6473784743
388  8  -3.0865805625  11.7900885253  37.0985858962
389  8  -5.5621200647  9.9278503542  37.1268386196
390  8  -5.7492934166  13.1610078725  37.0978726450
391  4  -4.8396472319  11.6452463871  40.6786134316
392  4  -2.3635988784  10.0826131455  46.9268934054
393  4  -4.8414158534  8.5716415750  45.1587665369
394  4  -4.8382733062  11.6171118627  51.3773877153
395  4  -2.3630654375  10.1079900913  49.6088295016
396  4  -4.8395108174  8.5430086263  42.4770515046
397  4  -2.3479727417  10.0826131455  53.6169489485
398  4  -4.8238529915  11.6452463871  47.3686689748
399  4  -4.8252269173  11.6171118627  44.6873321722
400  4  -4.8220843701  8.5716415749  51.8488220800
401  4  -4.8239894061  8.5430086263  49.1671070477
402  4  -2.3485061825  10.1079900914  42.9187739585
403  8  -4.1012960818  13.0043289209  52.7162684539
404  8  -6.3880281369  11.6291129402  52.7175451037
405  8  -4.1002721722  10.2547820365  52.7192299397
406  8  -1.6250353507  11.4661079246  48.2671576359
407  8  -1.6255421047  8.7185433024  48.2682945338
408  8  -3.9124274254  10.0917976544  48.2674972000
409  8  -4.1013801587  9.9278503543  43.8168941627
410  8  -3.9142068069  13.1610078725  43.7879281881
411  8  -6.5769196610  11.7900885253  43.7886414394
412  8  -3.0860295154  8.7185433024  41.5782389906
413  8  -0.7991441947  10.0917976544  41.5774416569
414  8  -3.0865362694  11.4661079245  41.5771020927
415  8  -5.5632280513  10.2547820365  46.0291743965
416  8  -5.5622041417  13.0043289209  46.0262129108
417  8  -3.2754720866  11.6291129402  46.0274895606
418  8  -3.0865805625  11.7900885253  50.4786969825
419  8  -5.5621200647  9.9278503543  50.5069497058
420  8  -5.7492934165  13.1610078725  50.4779837313
421  4  -4.8396472319  11.6452463871  54.0587245179
422  4  -2.3635988784  10.0826131455  60.3070044916
423  4  -4.8414158535  8.5716415750  58.5388776231
424  4  -4.8382733062  11.6171118627  64.7574988016
425  4  -2.3630654376  10.1079900913  62.9889405879
426  4  -4.8395108174  8.5430086263  55.8571625909
427  4  -2.3479727417  10.0826131455  66.9970600348
428  4  -4.8238529916  11.6452463871  60.7487800611
429  4  -4.8252269173  11.6171118627  58.0674432585
430  4  -4.8220843700  8.5716415749  65.2289331663
431  4  -4.8239894061  8.5430086263  62.5472181340
432  4  -2.3485061826  10.1079900913  56.2988850448
433  8  -4.1012960818  13.0043289209  66.0963795402
434  8  -6.3880281369  11.6291129403  66.0976561900
435  8  -4.1002721722  10.2547820365  66.0993410260
436  8  -1.6250353508  11.4661079246  61.6472687221
437  8  -1.6255421048  8.7185433024  61.6484056200
438  8  -3.9124274254  10.0917976544  61.6476082863
439  8  -4.1013801588  9.9278503543  57.1970052490
440  8  -3.9142068069  13.1610078725  57.1680392744
441  8  -6.5769196610  11.7900885253  57.1687525256
442  8  -3.0860295154  8.7185433024  54.9583500769
443  8  -0.7991441947  10.0917976544  54.9575527431
444  8  -3.0865362694  11.4661079245  54.9572131790
445  8  -5.5632280513  10.2547820365  59.4092854829
446  8  -5.5622041417  13.0043289209  59.4063239971
447  8  -3.2754720866  11.6291129402  59.4076006469
448  8  -3.0865805625  11.7900885253  63.8588080688
449  8  -5.5621200647  9.9278503543  63.8870607921
450  8  -5.7492934165  13.1610078725  63.8580948175
451  4  -7.3129410062  16.2470498243  0.5097863376
452  4  -4.8400855639  14.6935193267  6.7555003826
453  4  -7.3163233714  13.1838987561  4.9875735765
454  4  -7.3104590257  16.2409629502  11.2127953907
455  4  -4.8334748794  14.7136538364  9.4415207497
456  4  -7.3178672473  13.1529388949  2.3069034782
457  4  -4.8234146595  14.6935193267  13.4455559258
458  4  -7.3024878207  16.2470498243  7.1998418806
459  4  -7.3049698011  16.2409629502  4.5227398476
460  4  -7.2991054554  13.1838987561  11.6776291197
461  4  -7.2975615795  13.1529388950  8.9969590213
462  4  -4.8300253441  14.7136538364  2.7514652066
463  8  -6.5739325983  17.6095067681  12.5567628261
464  8  -8.8628028737  16.2473887279  12.5433470610
465  8  -6.5772133283  14.8604418458  12.5417097163
466  8  -4.0977817397  16.0586881780  8.1045198615
467  8  -4.0981972188  13.3260627175  8.0952726849
468  8  -6.3836210425  14.6952545174  8.0998329334
469  8  -6.5860643733  14.5474117237  3.6451723196
470  8  -6.3989433919  17.8107637509  3.6153590349
471  8  -9.0582375580  16.3902542853  3.6391897912
472  8  -5.5653030047  13.3260627175  1.4052171417
473  8  -3.2798791810  14.6952545174  1.4097773903
474  8  -5.5657184837  16.0586881780  1.4144643184
475  8  -8.0382154986  14.8604418458  5.8516541731
476  8  -8.0414962286  17.6095067681  5.8667072829
477  8  -5.7526259531  16.2473887279  5.8532915179
478  8  -5.5571912688  16.3902542853  10.3292453344
479  8  -8.0293644536  14.5474117237  10.3352278628
480  8  -8.2164854349  17.8107637510  10.3054145780
481  4  -7.3129410062  16.2470498243  13.8898974238
482  4  -4.8400855639  14.6935193266  20.1356114689
483  4  -7.3163233714  13.1838987560  18.3676846628
484  4  -7.3104590258  16.2409629502  24.5929064770
485  4  -4.8334748794  14.7136538364  22.8216318360
486  4  -7.3178672473  13.1529388950  15.6870145645
487  4  -4.8234146596  14.6935193267  26.8256670120
488  4  -7.3024878206  16.2470498242  20.5799529669
489  4  -7.3049698010  16.2409629502  17.9028509339
490  4  -7.2991054554  13.1838987561  25.0577402059
491  4  -7.2975615795  13.1529388950  22.3770701076
492  4  -4.8300253440  14.7136538364  16.1315762928
493  8  -6.5739325983  17.6095067681  25.9368739123
494  8  -8.8628028738  16.2473887279  25.9234581473
495  8  -6.5772133283  14.8604418458  25.9218208026
496  8  -4.0977817397  16.0586881780  21.4846309477
497  8  -4.0981972188  13.3260627175  21.4753837711
498  8  -6.3836210424  14.6952545174  21.4799440197
499  8  -6.5860643732  14.5474117237  17.0252834059
500  8  -6.3989433919  17.8107637510  16.9954701212
501  8  -9.0582375580  16.3902542853  17.0193008775
502  8  -5.5653030046  13.3260627175  14.7853282280
503  8  -3.2798791810  14.6952545174  14.7898884765
504  8  -5.5657184837  16.0586881780  14.7945754046
505  8  -8.0382154985  14.8604418458  19.2317652594
506  8  -8.0414962285  17.6095067681  19.2468183692
507  8  -5.7526259530  16.2473887279  19.2334026042
508  8  -5.5571912688  16.3902542852  23.7093564206
509  8  -8.0293644536  14.5474117237  23.7153389491
510  8  -8.2164854350  17.8107637509  23.6855256643
511  4  -7.3129410062  16.2470498243  27.2700085101
512  4  -4.8400855639  14.6935193267  33.5157225552
513  4  -7.3163233714  13.1838987561  31.7477957491
514  4  -7.3104590258  16.2409629501  37.9730175633
515  4  -4.8334748794  14.7136538364  36.2017429222
516  4  -7.3178672473  13.1529388950  29.0671256507
517  4  -4.8234146596  14.6935193266  40.2057780983
518  4  -7.3024878206  16.2470498242  33.9600640532
519  4  -7.3049698011  16.2409629502  31.2829620202
520  4  -7.2991054554  13.1838987560  38.4378512922
521  4  -7.2975615795  13.1529388949  35.7571811939
522  4  -4.8300253441  14.7136538365  29.5116873791
523  8  -6.5739325983  17.6095067681  39.3169849986
524  8  -8.8628028738  16.2473887279  39.3035692336
525  8  -6.5772133283  14.8604418458  39.3019318888
526  8  -4.0977817397  16.0586881780  34.8647420340
527  8  -4.0981972188  13.3260627175  34.8554948574
528  8  -6.3836210424  14.6952545174  34.8600551059
529  8  -6.5860643733  14.5474117237  30.4053944922
530  8  -6.3989433919  17.8107637510  30.3755812074
531  8  -9.0582375580  16.3902542853  30.3994119638
532  8  -5.5653030047  13.3260627175  28.1654393143
533  8  -3.2798791811  14.6952545175  28.1699995629
534  8  -5.5657184838  16.0586881781  28.1746864909
535  8  -8.0382154986  14.8604418458  32.6118763457
536  8  -8.0414962286  17.6095067681  32.6269294555
537  8  -5.7526259530  16.2473887279  32.6135136904
538  8  -5.5571912688  16.3902542852  37.0894675069
539  8  -8.0293644536  14.5474117237  37.0954500353
540  8  -8.2164854349  17.8107637509  37.0656367506
541  4  -7.3129410062  16.2470498242  40.6501195963
542  4  -4.8400855639  14.6935193267  46.8958336414
543  4  -7.3163233714  13.1838987561  45.1279068353
544  4  -7.3104590258  16.2409629502  51.3531286496
545  4  -4.8334748794  14.7136538364  49.5818540085
546  4  -7.3178672473  13.1529388950  42.4472367370
547  4  -4.8234146596  14.6935193266  53.5858891846
548  4  -7.3024878206  16.2470498243  47.3401751395
549  4  -7.3049698011  16.2409629502  44.6630731064
550  4  -7.2991054554  13.1838987561  51.8179623785
551  4  -7.2975615795  13.1529388950  49.1372922802
552  4  -4.8300253441  14.7136538364  42.8917984654
553  8  -6.5739325983  17.6095067681  52.6970960849
554  8  -8.8628028738  16.2473887279  52.6836803199
555  8  -6.5772133283  14.8604418458  52.6820429751
556  8  -4.0977817397  16.0586881780  48.2448531203
557  8  -4.0981972188  13.3260627175  48.2356059437
558  8  -6.3836210424  14.6952545174  48.2401661922
559  8  -6.5860643733  14.5474117237  43.7855055785
560  8  -6.3989433919  17.8107637510  43.7556922937
561  8  -9.0582375580  16.3902542852  43.7795230500
562  8  -5.5653030047  13.3260627175  41.5455504006
563  8  -3.2798791810  14.6952545174  41.5501106491
564  8  -5.5657184838  16.0586881780  41.5547975772
565  8  -8.0382154985  14.8604418458  45.9919874320
566  8  -8.0414962286  17.6095067681  46.0070405418
567  8  -5.7526259531  16.2473887279  45.9936247767
568  8  -5.5571912689  16.3902542852  50.4695785932
569  8  -8.0293644536  14.5474117237  50.4755611216
570  8  -8.2164854349  17.8107637510  50.4457478369
571  4  -7.3129410062  16.2470498242  54.0302306826
572  4  -4.8400855639  14.6935193267  60.2759447277
573  4  -7.3163233714  13.1838987560  58.5080179216
574  4  -7.3104590258  16.2409629502  64.7332397358
575  4  -4.8334748794  14.7136538364  62.9619650948
576  4  -7.3178672473  13.1529388949  55.8273478233
577  4  -4.8234146596  14.6935193267  66.9660002708
578  4  -7.3024878206  16.2470498242  60.7202862257
579  4  -7.3049698010  16.2409629502  58.0431841927
580  4  -7.2991054554  13.1838987561  65.1980734647
581  4  -7.2975615795  13.1529388950  62.5174033664
582  4  -4.8300253441  14.7136538364  56.2719095516
583  8  -6.5739325983  17.6095067681  66.0772071712
584  8  -8.8628028738  16.2473887279  66.0637914061
585  8  -6.5772133283  14.8604418458  66.0621540614
586  8  -4.0977817397  16.0586881780  61.6249642066
587  8  -4.0981972188  13.3260627175  61.6157170300
588  8  -6.3836210424  14.6952545174  61.6202772785
589  8  -6.5860643733  14.5474117237  57.1656166648
590  8  -6.3989433919  17.8107637510  57.1358033800
591  8  -9.0582375579  16.3902542852  57.1596341363
592  8  -5.5653030047  13.3260627175  54.9256614868
593  8  -3.2798791811  14.6952545173  54.9302217353
594  8  -5.5657184838  16.0586881780  54.9349086634
595  8  -8.0382154985  14.8604418458  59.3720985182
596  8  -8.0414962286  17.6095067681  59.3871516280
597  8  -5.7526259531  16.2473887279  59.3737358630
598  8  -5.5571912689  16.3902542853  63.8496896795
599  8  -8.0293644536  14.5474117237  63.8556722079
600  8  -8.2164854349  17.8107637510  63.8258589231
601  4  -9.8194801322  20.7461925949  0.4808686616
602  4  -7.3065622151  19.2954846103  6.7314685601
603  4  -9.7894288090  17.8169777809  4.9549465970
604  4  -9.7173697501  20.9319836526  11.1996497699
605  4  -7.3029033958  19.3816811402  9.4411719819
606  4  -9.7903094869  17.7519760262  2.3002786196
607  4  -7.3088666117  19.2954846104  13.4215241033
608  4  -9.7478772978  20.7461925948  7.1709242048
609  4  -9.8499876801  20.9319836525  4.5095942268
610  4  -9.7779286212  17.8169777809  11.6450021401
611  4  -9.7770479433  17.7519760261  8.9903341628
612  4  -7.3125254310  19.3816811401  2.7511164389
613  8  -9.2866973043  22.2576581954  12.7471155109
614  8  -11.2951241964  20.6118390824  12.5518730920
615  8  -9.0347091904  19.4608672041  12.5338057680
616  8  -6.5267933352  20.4640297325  8.0648651373
617  8  -6.5723769744  17.9059191528  8.0771708526
618  8  -8.7911868440  19.2339677301  8.0933499027
619  8  -9.0571847118  19.1619444125  3.5977562712
620  8  -9.5392760793  22.6753150225  3.5348534501
621  8  -11.5333190377  20.7135361035  3.6253531414
622  8  -8.0430518524  17.9059191528  1.3871153095
623  8  -5.8242419828  19.2339677301  1.4032943596
624  8  -8.0886354915  20.4640297325  1.3748095942
625  8  -10.5326482398  19.4608672041  5.8437502248
626  8  -10.2806601261  22.2576581953  6.0570599676
627  8  -8.2722332339  20.6118390824  5.8618175489
628  8  -8.0340383926  20.7135361036  10.3154086844
629  8  -10.5101727184  19.1619444125  10.2878118144
630  8  -10.0280813510  22.6753150226  10.2249089933
631  4  -9.8194801324  20.7461925948  13.8609797479
632  4  -7.3065622152  19.2954846104  20.1115796464
633  4  -9.7894288090  17.8169777809  18.3350576833
634  4  -9.7173697501  20.9319836525  24.5797608562
635  4  -7.3029033958  19.3816811401  22.8212830682
636  4  -9.7903094869  17.7519760261  15.6803897059
637  4  -7.3088666117  19.2954846104  26.8016351895
638  4  -9.7478772979  20.7461925948  20.5510352910
639  4  -9.8499876801  20.9319836525  17.8897053130
640  4  -9.7779286212  17.8169777809  25.0251132263
641  4  -9.7770479433  17.7519760261  22.3704452490
642  4  -7.3125254310  19.3816811401  16.1312275251
643  8  -9.2866973041  22.2576581953  26.1272265971
644  8  -11.2951241963  20.6118390825  25.9319841783
645  8  -9.0347091904  19.4608672041  25.9139168542
646  8  -6.5267933352  20.4640297325  21.4449762236
647  8  -6.5723769744  17.9059191528  21.4572819389
648  8  -8.7911868440  19.2339677301  21.4734609889
649  8  -9.0571847118  19.1619444125  16.9778673575
650  8  -9.5392760790  22.6753150225  16.9149645364
651  8  -11.5333190376  20.7135361037  17.0054642274
652  8  -8.0430518524  17.9059191528  14.7672263958
653  8  -5.8242419829  19.2339677301  14.7834054458
654  8  -8.0886354916  20.4640297325  14.7549206805
655  8  -10.5326482399  19.4608672041  19.2238613111
656  8  -10.2806601262  22.2576581953  19.4371710539
657  8  -8.2722332339  20.6118390825  19.2419286352
658  8  -8.0340383926  20.7135361035  23.6955197707
659  8  -10.5101727184  19.1619444125  23.6679229006
660  8  -10.0280813509  22.6753150226  23.6050200795
661  4  -9.8194801324  20.7461925948  27.2410908342
662  4  -7.3065622151  19.2954846103  33.4916907327
663  4  -9.7894288090  17.8169777809  31.7151687695
664  4  -9.7173697501  20.9319836525  37.9598719424
665  4  -7.3029033958  19.3816811401  36.2013941545
666  4  -9.7903094869  17.7519760262  29.0605007921
667  4  -7.3088666117  19.2954846103  40.1817462758
668  4  -9.7478772978  20.7461925948  33.9311463773
669  4  -9.8499876801  20.9319836525  31.2698163993
670  4  -9.7779286212  17.8169777808  38.4052243127
671  4  -9.7770479433  17.7519760261  35.7505563353
672  4  -7.3125254310  19.3816811402  29.5113386113
673  8  -9.2866973040  22.2576581953  39.5073376833
674  8  -11.2951241963  20.6118390824  39.3120952645
675  8  -9.0347091903  19.4608672041  39.2940279405
676  8  -6.5267933352  20.4640297325  34.8250873099
677  8  -6.5723769744  17.9059191528  34.8373930252
678  8  -8.7911868440  19.2339677300  34.8535720752
679  8  -9.0571847118  19.1619444125  30.3579784438
680  8  -9.5392760792  22.6753150226  30.2950756226
681  8  -11.5333190376  20.7135361036  30.3855753138
682  8  -8.0430518524  17.9059191529  28.1473374820
683  8  -5.8242419829  19.2339677301  28.1635165320
684  8  -8.0886354916  20.4640297325  28.1350317667
685  8  -10.5326482398  19.4608672041  32.6039723973
686  8  -10.2806601259  22.2576581954  32.8172821402
687  8  -8.2722332338  20.6118390824  32.6220397214
688  8  -8.0340383925  20.7135361036  37.0756308569
689  8  -10.5101727184  19.1619444124  37.0480339869
690  8  -10.0280813510  22.6753150226  36.9851311657
691  4  -9.8194801323  20.7461925948  40.6212019204
692  4  -7.3065622152  19.2954846104  46.8718018189
693  4  -9.7894288090  17.8169777809  45.0952798558
694  4  -9.7173697501  20.9319836525  51.3399830286
695  4  -7.3029033958  19.3816811401  49.5815052407
696  4  -9.7903094869  17.7519760261  42.4406118784
697  4  -7.3088666117  19.2954846104  53.5618573621
698  4  -9.7478772979  20.7461925948  47.3112574636
699  4  -9.8499876801  20.9319836525  44.6499274855
700  4  -9.7779286212  17.8169777809  51.7853353989
701  4  -9.7770479433  17.7519760261  49.1306674216
702  4  -7.3125254310  19.3816811401  42.8914496976
703  8  -9.2866973043  22.2576581953  52.8874487696
704  8  -11.2951241964  20.6118390823  52.6922063507
705  8  -9.0347091903  19.4608672041  52.6741390267
706  8  -6.5267933352  20.4640297325  48.2051983961
707  8  -6.5723769745  17.9059191528  48.2175041114
708  8  -8.7911868440  19.2339677301  48.2336831615
709  8  -9.0571847118  19.1619444124  43.7380895301
710  8  -9.5392760792  22.6753150226  43.6751867089
711  8  -11.5333190376  20.7135361036  43.7656864001
712  8  -8.0430518524  17.9059191528  41.5274485683
713  8  -5.8242419829  19.2339677300  41.5436276184
714  8  -8.0886354916  20.4640297325  41.5151428530
715  8  -10.5326482399  19.4608672040  45.9840834836
716  8  -10.2806601262  22.2576581953  46.1973932264
717  8  -8.2722332339  20.6118390825  46.0021508077
718  8  -8.0340383925  20.7135361036  50.4557419432
719  8  -10.5101727184  19.1619444124  50.4281450732
720  8  -10.0280813509  22.6753150226  50.3652422520
721  4  -9.8194801324  20.7461925948  54.0013130067
722  4  -7.3065622152  19.2954846103  60.2519129052
723  4  -9.7894288090  17.8169777809  58.4753909420
724  4  -9.7173697501  20.9319836525  64.7200941150
725  4  -7.3029033958  19.3816811401  62.9616163269
726  4  -9.7903094869  17.7519760261  55.8207229647
727  4  -7.3088666116  19.2954846104  66.9419684484
728  4  -9.7478772979  20.7461925948  60.6913685498
729  4  -9.8499876801  20.9319836525  58.0300385718
730  4  -9.7779286212  17.8169777809  65.1654464852
731  4  -9.7770479433  17.7519760261  62.5107785079
732  4  -7.3125254310  19.3816811402  56.2715607838
733  8  -9.2866973038  22.2576581953  66.2675598557
734  8  -11.2951241963  20.6118390826  66.0723174371
735  8  -9.0347091903  19.4608672041  66.0542501130
736  8  -6.5267933352  20.4640297325  61.5853094823
737  8  -6.5723769744  17.9059191528  61.5976151977
738  8  -8.7911868440  19.2339677300  61.6137942477
739  8  -9.0571847118  19.1619444125  57.1182006163
740  8  -9.5392760791  22.6753150226  57.0552977953
741  8  -11.5333190375  20.7135361037  57.1457974862
742  8  -8.0430518524  17.9059191528  54.9075596545
743  8  -5.8242419829  19.2339677301  54.9237387046
744  8  -8.0886354916  20.4640297325  54.8952539392
745  8  -10.5326482399  19.4608672040  59.3641945698
746  8  -10.2806601261  22.2576581953  59.5775043127
747  8  -8.2722332339  20.6118390824  59.3822618939
748  8  -8.0340383927  20.7135361036  63.8358530293
749  8  -10.5101727184  19.1619444124  63.8082561595
750  8  -10.0280813511  22.6753150226  63.7453533383
751  4  5.0608404589  2.4350065770  0.6014268316
752  4  7.5579586908  0.8872220144  6.8747815579
753  4  5.0571687407  -0.8353760184  5.1182497137
754  4  5.0656453010  2.3406798132  11.3089479922
755  4  7.5728576634  0.9684627304  9.5342614291
756  4  5.2032404417  -0.6874472144  2.2657342667
757  4  7.5381841025  0.8872220143  13.5648371011
758  4  5.0833737311  2.4350065769  7.2914823747
759  4  5.0785688889  2.3406798133  4.6188924490
760  4  5.0870454492  -0.8353760185  11.8083052569
761  4  4.9409737480  -0.6874472145  8.9557898098
762  4  7.5232851298  0.9684627304  2.8442058860
763  8  5.7964283407  3.7694713269  12.6249226470
764  8  3.5276225774  2.3871074400  12.6428903703
765  8  5.8229800291  0.9631714368  12.6360374455
766  8  8.2689762945  2.2652686333  8.1823489884
767  8  8.1661592256  -0.4117215683  8.2280871290
768  8  5.9952491888  0.8885588848  8.2172590957
769  8  5.7966508205  0.6236685350  3.7630219316
770  8  5.9886255065  3.9180343485  3.7147953166
771  8  3.3391803311  2.5864867462  3.7198533139
772  8  6.9299835676  -0.4117215683  1.5380315859
773  8  9.1008936044  0.8885588847  1.5272035526
774  8  6.8271664988  2.2652686334  1.4922934453
775  8  4.3212341608  0.9631714369  5.9459819024
776  8  4.3477858493  3.7694713269  5.9348671038
777  8  6.6165916125  2.3871074400  5.9528348271
778  8  6.8050338588  2.5864867462  10.4099088571
779  8  4.3475633693  0.6236685349  10.4530774747
780  8  4.1555886834  3.9180343485  10.4048508598
781  4  5.0608404589  2.4350065769  13.9815379179
782  4  7.5579586908  0.8872220144  20.2548926442
783  4  5.0571687407  -0.8353760185  18.4983608000
784  4  5.0656453010  2.3406798133  24.6890590784
785  4  7.5728576634  0.9684627304  22.9143725154
786  4  5.2032404418  -0.6874472145  15.6458453529
787  4  7.5381841025  0.8872220143  26.9449481873
788  4  5.0833737311  2.4350065770  20.6715934610
789  4  5.0785688889  2.3406798132  17.9990035353
790  4  5.0870454493  -0.8353760185  25.1884163430
791  4  4.9409737481  -0.6874472145  22.3359008960
792  4  7.5232851299  0.9684627303  16.2243169723
793  8  5.7964283407  3.7694713269  26.0050337332
794  8  3.5276225774  2.3871074400  26.0230014566
795  8  5.8229800291  0.9631714368  26.0161485318
796  8  8.2689762945  2.2652686334  21.5624600747
797  8  8.1661592256  -0.4117215683  21.6081982152
798  8  5.9952491889  0.8885588848  21.5973701820
799  8  5.7966508205  0.6236685350  17.1431330178
800  8  5.9886255065  3.9180343485  17.0949064029
801  8  3.3391803312  2.5864867462  17.0999644002
802  8  6.9299835677  -0.4117215683  14.9181426721
803  8  9.1008936044  0.8885588848  14.9073146388
804  8  6.8271664988  2.2652686333  14.8724045316
805  8  4.3212341608  0.9631714368  19.3260929887
806  8  4.3477858493  3.7694713269  19.3149781901
807  8  6.6165916125  2.3871074400  19.3329459134
808  8  6.8050338587  2.5864867462  23.7900199433
809  8  4.3475633694  0.6236685350  23.8331885609
810  8  4.1555886834  3.9180343485  23.7849619460
811  4  5.0608404589  2.4350065769  27.3616490041
812  4  7.5579586908  0.8872220144  33.6350037304
813  4  5.0571687406  -0.8353760185  31.8784718862
814  4  5.0656453010  2.3406798133  38.0691701647
815  4  7.5728576634  0.9684627304  36.2944836016
816  4  5.2032404418  -0.6874472145  29.0259564391
817  4  7.5381841024  0.8872220144  40.3250592735
818  4  5.0833737311  2.4350065770  34.0517045472
819  4  5.0785688889  2.3406798132  31.3791146215
820  4  5.0870454493  -0.8353760185  38.5685274293
821  4  4.9409737481  -0.6874472144  35.7160119823
822  4  7.5232851299  0.9684627303  29.6044280585
823  8  5.7964283406  3.7694713269  39.3851448195
824  8  3.5276225773  2.3871074400  39.4031125428
825  8  5.8229800290  0.9631714369  39.3962596181
826  8  8.2689762945  2.2652686334  34.9425711609
827  8  8.1661592256  -0.4117215683  34.9883093015
828  8  5.9952491889  0.8885588849  34.9774812682
829  8  5.7966508206  0.6236685349  30.5232441040
830  8  5.9886255066  3.9180343485  30.4750174891
831  8  3.3391803312  2.5864867462  30.4800754864
832  8  6.9299835677  -0.4117215684  28.2982537584
833  8  9.1008936045  0.8885588847  28.2874257251
834  8  6.8271664988  2.2652686333  28.2525156178
835  8  4.3212341608  0.9631714368  32.7062040749
836  8  4.3477858493  3.7694713269  32.6950892763
837  8  6.6165916125  2.3871074400  32.7130569996
838  8  6.8050338587  2.5864867462  37.1701310296
839  8  4.3475633693  0.6236685350  37.2132996472
840  8  4.1555886833  3.9180343485  37.1650730323
841  4  5.0608404588  2.4350065770  40.7417600904
842  4  7.5579586908  0.8872220143  47.0151148167
843  4  5.0571687407  -0.8353760185  45.2585829725
844  4  5.0656453011  2.3406798132  51.4492812510
845  4  7.5728576635  0.9684627304  49.6745946879
846  4  5.2032404417  -0.6874472144  42.4060675254
847  4  7.5381841024  0.8872220144  53.7051703599
848  4  5.0833737311  2.4350065769  47.4318156335
849  4  5.0785688889  2.3406798132  44.7592257078
850  4  5.0870454493  -0.8353760185  51.9486385156
851  4  4.9409737482  -0.6874472145  49.0961230685
852  4  7.5232851298  0.9684627304  42.9845391447
853  8  5.7964283406  3.7694713269  52.7652559057
854  8  3.5276225774  2.3871074400  52.7832236291
855  8  5.8229800291  0.9631714368  52.7763707044
856  8  8.2689762945  2.2652686334  48.3226822472
857  8  8.1661592257  -0.4117215683  48.3684203878
858  8  5.9952491889  0.8885588848  48.3575923545
859  8  5.7966508205  0.6236685349  43.9033551903
860  8  5.9886255066  3.9180343485  43.8551285754
861  8  3.3391803312  2.5864867462  43.8601865727
862  8  6.9299835676  -0.4117215683  41.6783648446
863  8  9.1008936044  0.8885588848  41.6675368113
864  8  6.8271664987  2.2652686333  41.6326267041
865  8  4.3212341609  0.9631714368  46.0863151612
866  8  4.3477858493  3.7694713269  46.0752003626
867  8  6.6165916126  2.3871074400  46.0931680859
868  8  6.8050338588  2.5864867462  50.5502421158
869  8  4.3475633695  0.6236685350  50.5934107334
870  8  4.1555886834  3.9180343485  50.5451841185
871  4  5.0608404588  2.4350065770  54.1218711766
872  4  7.5579586908  0.8872220144  60.3952259030
873  4  5.0571687407  -0.8353760185  58.6386940588
874  4  5.0656453010  2.3406798133  64.8293923372
875  4  7.5728576635  0.9684627304  63.0547057742
876  4  5.2032404417  -0.6874472144  55.7861786118
877  4  7.5381841025  0.8872220144  67.0852814461
878  4  5.0833737311  2.4350065769  60.8119267198
879  4  5.0785688889  2.3406798133  58.1393367941
880  4  5.0870454493  -0.8353760185  65.3287496020
881  4  4.9409737482  -0.6874472144  62.4762341549
882  4  7.5232851299  0.9684627304  56.3646502311
883  8  5.7964283407  3.7694713269  66.1453669920
884  8  3.5276225774  2.3871074400  66.1633347153
885  8  5.8229800291  0.9631714369  66.1564817906
886  8  8.2689762946  2.2652686333  61.7027933335
887  8  8.1661592257  -0.4117215683  61.7485314740
888  8  5.9952491889  0.8885588848  61.7377034408
889  8  5.7966508206  0.6236685350  57.2834662767
890  8  5.9886255065  3.9180343485  57.2352396617
891  8  3.3391803312  2.5864867462  57.2402976590
892  8  6.9299835676  -0.4117215682  55.0584759310
893  8  9.1008936044  0.8885588848  55.0476478976
894  8  6.8271664987  2.2652686334  55.0127377904
895  8  4.3212341609  0.9631714368  59.4664262475
896  8  4.3477858493  3.7694713269  59.4553114489
897  8  6.6165916125  2.3871074400  59.4732791722
898  8  6.8050338588  2.5864867462  63.9303532021
899  8  4.3475633694  0.6236685350  63.9735218198
900  8  4.1555886834  3.9180343485  63.9252952048
901  4  2.5902613645  7.0378652606  0.5682141081
902  4  5.0635615398  5.4717572421  6.8148261117
903  4  2.5868735011  3.9540427200  5.0495449070
904  4  2.5911542385  7.0090652296  11.2686559530
905  4  5.0679814173  5.4927925328  9.5037870409
906  4  2.5857517155  3.9551264945  2.3709908475
907  4  5.0806526502  5.4717572420  13.5048816548
908  4  2.6020242221  7.0378652606  7.2582696513
909  4  2.6011313481  7.0090652296  4.5786004099
910  4  2.6054120855  3.9540427200  11.7396004501
911  4  2.6065338711  3.9551264945  9.0610463906
912  4  5.0762327726  5.4927925329  2.8137314978
913  8  3.3289675319  8.3922743092  12.6076500330
914  8  1.0436253454  7.0213719023  12.6081627857
915  8  3.3269870575  5.6457073755  12.6073037291
916  8  5.7996438295  6.8470665760  8.1594043009
917  8  5.8049860092  4.1185315756  8.1490448895
918  8  3.5202064086  5.4896898308  8.1629823811
919  8  3.3213871096  5.3175859653  3.7126716895
920  8  3.5151334647  8.5552046629  3.6762893737
921  8  0.8463019368  7.1800658689  3.6796233067
922  8  4.3392281807  4.1185315757  1.4589893464
923  8  6.6240077814  5.4896898308  1.4729268379
924  8  4.3445703605  6.8470665760  1.4693487578
925  8  1.8652985292  5.6457073756  5.9172481860
926  8  1.8633180547  8.3922743092  5.9175944899
927  8  4.1486602412  7.0213719023  5.9181072426
928  8  4.3459836499  7.1800658689  10.3696788498
929  8  1.8708984770  5.3175859653  10.4027272326
930  8  1.6771521219  8.5552046629  10.3663449169
931  4  2.5902613645  7.0378652605  13.9483251944
932  4  5.0635615398  5.4717572420  20.1949371980
933  4  2.5868735011  3.9540427200  18.4296559933
934  4  2.5911542384  7.0090652296  24.6487670393
935  4  5.0679814173  5.4927925329  22.8838981272
936  4  2.5857517155  3.9551264944  15.7511019337
937  4  5.0806526501  5.4717572420  26.8849927411
938  4  2.6020242220  7.0378652606  20.6383807375
939  4  2.6011313481  7.0090652296  17.9587114961
940  4  2.6054120855  3.9540427200  25.1197115364
941  4  2.6065338710  3.9551264945  22.4411574769
942  4  5.0762327726  5.4927925328  16.1938425840
943  8  3.3289675318  8.3922743092  25.9877611193
944  8  1.0436253454  7.0213719023  25.9882738720
945  8  3.3269870574  5.6457073755  25.9874148154
946  8  5.7996438294  6.8470665760  21.5395153872
947  8  5.8049860092  4.1185315757  21.5291559758
948  8  3.5202064085  5.4896898308  21.5430934674
949  8  3.3213871096  5.3175859653  17.0927827757
950  8  3.5151334647  8.5552046629  17.0564004600
951  8  0.8463019368  7.1800658689  17.0597343929
952  8  4.3392281807  4.1185315756  14.8391004326
953  8  6.6240077814  5.4896898307  14.8530379242
954  8  4.3445703606  6.8470665759  14.8494598440
955  8  1.8652985291  5.6457073755  19.2973592722
956  8  1.8633180547  8.3922743092  19.2977055761
957  8  4.1486602412  7.0213719023  19.2982183289
958  8  4.3459836498  7.1800658689  23.7497899361
959  8  1.8708984770  5.3175859653  23.7828383189
960  8  1.6771521219  8.5552046629  23.7464560032
961  4  2.5902613645  7.0378652605  27.3284362807
962  4  5.0635615398  5.4717572420  33.5750482842
963  4  2.5868735011  3.9540427200  31.8097670795
964  4  2.5911542385  7.0090652296  38.0288781256
965  4  5.0679814173  5.4927925329  36.2640092134
966  4  2.5857517155  3.9551264944  29.1312130200
967  4  5.0806526501  5.4717572421  40.2651038273
968  4  2.6020242221  7.0378652606  34.0184918238
969  4  2.6011313481  7.0090652296  31.3388225824
970  4  2.6054120854  3.9540427201  38.4998226227
971  4  2.6065338711  3.9551264945  35.8212685631
972  4  5.0762327726  5.4927925328  29.5739536703
973  8  3.3289675319  8.3922743092  39.3678722055
974  8  1.0436253454  7.0213719023  39.3683849583
975  8  3.3269870574  5.6457073756  39.3675259017
976  8  5.7996438294  6.8470665760  34.9196264735
977  8  5.8049860092  4.1185315757  34.9092670621
978  8  3.5202064086  5.4896898308  34.9232045536
979  8  3.3213871096  5.3175859653  30.4728938620
980  8  3.5151334647  8.5552046629  30.4365115463
981  8  0.8463019368  7.1800658689  30.4398454793
982  8  4.3392281807  4.1185315756  28.2192115189
983  8  6.6240077814  5.4896898308  28.2331490105
984  8  4.3445703605  6.8470665760  28.2295709303
985  8  1.8652985292  5.6457073755  32.6774703586
986  8  1.8633180547  8.3922743092  32.6778166624
987  8  4.1486602412  7.0213719023  32.6783294152
988  8  4.3459836498  7.1800658689  37.1299010224
989  8  1.8708984770  5.3175859654  37.1629494051
990  8  1.6771521219  8.5552046629  37.1265670894
991  4  2.5902613645  7.0378652606  40.7085473669
992  4  5.0635615398  5.4717572420  46.9551593705
993  4  2.5868735011  3.9540427200  45.1898781658
994  4  2.5911542385  7.0090652296  51.4089892118
995  4  5.0679814173  5.4927925329  49.6441202997
996  4  2.5857517155  3.9551264945  42.5113241063
997  4  5.0806526501  5.4717572421  53.6452149136
998  4  2.6020242221  7.0378652606  47.3986029100
999  4  2.6011313482  7.0090652296  44.7189336687
1000  4  2.6054120855  3.9540427200  51.8799337089
1001  4  2.6065338711  3.9551264945  49.2013796494
1002  4  5.0762327726  5.4927925328  42.9540647566
1003  8  3.3289675318  8.3922743092  52.7479832918
1004  8  1.0436253454  7.0213719023  52.7484960445
1005  8  3.3269870574  5.6457073755  52.7476369879
1006  8  5.7996438294  6.8470665760  48.2997375597
1007  8  5.8049860093  4.1185315757  48.2893781483
1008  8  3.5202064086  5.4896898308  48.3033156399
1009  8  3.3213871096  5.3175859653  43.8530049482
1010  8  3.5151334647  8.5552046630  43.8166226325
1011  8  0.8463019368  7.1800658689  43.8199565655
1012  8  4.3392281806  4.1185315757  41.5993226052
1013  8  6.6240077814  5.4896898308  41.6132600968
1014  8  4.3445703606  6.8470665760  41.6096820166
1015  8  1.8652985292  5.6457073755  46.0575814448
1016  8  1.8633180548  8.3922743092  46.0579277486
1017  8  4.1486602412  7.0213719023  46.0584405014
1018  8  4.3459836498  7.1800658689  50.5100121086
1019  8  1.8708984771  5.3175859653  50.5430604914
1020  8  1.6771521219  8.5552046629  50.5066781756
1021  4  2.5902613645  7.0378652606  54.0886584532
1022  4  5.0635615398  5.4717572420  60.3352704567
1023  4  2.5868735011  3.9540427200  58.5699892521
1024  4  2.5911542385  7.0090652296  64.7891002980
1025  4  5.0679814173  5.4927925329  63.0242313859
1026  4  2.5857517155  3.9551264945  55.8914351925
1027  4  5.0806526501  5.4717572421  67.0253259998
1028  4  2.6020242221  7.0378652606  60.7787139963
1029  4  2.6011313481  7.0090652296  58.0990447549
1030  4  2.6054120855  3.9540427200  65.2600447952
1031  4  2.6065338711  3.9551264945  62.5814907356
1032  4  5.0762327726  5.4927925329  56.3341758428
1033  8  3.3289675318  8.3922743092  66.1280943780
1034  8  1.0436253454  7.0213719023  66.1286071307
1035  8  3.3269870574  5.6457073756  66.1277480741
1036  8  5.7996438294  6.8470665760  61.6798486459
1037  8  5.8049860093  4.1185315757  61.6694892346
1038  8  3.5202064086  5.4896898308  61.6834267261
1039  8  3.3213871095  5.3175859653  57.2331160345
1040  8  3.5151334647  8.5552046629  57.1967337188
1041  8  0.8463019367  7.1800658689  57.2000676517
1042  8  4.3392281807  4.1185315757  54.9794336915
1043  8  6.6240077813  5.4896898308  54.9933711830
1044  8  4.3445703605  6.8470665760  54.9897931029
1045  8  1.8652985292  5.6457073755  59.4376925310
1046  8  1.8633180547  8.3922743092  59.4380388349
1047  8  4.1486602412  7.0213719023  59.4385515876
1048  8  4.3459836498  7.1800658689  63.8901231948
1049  8  1.8708984770  5.3175859653  63.9231715776
1050  8  1.6771521219  8.5552046629  63.8867892619
1051  4  0.1122813714  11.6452463871  0.5382801728
1052  4  2.5883297249  10.0826131455  6.7865601466
1053  4  0.1105127499  8.5716415750  5.0184332781
1054  4  0.1136552972  11.6171118627  11.2370544565
1055  4  2.5888631658  10.1079900913  9.4684962429
1056  4  0.1124177860  8.5430086263  2.3367182458
1057  4  2.6039558617  10.0826131455  13.4766156897
1058  4  0.1280756118  11.6452463871  7.2283357160
1059  4  0.1267016860  11.6171118627  4.5469989134
1060  4  0.1298442333  8.5716415749  11.7084888212
1061  4  0.1279391972  8.5430086263  9.0267737890
1062  4  2.6034224208  10.1079900913  2.7784406997
1063  8  0.8506325216  13.0043289209  12.5759351951
1064  8  -1.4360995335  11.6291129402  12.5772118449
1065  8  0.8516564312  10.2547820365  12.5788966809
1066  8  3.3268932526  11.4661079245  8.1268243771
1067  8  3.3263864986  8.7185433024  8.1279612750
1068  8  1.0395011779  10.0917976544  8.1271639413
1069  8  0.8505484446  9.9278503543  3.6765609039
1070  8  1.0377217964  13.1610078725  3.6475949293
1071  8  -1.6249910576  11.7900885253  3.6483081806
1072  8  1.8658990880  8.7185433024  1.4379057318
1073  8  4.1527844086  10.0917976544  1.4371083981
1074  8  1.8653923339  11.4661079245  1.4367688339
1075  8  -0.6112994480  10.2547820365  5.8888411378
1076  8  -0.6102755384  13.0043289209  5.8858796520
1077  8  1.6764565168  11.6291129403  5.8871563018
1078  8  1.8653480408  11.7900885253  10.3383637237
1079  8  -0.6101914614  9.9278503543  10.3666164471
1080  8  -0.7973648132  13.1610078725  10.3376504725
1081  4  0.1122813715  11.6452463871  13.9183912591
1082  4  2.5883297249  10.0826131455  20.1666712328
1083  4  0.1105127499  8.5716415749  18.3985443643
1084  4  0.1136552972  11.6171118627  24.6171655428
1085  4  2.5888631658  10.1079900913  22.8486073291
1086  4  0.1124177860  8.5430086263  15.7168293321
1087  4  2.6039558617  10.0826131455  26.8567267760
1088  4  0.1280756118  11.6452463871  20.6084468022
1089  4  0.1267016861  11.6171118627  17.9271099996
1090  4  0.1298442333  8.5716415749  25.0885999075
1091  4  0.1279391972  8.5430086263  22.4068848753
1092  4  2.6034224208  10.1079900913  16.1585517860
1093  8  0.8506325216  13.0043289208  25.9560462815
1094  8  -1.4360995335  11.6291129402  25.9573229313
1095  8  0.8516564312  10.2547820365  25.9590077673
1096  8  3.3268932526  11.4661079245  21.5069354633
1097  8  3.3263864986  8.7185433024  21.5080723613
1098  8  1.0395011779  10.0917976544  21.5072750275
1099  8  0.8505484446  9.9278503543  17.0566719901
1100  8  1.0377217964  13.1610078725  17.0277060156
1101  8  -1.6249910576  11.7900885253  17.0284192668
1102  8  1.8658990880  8.7185433024  14.8180168181
1103  8  4.1527844087  10.0917976544  14.8172194844
1104  8  1.8653923340  11.4661079245  14.8168799202
1105  8  -0.6112994480  10.2547820365  19.2689522240
1106  8  -0.6102755383  13.0043289208  19.2659907382
1107  8  1.6764565168  11.6291129402  19.2672673880
1108  8  1.8653480408  11.7900885253  23.7184748100
1109  8  -0.6101914614  9.9278503543  23.7467275334
1110  8  -0.7973648132  13.1610078725  23.7177615588
1111  4  0.1122813714  11.6452463871  27.2985023454
1112  4  2.5883297250  10.0826131455  33.5467823191
1113  4  0.1105127499  8.5716415749  31.7786554506
1114  4  0.1136552972  11.6171118627  37.9972766290
1115  4  2.5888631658  10.1079900913  36.2287184154
1116  4  0.1124177860  8.5430086263  29.0969404184
1117  4  2.6039558617  10.0826131455  40.2368378622
1118  4  0.1280756118  11.6452463871  33.9885578885
1119  4  0.1267016860  11.6171118627  31.3072210859
1120  4  0.1298442333  8.5716415749  38.4687109937
1121  4  0.1279391972  8.5430086263  35.7869959615
1122  4  2.6034224208  10.1079900913  29.5386628723
1123  8  0.8506325216  13.0043289209  39.3361573676
1124  8  -1.4360995335  11.6291129402  39.3374340175
1125  8  0.8516564312  10.2547820365  39.3391188534
1126  8  3.3268932526  11.4661079245  34.8870465496
1127  8  3.3263864986  8.7185433024  34.8881834476
1128  8  1.0395011779  10.0917976544  34.8873861138
1129  8  0.8505484446  9.9278503542  30.4367830765
1130  8  1.0377217964  13.1610078725  30.4078171019
1131  8  -1.6249910576  11.7900885253  30.4085303531
1132  8  1.8658990880  8.7185433024  28.1981279045
1133  8  4.1527844087  10.0917976544  28.1973305707
1134  8  1.8653923340  11.4661079245  28.1969910065
1135  8  -0.6112994480  10.2547820365  32.6490633103
1136  8  -0.6102755383  13.0043289209  32.6461018245
1137  8  1.6764565168  11.6291129402  32.6473784743
1138  8  1.8653480408  11.7900885253  37.0985858962
1139  8  -0.6101914614  9.9278503543  37.1268386196
1140  8  -0.7973648132  13.1610078725  37.0978726450
1141  4  0.1122813715  11.6452463871  40.6786134316
1142  4  2.5883297250  10.0826131455  46.9268934054
1143  4  0.1105127499  8.5716415750  45.1587665369
1144  4  0.1136552972  11.6171118627  51.3773877153
1145  4  2.5888631658  10.1079900914  49.6088295017
1146  4  0.1124177860  8.5430086264  42.4770515046
1147  4  2.6039558616  10.0826131455  53.6169489485
1148  4  0.1280756118  11.6452463871  47.3686689748
1149  4  0.1267016860  11.6171118627  44.6873321722
1150  4  0.1298442333  8.5716415750  51.8488220800
1151  4  0.1279391973  8.5430086263  49.1671070477
1152  4  2.6034224208  10.1079900914  42.9187739585
1153  8  0.8506325216  13.0043289209  52.7162684539
1154  8  -1.4360995336  11.6291129402  52.7175451037
1155  8  0.8516564312  10.2547820365  52.7192299397
1156  8  3.3268932526  11.4661079246  48.2671576359
1157  8  3.3263864986  8.7185433024  48.2682945338
1158  8  1.0395011779  10.0917976544  48.2674972000
1159  8  0.8505484446  9.9278503543  43.8168941627
1160  8  1.0377217964  13.1610078725  43.7879281881
1161  8  -1.6249910576  11.7900885253  43.7886414393
1162  8  1.8658990880  8.7185433024  41.5782389907
1163  8  4.1527844087  10.0917976544  41.5774416569
1164  8  1.8653923340  11.4661079246  41.5771020927
1165  8  -0.6112994480  10.2547820365  46.0291743966
1166  8  -0.6102755383  13.0043289209  46.0262129108
1167  8  1.6764565168  11.6291129402  46.0274895606
1168  8  1.8653480408  11.7900885253  50.4786969825
1169  8  -0.6101914614  9.9278503543  50.5069497058
1170  8  -0.7973648132  13.1610078725  50.4779837313
1171  4  0.1122813714  11.6452463871  54.0587245179
1172  4  2.5883297249  10.0826131455  60.3070044916
1173  4  0.1105127499  8.5716415749  58.5388776231
1174  4  0.1136552972  11.6171118627  64.7574988016
1175  4  2.5888631658  10.1079900913  62.9889405879
1176  4  0.1124177860  8.5430086263  55.8571625909
1177  4  2.6039558616  10.0826131455  66.9970600348
1178  4  0.1280756118  11.6452463871  60.7487800610
1179  4  0.1267016860  11.6171118627  58.0674432584
1180  4  0.1298442333  8.5716415749  65.2289331662
1181  4  0.1279391972  8.5430086263  62.5472181340
1182  4  2.6034224208  10.1079900914  56.2988850448
1183  8  0.8506325215  13.0043289209  66.0963795402
1184  8  -1.4360995336  11.6291129402  66.0976561900
1185  8  0.8516564312  10.2547820365  66.0993410259
1186  8  3.3268932526  11.4661079246  61.6472687221
1187  8  3.3263864986  8.7185433024  61.6484056200
1188  8  1.0395011779  10.0917976544  61.6476082863
1189  8  0.8505484446  9.9278503543  57.1970052489
1190  8  1.0377217964  13.1610078725  57.1680392744
1191  8  -1.6249910576  11.7900885253  57.1687525256
1192  8  1.8658990880  8.7185433024  54.9583500769
1193  8  4.1527844087  10.0917976544  54.9575527432
1194  8  1.8653923340  11.4661079246  54.9572131790
1195  8  -0.6112994480  10.2547820365  59.4092854828
1196  8  -0.6102755384  13.0043289209  59.4063239970
1197  8  1.6764565168  11.6291129402  59.4076006468
1198  8  1.8653480408  11.7900885253  63.8588080687
1199  8  -0.6101914613  9.9278503543  63.8870607921
1200  8  -0.7973648132  13.1610078726  63.8580948176
1201  4  -2.3610124028  16.2470498242  0.5097863376
1202  4  0.1118430394  14.6935193266  6.7555003826
1203  4  -2.3643947681  13.1838987560  4.9875735765
1204  4  -2.3585304224  16.2409629502  11.2127953908
1205  4  0.1184537239  14.7136538364  9.4415207497
1206  4  -2.3659386440  13.1529388949  2.3069034782
1207  4  0.1285139438  14.6935193267  13.4455559257
1208  4  -2.3505592173  16.2470498242  7.1998418807
1209  4  -2.3530411977  16.2409629501  4.5227398476
1210  4  -2.3471768521  13.1838987560  11.6776291196
1211  4  -2.3456329762  13.1529388949  8.9969590213
1212  4  0.1219032593  14.7136538364  2.7514652066
1213  8  -1.6220039949  17.6095067681  12.5567628261
1214  8  -3.9108742704  16.2473887279  12.5433470611
1215  8  -1.6252847250  14.8604418458  12.5417097163
1216  8  0.8541468636  16.0586881780  8.1045198615
1217  8  0.8537313845  13.3260627175  8.0952726849
1218  8  -1.4316924391  14.6952545174  8.0998329334
1219  8  -1.6341357699  14.5474117237  3.6451723197
1220  8  -1.4470147885  17.8107637509  3.6153590349
1221  8  -4.1063089546  16.3902542852  3.6391897912
1222  8  -0.6133744014  13.3260627175  1.4052171418
1223  8  1.6720494223  14.6952545173  1.4097773903
1224  8  -0.6137898804  16.0586881780  1.4144643184
1225  8  -3.0862868952  14.8604418458  5.8516541732
1226  8  -3.0895676252  17.6095067681  5.8667072829
1227  8  -0.8006973497  16.2473887278  5.8532915179
1228  8  -0.6052626655  16.3902542853  10.3292453344
1229  8  -3.0774358502  14.5474117237  10.3352278628
1230  8  -3.2645568316  17.8107637510  10.3054145780
1231  4  -2.3610124028  16.2470498243  13.8898974238
1232  4  0.1118430395  14.6935193266  20.1356114689
1233  4  -2.3643947680  13.1838987560  18.3676846628
1234  4  -2.3585304224  16.2409629502  24.5929064770
1235  4  0.1184537240  14.7136538364  22.8216318360
1236  4  -2.3659386439  13.1529388950  15.6870145645
1237  4  0.1285139438  14.6935193267  26.8256670120
1238  4  -2.3505592172  16.2470498242  20.5799529670
1239  4  -2.3530411977  16.2409629501  17.9028509339
1240  4  -2.3471768520  13.1838987561  25.0577402059
1241  4  -2.3456329762  13.1529388949  22.3770701076
1242  4  0.1219032593  14.7136538364  16.1315762928
1243  8  -1.6220039949  17.6095067681  25.9368739123
1244  8  -3.9108742704  16.2473887279  25.9234581473
1245  8  -1.6252847249  14.8604418458  25.9218208026
1246  8  0.8541468637  16.0586881780  21.4846309478
1247  8  0.8537313846  13.3260627174  21.4753837712
1248  8  -1.4316924391  14.6952545173  21.4799440197
1249  8  -1.6341357699  14.5474117237  17.0252834059
1250  8  -1.4470147885  17.8107637510  16.9954701212
1251  8  -4.1063089546  16.3902542853  17.0193008775
1252  8  -0.6133744013  13.3260627175  14.7853282280
1253  8  1.6720494223  14.6952545174  14.7898884765
1254  8  -0.6137898804  16.0586881781  14.7945754046
1255  8  -3.0862868951  14.8604418458  19.2317652594
1256  8  -3.0895676252  17.6095067681  19.2468183692
1257  8  -0.8006973497  16.2473887279  19.2334026042
1258  8  -0.6052626655  16.3902542852  23.7093564207
1259  8  -3.0774358502  14.5474117237  23.7153389491
1260  8  -3.2645568316  17.8107637509  23.6855256643
1261  4  -2.3610124028  16.2470498243  27.2700085101
1262  4  0.1118430394  14.6935193267  33.5157225551
1263  4  -2.3643947681  13.1838987561  31.7477957490
1264  4  -2.3585304224  16.2409629501  37.9730175633
1265  4  0.1184537239  14.7136538364  36.2017429222
1266  4  -2.3659386440  13.1529388950  29.0671256507
1267  4  0.1285139438  14.6935193267  40.2057780983
1268  4  -2.3505592173  16.2470498242  33.9600640532
1269  4  -2.3530411977  16.2409629502  31.2829620202
1270  4  -2.3471768521  13.1838987560  38.4378512922
1271  4  -2.3456329762  13.1529388949  35.7571811939
1272  4  0.1219032593  14.7136538365  29.5116873791
1273  8  -1.6220039949  17.6095067681  39.3169849986
1274  8  -3.9108742704  16.2473887279  39.3035692336
1275  8  -1.6252847250  14.8604418458  39.3019318889
1276  8  0.8541468636  16.0586881780  34.8647420340
1277  8  0.8537313845  13.3260627175  34.8554948574
1278  8  -1.4316924391  14.6952545174  34.8600551059
1279  8  -1.6341357699  14.5474117237  30.4053944922
1280  8  -1.4470147886  17.8107637510  30.3755812074
1281  8  -4.1063089546  16.3902542853  30.3994119638
1282  8  -0.6133744014  13.3260627175  28.1654393143
1283  8  1.6720494223  14.6952545174  28.1699995628
1284  8  -0.6137898804  16.0586881781  28.1746864909
1285  8  -3.0862868952  14.8604418459  32.6118763457
1286  8  -3.0895676252  17.6095067681  32.6269294555
1287  8  -0.8006973497  16.2473887279  32.6135136904
1288  8  -0.6052626655  16.3902542852  37.0894675069
1289  8  -3.0774358502  14.5474117237  37.0954500353
1290  8  -3.2645568316  17.8107637509  37.0656367506
1291  4  -2.3610124029  16.2470498242  40.6501195963
1292  4  0.1118430394  14.6935193266  46.8958336414
1293  4  -2.3643947681  13.1838987560  45.1279068353
1294  4  -2.3585304224  16.2409629501  51.3531286495
1295  4  0.1184537239  14.7136538364  49.5818540085
1296  4  -2.3659386439  13.1529388949  42.4472367370
1297  4  0.1285139438  14.6935193267  53.5858891845
1298  4  -2.3505592173  16.2470498242  47.3401751395
1299  4  -2.3530411977  16.2409629501  44.6630731064
1300  4  -2.3471768521  13.1838987560  51.8179623784
1301  4  -2.3456329762  13.1529388949  49.1372922801
1302  4  0.1219032593  14.7136538364  42.8917984653
1303  8  -1.6220039949  17.6095067680  52.6970960848
1304  8  -3.9108742704  16.2473887278  52.6836803198
1305  8  -1.6252847249  14.8604418458  52.6820429751
1306  8  0.8541468636  16.0586881780  48.2448531203
1307  8  0.8537313845  13.3260627175  48.2356059437
1308  8  -1.4316924391  14.6952545173  48.2401661922
1309  8  -1.6341357699  14.5474117237  43.7855055785
1310  8  -1.4470147886  17.8107637509  43.7556922937
1311  8  -4.1063089546  16.3902542852  43.7795230501
1312  8  -0.6133744013  13.3260627175  41.5455504005
1313  8  1.6720494223  14.6952545174  41.5501106491
1314  8  -0.6137898804  16.0586881780  41.5547975771
1315  8  -3.0862868952  14.8604418458  45.9919874320
1316  8  -3.0895676252  17.6095067680  46.0070405417
1317  8  -0.8006973497  16.2473887279  45.9936247767
1318  8  -0.6052626655  16.3902542852  50.4695785931
1319  8  -3.0774358503  14.5474117237  50.4755611216
1320  8  -3.2645568316  17.8107637509  50.4457478369
1321  4  -2.3610124028  16.2470498242  54.0302306826
1322  4  0.1118430394  14.6935193267  60.2759447277
1323  4  -2.3643947681  13.1838987560  58.5080179216
1324  4  -2.3585304224  16.2409629502  64.7332397358
1325  4  0.1184537239  14.7136538364  62.9619650948
1326  4  -2.3659386439  13.1529388949  55.8273478233
1327  4  0.1285139438  14.6935193266  66.9660002708
1328  4  -2.3505592173  16.2470498242  60.7202862257
1329  4  -2.3530411977  16.2409629501  58.0431841927
1330  4  -2.3471768521  13.1838987561  65.1980734647
1331  4  -2.3456329762  13.1529388950  62.5174033664
1332  4  0.1219032593  14.7136538364  56.2719095516
1333  8  -1.6220039949  17.6095067681  66.0772071712
1334  8  -3.9108742704  16.2473887279  66.0637914061
1335  8  -1.6252847250  14.8604418458  66.0621540614
1336  8  0.8541468636  16.0586881780  61.6249642066
1337  8  0.8537313845  13.3260627175  61.6157170300
1338  8  -1.4316924391  14.6952545174  61.6202772785
1339  8  -1.6341357699  14.5474117237  57.1656166647
1340  8  -1.4470147885  17.8107637509  57.1358033800
1341  8  -4.1063089546  16.3902542852  57.1596341363
1342  8  -0.6133744013  13.3260627175  54.9256614868
1343  8  1.6720494223  14.6952545174  54.9302217353
1344  8  -0.6137898804  16.0586881780  54.9349086634
1345  8  -3.0862868952  14.8604418458  59.3720985182
1346  8  -3.0895676252  17.6095067680  59.3871516280
1347  8  -0.8006973497  16.2473887279  59.3737358630
1348  8  -0.6052626655  16.3902542853  63.8496896795
1349  8  -3.0774358502  14.5474117237  63.8556722079
1350  8  -3.2645568316  17.8107637510  63.8258589231
1351  4  -4.8675515289  20.7461925948  0.4808686616
1352  4  -2.3546336118  19.2954846103  6.7314685601
1353  4  -4.8375002056  17.8169777809  4.9549465970
1354  4  -4.7654411468  20.9319836525  11.1996497699
1355  4  -2.3509747925  19.3816811401  9.4411719819
1356  4  -4.8383808835  17.7519760261  2.3002786197
1357  4  -2.3569380083  19.2954846104  13.4215241033
1358  4  -4.7959486944  20.7461925948  7.1709242048
1359  4  -4.8980590767  20.9319836525  4.5095942268
1360  4  -4.8260000179  17.8169777809  11.6450021401
1361  4  -4.8251193400  17.7519760261  8.9903341628
1362  4  -2.3605968276  19.3816811401  2.7511164388
1363  8  -4.3347687008  22.2576581954  12.7471155108
1364  8  -6.3431955930  20.6118390825  12.5518730920
1365  8  -4.0827805870  19.4608672041  12.5338057679
1366  8  -1.5748647319  20.4640297325  8.0648651373
1367  8  -1.6204483711  17.9059191528  8.0771708526
1368  8  -3.8392582406  19.2339677300  8.0933499027
1369  8  -4.1052561084  19.1619444125  3.5977562713
1370  8  -4.5873474760  22.6753150225  3.5348534500
1371  8  -6.5813904343  20.7135361035  3.6253531415
1372  8  -3.0911232490  17.9059191528  1.3871153095
1373  8  -0.8723133795  19.2339677300  1.4032943595
1374  8  -3.1367068883  20.4640297324  1.3748095942
1375  8  -5.5807196364  19.4608672041  5.8437502249
1376  8  -5.3287315225  22.2576581954  6.0570599678
1377  8  -3.3203046304  20.6118390824  5.8618175489
1378  8  -3.0821097893  20.7135361036  10.3154086843
1379  8  -5.5582441151  19.1619444125  10.2878118144
1380  8  -5.0761527477  22.6753150226  10.2249089932
1381  4  -4.8675515290  20.7461925949  13.8609797479
1382  4  -2.3546336118  19.2954846104  20.1115796464
1383  4  -4.8375002056  17.8169777809  18.3350576832
1384  4  -4.7654411468  20.9319836525  24.5797608562
1385  4  -2.3509747925  19.3816811401  22.8212830682
1386  4  -4.8383808835  17.7519760261  15.6803897059
1387  4  -2.3569380083  19.2954846104  26.8016351895
1388  4  -4.7959486945  20.7461925948  20.5510352910
1389  4  -4.8980590768  20.9319836525  17.8897053130
1390  4  -4.8260000179  17.8169777809  25.0251132264
1391  4  -4.8251193400  17.7519760261  22.3704452490
1392  4  -2.3605968277  19.3816811402  16.1312275251
1393  8  -4.3347687010  22.2576581954  26.1272265972
1394  8  -6.3431955931  20.6118390824  25.9319841782
1395  8  -4.0827805870  19.4608672041  25.9139168542
1396  8  -1.5748647319  20.4640297325  21.4449762236
1397  8  -1.6204483711  17.9059191528  21.4572819389
1398  8  -3.8392582406  19.2339677301  21.4734609890
1399  8  -4.1052561084  19.1619444125  16.9778673575
1400  8  -4.5873474759  22.6753150225  16.9149645363
1401  8  -6.5813904343  20.7135361036  17.0054642275
1402  8  -3.0911232490  17.9059191528  14.7672263958
1403  8  -0.8723133795  19.2339677301  14.7834054458
1404  8  -3.1367068882  20.4640297325  14.7549206804
1405  8  -5.5807196365  19.4608672041  19.2238613111
1406  8  -5.3287315228  22.2576581953  19.4371710538
1407  8  -3.3203046305  20.6118390825  19.2419286351
1408  8  -3.0821097892  20.7135361035  23.6955197708
1409  8  -5.5582441151  19.1619444125  23.6679229006
1410  8  -5.0761527475  22.6753150226  23.6050200795
1411  4  -4.8675515291  20.7461925948  27.2410908342
1412  4  -2.3546336118  19.2954846104  33.4916907327
1413  4  -4.8375002056  17.8169777809  31.7151687695
1414  4  -4.7654411467  20.9319836525  37.9598719425
1415  4  -2.3509747924  19.3816811401  36.2013941545
1416  4  -4.8383808835  17.7519760261  29.0605007922
1417  4  -2.3569380083  19.2954846103  40.1817462758
1418  4  -4.7959486945  20.7461925948  33.9311463773
1419  4  -4.8980590767  20.9319836525  31.2698163993
1420  4  -4.8260000179  17.8169777808  38.4052243127
1421  4  -4.8251193399  17.7519760261  35.7505563353
1422  4  -2.3605968277  19.3816811402  29.5113386113
1423  8  -4.3347687008  22.2576581953  39.5073376833
1424  8  -6.3431955930  20.6118390824  39.3120952645
1425  8  -4.0827805870  19.4608672041  39.2940279405
1426  8  -1.5748647319  20.4640297325  34.8250873099
1427  8  -1.6204483711  17.9059191528  34.8373930252
1428  8  -3.8392582406  19.2339677301  34.8535720753
1429  8  -4.1052561084  19.1619444125  30.3579784438
1430  8  -4.5873474760  22.6753150225  30.2950756225
1431  8  -6.5813904343  20.7135361036  30.3855753139
1432  8  -3.0911232491  17.9059191528  28.1473374820
1433  8  -0.8723133795  19.2339677301  28.1635165320
1434  8  -3.1367068883  20.4640297325  28.1350317667
1435  8  -5.5807196365  19.4608672041  32.6039723974
1436  8  -5.3287315225  22.2576581954  32.8172821402
1437  8  -3.3203046305  20.6118390824  32.6220397214
1438  8  -3.0821097891  20.7135361035  37.0756308571
1439  8  -5.5582441150  19.1619444125  37.0480339869
1440  8  -5.0761527474  22.6753150226  36.9851311657
1441  4  -4.8675515290  20.7461925948  40.6212019205
1442  4  -2.3546336118  19.2954846103  46.8718018189
1443  4  -4.8375002056  17.8169777809  45.0952798558
1444  4  -4.7654411468  20.9319836525  51.3399830287
1445  4  -2.3509747925  19.3816811401  49.5815052408
1446  4  -4.8383808835  17.7519760261  42.4406118784
1447  4  -2.3569380083  19.2954846103  53.5618573621
1448  4  -4.7959486945  20.7461925948  47.3112574636
1449  4  -4.8980590768  20.9319836525  44.6499274856
1450  4  -4.8260000179  17.8169777809  51.7853353989
1451  4  -4.8251193400  17.7519760261  49.1306674216
1452  4  -2.3605968277  19.3816811401  42.8914496976
1453  8  -4.3347687007  22.2576581953  52.8874487696
1454  8  -6.3431955930  20.6118390825  52.6922063508
1455  8  -4.0827805870  19.4608672041  52.6741390268
1456  8  -1.5748647319  20.4640297324  48.2051983961
1457  8  -1.6204483711  17.9059191528  48.2175041114
1458  8  -3.8392582406  19.2339677300  48.2336831615
1459  8  -4.1052561084  19.1619444124  43.7380895301
1460  8  -4.5873474760  22.6753150226  43.6751867089
1461  8  -6.5813904343  20.7135361036  43.7656864001
1462  8  -3.0911232490  17.9059191528  41.5274485683
1463  8  -0.8723133795  19.2339677301  41.5436276183
1464  8  -3.1367068883  20.4640297324  41.5151428530
1465  8  -5.5807196365  19.4608672041  45.9840834836
1466  8  -5.3287315227  22.2576581953  46.1973932265
1467  8  -3.3203046305  20.6118390823  46.0021508076
1468  8  -3.0821097892  20.7135361035  50.4557419433
1469  8  -5.5582441151  19.1619444125  50.4281450732
1470  8  -5.0761527476  22.6753150225  50.3652422520
1471  4  -4.8675515290  20.7461925948  54.0013130067
1472  4  -2.3546336118  19.2954846103  60.2519129052
1473  4  -4.8375002056  17.8169777809  58.4753909420
1474  4  -4.7654411468  20.9319836525  64.7200941150
1475  4  -2.3509747925  19.3816811401  62.9616163270
1476  4  -4.8383808835  17.7519760261  55.8207229647
1477  4  -2.3569380083  19.2954846103  66.9419684483
1478  4  -4.7959486945  20.7461925948  60.6913685498
1479  4  -4.8980590768  20.9319836525  58.0300385718
1480  4  -4.8260000179  17.8169777809  65.1654464852
1481  4  -4.8251193400  17.7519760261  62.5107785078
1482  4  -2.3605968276  19.3816811401  56.2715607839
1483  8  -4.3347687008  22.2576581954  66.2675598559
1484  8  -6.3431955930  20.6118390824  66.0723174371
1485  8  -4.0827805870  19.4608672041  66.0542501130
1486  8  -1.5748647318  20.4640297324  61.5853094823
1487  8  -1.6204483711  17.9059191528  61.5976151977
1488  8  -3.8392582406  19.2339677300  61.6137942477
1489  8  -4.1052561084  19.1619444125  57.1182006163
1490  8  -4.5873474760  22.6753150226  57.0552977952
1491  8  -6.5813904343  20.7135361036  57.1457974863
1492  8  -3.0911232490  17.9059191528  54.9075596546
1493  8  -0.8723133795  19.2339677300  54.9237387046
1494  8  -3.1367068882  20.4640297324  54.8952539393
1495  8  -5.5807196365  19.4608672041  59.3641945698
1496  8  -5.3287315227  22.2576581953  59.5775043127
1497  8  -3.3203046305  20.6118390824  59.3822618939
1498  8  -3.0821097894  20.7135361037  63.8358530292
1499  8  -5.5582441151  19.1619444125  63.8082561594
1500  8  -5.0761527478  22.6753150226  63.7453533384
1501  4  10.0127690622  2.4350065769  0.6014268316
1502  4  12.5098872942  0.8872220144  6.8747815580
1503  4  10.0090973440  -0.8353760185  5.1182497137
1504  4  10.0175739044  2.3406798132  11.3089479922
1505  4  12.5247862668  0.9684627304  9.5342614292
1506  4  10.1551690452  -0.6874472145  2.2657342666
1507  4  12.4901127059  0.8872220144  13.5648371011
1508  4  10.0353023344  2.4350065769  7.2914823747
1509  4  10.0304974922  2.3406798132  4.6188924490
1510  4  10.0389740526  -0.8353760185  11.8083052569
1511  4  9.8929023515  -0.6874472145  8.9557898098
1512  4  12.4752137332  0.9684627304  2.8442058861
1513  8  10.7483569440  3.7694713269  12.6249226470
1514  8  8.4795511808  2.3871074400  12.6428903703
1515  8  10.7749086325  0.9631714368  12.6360374455
1516  8  13.2209048979  2.2652686334  8.1823489885
1517  8  13.1180878290  -0.4117215683  8.2280871291
1518  8  10.9471777922  0.8885588848  8.2172590957
1519  8  10.7485794239  0.6236685349  3.7630219315
1520  8  10.9405541099  3.9180343485  3.7147953166
1521  8  8.2911089345  2.5864867462  3.7198533139
1522  8  11.8819121711  -0.4117215683  1.5380315859
1523  8  14.0528222078  0.8885588848  1.5272035527
1524  8  11.7790951021  2.2652686333  1.4922934454
1525  8  9.2731627642  0.9631714368  5.9459819024
1526  8  9.2997144526  3.7694713269  5.9348671038
1527  8  11.5685202159  2.3871074399  5.9528348271
1528  8  11.7569624622  2.5864867462  10.4099088571
1529  8  9.2994919727  0.6236685350  10.4530774747
1530  8  9.1075172868  3.9180343485  10.4048508597
1531  4  10.0127690622  2.4350065769  13.9815379179
1532  4  12.5098872941  0.8872220144  20.2548926442
1533  4  10.0090973441  -0.8353760185  18.4983607999
1534  4  10.0175739044  2.3406798132  24.6890590784
1535  4  12.5247862667  0.9684627304  22.9143725154
1536  4  10.1551690452  -0.6874472145  15.6458453529
1537  4  12.4901127059  0.8872220143  26.9449481874
1538  4  10.0353023344  2.4350065769  20.6715934610
1539  4  10.0304974922  2.3406798132  17.9990035353
1540  4  10.0389740526  -0.8353760185  25.1884163431
1541  4  9.8929023515  -0.6874472145  22.3359008960
1542  4  12.4752137332  0.9684627303  16.2243169723
1543  8  10.7483569440  3.7694713269  26.0050337333
1544  8  8.4795511808  2.3871074400  26.0230014565
1545  8  10.7749086325  0.9631714368  26.0161485318
1546  8  13.2209048979  2.2652686333  21.5624600747
1547  8  13.1180878289  -0.4117215683  21.6081982153
1548  8  10.9471777922  0.8885588848  21.5973701820
1549  8  10.7485794239  0.6236685349  17.1431330178
1550  8  10.9405541099  3.9180343485  17.0949064029
1551  8  8.2911089345  2.5864867461  17.0999644002
1552  8  11.8819121711  -0.4117215683  14.9181426721
1553  8  14.0528222078  0.8885588848  14.9073146389
1554  8  11.7790951021  2.2652686333  14.8724045316
1555  8  9.2731627642  0.9631714368  19.3260929887
1556  8  9.2997144526  3.7694713269  19.3149781901
1557  8  11.5685202159  2.3871074400  19.3329459134
1558  8  11.7569624621  2.5864867461  23.7900199433
1559  8  9.2994919727  0.6236685349  23.8331885610
1560  8  9.1075172867  3.9180343485  23.7849619460
1561  4  10.0127690622  2.4350065769  27.3616490041
1562  4  12.5098872942  0.8872220144  33.6350037304
1563  4  10.0090973440  -0.8353760185  31.8784718862
1564  4  10.0175739044  2.3406798133  38.0691701647
1565  4  12.5247862668  0.9684627304  36.2944836016
1566  4  10.1551690452  -0.6874472146  29.0259564391
1567  4  12.4901127058  0.8872220144  40.3250592736
1568  4  10.0353023344  2.4350065770  34.0517045472
1569  4  10.0304974923  2.3406798132  31.3791146215
1570  4  10.0389740527  -0.8353760185  38.5685274293
1571  4  9.8929023515  -0.6874472144  35.7160119823
1572  4  12.4752137333  0.9684627303  29.6044280586
1573  8  10.7483569440  3.7694713269  39.3851448195
1574  8  8.4795511807  2.3871074400  39.4031125428
1575  8  10.7749086325  0.9631714368  39.3962596180
1576  8  13.2209048979  2.2652686334  34.9425711610
1577  8  13.1180878290  -0.4117215683  34.9883093015
1578  8  10.9471777922  0.8885588849  34.9774812682
1579  8  10.7485794239  0.6236685349  30.5232441041
1580  8  10.9405541099  3.9180343485  30.4750174891
1581  8  8.2911089345  2.5864867461  30.4800754864
1582  8  11.8819121711  -0.4117215684  28.2982537584
1583  8  14.0528222078  0.8885588848  28.2874257251
1584  8  11.7790951021  2.2652686333  28.2525156179
1585  8  9.2731627642  0.9631714368  32.7062040749
1586  8  9.2997144527  3.7694713269  32.6950892763
1587  8  11.5685202159  2.3871074400  32.7130569997
1588  8  11.7569624621  2.5864867462  37.1701310296
1589  8  9.2994919727  0.6236685350  37.2132996472
1590  8  9.1075172867  3.9180343485  37.1650730323
1591  4  10.0127690622  2.4350065769  40.7417600903
1592  4  12.5098872942  0.8872220144  47.0151148167
1593  4  10.0090973440  -0.8353760186  45.2585829725
1594  4  10.0175739044  2.3406798133  51.4492812510
1595  4  12.5247862668  0.9684627304  49.6745946879
1596  4  10.1551690451  -0.6874472145  42.4060675254
1597  4  12.4901127058  0.8872220144  53.7051703599
1598  4  10.0353023345  2.4350065769  47.4318156335
1599  4  10.0304974923  2.3406798132  44.7592257078
1600  4  10.0389740526  -0.8353760184  51.9486385156
1601  4  9.8929023516  -0.6874472144  49.0961230686
1602  4  12.4752137332  0.9684627304  42.9845391448
1603  8  10.7483569440  3.7694713269  52.7652559057
1604  8  8.4795511807  2.3871074400  52.7832236290
1605  8  10.7749086324  0.9631714369  52.7763707043
1606  8  13.2209048979  2.2652686334  48.3226822472
1607  8  13.1180878290  -0.4117215683  48.3684203878
1608  8  10.9471777923  0.8885588849  48.3575923545
1609  8  10.7485794239  0.6236685349  43.9033551903
1610  8  10.9405541099  3.9180343485  43.8551285754
1611  8  8.2911089346  2.5864867461  43.8601865727
1612  8  11.8819121710  -0.4117215683  41.6783648447
1613  8  14.0528222078  0.8885588848  41.6675368114
1614  8  11.7790951021  2.2652686333  41.6326267041
1615  8  9.2731627642  0.9631714368  46.0863151612
1616  8  9.2997144527  3.7694713269  46.0752003626
1617  8  11.5685202159  2.3871074400  46.0931680859
1618  8  11.7569624621  2.5864867462  50.5502421158
1619  8  9.2994919728  0.6236685350  50.5934107335
1620  8  9.1075172867  3.9180343485  50.5451841185
1621  4  10.0127690621  2.4350065770  54.1218711766
1622  4  12.5098872942  0.8872220144  60.3952259030
1623  4  10.0090973441  -0.8353760185  58.6386940587
1624  4  10.0175739044  2.3406798132  64.8293923372
1625  4  12.5247862668  0.9684627304  63.0547057742
1626  4  10.1551690451  -0.6874472145  55.7861786117
1627  4  12.4901127059  0.8872220144  67.0852814462
1628  4  10.0353023345  2.4350065769  60.8119267197
1629  4  10.0304974923  2.3406798133  58.1393367941
1630  4  10.0389740526  -0.8353760185  65.3287496019
1631  4  9.8929023515  -0.6874472145  62.4762341549
1632  4  12.4752137332  0.9684627304  56.3646502311
1633  8  10.7483569440  3.7694713269  66.1453669920
1634  8  8.4795511808  2.3871074400  66.1633347153
1635  8  10.7749086325  0.9631714368  66.1564817906
1636  8  13.2209048979  2.2652686334  61.7027933335
1637  8  13.1180878290  -0.4117215683  61.7485314741
1638  8  10.9471777922  0.8885588848  61.7377034408
1639  8  10.7485794239  0.6236685350  57.2834662766
1640  8  10.9405541099  3.9180343486  57.2352396616
1641  8  8.2911089345  2.5864867462  57.2402976590
1642  8  11.8819121710  -0.4117215683  55.0584759309
1643  8  14.0528222077  0.8885588848  55.0476478977
1644  8  11.7790951021  2.2652686334  55.0127377904
1645  8  9.2731627642  0.9631714368  59.4664262475
1646  8  9.2997144527  3.7694713269  59.4553114489
1647  8  11.5685202159  2.3871074400  59.4732791722
1648  8  11.7569624621  2.5864867462  63.9303532021
1649  8  9.2994919728  0.6236685349  63.9735218197
1650  8  9.1075172868  3.9180343485  63.9252952048
1651  4  7.5421899679  7.0378652606  0.5682141081
1652  4  10.0154901432  5.4717572420  6.8148261117
1653  4  7.5388021044  3.9540427200  5.0495449070
1654  4  7.5430828418  7.0090652296  11.2686559530
1655  4  10.0199100207  5.4927925328  9.5037870409
1656  4  7.5376803189  3.9551264945  2.3709908474
1657  4  10.0325812535  5.4717572420  13.5048816548
1658  4  7.5539528254  7.0378652606  7.2582696512
1659  4  7.5530599515  7.0090652296  4.5786004098
1660  4  7.5573406889  3.9540427200  11.7396004501
1661  4  7.5584624744  3.9551264944  9.0610463906
1662  4  10.0281613760  5.4927925329  2.8137314978
1663  8  8.2808961352  8.3922743092  12.6076500330
1664  8  5.9955539488  7.0213719023  12.6081627857
1665  8  8.2789156608  5.6457073755  12.6073037291
1666  8  10.7515724328  6.8470665760  8.1594043009
1667  8  10.7569146126  4.1185315756  8.1490448895
1668  8  8.4721350119  5.4896898308  8.1629823811
1669  8  8.2733157129  5.3175859653  3.7126716894
1670  8  8.4670620680  8.5552046629  3.6762893737
1671  8  5.7982305401  7.1800658689  3.6796233067
1672  8  9.2911567840  4.1185315757  1.4589893464
1673  8  11.5759363847  5.4896898307  1.4729268380
1674  8  9.2964989639  6.8470665760  1.4693487577
1675  8  6.8172271325  5.6457073755  5.9172481860
1676  8  6.8152466581  8.3922743092  5.9175944898
1677  8  9.1005888446  7.0213719023  5.9181072426
1678  8  9.2979122532  7.1800658689  10.3696788498
1679  8  6.8228270804  5.3175859653  10.4027272326
1680  8  6.6290807253  8.5552046629  10.3663449169
1681  4  7.5421899679  7.0378652605  13.9483251944
1682  4  10.0154901431  5.4717572420  20.1949371980
1683  4  7.5388021044  3.9540427200  18.4296559933
1684  4  7.5430828418  7.0090652296  24.6487670392
1685  4  10.0199100206  5.4927925329  22.8838981272
1686  4  7.5376803189  3.9551264944  15.7511019337
1687  4  10.0325812535  5.4717572420  26.8849927411
1688  4  7.5539528254  7.0378652606  20.6383807375
1689  4  7.5530599515  7.0090652296  17.9587114961
1690  4  7.5573406888  3.9540427200  25.1197115364
1691  4  7.5584624744  3.9551264944  22.4411574768
1692  4  10.0281613759  5.4927925328  16.1938425841
1693  8  8.2808961352  8.3922743092  25.9877611192
1694  8  5.9955539487  7.0213719023  25.9882738720
1695  8  8.2789156608  5.6457073755  25.9874148154
1696  8  10.7515724327  6.8470665760  21.5395153872
1697  8  10.7569146126  4.1185315757  21.5291559758
1698  8  8.4721350119  5.4896898308  21.5430934674
1699  8  8.2733157129  5.3175859653  17.0927827757
1700  8  8.4670620680  8.5552046629  17.0564004600
1701  8  5.7982305401  7.1800658689  17.0597343930
1702  8  9.2911567841  4.1185315756  14.8391004327
1703  8  11.5759363847  5.4896898308  14.8530379243
1704  8  9.2964989639  6.8470665759  14.8494598441
1705  8  6.8172271325  5.6457073755  19.2973592723
1706  8  6.8152466581  8.3922743092  19.2977055761
1707  8  9.1005888445  7.0213719023  19.2982183289
1708  8  9.2979122531  7.1800658689  23.7497899361
1709  8  6.8228270803  5.3175859653  23.7828383189
1710  8  6.6290807252  8.5552046629  23.7464560031
1711  4  7.5421899679  7.0378652606  27.3284362806
1712  4  10.0154901432  5.4717572421  33.5750482842
1713  4  7.5388021045  3.9540427200  31.8097670795
1714  4  7.5430828418  7.0090652296  38.0288781256
1715  4  10.0199100207  5.4927925329  36.2640092134
1716  4  7.5376803189  3.9551264944  29.1312130200
1717  4  10.0325812535  5.4717572420  40.2651038274
1718  4  7.5539528255  7.0378652606  34.0184918238
1719  4  7.5530599515  7.0090652296  31.3388225824
1720  4  7.5573406888  3.9540427200  38.4998226227
1721  4  7.5584624744  3.9551264945  35.8212685631
1722  4  10.0281613760  5.4927925329  29.5739536703
1723  8  8.2808961352  8.3922743092  39.3678722056
1724  8  5.9955539488  7.0213719023  39.3683849583
1725  8  8.2789156607  5.6457073755  39.3675259017
1726  8  10.7515724328  6.8470665760  34.9196264735
1727  8  10.7569146126  4.1185315757  34.9092670620
1728  8  8.4721350119  5.4896898308  34.9232045536
1729  8  8.2733157129  5.3175859653  30.4728938620
1730  8  8.4670620681  8.5552046629  30.4365115463
1731  8  5.7982305402  7.1800658689  30.4398454793
1732  8  9.2911567841  4.1185315756  28.2192115189
1733  8  11.5759363847  5.4896898308  28.2331490105
1734  8  9.2964989639  6.8470665760  28.2295709303
1735  8  6.8172271325  5.6457073755  32.6774703585
1736  8  6.8152466581  8.3922743092  32.6778166624
1737  8  9.1005888446  7.0213719023  32.6783294151
1738  8  9.2979122532  7.1800658689  37.1299010224
1739  8  6.8228270804  5.3175859654  37.1629494051
1740  8  6.6290807253  8.5552046629  37.1265670894
1741  4  7.5421899679  7.0378652606  40.7085473669
1742  4  10.0154901432  5.4717572420  46.9551593705
1743  4  7.5388021045  3.9540427200  45.1898781658
1744  4  7.5430828418  7.0090652296  51.4089892118
1745  4  10.0199100207  5.4927925329  49.6441202997
1746  4  7.5376803189  3.9551264944  42.5113241062
1747  4  10.0325812534  5.4717572421  53.6452149136
1748  4  7.5539528255  7.0378652606  47.3986029100
1749  4  7.5530599515  7.0090652296  44.7189336687
1750  4  7.5573406888  3.9540427200  51.8799337089
1751  4  7.5584624744  3.9551264945  49.2013796494
1752  4  10.0281613760  5.4927925328  42.9540647566
1753  8  8.2808961352  8.3922743092  52.7479832918
1754  8  5.9955539487  7.0213719023  52.7484960445
1755  8  8.2789156607  5.6457073755  52.7476369879
1756  8  10.7515724328  6.8470665760  48.2997375597
1757  8  10.7569146126  4.1185315757  48.2893781483
1758  8  8.4721350119  5.4896898308  48.3033156399
1759  8  8.2733157129  5.3175859653  43.8530049482
1760  8  8.4670620681  8.5552046629  43.8166226326
1761  8  5.7982305402  7.1800658689  43.8199565655
1762  8  9.2911567840  4.1185315756  41.5993226052
1763  8  11.5759363847  5.4896898308  41.6132600968
1764  8  9.2964989639  6.8470665760  41.6096820166
1765  8  6.8172271326  5.6457073755  46.0575814448
1766  8  6.8152466581  8.3922743092  46.0579277487
1767  8  9.1005888446  7.0213719023  46.0584405014
1768  8  9.2979122531  7.1800658689  50.5100121086
1769  8  6.8228270804  5.3175859653  50.5430604914
1770  8  6.6290807252  8.5552046630  50.5066781757
1771  4  7.5421899678  7.0378652606  54.0886584531
1772  4  10.0154901432  5.4717572420  60.3352704567
1773  4  7.5388021044  3.9540427200  58.5699892520
1774  4  7.5430828419  7.0090652296  64.7891002980
1775  4  10.0199100207  5.4927925328  63.0242313859
1776  4  7.5376803188  3.9551264945  55.8914351925
1777  4  10.0325812535  5.4717572420  67.0253259999
1778  4  7.5539528254  7.0378652605  60.7787139963
1779  4  7.5530599514  7.0090652296  58.0990447549
1780  4  7.5573406889  3.9540427200  65.2600447951
1781  4  7.5584624745  3.9551264944  62.5814907356
1782  4  10.0281613759  5.4927925329  56.3341758428
1783  8  8.2808961352  8.3922743092  66.1280943780
1784  8  5.9955539488  7.0213719023  66.1286071307
1785  8  8.2789156608  5.6457073755  66.1277480741
1786  8  10.7515724327  6.8470665759  61.6798486460
1787  8  10.7569146126  4.1185315756  61.6694892346
1788  8  8.4721350119  5.4896898307  61.6834267261
1789  8  8.2733157129  5.3175859653  57.2331160345
1790  8  8.4670620680  8.5552046629  57.1967337188
1791  8  5.7982305401  7.1800658689  57.2000676517
1792  8  9.2911567840  4.1185315757  54.9794336914
1793  8  11.5759363847  5.4896898308  54.9933711830
1794  8  9.2964989639  6.8470665760  54.9897931028
1795  8  6.8172271325  5.6457073755  59.4376925310
1796  8  6.8152466581  8.3922743092  59.4380388349
1797  8  9.1005888445  7.0213719023  59.4385515876
1798  8  9.2979122532  7.1800658688  63.8901231949
1799  8  6.8228270804  5.3175859653  63.9231715776
1800  8  6.6290807253  8.5552046629  63.8867892619
1801  4  5.0642099748  11.6452463871  0.5382801728
1802  4  7.5402583283  10.0826131455  6.7865601466
1803  4  5.0624413533  8.5716415750  5.0184332781
1804  4  5.0655839006  11.6171118627  11.2370544565
1805  4  7.5407917692  10.1079900913  9.4684962429
1806  4  5.0643463893  8.5430086263  2.3367182458
1807  4  7.5558844650  10.0826131455  13.4766156897
1808  4  5.0800042151  11.6452463871  7.2283357160
1809  4  5.0786302894  11.6171118627  4.5469989134
1810  4  5.0817728367  8.5716415750  11.7084888212
1811  4  5.0798678006  8.5430086263  9.0267737890
1812  4  7.5553510241  10.1079900913  2.7784406997
1813  8  5.8025611249  13.0043289209  12.5759351951
1814  8  3.5158290698  11.6291129403  12.5772118449
1815  8  5.8035850346  10.2547820365  12.5788966809
1816  8  8.2788218560  11.4661079246  8.1268243771
1817  8  8.2783151020  8.7185433024  8.1279612750
1818  8  5.9914297813  10.0917976544  8.1271639412
1819  8  5.8024770479  9.9278503543  3.6765609039
1820  8  5.9896503997  13.1610078725  3.6475949294
1821  8  3.3269375457  11.7900885253  3.6483081806
1822  8  6.8178276913  8.7185433024  1.4379057318
1823  8  9.1047130120  10.0917976544  1.4371083981
1824  8  6.8173209373  11.4661079245  1.4367688339
1825  8  4.3406291554  10.2547820365  5.8888411378
1826  8  4.3416530650  13.0043289209  5.8858796520
1827  8  6.6283851201  11.6291129402  5.8871563018
1828  8  6.8172766442  11.7900885253  10.3383637237
1829  8  4.3417371420  9.9278503543  10.3666164470
1830  8  4.1545637902  13.1610078725  10.3376504725
1831  4  5.0642099748  11.6452463872  13.9183912591
1832  4  7.5402583283  10.0826131455  20.1666712328
1833  4  5.0624413533  8.5716415749  18.3985443643
1834  4  5.0655839006  11.6171118627  24.6171655428
1835  4  7.5407917691  10.1079900914  22.8486073291
1836  4  5.0643463894  8.5430086263  15.7168293321
1837  4  7.5558844650  10.0826131455  26.8567267760
1838  4  5.0800042151  11.6452463871  20.6084468022
1839  4  5.0786302894  11.6171118627  17.9271099996
1840  4  5.0817728366  8.5716415750  25.0885999075
1841  4  5.0798678006  8.5430086263  22.4068848752
1842  4  7.5553510242  10.1079900914  16.1585517860
1843  8  5.8025611249  13.0043289209  25.9560462814
1844  8  3.5158290698  11.6291129402  25.9573229313
1845  8  5.8035850346  10.2547820365  25.9590077672
1846  8  8.2788218559  11.4661079246  21.5069354633
1847  8  8.2783151019  8.7185433024  21.5080723612
1848  8  5.9914297812  10.0917976544  21.5072750275
1849  8  5.8024770480  9.9278503543  17.0566719902
1850  8  5.9896503998  13.1610078725  17.0277060156
1851  8  3.3269375458  11.7900885253  17.0284192668
1852  8  6.8178276914  8.7185433024  14.8180168181
1853  8  9.1047130121  10.0917976544  14.8172194844
1854  8  6.8173209374  11.4661079246  14.8168799202
1855  8  4.3406291554  10.2547820365  19.2689522240
1856  8  4.3416530650  13.0043289209  19.2659907382
1857  8  6.6283851201  11.6291129402  19.2672673880
1858  8  6.8172766442  11.7900885253  23.7184748100
1859  8  4.3417371420  9.9278503543  23.7467275333
1860  8  4.1545637902  13.1610078725  23.7177615588
1861  4  5.0642099748  11.6452463871  27.2985023454
1862  4  7.5402583283  10.0826131455  33.5467823191
1863  4  5.0624413533  8.5716415749  31.7786554506
1864  4  5.0655839005  11.6171118627  37.9972766291
1865  4  7.5407917691  10.1079900913  36.2287184154
1866  4  5.0643463894  8.5430086263  29.0969404184
1867  4  7.5558844650  10.0826131455  40.2368378623
1868  4  5.0800042151  11.6452463871  33.9885578885
1869  4  5.0786302894  11.6171118627  31.3072210859
1870  4  5.0817728367  8.5716415750  38.4687109938
1871  4  5.0798678006  8.5430086263  35.7869959615
1872  4  7.5553510242  10.1079900913  29.5386628723
1873  8  5.8025611249  13.0043289209  39.3361573677
1874  8  3.5158290698  11.6291129402  39.3374340175
1875  8  5.8035850346  10.2547820365  39.3391188535
1876  8  8.2788218560  11.4661079245  34.8870465496
1877  8  8.2783151020  8.7185433024  34.8881834476
1878  8  5.9914297813  10.0917976544  34.8873861138
1879  8  5.8024770480  9.9278503543  30.4367830765
1880  8  5.9896503998  13.1610078725  30.4078171019
1881  8  3.3269375458  11.7900885253  30.4085303531
1882  8  6.8178276914  8.7185433024  28.1981279044
1883  8  9.1047130120  10.0917976544  28.1973305707
1884  8  6.8173209374  11.4661079246  28.1969910065
1885  8  4.3406291554  10.2547820365  32.6490633103
1886  8  4.3416530650  13.0043289209  32.6461018245
1887  8  6.6283851201  11.6291129402  32.6473784743
1888  8  6.8172766442  11.7900885253  37.0985858962
1889  8  4.3417371420  9.9278503543  37.1268386196
1890  8  4.1545637902  13.1610078725  37.0978726450
1891  4  5.0642099748  11.6452463871  40.6786134317
1892  4  7.5402583283  10.0826131455  46.9268934054
1893  4  5.0624413533  8.5716415750  45.1587665369
1894  4  5.0655839006  11.6171118627  51.3773877153
1895  4  7.5407917692  10.1079900914  49.6088295017
1896  4  5.0643463894  8.5430086263  42.4770515047
1897  4  7.5558844650  10.0826131455  53.6169489485
1898  4  5.0800042152  11.6452463871  47.3686689748
1899  4  5.0786302894  11.6171118627  44.6873321722
1900  4  5.0817728367  8.5716415750  51.8488220800
1901  4  5.0798678006  8.5430086263  49.1671070478
1902  4  7.5553510242  10.1079900914  42.9187739586
1903  8  5.8025611249  13.0043289209  52.7162684539
1904  8  3.5158290698  11.6291129402  52.7175451037
1905  8  5.8035850346  10.2547820365  52.7192299397
1906  8  8.2788218560  11.4661079246  48.2671576359
1907  8  8.2783151020  8.7185433024  48.2682945338
1908  8  5.9914297813  10.0917976544  48.2674972001
1909  8  5.8024770480  9.9278503543  43.8168941627
1910  8  5.9896503998  13.1610078725  43.7879281882
1911  8  3.3269375458  11.7900885253  43.7886414394
1912  8  6.8178276914  8.7185433024  41.5782389907
1913  8  9.1047130121  10.0917976544  41.5774416570
1914  8  6.8173209374  11.4661079246  41.5771020928
1915  8  4.3406291554  10.2547820365  46.0291743966
1916  8  4.3416530650  13.0043289209  46.0262129108
1917  8  6.6283851201  11.6291129403  46.0274895606
1918  8  6.8172766442  11.7900885253  50.4786969825
1919  8  4.3417371420  9.9278503543  50.5069497058
1920  8  4.1545637902  13.1610078725  50.4779837313
1921  4  5.0642099748  11.6452463871  54.0587245179
1922  4  7.5402583283  10.0826131455  60.3070044916
1923  4  5.0624413532  8.5716415749  58.5388776231
1924  4  5.0655839005  11.6171118627  64.7574988015
1925  4  7.5407917691  10.1079900913  62.9889405879
1926  4  5.0643463893  8.5430086263  55.8571625909
1927  4  7.5558844650  10.0826131455  66.9970600347
1928  4  5.0800042151  11.6452463871  60.7487800610
1929  4  5.0786302894  11.6171118627  58.0674432584
1930  4  5.0817728367  8.5716415749  65.2289331662
1931  4  5.0798678006  8.5430086263  62.5472181340
1932  4  7.5553510241  10.1079900914  56.2988850448
1933  8  5.8025611249  13.0043289209  66.0963795402
1934  8  3.5158290698  11.6291129402  66.0976561900
1935  8  5.8035850345  10.2547820365  66.0993410259
1936  8  8.2788218560  11.4661079245  61.6472687221
1937  8  8.2783151020  8.7185433024  61.6484056200
1938  8  5.9914297813  10.0917976544  61.6476082863
1939  8  5.8024770479  9.9278503543  57.1970052490
1940  8  5.9896503998  13.1610078725  57.1680392744
1941  8  3.3269375457  11.7900885253  57.1687525256
1942  8  6.8178276913  8.7185433024  54.9583500769
1943  8  9.1047130120  10.0917976544  54.9575527432
1944  8  6.8173209373  11.4661079246  54.9572131790
1945  8  4.3406291554  10.2547820365  59.4092854828
1946  8  4.3416530650  13.0043289209  59.4063239970
1947  8  6.6283851201  11.6291129402  59.4076006469
1948  8  6.8172766442  11.7900885253  63.8588080687
1949  8  4.3417371420  9.9278503543  63.8870607921
1950  8  4.1545637901  13.1610078725  63.8580948175
1951  4  2.5909162005  16.2470498242  0.5097863376
1952  4  5.0637716428  14.6935193267  6.7555003826
1953  4  2.5875338353  13.1838987560  4.9875735765
1954  4  2.5933981809  16.2409629502  11.2127953907
1955  4  5.0703823273  14.7136538364  9.4415207497
1956  4  2.5859899594  13.1529388949  2.3069034782
1957  4  5.0804425471  14.6935193267  13.4455559257
1958  4  2.6013693861  16.2470498243  7.1998418807
1959  4  2.5988874056  16.2409629501  4.5227398476
1960  4  2.6047517513  13.1838987561  11.6776291196
1961  4  2.6062956272  13.1529388950  8.9969590214
1962  4  5.0738318626  14.7136538364  2.7514652066
1963  8  3.3299246084  17.6095067681  12.5567628261
1964  8  1.0410543329  16.2473887279  12.5433470610
1965  8  3.3266438784  14.8604418459  12.5417097163
1966  8  5.8060754670  16.0586881780  8.1045198615
1967  8  5.8056599879  13.3260627175  8.0952726849
1968  8  3.5202361643  14.6952545174  8.0998329334
1969  8  3.3177928334  14.5474117237  3.6451723197
1970  8  3.5049138148  17.8107637509  3.6153590349
1971  8  0.8456196487  16.3902542852  3.6391897912
1972  8  4.3385542020  13.3260627175  1.4052171418
1973  8  6.6239780256  14.6952545174  1.4097773903
1974  8  4.3381387229  16.0586881780  1.4144643184
1975  8  1.8656417082  14.8604418458  5.8516541732
1976  8  1.8623609781  17.6095067681  5.8667072829
1977  8  4.1512312536  16.2473887279  5.8532915179
1978  8  4.3466659379  16.3902542853  10.3292453344
1979  8  1.8744927531  14.5474117237  10.3352278628
1980  8  1.6873717717  17.8107637510  10.3054145780
1981  4  2.5909162005  16.2470498243  13.8898974238
1982  4  5.0637716428  14.6935193267  20.1356114689
1983  4  2.5875338353  13.1838987560  18.3676846627
1984  4  2.5933981810  16.2409629501  24.5929064770
1985  4  5.0703823273  14.7136538364  22.8216318360
1986  4  2.5859899594  13.1529388950  15.6870145644
1987  4  5.0804425472  14.6935193267  26.8256670121
1988  4  2.6013693861  16.2470498242  20.5799529670
1989  4  2.5988874056  16.2409629501  17.9028509339
1990  4  2.6047517513  13.1838987560  25.0577402059
1991  4  2.6062956272  13.1529388949  22.3770701076
1992  4  5.0738318626  14.7136538365  16.1315762928
1993  8  3.3299246085  17.6095067681  25.9368739123
1994  8  1.0410543330  16.2473887279  25.9234581473
1995  8  3.3266438784  14.8604418458  25.9218208026
1996  8  5.8060754670  16.0586881780  21.4846309478
1997  8  5.8056599879  13.3260627175  21.4753837711
1998  8  3.5202361643  14.6952545173  21.4799440197
1999  8  3.3177928335  14.5474117237  17.0252834059
2000  8  3.5049138148  17.8107637510  16.9954701212
2001  8  0.8456196487  16.3902542853  17.0193008775
2002  8  4.3385542020  13.3260627175  14.7853282280
2003  8  6.6239780257  14.6952545174  14.7898884765
2004  8  4.3381387230  16.0586881781  14.7945754046
2005  8  1.8656417082  14.8604418458  19.2317652595
2006  8  1.8623609781  17.6095067681  19.2468183692
2007  8  4.1512312537  16.2473887279  19.2334026042
2008  8  4.3466659379  16.3902542852  23.7093564206
2009  8  1.8744927532  14.5474117237  23.7153389491
2010  8  1.6873717718  17.8107637509  23.6855256643
2011  4  2.5909162005  16.2470498243  27.2700085101
2012  4  5.0637716428  14.6935193267  33.5157225551
2013  4  2.5875338353  13.1838987561  31.7477957490
2014  4  2.5933981809  16.2409629501  37.9730175633
2015  4  5.0703823273  14.7136538364  36.2017429222
2016  4  2.5859899594  13.1529388950  29.0671256507
2017  4  5.0804425471  14.6935193267  40.2057780983
2018  4  2.6013693861  16.2470498242  33.9600640532
2019  4  2.5988874056  16.2409629502  31.2829620201
2020  4  2.6047517513  13.1838987560  38.4378512922
2021  4  2.6062956272  13.1529388949  35.7571811938
2022  4  5.0738318626  14.7136538364  29.5116873791
2023  8  3.3299246085  17.6095067681  39.3169849986
2024  8  1.0410543329  16.2473887279  39.3035692336
2025  8  3.3266438784  14.8604418458  39.3019318889
2026  8  5.8060754670  16.0586881780  34.8647420340
2027  8  5.8056599879  13.3260627175  34.8554948574
2028  8  3.5202361643  14.6952545174  34.8600551059
2029  8  3.3177928334  14.5474117237  30.4053944922
2030  8  3.5049138148  17.8107637510  30.3755812074
2031  8  0.8456196487  16.3902542853  30.3994119637
2032  8  4.3385542020  13.3260627175  28.1654393143
2033  8  6.6239780257  14.6952545174  28.1699995629
2034  8  4.3381387229  16.0586881781  28.1746864909
2035  8  1.8656417081  14.8604418458  32.6118763457
2036  8  1.8623609781  17.6095067681  32.6269294555
2037  8  4.1512312536  16.2473887279  32.6135136904
2038  8  4.3466659379  16.3902542852  37.0894675069
2039  8  1.8744927531  14.5474117237  37.0954500353
2040  8  1.6873717718  17.8107637509  37.0656367506
2041  4  2.5909162005  16.2470498243  40.6501195964
2042  4  5.0637716428  14.6935193267  46.8958336415
2043  4  2.5875338353  13.1838987561  45.1279068353
2044  4  2.5933981809  16.2409629501  51.3531286496
2045  4  5.0703823273  14.7136538364  49.5818540085
2046  4  2.5859899594  13.1529388950  42.4472367370
2047  4  5.0804425471  14.6935193267  53.5858891846
2048  4  2.6013693860  16.2470498242  47.3401751395
2049  4  2.5988874056  16.2409629502  44.6630731064
2050  4  2.6047517513  13.1838987561  51.8179623784
2051  4  2.6062956272  13.1529388950  49.1372922801
2052  4  5.0738318626  14.7136538364  42.8917984654
2053  8  3.3299246084  17.6095067681  52.6970960849
2054  8  1.0410543329  16.2473887279  52.6836803198
2055  8  3.3266438784  14.8604418458  52.6820429751
2056  8  5.8060754670  16.0586881780  48.2448531203
2057  8  5.8056599879  13.3260627175  48.2356059437
2058  8  3.5202361643  14.6952545174  48.2401661923
2059  8  3.3177928335  14.5474117237  43.7855055785
2060  8  3.5049138148  17.8107637510  43.7556922937
2061  8  0.8456196487  16.3902542852  43.7795230500
2062  8  4.3385542020  13.3260627175  41.5455504006
2063  8  6.6239780257  14.6952545174  41.5501106491
2064  8  4.3381387230  16.0586881780  41.5547975772
2065  8  1.8656417082  14.8604418458  45.9919874320
2066  8  1.8623609781  17.6095067680  46.0070405417
2067  8  4.1512312536  16.2473887279  45.9936247767
2068  8  4.3466659379  16.3902542852  50.4695785932
2069  8  1.8744927531  14.5474117237  50.4755611216
2070  8  1.6873717717  17.8107637509  50.4457478368
2071  4  2.5909162005  16.2470498242  54.0302306826
2072  4  5.0637716428  14.6935193267  60.2759447277
2073  4  2.5875338353  13.1838987561  58.5080179216
2074  4  2.5933981809  16.2409629501  64.7332397358
2075  4  5.0703823273  14.7136538364  62.9619650948
2076  4  2.5859899594  13.1529388950  55.8273478233
2077  4  5.0804425471  14.6935193267  66.9660002708
2078  4  2.6013693861  16.2470498242  60.7202862257
2079  4  2.5988874056  16.2409629501  58.0431841927
2080  4  2.6047517513  13.1838987560  65.1980734647
2081  4  2.6062956272  13.1529388950  62.5174033664
2082  4  5.0738318626  14.7136538364  56.2719095516
2083  8  3.3299246085  17.6095067681  66.0772071712
2084  8  1.0410543329  16.2473887279  66.0637914061
2085  8  3.3266438784  14.8604418458  66.0621540614
2086  8  5.8060754670  16.0586881780  61.6249642066
2087  8  5.8056599879  13.3260627175  61.6157170300
2088  8  3.5202361643  14.6952545174  61.6202772785
2089  8  3.3177928335  14.5474117237  57.1656166647
2090  8  3.5049138148  17.8107637509  57.1358033800
2091  8  0.8456196487  16.3902542852  57.1596341363
2092  8  4.3385542020  13.3260627175  54.9256614868
2093  8  6.6239780257  14.6952545174  54.9302217353
2094  8  4.3381387229  16.0586881780  54.9349086634
2095  8  1.8656417082  14.8604418458  59.3720985182
2096  8  1.8623609782  17.6095067681  59.3871516280
2097  8  4.1512312537  16.2473887279  59.3737358629
2098  8  4.3466659379  16.3902542853  63.8496896795
2099  8  1.8744927531  14.5474117237  63.8556722079
2100  8  1.6873717718  17.8107637510  63.8258589231
2101  4  0.0843770744  20.7461925948  0.4808686617
2102  4  2.5972949916  19.2954846104  6.7314685601
2103  4  0.1144283978  17.8169777808  4.9549465970
2104  4  0.1864874566  20.9319836525  11.1996497699
2105  4  2.6009538109  19.3816811402  9.4411719819
2106  4  0.1135477199  17.7519760261  2.3002786197
2107  4  2.5949905950  19.2954846104  13.4215241033
2108  4  0.1559799088  20.7461925948  7.1709242048
2109  4  0.0538695266  20.9319836525  4.5095942268
2110  4  0.1259285855  17.8169777809  11.6450021401
2111  4  0.1268092634  17.7519760261  8.9903341628
2112  4  2.5913317757  19.3816811401  2.7511164389
2113  8  0.6171599027  22.2576581954  12.7471155108
2114  8  -1.3912669896  20.6118390825  12.5518730920
2115  8  0.8691480163  19.4608672041  12.5338057680
2116  8  3.3770638715  20.4640297325  8.0648651373
2117  8  3.3314802323  17.9059191528  8.0771708526
2118  8  1.1126703627  19.2339677301  8.0933499027
2119  8  0.8466724950  19.1619444124  3.5977562713
2120  8  0.3645811276  22.6753150226  3.5348534501
2121  8  -1.6294618308  20.7135361036  3.6253531412
2122  8  1.8608053544  17.9059191528  1.3871153095
2123  8  4.0796152239  19.2339677301  1.4032943596
2124  8  1.8152217151  20.4640297325  1.3748095942
2125  8  -0.6287910331  19.4608672040  5.8437502248
2126  8  -0.3768029195  22.2576581953  6.0570599676
2127  8  1.6316239728  20.6118390825  5.8618175489
2128  8  1.8698188141  20.7135361036  10.3154086844
2129  8  -0.6063155117  19.1619444125  10.2878118144
2130  8  -0.1242241445  22.6753150226  10.2249089933
2131  4  0.0843770744  20.7461925949  13.8609797479
2132  4  2.5972949916  19.2954846103  20.1115796464
2133  4  0.1144283977  17.8169777809  18.3350576833
2134  4  0.1864874567  20.9319836525  24.5797608562
2135  4  2.6009538109  19.3816811401  22.8212830682
2136  4  0.1135477198  17.7519760262  15.6803897059
2137  4  2.5949905951  19.2954846104  26.8016351895
2138  4  0.1559799089  20.7461925948  20.5510352911
2139  4  0.0538695266  20.9319836525  17.8897053131
2140  4  0.1259285855  17.8169777809  25.0251132264
2141  4  0.1268092634  17.7519760261  22.3704452490
2142  4  2.5913317757  19.3816811402  16.1312275251
2143  8  0.6171599028  22.2576581953  26.1272265970
2144  8  -1.3912669896  20.6118390825  25.9319841783
2145  8  0.8691480164  19.4608672041  25.9139168542
2146  8  3.3770638715  20.4640297325  21.4449762236
2147  8  3.3314802323  17.9059191528  21.4572819389
2148  8  1.1126703627  19.2339677300  21.4734609889
2149  8  0.8466724949  19.1619444125  16.9778673576
2150  8  0.3645811275  22.6753150226  16.9149645364
2151  8  -1.6294618309  20.7135361036  17.0054642275
2152  8  1.8608053543  17.9059191528  14.7672263958
2153  8  4.0796152238  19.2339677301  14.7834054459
2154  8  1.8152217151  20.4640297325  14.7549206805
2155  8  -0.6287910331  19.4608672041  19.2238613111
2156  8  -0.3768029194  22.2576581953  19.4371710540
2157  8  1.6316239728  20.6118390824  19.2419286352
2158  8  1.8698188142  20.7135361036  23.6955197706
2159  8  -0.6063155117  19.1619444125  23.6679229006
2160  8  -0.1242241443  22.6753150226  23.6050200795
2161  4  0.0843770744  20.7461925949  27.2410908342
2162  4  2.5972949915  19.2954846104  33.4916907327
2163  4  0.1144283977  17.8169777809  31.7151687695
2164  4  0.1864874567  20.9319836525  37.9598719425
2165  4  2.6009538109  19.3816811401  36.2013941545
2166  4  0.1135477198  17.7519760262  29.0605007921
2167  4  2.5949905951  19.2954846104  40.1817462758
2168  4  0.1559799088  20.7461925949  33.9311463773
2169  4  0.0538695266  20.9319836525  31.2698163993
2170  4  0.1259285855  17.8169777809  38.4052243127
2171  4  0.1268092634  17.7519760261  35.7505563353
2172  4  2.5913317757  19.3816811402  29.5113386113
2173  8  0.6171599026  22.2576581954  39.5073376833
2174  8  -1.3912669896  20.6118390824  39.3120952645
2175  8  0.8691480164  19.4608672041  39.2940279405
2176  8  3.3770638715  20.4640297324  34.8250873099
2177  8  3.3314802322  17.9059191528  34.8373930252
2178  8  1.1126703627  19.2339677301  34.8535720753
2179  8  0.8466724949  19.1619444125  30.3579784437
2180  8  0.3645811275  22.6753150225  30.2950756226
2181  8  -1.6294618309  20.7135361037  30.3855753137
2182  8  1.8608053543  17.9059191529  28.1473374820
2183  8  4.0796152239  19.2339677301  28.1635165321
2184  8  1.8152217152  20.4640297325  28.1350317667
2185  8  -0.6287910332  19.4608672041  32.6039723973
2186  8  -0.3768029194  22.2576581953  32.8172821401
2187  8  1.6316239728  20.6118390824  32.6220397214
2188  8  1.8698188143  20.7135361035  37.0756308571
2189  8  -0.6063155117  19.1619444125  37.0480339869
2190  8  -0.1242241441  22.6753150226  36.9851311657
2191  4  0.0843770744  20.7461925949  40.6212019205
2192  4  2.5972949915  19.2954846103  46.8718018189
2193  4  0.1144283977  17.8169777808  45.0952798558
2194  4  0.1864874567  20.9319836525  51.3399830287
2195  4  2.6009538109  19.3816811401  49.5815052407
2196  4  0.1135477199  17.7519760261  42.4406118784
2197  4  2.5949905950  19.2954846104  53.5618573621
2198  4  0.1559799088  20.7461925948  47.3112574635
2199  4  0.0538695266  20.9319836525  44.6499274855
2200  4  0.1259285855  17.8169777809  51.7853353989
2201  4  0.1268092634  17.7519760261  49.1306674215
2202  4  2.5913317757  19.3816811402  42.8914496976
2203  8  0.6171599026  22.2576581953  52.8874487696
2204  8  -1.3912669896  20.6118390824  52.6922063508
2205  8  0.8691480164  19.4608672040  52.6741390268
2206  8  3.3770638715  20.4640297324  48.2051983961
2207  8  3.3314802323  17.9059191528  48.2175041114
2208  8  1.1126703627  19.2339677300  48.2336831615
2209  8  0.8466724949  19.1619444124  43.7380895300
2210  8  0.3645811275  22.6753150226  43.6751867089
2211  8  -1.6294618309  20.7135361036  43.7656864000
2212  8  1.8608053543  17.9059191528  41.5274485683
2213  8  4.0796152239  19.2339677302  41.5436276184
2214  8  1.8152217151  20.4640297325  41.5151428530
2215  8  -0.6287910332  19.4608672040  45.9840834836
2216  8  -0.3768029195  22.2576581952  46.1973932264
2217  8  1.6316239728  20.6118390824  46.0021508077
2218  8  1.8698188142  20.7135361035  50.4557419433
2219  8  -0.6063155117  19.1619444125  50.4281450732
2220  8  -0.1242241441  22.6753150226  50.3652422521
2221  4  0.0843770744  20.7461925948  54.0013130067
2222  4  2.5972949916  19.2954846103  60.2519129052
2223  4  0.1144283978  17.8169777808  58.4753909420
2224  4  0.1864874566  20.9319836525  64.7200941150
2225  4  2.6009538109  19.3816811401  62.9616163270
2226  4  0.1135477198  17.7519760261  55.8207229647
2227  4  2.5949905951  19.2954846104  66.9419684484
2228  4  0.1559799089  20.7461925947  60.6913685499
2229  4  0.0538695267  20.9319836525  58.0300385719
2230  4  0.1259285855  17.8169777809  65.1654464852
2231  4  0.1268092634  17.7519760261  62.5107785079
2232  4  2.5913317757  19.3816811401  56.2715607839
2233  8  0.6171599026  22.2576581954  66.2675598559
2234  8  -1.3912669896  20.6118390824  66.0723174371
2235  8  0.8691480164  19.4608672041  66.0542501130
2236  8  3.3770638716  20.4640297324  61.5853094824
2237  8  3.3314802323  17.9059191528  61.5976151977
2238  8  1.1126703628  19.2339677300  61.6137942477
2239  8  0.8466724949  19.1619444125  57.1182006163
2240  8  0.3645811276  22.6753150226  57.0552977952
2241  8  -1.6294618309  20.7135361036  57.1457974863
2242  8  1.8608053543  17.9059191528  54.9075596546
2243  8  4.0796152238  19.2339677301  54.9237387047
2244  8  1.8152217151  20.4640297325  54.8952539393
2245  8  -0.6287910331  19.4608672041  59.3641945699
2246  8  -0.3768029192  22.2576581953  59.5775043128
2247  8  1.6316239729  20.6118390823  59.3822618939
2248  8  1.8698188140  20.7135361037  63.8358530293
2249  8  -0.6063155117  19.1619444125  63.8082561595
2250  8  -0.1242241445  22.6753150226  63.7453533384
2251  4  14.9646976656  2.4350065769  0.6014268316
2252  4  17.4618158975  0.8872220144  6.8747815580
2253  4  14.9610259474  -0.8353760185  5.1182497137
2254  4  14.9695025077  2.3406798133  11.3089479922
2255  4  17.4767148701  0.9684627304  9.5342614292
2256  4  15.1070976485  -0.6874472145  2.2657342667
2257  4  17.4420413092  0.8872220143  13.5648371011
2258  4  14.9872309378  2.4350065770  7.2914823747
2259  4  14.9824260957  2.3406798132  4.6188924490
2260  4  14.9909026559  -0.8353760184  11.8083052569
2261  4  14.8448309549  -0.6874472144  8.9557898099
2262  4  17.4271423367  0.9684627303  2.8442058860
2263  8  15.7002855474  3.7694713269  12.6249226470
2264  8  13.4314797841  2.3871074400  12.6428903703
2265  8  15.7268372358  0.9631714368  12.6360374456
2266  8  18.1728335013  2.2652686334  8.1823489885
2267  8  18.0700164322  -0.4117215683  8.2280871290
2268  8  15.8991063956  0.8885588849  8.2172590958
2269  8  15.7005080274  0.6236685349  3.7630219316
2270  8  15.8924827133  3.9180343485  3.7147953166
2271  8  13.2430375379  2.5864867462  3.7198533139
2272  8  16.8338407744  -0.4117215683  1.5380315859
2273  8  19.0047508112  0.8885588847  1.5272035525
2274  8  16.7310237055  2.2652686333  1.4922934453
2275  8  14.2250913676  0.9631714368  5.9459819024
2276  8  14.2516430560  3.7694713269  5.9348671038
2277  8  16.5204488193  2.3871074401  5.9528348272
2278  8  16.7088910655  2.5864867462  10.4099088571
2279  8  14.2514205761  0.6236685350  10.4530774748
2280  8  14.0594458901  3.9180343486  10.4048508598
2281  4  14.9646976655  2.4350065769  13.9815379179
2282  4  17.4618158975  0.8872220143  20.2548926442
2283  4  14.9610259475  -0.8353760185  18.4983608000
2284  4  14.9695025077  2.3406798132  24.6890590785
2285  4  17.4767148702  0.9684627304  22.9143725154
2286  4  15.1070976486  -0.6874472145  15.6458453529
2287  4  17.4420413092  0.8872220143  26.9449481873
2288  4  14.9872309378  2.4350065769  20.6715934610
2289  4  14.9824260956  2.3406798132  17.9990035353
2290  4  14.9909026560  -0.8353760185  25.1884163431
2291  4  14.8448309548  -0.6874472145  22.3359008961
2292  4  17.4271423366  0.9684627303  16.2243169723
2293  8  15.7002855474  3.7694713269  26.0050337332
2294  8  13.4314797841  2.3871074400  26.0230014566
2295  8  15.7268372358  0.9631714368  26.0161485318
2296  8  18.1728335012  2.2652686333  21.5624600747
2297  8  18.0700164324  -0.4117215683  21.6081982153
2298  8  15.8991063956  0.8885588848  21.5973701820
2299  8  15.7005080273  0.6236685349  17.1431330178
2300  8  15.8924827132  3.9180343485  17.0949064029
2301  8  13.2430375378  2.5864867461  17.0999644002
2302  8  16.8338407744  -0.4117215684  14.9181426722
2303  8  19.0047508112  0.8885588848  14.9073146388
2304  8  16.7310237055  2.2652686333  14.8724045316
2305  8  14.2250913676  0.9631714367  19.3260929887
2306  8  14.2516430560  3.7694713269  19.3149781901
2307  8  16.5204488192  2.3871074400  19.3329459134
2308  8  16.7088910655  2.5864867461  23.7900199433
2309  8  14.2514205760  0.6236685349  23.8331885610
2310  8  14.0594458901  3.9180343485  23.7849619460
2311  4  14.9646976656  2.4350065769  27.3616490041
2312  4  17.4618158975  0.8872220144  33.6350037305
2313  4  14.9610259474  -0.8353760184  31.8784718862
2314  4  14.9695025077  2.3406798132  38.0691701647
2315  4  17.4767148701  0.9684627304  36.2944836017
2316  4  15.1070976486  -0.6874472145  29.0259564391
2317  4  17.4420413092  0.8872220144  40.3250592736
2318  4  14.9872309378  2.4350065770  34.0517045472
2319  4  14.9824260956  2.3406798133  31.3791146215
2320  4  14.9909026559  -0.8353760185  38.5685274294
2321  4  14.8448309548  -0.6874472144  35.7160119823
2322  4  17.4271423366  0.9684627304  29.6044280585
2323  8  15.7002855473  3.7694713269  39.3851448195
2324  8  13.4314797841  2.3871074400  39.4031125428
2325  8  15.7268372358  0.9631714368  39.3962596181
2326  8  18.1728335013  2.2652686334  34.9425711610
2327  8  18.0700164323  -0.4117215683  34.9883093016
2328  8  15.8991063956  0.8885588849  34.9774812683
2329  8  15.7005080273  0.6236685350  30.5232441040
2330  8  15.8924827133  3.9180343485  30.4750174891
2331  8  13.2430375379  2.5864867462  30.4800754865
2332  8  16.8338407745  -0.4117215684  28.2982537584
2333  8  19.0047508112  0.8885588848  28.2874257251
2334  8  16.7310237055  2.2652686333  28.2525156178
2335  8  14.2250913676  0.9631714368  32.7062040749
2336  8  14.2516430560  3.7694713270  32.6950892763
2337  8  16.5204488193  2.3871074400  32.7130569997
2338  8  16.7088910654  2.5864867462  37.1701310296
2339  8  14.2514205760  0.6236685349  37.2132996473
2340  8  14.0594458901  3.9180343485  37.1650730323
2341  4  14.9646976655  2.4350065769  40.7417600904
2342  4  17.4618158975  0.8872220144  47.0151148167
2343  4  14.9610259474  -0.8353760185  45.2585829725
2344  4  14.9695025077  2.3406798133  51.4492812510
2345  4  17.4767148701  0.9684627304  49.6745946879
2346  4  15.1070976485  -0.6874472145  42.4060675255
2347  4  17.4420413091  0.8872220144  53.7051703599
2348  4  14.9872309378  2.4350065770  47.4318156335
2349  4  14.9824260956  2.3406798132  44.7592257078
2350  4  14.9909026559  -0.8353760185  51.9486385156
2351  4  14.8448309549  -0.6874472144  49.0961230685
2352  4  17.4271423366  0.9684627304  42.9845391448
2353  8  15.7002855474  3.7694713269  52.7652559057
2354  8  13.4314797841  2.3871074400  52.7832236291
2355  8  15.7268372357  0.9631714368  52.7763707044
2356  8  18.1728335013  2.2652686333  48.3226822472
2357  8  18.0700164323  -0.4117215683  48.3684203878
2358  8  15.8991063956  0.8885588849  48.3575923545
2359  8  15.7005080273  0.6236685349  43.9033551904
2360  8  15.8924827133  3.9180343485  43.8551285754
2361  8  13.2430375379  2.5864867461  43.8601865727
2362  8  16.8338407744  -0.4117215683  41.6783648447
2363  8  19.0047508111  0.8885588848  41.6675368113
2364  8  16.7310237054  2.2652686333  41.6326267041
2365  8  14.2250913676  0.9631714368  46.0863151612
2366  8  14.2516430560  3.7694713269  46.0752003626
2367  8  16.5204488193  2.3871074400  46.0931680859
2368  8  16.7088910655  2.5864867462  50.5502421158
2369  8  14.2514205761  0.6236685350  50.5934107335
2370  8  14.0594458901  3.9180343486  50.5451841185
2371  4  14.9646976655  2.4350065770  54.1218711767
2372  4  17.4618158975  0.8872220144  60.3952259030
2373  4  14.9610259475  -0.8353760185  58.6386940589
2374  4  14.9695025078  2.3406798132  64.8293923372
2375  4  17.4767148701  0.9684627304  63.0547057742
2376  4  15.1070976485  -0.6874472144  55.7861786119
2377  4  17.4420413092  0.8872220143  67.0852814461
2378  4  14.9872309378  2.4350065770  60.8119267198
2379  4  14.9824260956  2.3406798133  58.1393367941
2380  4  14.9909026560  -0.8353760185  65.3287496019
2381  4  14.8448309548  -0.6874472145  62.4762341549
2382  4  17.4271423366  0.9684627304  56.3646502311
2383  8  15.7002855474  3.7694713269  66.1453669920
2384  8  13.4314797841  2.3871074400  66.1633347154
2385  8  15.7268372358  0.9631714368  66.1564817906
2386  8  18.1728335013  2.2652686334  61.7027933335
2387  8  18.0700164324  -0.4117215683  61.7485314741
2388  8  15.8991063956  0.8885588848  61.7377034408
2389  8  15.7005080273  0.6236685350  57.2834662767
2390  8  15.8924827132  3.9180343485  57.2352396616
2391  8  13.2430375379  2.5864867462  57.2402976590
2392  8  16.8338407743  -0.4117215682  55.0584759310
2393  8  19.0047508111  0.8885588848  55.0476478977
2394  8  16.7310237054  2.2652686334  55.0127377904
2395  8  14.2250913676  0.9631714368  59.4664262475
2396  8  14.2516430560  3.7694713269  59.4553114489
2397  8  16.5204488192  2.3871074400  59.4732791722
2398  8  16.7088910655  2.5864867462  63.9303532021
2399  8  14.2514205760  0.6236685349  63.9735218198
2400  8  14.0594458901  3.9180343485  63.9252952048
2401  4  12.4941185712  7.0378652605  0.5682141081
2402  4  14.9674187465  5.4717572421  6.8148261117
2403  4  12.4907307078  3.9540427200  5.0495449070
2404  4  12.4950114452  7.0090652296  11.2686559530
2405  4  14.9718386240  5.4927925329  9.5037870409
2406  4  12.4896089222  3.9551264944  2.3709908475
2407  4  14.9845098568  5.4717572420  13.5048816549
2408  4  12.5058814288  7.0378652606  7.2582696512
2409  4  12.5049885548  7.0090652296  4.5786004098
2410  4  12.5092692922  3.9540427201  11.7396004501
2411  4  12.5103910778  3.9551264945  9.0610463906
2412  4  14.9800899794  5.4927925328  2.8137314978
2413  8  13.2328247386  8.3922743092  12.6076500330
2414  8  10.9474825521  7.0213719023  12.6081627858
2415  8  13.2308442641  5.6457073755  12.6073037292
2416  8  15.7035010361  6.8470665760  8.1594043009
2417  8  15.7088432160  4.1185315757  8.1490448896
2418  8  13.4240636153  5.4896898308  8.1629823811
2419  8  13.2252443163  5.3175859653  3.7126716894
2420  8  13.4189906714  8.5552046629  3.6762893737
2421  8  10.7501591435  7.1800658689  3.6796233066
2422  8  14.2430853874  4.1185315756  1.4589893464
2423  8  16.5278649881  5.4896898308  1.4729268380
2424  8  14.2484275673  6.8470665760  1.4693487578
2425  8  11.7691557359  5.6457073755  5.9172481860
2426  8  11.7671752615  8.3922743092  5.9175944898
2427  8  14.0525174479  7.0213719023  5.9181072426
2428  8  14.2498408565  7.1800658689  10.3696788498
2429  8  11.7747556837  5.3175859653  10.4027272326
2430  8  11.5810093286  8.5552046629  10.3663449169
2431  4  12.4941185712  7.0378652606  13.9483251944
2432  4  14.9674187465  5.4717572420  20.1949371980
2433  4  12.4907307078  3.9540427200  18.4296559933
2434  4  12.4950114451  7.0090652296  24.6487670393
2435  4  14.9718386240  5.4927925328  22.8838981272
2436  4  12.4896089222  3.9551264944  15.7511019338
2437  4  14.9845098568  5.4717572420  26.8849927411
2438  4  12.5058814288  7.0378652606  20.6383807375
2439  4  12.5049885548  7.0090652296  17.9587114962
2440  4  12.5092692922  3.9540427200  25.1197115364
2441  4  12.5103910778  3.9551264944  22.4411574769
2442  4  14.9800899793  5.4927925328  16.1938425841
2443  8  13.2328247385  8.3922743092  25.9877611192
2444  8  10.9474825521  7.0213719023  25.9882738720
2445  8  13.2308442641  5.6457073755  25.9874148154
2446  8  15.7035010361  6.8470665760  21.5395153872
2447  8  15.7088432159  4.1185315756  21.5291559758
2448  8  13.4240636153  5.4896898307  21.5430934674
2449  8  13.2252443162  5.3175859653  17.0927827758
2450  8  13.4189906714  8.5552046629  17.0564004600
2451  8  10.7501591434  7.1800658689  17.0597343930
2452  8  14.2430853874  4.1185315756  14.8391004327
2453  8  16.5278649880  5.4896898308  14.8530379243
2454  8  14.2484275672  6.8470665760  14.8494598441
2455  8  11.7691557358  5.6457073755  19.2973592723
2456  8  11.7671752614  8.3922743092  19.2977055762
2457  8  14.0525174479  7.0213719023  19.2982183289
2458  8  14.2498408565  7.1800658689  23.7497899361
2459  8  11.7747556837  5.3175859653  23.7828383189
2460  8  11.5810093286  8.5552046629  23.7464560031
2461  4  12.4941185712  7.0378652606  27.3284362806
2462  4  14.9674187465  5.4717572421  33.5750482842
2463  4  12.4907307078  3.9540427201  31.8097670795
2464  4  12.4950114452  7.0090652296  38.0288781256
2465  4  14.9718386240  5.4927925329  36.2640092135
2466  4  12.4896089222  3.9551264944  29.1312130200
2467  4  14.9845098568  5.4717572420  40.2651038273
2468  4  12.5058814288  7.0378652606  34.0184918238
2469  4  12.5049885548  7.0090652296  31.3388225824
2470  4  12.5092692922  3.9540427200  38.4998226227
2471  4  12.5103910778  3.9551264945  35.8212685631
2472  4  14.9800899793  5.4927925329  29.5739536703
2473  8  13.2328247386  8.3922743092  39.3678722056
2474  8  10.9474825521  7.0213719023  39.3683849583
2475  8  13.2308442641  5.6457073755  39.3675259017
2476  8  15.7035010361  6.8470665760  34.9196264735
2477  8  15.7088432160  4.1185315757  34.9092670621
2478  8  13.4240636153  5.4896898308  34.9232045536
2479  8  13.2252443163  5.3175859654  30.4728938620
2480  8  13.4189906714  8.5552046629  30.4365115463
2481  8  10.7501591435  7.1800658689  30.4398454792
2482  8  14.2430853874  4.1185315756  28.2192115190
2483  8  16.5278649881  5.4896898308  28.2331490105
2484  8  14.2484275672  6.8470665760  28.2295709303
2485  8  11.7691557359  5.6457073756  32.6774703585
2486  8  11.7671752615  8.3922743092  32.6778166624
2487  8  14.0525174479  7.0213719023  32.6783294152
2488  8  14.2498408565  7.1800658689  37.1299010224
2489  8  11.7747556837  5.3175859654  37.1629494051
2490  8  11.5810093286  8.5552046629  37.1265670894
2491  4  12.4941185712  7.0378652606  40.7085473670
2492  4  14.9674187466  5.4717572421  46.9551593704
2493  4  12.4907307078  3.9540427200  45.1898781658
2494  4  12.4950114452  7.0090652296  51.4089892118
2495  4  14.9718386240  5.4927925329  49.6441202997
2496  4  12.4896089222  3.9551264944  42.5113241062
2497  4  14.9845098568  5.4717572420  53.6452149136
2498  4  12.5058814288  7.0378652606  47.3986029101
2499  4  12.5049885548  7.0090652296  44.7189336687
2500  4  12.5092692922  3.9540427201  51.8799337089
2501  4  12.5103910778  3.9551264945  49.2013796494
2502  4  14.9800899793  5.4927925329  42.9540647566
2503  8  13.2328247385  8.3922743092  52.7479832918
2504  8  10.9474825521  7.0213719023  52.7484960445
2505  8  13.2308442641  5.6457073756  52.7476369879
2506  8  15.7035010361  6.8470665760  48.2997375597
2507  8  15.7088432160  4.1185315757  48.2893781483
2508  8  13.4240636153  5.4896898308  48.3033156399
2509  8  13.2252443163  5.3175859653  43.8530049482
2510  8  13.4189906714  8.5552046630  43.8166226326
2511  8  10.7501591435  7.1800658689  43.8199565655
2512  8  14.2430853874  4.1185315757  41.5993226052
2513  8  16.5278649881  5.4896898308  41.6132600968
2514  8  14.2484275673  6.8470665760  41.6096820166
2515  8  11.7691557359  5.6457073755  46.0575814448
2516  8  11.7671752614  8.3922743092  46.0579277487
2517  8  14.0525174479  7.0213719023  46.0584405014
2518  8  14.2498408565  7.1800658689  50.5100121086
2519  8  11.7747556837  5.3175859653  50.5430604914
2520  8  11.5810093286  8.5552046630  50.5066781757
2521  4  12.4941185712  7.0378652606  54.0886584531
2522  4  14.9674187465  5.4717572420  60.3352704567
2523  4  12.4907307078  3.9540427201  58.5699892520
2524  4  12.4950114452  7.0090652296  64.7891002981
2525  4  14.9718386240  5.4927925328  63.0242313860
2526  4  12.4896089222  3.9551264945  55.8914351925
2527  4  14.9845098569  5.4717572420  67.0253259999
2528  4  12.5058814288  7.0378652605  60.7787139963
2529  4  12.5049885548  7.0090652296  58.0990447549
2530  4  12.5092692922  3.9540427200  65.2600447952
2531  4  12.5103910778  3.9551264944  62.5814907357
2532  4  14.9800899793  5.4927925329  56.3341758428
2533  8  13.2328247386  8.3922743092  66.1280943780
2534  8  10.9474825521  7.0213719023  66.1286071308
2535  8  13.2308442642  5.6457073755  66.1277480742
2536  8  15.7035010361  6.8470665760  61.6798486460
2537  8  15.7088432160  4.1185315757  61.6694892346
2538  8  13.4240636153  5.4896898308  61.6834267262
2539  8  13.2252443162  5.3175859654  57.2331160345
2540  8  13.4189906714  8.5552046629  57.1967337188
2541  8  10.7501591435  7.1800658689  57.2000676517
2542  8  14.2430853873  4.1185315757  54.9794336914
2543  8  16.5278649881  5.4896898308  54.9933711830
2544  8  14.2484275672  6.8470665760  54.9897931028
2545  8  11.7691557359  5.6457073755  59.4376925310
2546  8  11.7671752614  8.3922743092  59.4380388349
2547  8  14.0525174479  7.0213719023  59.4385515876
2548  8  14.2498408566  7.1800658688  63.8901231949
2549  8  11.7747556837  5.3175859653  63.9231715777
2550  8  11.5810093286  8.5552046629  63.8867892619
2551  4  10.0161385781  11.6452463871  0.5382801728
2552  4  12.4921869317  10.0826131455  6.7865601465
2553  4  10.0143699566  8.5716415750  5.0184332780
2554  4  10.0175125039  11.6171118627  11.2370544565
2555  4  12.4927203725  10.1079900913  9.4684962429
2556  4  10.0162749927  8.5430086263  2.3367182458
2557  4  12.5078130684  10.0826131455  13.4766156897
2558  4  10.0319328185  11.6452463871  7.2283357160
2559  4  10.0305588927  11.6171118627  4.5469989133
2560  4  10.0337014401  8.5716415749  11.7084888212
2561  4  10.0317964040  8.5430086263  9.0267737890
2562  4  12.5072796275  10.1079900914  2.7784406997
2563  8  10.7544897283  13.0043289209  12.5759351951
2564  8  8.4677576732  11.6291129402  12.5772118449
2565  8  10.7555136379  10.2547820365  12.5788966809
2566  8  13.2307504593  11.4661079245  8.1268243770
2567  8  13.2302437053  8.7185433024  8.1279612750
2568  8  10.9433583846  10.0917976544  8.1271639412
2569  8  10.7544056513  9.9278503543  3.6765609039
2570  8  10.9415790031  13.1610078725  3.6475949293
2571  8  8.2788661491  11.7900885253  3.6483081805
2572  8  11.7697562947  8.7185433024  1.4379057318
2573  8  14.0566416154  10.0917976544  1.4371083981
2574  8  11.7692495407  11.4661079246  1.4367688339
2575  8  9.2925577587  10.2547820365  5.8888411377
2576  8  9.2935816684  13.0043289209  5.8858796520
2577  8  11.5803137235  11.6291129403  5.8871563018
2578  8  11.7692052476  11.7900885253  10.3383637237
2579  8  9.2936657454  9.9278503543  10.3666164470
2580  8  9.1064923935  13.1610078725  10.3376504725
2581  4  10.0161385782  11.6452463871  13.9183912591
2582  4  12.4921869316  10.0826131455  20.1666712328
2583  4  10.0143699566  8.5716415749  18.3985443644
2584  4  10.0175125039  11.6171118627  24.6171655428
2585  4  12.4927203725  10.1079900914  22.8486073291
2586  4  10.0162749927  8.5430086263  15.7168293321
2587  4  12.5078130684  10.0826131455  26.8567267760
2588  4  10.0319328185  11.6452463871  20.6084468022
2589  4  10.0305588927  11.6171118627  17.9271099996
2590  4  10.0337014400  8.5716415750  25.0885999075
2591  4  10.0317964039  8.5430086263  22.4068848752
2592  4  12.5072796275  10.1079900914  16.1585517860
2593  8  10.7544897283  13.0043289209  25.9560462814
2594  8  8.4677576732  11.6291129403  25.9573229312
2595  8  10.7555136379  10.2547820365  25.9590077672
2596  8  13.2307504593  11.4661079245  21.5069354633
2597  8  13.2302437053  8.7185433024  21.5080723613
2598  8  10.9433583846  10.0917976544  21.5072750275
2599  8  10.7544056513  9.9278503543  17.0566719902
2600  8  10.9415790032  13.1610078725  17.0277060156
2601  8  8.2788661491  11.7900885253  17.0284192668
2602  8  11.7697562947  8.7185433024  14.8180168181
2603  8  14.0566416154  10.0917976544  14.8172194844
2604  8  11.7692495407  11.4661079246  14.8168799202
2605  8  9.2925577587  10.2547820365  19.2689522240
2606  8  9.2935816684  13.0043289209  19.2659907382
2607  8  11.5803137235  11.6291129402  19.2672673880
2608  8  11.7692052475  11.7900885253  23.7184748100
2609  8  9.2936657453  9.9278503543  23.7467275333
2610  8  9.1064923935  13.1610078725  23.7177615587
2611  4  10.0161385781  11.6452463871  27.2985023454
2612  4  12.4921869316  10.0826131455  33.5467823191
2613  4  10.0143699566  8.5716415750  31.7786554506
2614  4  10.0175125039  11.6171118627  37.9972766291
2615  4  12.4927203725  10.1079900913  36.2287184155
2616  4  10.0162749927  8.5430086263  29.0969404184
2617  4  12.5078130684  10.0826131455  40.2368378623
2618  4  10.0319328185  11.6452463871  33.9885578885
2619  4  10.0305588927  11.6171118627  31.3072210859
2620  4  10.0337014400  8.5716415749  38.4687109938
2621  4  10.0317964039  8.5430086263  35.7869959615
2622  4  12.5072796275  10.1079900914  29.5386628723
2623  8  10.7544897283  13.0043289209  39.3361573677
2624  8  8.4677576732  11.6291129402  39.3374340175
2625  8  10.7555136379  10.2547820365  39.3391188535
2626  8  13.2307504593  11.4661079245  34.8870465496
2627  8  13.2302437053  8.7185433024  34.8881834476
2628  8  10.9433583846  10.0917976544  34.8873861138
2629  8  10.7544056513  9.9278503543  30.4367830765
2630  8  10.9415790031  13.1610078725  30.4078171019
2631  8  8.2788661491  11.7900885253  30.4085303531
2632  8  11.7697562947  8.7185433024  28.1981279044
2633  8  14.0566416154  10.0917976544  28.1973305707
2634  8  11.7692495407  11.4661079246  28.1969910065
2635  8  9.2925577587  10.2547820365  32.6490633103
2636  8  9.2935816684  13.0043289209  32.6461018245
2637  8  11.5803137235  11.6291129402  32.6473784744
2638  8  11.7692052475  11.7900885253  37.0985858963
2639  8  9.2936657453  9.9278503543  37.1268386196
2640  8  9.1064923935  13.1610078725  37.0978726450
2641  4  10.0161385782  11.6452463871  40.6786134317
2642  4  12.4921869317  10.0826131455  46.9268934054
2643  4  10.0143699566  8.5716415749  45.1587665369
2644  4  10.0175125039  11.6171118627  51.3773877153
2645  4  12.4927203725  10.1079900914  49.6088295017
2646  4  10.0162749927  8.5430086263  42.4770515047
2647  4  12.5078130683  10.0826131455  53.6169489485
2648  4  10.0319328185  11.6452463871  47.3686689748
2649  4  10.0305588927  11.6171118627  44.6873321722
2650  4  10.0337014400  8.5716415750  51.8488220800
2651  4  10.0317964040  8.5430086263  49.1671070478
2652  4  12.5072796275  10.1079900914  42.9187739586
2653  8  10.7544897283  13.0043289209  52.7162684539
2654  8  8.4677576732  11.6291129403  52.7175451038
2655  8  10.7555136379  10.2547820365  52.7192299397
2656  8  13.2307504593  11.4661079246  48.2671576359
2657  8  13.2302437053  8.7185433024  48.2682945338
2658  8  10.9433583846  10.0917976544  48.2674972001
2659  8  10.7544056513  9.9278503543  43.8168941628
2660  8  10.9415790031  13.1610078725  43.7879281882
2661  8  8.2788661491  11.7900885253  43.7886414394
2662  8  11.7697562947  8.7185433024  41.5782389907
2663  8  14.0566416154  10.0917976544  41.5774416570
2664  8  11.7692495407  11.4661079245  41.5771020928
2665  8  9.2925577587  10.2547820365  46.0291743966
2666  8  9.2935816684  13.0043289209  46.0262129108
2667  8  11.5803137235  11.6291129403  46.0274895606
2668  8  11.7692052475  11.7900885253  50.4786969825
2669  8  9.2936657453  9.9278503543  50.5069497059
2670  8  9.1064923935  13.1610078725  50.4779837313
2671  4  10.0161385781  11.6452463871  54.0587245179
2672  4  12.4921869316  10.0826131455  60.3070044917
2673  4  10.0143699566  8.5716415749  58.5388776231
2674  4  10.0175125038  11.6171118627  64.7574988015
2675  4  12.4927203725  10.1079900913  62.9889405879
2676  4  10.0162749927  8.5430086263  55.8571625909
2677  4  12.5078130683  10.0826131455  66.9970600347
2678  4  10.0319328185  11.6452463871  60.7487800610
2679  4  10.0305588928  11.6171118627  58.0674432584
2680  4  10.0337014400  8.5716415749  65.2289331662
2681  4  10.0317964039  8.5430086263  62.5472181340
2682  4  12.5072796275  10.1079900913  56.2988850448
2683  8  10.7544897282  13.0043289209  66.0963795402
2684  8  8.4677576731  11.6291129403  66.0976561900
2685  8  10.7555136379  10.2547820365  66.0993410259
2686  8  13.2307504593  11.4661079245  61.6472687221
2687  8  13.2302437053  8.7185433024  61.6484056201
2688  8  10.9433583846  10.0917976544  61.6476082863
2689  8  10.7544056513  9.9278503542  57.1970052490
2690  8  10.9415790032  13.1610078725  57.1680392744
2691  8  8.2788661491  11.7900885253  57.1687525256
2692  8  11.7697562947  8.7185433024  54.9583500769
2693  8  14.0566416154  10.0917976544  54.9575527432
2694  8  11.7692495407  11.4661079245  54.9572131790
2695  8  9.2925577587  10.2547820365  59.4092854828
2696  8  9.2935816684  13.0043289209  59.4063239970
2697  8  11.5803137235  11.6291129402  59.4076006469
2698  8  11.7692052475  11.7900885253  63.8588080687
2699  8  9.2936657453  9.9278503543  63.8870607921
2700  8  9.1064923935  13.1610078726  63.8580948175
2701  4  7.5428448038  16.2470498242  0.5097863376
2702  4  10.0157002461  14.6935193267  6.7555003826
2703  4  7.5394624386  13.1838987560  4.9875735765
2704  4  7.5453267843  16.2409629502  11.2127953908
2705  4  10.0223109307  14.7136538364  9.4415207497
2706  4  7.5379185627  13.1529388949  2.3069034782
2707  4  10.0323711505  14.6935193267  13.4455559258
2708  4  7.5532979894  16.2470498242  7.1998418807
2709  4  7.5508160090  16.2409629501  4.5227398476
2710  4  7.5566803547  13.1838987561  11.6776291197
2711  4  7.5582242306  13.1529388950  8.9969590214
2712  4  10.0257604659  14.7136538364  2.7514652066
2713  8  8.2818532118  17.6095067681  12.5567628261
2714  8  5.9929829363  16.2473887279  12.5433470610
2715  8  8.2785724818  14.8604418458  12.5417097163
2716  8  10.7580040703  16.0586881780  8.1045198615
2717  8  10.7575885913  13.3260627175  8.0952726849
2718  8  8.4721647676  14.6952545174  8.0998329334
2719  8  8.2697214368  14.5474117237  3.6451723197
2720  8  8.4568424182  17.8107637509  3.6153590349
2721  8  5.7975482520  16.3902542852  3.6391897913
2722  8  9.2904828053  13.3260627175  1.4052171417
2723  8  11.5759066290  14.6952545174  1.4097773903
2724  8  9.2900673263  16.0586881780  1.4144643184
2725  8  6.8175703115  14.8604418458  5.8516541732
2726  8  6.8142895815  17.6095067681  5.8667072830
2727  8  9.1031598570  16.2473887279  5.8532915179
2728  8  9.2985945412  16.3902542852  10.3292453344
2729  8  6.8264213565  14.5474117237  10.3352278628
2730  8  6.6393003751  17.8107637510  10.3054145781
2731  4  7.5428448039  16.2470498243  13.8898974238
2732  4  10.0157002462  14.6935193267  20.1356114689
2733  4  7.5394624386  13.1838987561  18.3676846628
2734  4  7.5453267843  16.2409629502  24.5929064770
2735  4  10.0223109307  14.7136538364  22.8216318359
2736  4  7.5379185628  13.1529388950  15.6870145645
2737  4  10.0323711505  14.6935193267  26.8256670120
2738  4  7.5532979894  16.2470498243  20.5799529669
2739  4  7.5508160090  16.2409629502  17.9028509339
2740  4  7.5566803547  13.1838987561  25.0577402059
2741  4  7.5582242305  13.1529388950  22.3770701076
2742  4  10.0257604660  14.7136538364  16.1315762929
2743  8  8.2818532118  17.6095067681  25.9368739123
2744  8  5.9929829363  16.2473887279  25.9234581473
2745  8  8.2785724818  14.8604418458  25.9218208026
2746  8  10.7580040703  16.0586881780  21.4846309477
2747  8  10.7575885913  13.3260627175  21.4753837711
2748  8  8.4721647676  14.6952545174  21.4799440197
2749  8  8.2697214368  14.5474117237  17.0252834060
2750  8  8.4568424182  17.8107637510  16.9954701212
2751  8  5.7975482521  16.3902542853  17.0193008775
2752  8  9.2904828054  13.3260627175  14.7853282280
2753  8  11.5759066290  14.6952545174  14.7898884766
2754  8  9.2900673263  16.0586881780  14.7945754047
2755  8  6.8175703115  14.8604418458  19.2317652595
2756  8  6.8142895815  17.6095067681  19.2468183692
2757  8  9.1031598570  16.2473887279  19.2334026042
2758  8  9.2985945412  16.3902542853  23.7093564206
2759  8  6.8264213565  14.5474117237  23.7153389491
2760  8  6.6393003752  17.8107637510  23.6855256643
2761  4  7.5428448039  16.2470498243  27.2700085101
2762  4  10.0157002462  14.6935193267  33.5157225551
2763  4  7.5394624386  13.1838987561  31.7477957490
2764  4  7.5453267843  16.2409629501  37.9730175633
2765  4  10.0223109307  14.7136538364  36.2017429222
2766  4  7.5379185628  13.1529388950  29.0671256507
2767  4  10.0323711505  14.6935193267  40.2057780983
2768  4  7.5532979894  16.2470498242  33.9600640532
2769  4  7.5508160090  16.2409629502  31.2829620201
2770  4  7.5566803546  13.1838987560  38.4378512922
2771  4  7.5582242305  13.1529388949  35.7571811939
2772  4  10.0257604660  14.7136538364  29.5116873791
2773  8  8.2818532118  17.6095067681  39.3169849986
2774  8  5.9929829363  16.2473887279  39.3035692336
2775  8  8.2785724818  14.8604418458  39.3019318889
2776  8  10.7580040703  16.0586881780  34.8647420340
2777  8  10.7575885913  13.3260627175  34.8554948574
2778  8  8.4721647676  14.6952545174  34.8600551059
2779  8  8.2697214368  14.5474117237  30.4053944922
2780  8  8.4568424182  17.8107637510  30.3755812074
2781  8  5.7975482521  16.3902542853  30.3994119638
2782  8  9.2904828054  13.3260627175  28.1654393143
2783  8  11.5759066290  14.6952545174  28.1699995628
2784  8  9.2900673263  16.0586881781  28.1746864909
2785  8  6.8175703115  14.8604418458  32.6118763457
2786  8  6.8142895815  17.6095067681  32.6269294555
2787  8  9.1031598570  16.2473887279  32.6135136904
2788  8  9.2985945412  16.3902542852  37.0894675069
2789  8  6.8264213565  14.5474117237  37.0954500354
2790  8  6.6393003751  17.8107637509  37.0656367506
2791  4  7.5428448039  16.2470498243  40.6501195963
2792  4  10.0157002461  14.6935193267  46.8958336414
2793  4  7.5394624386  13.1838987561  45.1279068353
2794  4  7.5453267843  16.2409629502  51.3531286496
2795  4  10.0223109307  14.7136538364  49.5818540085
2796  4  7.5379185628  13.1529388950  42.4472367370
2797  4  10.0323711505  14.6935193267  53.5858891846
2798  4  7.5532979894  16.2470498242  47.3401751395
2799  4  7.5508160090  16.2409629501  44.6630731064
2800  4  7.5566803547  13.1838987561  51.8179623785
2801  4  7.5582242305  13.1529388950  49.1372922802
2802  4  10.0257604660  14.7136538364  42.8917984654
2803  8  8.2818532118  17.6095067681  52.6970960849
2804  8  5.9929829363  16.2473887279  52.6836803198
2805  8  8.2785724818  14.8604418458  52.6820429751
2806  8  10.7580040703  16.0586881780  48.2448531203
2807  8  10.7575885913  13.3260627175  48.2356059437
2808  8  8.4721647676  14.6952545174  48.2401661922
2809  8  8.2697214368  14.5474117237  43.7855055785
2810  8  8.4568424182  17.8107637509  43.7556922937
2811  8  5.7975482521  16.3902542853  43.7795230500
2812  8  9.2904828054  13.3260627175  41.5455504006
2813  8  11.5759066290  14.6952545174  41.5501106491
2814  8  9.2900673263  16.0586881780  41.5547975772
2815  8  6.8175703115  14.8604418458  45.9919874320
2816  8  6.8142895815  17.6095067681  46.0070405417
2817  8  9.1031598570  16.2473887279  45.9936247767
2818  8  9.2985945412  16.3902542853  50.4695785932
2819  8  6.8264213565  14.5474117237  50.4755611216
2820  8  6.6393003751  17.8107637509  50.4457478368
2821  4  7.5428448039  16.2470498243  54.0302306826
2822  4  10.0157002462  14.6935193267  60.2759447277
2823  4  7.5394624387  13.1838987560  58.5080179216
2824  4  7.5453267843  16.2409629502  64.7332397358
2825  4  10.0223109306  14.7136538364  62.9619650948
2826  4  7.5379185628  13.1529388950  55.8273478233
2827  4  10.0323711505  14.6935193267  66.9660002708
2828  4  7.5532979894  16.2470498242  60.7202862257
2829  4  7.5508160090  16.2409629501  58.0431841926
2830  4  7.5566803546  13.1838987561  65.1980734647
2831  4  7.5582242305  13.1529388949  62.5174033664
2832  4  10.0257604660  14.7136538364  56.2719095516
2833  8  8.2818532118  17.6095067681  66.0772071712
2834  8  5.9929829363  16.2473887279  66.0637914061
2835  8  8.2785724817  14.8604418458  66.0621540614
2836  8  10.7580040703  16.0586881780  61.6249642066
2837  8  10.7575885912  13.3260627175  61.6157170300
2838  8  8.4721647676  14.6952545174  61.6202772785
2839  8  8.2697214368  14.5474117237  57.1656166647
2840  8  8.4568424182  17.8107637510  57.1358033799
2841  8  5.7975482521  16.3902542852  57.1596341363
2842  8  9.2904828054  13.3260627175  54.9256614868
2843  8  11.5759066290  14.6952545173  54.9302217353
2844  8  9.2900673263  16.0586881780  54.9349086634
2845  8  6.8175703115  14.8604418458  59.3720985182
2846  8  6.8142895815  17.6095067681  59.3871516280
2847  8  9.1031598570  16.2473887279  59.3737358629
2848  8  9.2985945412  16.3902542853  63.8496896795
2849  8  6.8264213565  14.5474117237  63.8556722078
2850  8  6.6393003751  17.8107637510  63.8258589231
2851  4  5.0363056778  20.7461925948  0.4808686617
2852  4  7.5492235949  19.2954846103  6.7314685601
2853  4  5.0663570011  17.8169777809  4.9549465970
2854  4  5.1384160599  20.9319836525  11.1996497699
2855  4  7.5528824142  19.3816811401  9.4411719819
2856  4  5.0654763232  17.7519760261  2.3002786197
2857  4  7.5469191983  19.2954846103  13.4215241033
2858  4  5.1079085123  20.7461925948  7.1709242048
2859  4  5.0057981300  20.9319836525  4.5095942268
2860  4  5.0778571888  17.8169777809  11.6450021401
2861  4  5.0787378667  17.7519760261  8.9903341628
2862  4  7.5432603791  19.3816811401  2.7511164389
2863  8  5.5690885059  22.2576581954  12.7471155108
2864  8  3.5606616137  20.6118390825  12.5518730920
2865  8  5.8210766197  19.4608672041  12.5338057680
2866  8  8.3289924749  20.4640297325  8.0648651373
2867  8  8.2834088356  17.9059191528  8.0771708526
2868  8  6.0645989661  19.2339677300  8.0933499027
2869  8  5.7986010983  19.1619444125  3.5977562713
2870  8  5.3165097308  22.6753150226  3.5348534501
2871  8  3.3224667725  20.7135361036  3.6253531414
2872  8  6.8127339577  17.9059191528  1.3871153095
2873  8  9.0315438272  19.2339677300  1.4032943596
2874  8  6.7671503185  20.4640297325  1.3748095942
2875  8  4.3231375703  19.4608672041  5.8437502248
2876  8  4.5751256841  22.2576581954  6.0570599678
2877  8  6.5835525763  20.6118390824  5.8618175489
2878  8  6.8217474174  20.7135361036  10.3154086843
2879  8  4.3456130916  19.1619444125  10.2878118144
2880  8  4.8277044589  22.6753150226  10.2249089933
2881  4  5.0363056777  20.7461925949  13.8609797479
2882  4  7.5492235949  19.2954846104  20.1115796464
2883  4  5.0663570011  17.8169777809  18.3350576833
2884  4  5.1384160600  20.9319836525  24.5797608561
2885  4  7.5528824143  19.3816811401  22.8212830682
2886  4  5.0654763232  17.7519760262  15.6803897059
2887  4  7.5469191984  19.2954846104  26.8016351895
2888  4  5.1079085122  20.7461925948  20.5510352911
2889  4  5.0057981300  20.9319836525  17.8897053130
2890  4  5.0778571889  17.8169777809  25.0251132264
2891  4  5.0787378668  17.7519760261  22.3704452490
2892  4  7.5432603790  19.3816811402  16.1312275251
2893  8  5.5690885060  22.2576581954  26.1272265970
2894  8  3.5606616137  20.6118390825  25.9319841782
2895  8  5.8210766197  19.4608672041  25.9139168542
2896  8  8.3289924748  20.4640297325  21.4449762236
2897  8  8.2834088356  17.9059191528  21.4572819389
2898  8  6.0645989661  19.2339677301  21.4734609889
2899  8  5.7986010983  19.1619444125  16.9778673575
2900  8  5.3165097309  22.6753150226  16.9149645364
2901  8  3.3224667724  20.7135361037  17.0054642276
2902  8  6.8127339576  17.9059191528  14.7672263958
2903  8  9.0315438272  19.2339677300  14.7834054458
2904  8  6.7671503184  20.4640297325  14.7549206805
2905  8  4.3231375702  19.4608672041  19.2238613111
2906  8  4.5751256840  22.2576581954  19.4371710540
2907  8  6.5835525762  20.6118390824  19.2419286351
2908  8  6.8217474175  20.7135361036  23.6955197706
2909  8  4.3456130917  19.1619444125  23.6679229006
2910  8  4.8277044592  22.6753150226  23.6050200794
2911  4  5.0363056778  20.7461925949  27.2410908341
2912  4  7.5492235949  19.2954846103  33.4916907327
2913  4  5.0663570011  17.8169777809  31.7151687695
2914  4  5.1384160600  20.9319836525  37.9598719424
2915  4  7.5528824143  19.3816811401  36.2013941545
2916  4  5.0654763232  17.7519760261  29.0605007922
2917  4  7.5469191984  19.2954846104  40.1817462758
2918  4  5.1079085122  20.7461925948  33.9311463773
2919  4  5.0057981299  20.9319836525  31.2698163993
2920  4  5.0778571888  17.8169777808  38.4052243127
2921  4  5.0787378667  17.7519760261  35.7505563353
2922  4  7.5432603790  19.3816811401  29.5113386113
2923  8  5.5690885061  22.2576581953  39.5073376832
2924  8  3.5606616138  20.6118390825  39.3120952646
2925  8  5.8210766197  19.4608672041  39.2940279405
2926  8  8.3289924748  20.4640297325  34.8250873098
2927  8  8.2834088356  17.9059191528  34.8373930251
2928  8  6.0645989661  19.2339677300  34.8535720752
2929  8  5.7986010983  19.1619444125  30.3579784438
2930  8  5.3165097307  22.6753150225  30.2950756225
2931  8  3.3224667724  20.7135361036  30.3855753139
2932  8  6.8127339576  17.9059191528  28.1473374820
2933  8  9.0315438272  19.2339677300  28.1635165320
2934  8  6.7671503185  20.4640297325  28.1350317667
2935  8  4.3231375702  19.4608672040  32.6039723974
2936  8  4.5751256840  22.2576581953  32.8172821402
2937  8  6.5835525762  20.6118390824  32.6220397214
2938  8  6.8217474176  20.7135361035  37.0756308571
2939  8  4.3456130917  19.1619444124  37.0480339869
2940  8  4.8277044593  22.6753150226  36.9851311657
2941  4  5.0363056778  20.7461925949  40.6212019205
2942  4  7.5492235949  19.2954846103  46.8718018189
2943  4  5.0663570011  17.8169777809  45.0952798558
2944  4  5.1384160599  20.9319836525  51.3399830287
2945  4  7.5528824142  19.3816811401  49.5815052407
2946  4  5.0654763232  17.7519760262  42.4406118784
2947  4  7.5469191984  19.2954846104  53.5618573620
2948  4  5.1079085122  20.7461925947  47.3112574636
2949  4  5.0057981300  20.9319836525  44.6499274855
2950  4  5.0778571888  17.8169777809  51.7853353989
2951  4  5.0787378667  17.7519760261  49.1306674216
2952  4  7.5432603790  19.3816811401  42.8914496976
2953  8  5.5690885059  22.2576581953  52.8874487695
2954  8  3.5606616137  20.6118390824  52.6922063508
2955  8  5.8210766197  19.4608672041  52.6741390268
2956  8  8.3289924748  20.4640297325  48.2051983961
2957  8  8.2834088356  17.9059191528  48.2175041114
2958  8  6.0645989661  19.2339677300  48.2336831615
2959  8  5.7986010983  19.1619444124  43.7380895301
2960  8  5.3165097307  22.6753150226  43.6751867088
2961  8  3.3224667724  20.7135361036  43.7656864001
2962  8  6.8127339577  17.9059191528  41.5274485683
2963  8  9.0315438272  19.2339677300  41.5436276183
2964  8  6.7671503185  20.4640297325  41.5151428530
2965  8  4.3231375702  19.4608672040  45.9840834836
2966  8  4.5751256840  22.2576581953  46.1973932265
2967  8  6.5835525762  20.6118390823  46.0021508076
2968  8  6.8217474175  20.7135361035  50.4557419432
2969  8  4.3456130916  19.1619444124  50.4281450732
2970  8  4.8277044592  22.6753150226  50.3652422519
2971  4  5.0363056777  20.7461925948  54.0013130067
2972  4  7.5492235950  19.2954846103  60.2519129051
2973  4  5.0663570011  17.8169777808  58.4753909420
2974  4  5.1384160600  20.9319836525  64.7200941150
2975  4  7.5528824142  19.3816811401  62.9616163270
2976  4  5.0654763232  17.7519760261  55.8207229647
2977  4  7.5469191984  19.2954846103  66.9419684484
2978  4  5.1079085123  20.7461925948  60.6913685498
2979  4  5.0057981300  20.9319836525  58.0300385718
2980  4  5.0778571888  17.8169777809  65.1654464852
2981  4  5.0787378667  17.7519760261  62.5107785079
2982  4  7.5432603791  19.3816811401  56.2715607838
2983  8  5.5690885061  22.2576581953  66.2675598559
2984  8  3.5606616138  20.6118390825  66.0723174371
2985  8  5.8210766197  19.4608672041  66.0542501130
2986  8  8.3289924749  20.4640297324  61.5853094823
2987  8  8.2834088356  17.9059191528  61.5976151977
2988  8  6.0645989661  19.2339677300  61.6137942477
2989  8  5.7986010983  19.1619444125  57.1182006163
2990  8  5.3165097307  22.6753150226  57.0552977952
2991  8  3.3224667723  20.7135361036  57.1457974865
2992  8  6.8127339577  17.9059191528  54.9075596545
2993  8  9.0315438272  19.2339677301  54.9237387046
2994  8  6.7671503185  20.4640297325  54.8952539392
2995  8  4.3231375703  19.4608672040  59.3641945699
2996  8  4.5751256840  22.2576581953  59.5775043127
2997  8  6.5835525762  20.6118390824  59.3822618939
2998  8  6.8217474174  20.7135361037  63.8358530293
2999  8  4.3456130916  19.1619444125  63.8082561595
3000  8  4.8277044591  22.6753150226  63.7453533383
3001  4  19.9166262690  2.4350065769  0.6014268316
3002  4  22.4137445008  0.8872220143  6.8747815579
3003  4  19.9129545507  -0.8353760184  5.1182497136
3004  4  19.9214311111  2.3406798132  11.3089479922
3005  4  22.4286434734  0.9684627304  9.5342614291
3006  4  20.0590262519  -0.6874472146  2.2657342666
3007  4  22.3939699126  0.8872220143  13.5648371011
3008  4  19.9391595411  2.4350065770  7.2914823747
3009  4  19.9343546990  2.3406798132  4.6188924490
3010  4  19.9428312593  -0.8353760185  11.8083052568
3011  4  19.7967595581  -0.6874472145  8.9557898097
3012  4  22.3790709399  0.9684627303  2.8442058860
3013  8  20.6522141507  3.7694713269  12.6249226470
3014  8  18.3834083875  2.3871074400  12.6428903703
3015  8  20.6787658392  0.9631714368  12.6360374455
3016  8  23.1247621045  2.2652686333  8.1823489884
3017  8  23.0219450356  -0.4117215683  8.2280871290
3018  8  20.8510349989  0.8885588848  8.2172590957
3019  8  20.6524366306  0.6236685349  3.7630219315
3020  8  20.8444113166  3.9180343485  3.7147953166
3021  8  18.1949661413  2.5864867461  3.7198533139
3022  8  21.7857693778  -0.4117215684  1.5380315859
3023  8  23.9566794145  0.8885588848  1.5272035526
3024  8  21.6829523088  2.2652686333  1.4922934453
3025  8  19.1770199709  0.9631714369  5.9459819024
3026  8  19.2035716594  3.7694713269  5.9348671038
3027  8  21.4723774226  2.3871074400  5.9528348271
3028  8  21.6608196688  2.5864867461  10.4099088571
3029  8  19.2033491795  0.6236685350  10.4530774747
3030  8  19.0113744935  3.9180343485  10.4048508598
3031  4  19.9166262689  2.4350065769  13.9815379178
3032  4  22.4137445009  0.8872220144  20.2548926442
3033  4  19.9129545507  -0.8353760185  18.4983607999
3034  4  19.9214311111  2.3406798133  24.6890590784
3035  4  22.4286434734  0.9684627304  22.9143725154
3036  4  20.0590262519  -0.6874472145  15.6458453529
3037  4  22.3939699126  0.8872220143  26.9449481873
3038  4  19.9391595411  2.4350065770  20.6715934609
3039  4  19.9343546990  2.3406798132  17.9990035353
3040  4  19.9428312593  -0.8353760184  25.1884163431
3041  4  19.7967595583  -0.6874472145  22.3359008960
3042  4  22.3790709400  0.9684627304  16.2243169723
3043  8  20.6522141507  3.7694713269  26.0050337332
3044  8  18.3834083875  2.3871074400  26.0230014565
3045  8  20.6787658392  0.9631714368  26.0161485318
3046  8  23.1247621046  2.2652686334  21.5624600747
3047  8  23.0219450356  -0.4117215683  21.6081982153
3048  8  20.8510349989  0.8885588849  21.5973701819
3049  8  20.6524366307  0.6236685349  17.1431330178
3050  8  20.8444113166  3.9180343485  17.0949064028
3051  8  18.1949661412  2.5864867462  17.0999644002
3052  8  21.7857693778  -0.4117215684  14.9181426721
3053  8  23.9566794145  0.8885588848  14.9073146389
3054  8  21.6829523089  2.2652686333  14.8724045316
3055  8  19.1770199709  0.9631714368  19.3260929886
3056  8  19.2035716594  3.7694713269  19.3149781900
3057  8  21.4723774226  2.3871074400  19.3329459134
3058  8  21.6608196688  2.5864867462  23.7900199433
3059  8  19.2033491795  0.6236685350  23.8331885609
3060  8  19.0113744935  3.9180343485  23.7849619460
3061  4  19.9166262689  2.4350065769  27.3616490041
3062  4  22.4137445009  0.8872220143  33.6350037305
3063  4  19.9129545508  -0.8353760185  31.8784718861
3064  4  19.9214311111  2.3406798132  38.0691701647
3065  4  22.4286434735  0.9684627304  36.2944836017
3066  4  20.0590262519  -0.6874472146  29.0259564390
3067  4  22.3939699125  0.8872220144  40.3250592736
3068  4  19.9391595412  2.4350065769  34.0517045472
3069  4  19.9343546990  2.3406798132  31.3791146215
3070  4  19.9428312594  -0.8353760185  38.5685274294
3071  4  19.7967595582  -0.6874472144  35.7160119823
3072  4  22.3790709399  0.9684627303  29.6044280585
3073  8  20.6522141507  3.7694713270  39.3851448195
3074  8  18.3834083874  2.3871074400  39.4031125428
3075  8  20.6787658391  0.9631714369  39.3962596181
3076  8  23.1247621046  2.2652686334  34.9425711609
3077  8  23.0219450357  -0.4117215683  34.9883093016
3078  8  20.8510349989  0.8885588848  34.9774812683
3079  8  20.6524366306  0.6236685349  30.5232441040
3080  8  20.8444113166  3.9180343485  30.4750174891
3081  8  18.1949661412  2.5864867461  30.4800754864
3082  8  21.7857693778  -0.4117215684  28.2982537584
3083  8  23.9566794145  0.8885588847  28.2874257251
3084  8  21.6829523088  2.2652686333  28.2525156178
3085  8  19.1770199709  0.9631714368  32.7062040749
3086  8  19.2035716594  3.7694713269  32.6950892763
3087  8  21.4723774226  2.3871074399  32.7130569996
3088  8  21.6608196688  2.5864867462  37.1701310296
3089  8  19.2033491794  0.6236685349  37.2132996472
3090  8  19.0113744934  3.9180343485  37.1650730323
3091  4  19.9166262689  2.4350065770  40.7417600904
3092  4  22.4137445009  0.8872220143  47.0151148167
3093  4  19.9129545507  -0.8353760185  45.2585829725
3094  4  19.9214311111  2.3406798132  51.4492812509
3095  4  22.4286434735  0.9684627304  49.6745946879
3096  4  20.0590262518  -0.6874472144  42.4060675255
3097  4  22.3939699125  0.8872220144  53.7051703599
3098  4  19.9391595412  2.4350065769  47.4318156335
3099  4  19.9343546990  2.3406798133  44.7592257078
3100  4  19.9428312593  -0.8353760185  51.9486385156
3101  4  19.7967595582  -0.6874472145  49.0961230686
3102  4  22.3790709399  0.9684627304  42.9845391448
3103  8  20.6522141507  3.7694713269  52.7652559057
3104  8  18.3834083874  2.3871074400  52.7832236290
3105  8  20.6787658392  0.9631714368  52.7763707043
3106  8  23.1247621046  2.2652686333  48.3226822472
3107  8  23.0219450357  -0.4117215683  48.3684203878
3108  8  20.8510349989  0.8885588848  48.3575923545
3109  8  20.6524366306  0.6236685350  43.9033551904
3110  8  20.8444113166  3.9180343486  43.8551285754
3111  8  18.1949661413  2.5864867462  43.8601865727
3112  8  21.7857693777  -0.4117215683  41.6783648447
3113  8  23.9566794144  0.8885588849  41.6675368115
3114  8  21.6829523087  2.2652686334  41.6326267041
3115  8  19.1770199709  0.9631714369  46.0863151612
3116  8  19.2035716594  3.7694713269  46.0752003626
3117  8  21.4723774226  2.3871074400  46.0931680859
3118  8  21.6608196688  2.5864867462  50.5502421158
3119  8  19.2033491795  0.6236685349  50.5934107335
3120  8  19.0113744935  3.9180343485  50.5451841185
3121  4  19.9166262689  2.4350065770  54.1218711766
3122  4  22.4137445009  0.8872220144  60.3952259030
3123  4  19.9129545507  -0.8353760185  58.6386940588
3124  4  19.9214311111  2.3406798133  64.8293923372
3125  4  22.4286434735  0.9684627304  63.0547057742
3126  4  20.0590262518  -0.6874472144  55.7861786118
3127  4  22.3939699126  0.8872220143  67.0852814461
3128  4  19.9391595412  2.4350065770  60.8119267198
3129  4  19.9343546990  2.3406798133  58.1393367941
3130  4  19.9428312592  -0.8353760185  65.3287496020
3131  4  19.7967595582  -0.6874472144  62.4762341549
3132  4  22.3790709399  0.9684627304  56.3646502311
3133  8  20.6522141508  3.7694713269  66.1453669920
3134  8  18.3834083875  2.3871074400  66.1633347153
3135  8  20.6787658392  0.9631714368  66.1564817906
3136  8  23.1247621046  2.2652686333  61.7027933335
3137  8  23.0219450357  -0.4117215683  61.7485314741
3138  8  20.8510349989  0.8885588848  61.7377034408
3139  8  20.6524366306  0.6236685350  57.2834662767
3140  8  20.8444113166  3.9180343486  57.2352396617
3141  8  18.1949661412  2.5864867462  57.2402976590
3142  8  21.7857693777  -0.4117215683  55.0584759310
3143  8  23.9566794145  0.8885588848  55.0476478977
3144  8  21.6829523088  2.2652686334  55.0127377904
3145  8  19.1770199709  0.9631714369  59.4664262475
3146  8  19.2035716593  3.7694713269  59.4553114489
3147  8  21.4723774226  2.3871074400  59.4732791722
3148  8  21.6608196688  2.5864867462  63.9303532021
3149  8  19.2033491794  0.6236685350  63.9735218198
3150  8  19.0113744935  3.9180343485  63.9252952048
3151  4  17.4460471746  7.0378652606  0.5682141081
3152  4  19.9193473499  5.4717572420  6.8148261117
3153  4  17.4426593112  3.9540427200  5.0495449070
3154  4  17.4469400485  7.0090652296  11.2686559530
3155  4  19.9237672274  5.4927925329  9.5037870409
3156  4  17.4415375256  3.9551264944  2.3709908474
3157  4  19.9364384602  5.4717572420  13.5048816548
3158  4  17.4578100322  7.0378652606  7.2582696512
3159  4  17.4569171582  7.0090652296  4.5786004098
3160  4  17.4611978956  3.9540427200  11.7396004502
3161  4  17.4623196812  3.9551264945  9.0610463906
3162  4  19.9320185827  5.4927925328  2.8137314977
3163  8  18.1847533419  8.3922743092  12.6076500330
3164  8  15.8994111554  7.0213719023  12.6081627858
3165  8  18.1827728675  5.6457073755  12.6073037292
3166  8  20.6554296395  6.8470665760  8.1594043009
3167  8  20.6607718193  4.1185315757  8.1490448896
3168  8  18.3759922186  5.4896898308  8.1629823811
3169  8  18.1771729197  5.3175859653  3.7126716894
3170  8  18.3709192748  8.5552046629  3.6762893737
3171  8  15.7020877469  7.1800658689  3.6796233066
3172  8  19.1950139908  4.1185315756  1.4589893464
3173  8  21.4797935915  5.4896898307  1.4729268379
3174  8  19.2003561707  6.8470665760  1.4693487577
3175  8  16.7210843392  5.6457073755  5.9172481860
3176  8  16.7191038648  8.3922743092  5.9175944898
3177  8  19.0044460513  7.0213719023  5.9181072426
3178  8  19.2017694598  7.1800658689  10.3696788499
3179  8  16.7266842871  5.3175859653  10.4027272326
3180  8  16.5329379320  8.5552046629  10.3663449169
3181  4  17.4460471746  7.0378652605  13.9483251944
3182  4  19.9193473499  5.4717572420  20.1949371979
3183  4  17.4426593111  3.9540427200  18.4296559932
3184  4  17.4469400485  7.0090652296  24.6487670393
3185  4  19.9237672274  5.4927925329  22.8838981272
3186  4  17.4415375255  3.9551264944  15.7511019337
3187  4  19.9364384602  5.4717572420  26.8849927411
3188  4  17.4578100321  7.0378652605  20.6383807375
3189  4  17.4569171581  7.0090652295  17.9587114961
3190  4  17.4611978955  3.9540427200  25.1197115364
3191  4  17.4623196811  3.9551264944  22.4411574768
3192  4  19.9320185827  5.4927925328  16.1938425840
3193  8  18.1847533419  8.3922743092  25.9877611193
3194  8  15.8994111554  7.0213719023  25.9882738720
3195  8  18.1827728675  5.6457073755  25.9874148154
3196  8  20.6554296394  6.8470665760  21.5395153872
3197  8  20.6607718193  4.1185315757  21.5291559758
3198  8  18.3759922186  5.4896898308  21.5430934674
3199  8  18.1771729196  5.3175859653  17.0927827757
3200  8  18.3709192747  8.5552046629  17.0564004600
3201  8  15.7020877468  7.1800658689  17.0597343930
3202  8  19.1950139907  4.1185315756  14.8391004326
3203  8  21.4797935914  5.4896898307  14.8530379242
3204  8  19.2003561706  6.8470665759  14.8494598440
3205  8  16.7210843392  5.6457073755  19.2973592723
3206  8  16.7191038648  8.3922743091  19.2977055761
3207  8  19.0044460512  7.0213719023  19.2982183288
3208  8  19.2017694599  7.1800658689  23.7497899361
3209  8  16.7266842871  5.3175859653  23.7828383189
3210  8  16.5329379319  8.5552046629  23.7464560031
3211  4  17.4460471746  7.0378652606  27.3284362806
3212  4  19.9193473499  5.4717572420  33.5750482842
3213  4  17.4426593112  3.9540427200  31.8097670795
3214  4  17.4469400485  7.0090652296  38.0288781255
3215  4  19.9237672274  5.4927925328  36.2640092134
3216  4  17.4415375256  3.9551264944  29.1312130200
3217  4  19.9364384602  5.4717572421  40.2651038273
3218  4  17.4578100321  7.0378652606  34.0184918238
3219  4  17.4569171582  7.0090652296  31.3388225824
3220  4  17.4611978955  3.9540427200  38.4998226227
3221  4  17.4623196811  3.9551264945  35.8212685631
3222  4  19.9320185827  5.4927925328  29.5739536703
3223  8  18.1847533419  8.3922743092  39.3678722055
3224  8  15.8994111554  7.0213719023  39.3683849583
3225  8  18.1827728675  5.6457073755  39.3675259017
3226  8  20.6554296395  6.8470665759  34.9196264735
3227  8  20.6607718193  4.1185315756  34.9092670621
3228  8  18.3759922186  5.4896898308  34.9232045536
3229  8  18.1771729197  5.3175859653  30.4728938620
3230  8  18.3709192748  8.5552046629  30.4365115463
3231  8  15.7020877469  7.1800658689  30.4398454792
3232  8  19.1950139908  4.1185315756  28.2192115189
3233  8  21.4797935914  5.4896898307  28.2331490105
3234  8  19.2003561706  6.8470665760  28.2295709303
3235  8  16.7210843393  5.6457073755  32.6774703585
3236  8  16.7191038648  8.3922743092  32.6778166624
3237  8  19.0044460513  7.0213719023  32.6783294151
3238  8  19.2017694599  7.1800658688  37.1299010224
3239  8  16.7266842871  5.3175859653  37.1629494051
3240  8  16.5329379319  8.5552046629  37.1265670894
3241  4  17.4460471746  7.0378652606  40.7085473669
3242  4  19.9193473499  5.4717572420  46.9551593704
3243  4  17.4426593112  3.9540427200  45.1898781657
3244  4  17.4469400485  7.0090652296  51.4089892117
3245  4  19.9237672274  5.4927925329  49.6441202997
3246  4  17.4415375256  3.9551264945  42.5113241062
3247  4  19.9364384602  5.4717572420  53.6452149136
3248  4  17.4578100322  7.0378652606  47.3986029100
3249  4  17.4569171582  7.0090652296  44.7189336687
3250  4  17.4611978955  3.9540427200  51.8799337089
3251  4  17.4623196811  3.9551264944  49.2013796493
3252  4  19.9320185827  5.4927925329  42.9540647566
3253  8  18.1847533419  8.3922743092  52.7479832917
3254  8  15.8994111554  7.0213719023  52.7484960445
3255  8  18.1827728675  5.6457073755  52.7476369878
3256  8  20.6554296395  6.8470665760  48.2997375597
3257  8  20.6607718193  4.1185315757  48.2893781483
3258  8  18.3759922187  5.4896898308  48.3033156399
3259  8  18.1771729196  5.3175859653  43.8530049482
3260  8  18.3709192748  8.5552046630  43.8166226325
3261  8  15.7020877468  7.1800658689  43.8199565655
3262  8  19.1950139907  4.1185315757  41.5993226052
3263  8  21.4797935914  5.4896898308  41.6132600968
3264  8  19.2003561706  6.8470665760  41.6096820166
3265  8  16.7210843393  5.6457073755  46.0575814448
3266  8  16.7191038648  8.3922743092  46.0579277487
3267  8  19.0044460513  7.0213719023  46.0584405014
3268  8  19.2017694599  7.1800658689  50.5100121086
3269  8  16.7266842871  5.3175859653  50.5430604914
3270  8  16.5329379320  8.5552046630  50.5066781756
3271  4  17.4460471746  7.0378652606  54.0886584531
3272  4  19.9193473499  5.4717572420  60.3352704567
3273  4  17.4426593111  3.9540427201  58.5699892520
3274  4  17.4469400486  7.0090652296  64.7891002981
3275  4  19.9237672274  5.4927925329  63.0242313859
3276  4  17.4415375255  3.9551264945  55.8914351925
3277  4  19.9364384602  5.4717572420  67.0253259998
3278  4  17.4578100321  7.0378652606  60.7787139963
3279  4  17.4569171582  7.0090652296  58.0990447549
3280  4  17.4611978956  3.9540427200  65.2600447952
3281  4  17.4623196812  3.9551264945  62.5814907356
3282  4  19.9320185826  5.4927925329  56.3341758428
3283  8  18.1847533419  8.3922743092  66.1280943781
3284  8  15.8994111555  7.0213719023  66.1286071308
3285  8  18.1827728675  5.6457073755  66.1277480742
3286  8  20.6554296395  6.8470665760  61.6798486459
3287  8  20.6607718193  4.1185315757  61.6694892345
3288  8  18.3759922187  5.4896898308  61.6834267261
3289  8  18.1771729196  5.3175859653  57.2331160345
3290  8  18.3709192747  8.5552046629  57.1967337188
3291  8  15.7020877468  7.1800658688  57.2000676517
3292  8  19.1950139907  4.1185315757  54.9794336914
3293  8  21.4797935914  5.4896898308  54.9933711830
3294  8  19.2003561706  6.8470665760  54.9897931028
3295  8  16.7210843392  5.6457073755  59.4376925310
3296  8  16.7191038648  8.3922743092  59.4380388349
3297  8  19.0044460512  7.0213719023  59.4385515876
3298  8  19.2017694599  7.1800658689  63.8901231949
3299  8  16.7266842871  5.3175859653  63.9231715777
3300  8  16.5329379320  8.5552046629  63.8867892619
3301  4  14.9680671815  11.6452463871  0.5382801728
3302  4  17.4441155350  10.0826131455  6.7865601466
3303  4  14.9662985600  8.5716415749  5.0184332780
3304  4  14.9694411073  11.6171118627  11.2370544565
3305  4  17.4446489758  10.1079900913  9.4684962429
3306  4  14.9682035960  8.5430086263  2.3367182458
3307  4  17.4597416717  10.0826131455  13.4766156897
3308  4  14.9838614219  11.6452463871  7.2283357160
3309  4  14.9824874961  11.6171118627  4.5469989133
3310  4  14.9856300434  8.5716415750  11.7084888212
3311  4  14.9837250073  8.5430086263  9.0267737890
3312  4  17.4592082309  10.1079900913  2.7784406997
3313  8  15.7064183317  13.0043289209  12.5759351951
3314  8  13.4196862765  11.6291129403  12.5772118449
3315  8  15.7074422413  10.2547820365  12.5788966809
3316  8  18.1826790626  11.4661079245  8.1268243771
3317  8  18.1821723087  8.7185433024  8.1279612750
3318  8  15.8952869880  10.0917976544  8.1271639412
3319  8  15.7063342546  9.9278503543  3.6765609039
3320  8  15.8935076065  13.1610078725  3.6475949293
3321  8  13.2307947525  11.7900885253  3.6483081805
3322  8  16.7216848980  8.7185433024  1.4379057318
3323  8  19.0085702187  10.0917976544  1.4371083981
3324  8  16.7211781440  11.4661079246  1.4367688339
3325  8  14.2444863621  10.2547820365  5.8888411377
3326  8  14.2455102717  13.0043289209  5.8858796520
3327  8  16.5322423268  11.6291129403  5.8871563018
3328  8  16.7211338509  11.7900885253  10.3383637237
3329  8  14.2455943487  9.9278503543  10.3666164471
3330  8  14.0584209969  13.1610078725  10.3376504725
3331  4  14.9680671815  11.6452463871  13.9183912591
3332  4  17.4441155350  10.0826131455  20.1666712328
3333  4  14.9662985599  8.5716415749  18.3985443644
3334  4  14.9694411073  11.6171118627  24.6171655428
3335  4  17.4446489758  10.1079900913  22.8486073291
3336  4  14.9682035960  8.5430086263  15.7168293321
3337  4  17.4597416717  10.0826131455  26.8567267760
3338  4  14.9838614218  11.6452463871  20.6084468022
3339  4  14.9824874961  11.6171118627  17.9271099996
3340  4  14.9856300433  8.5716415750  25.0885999075
3341  4  14.9837250073  8.5430086263  22.4068848752
3342  4  17.4592082309  10.1079900913  16.1585517860
3343  8  15.7064183316  13.0043289209  25.9560462814
3344  8  13.4196862765  11.6291129403  25.9573229312
3345  8  15.7074422413  10.2547820365  25.9590077672
3346  8  18.1826790626  11.4661079245  21.5069354633
3347  8  18.1821723087  8.7185433024  21.5080723613
3348  8  15.8952869880  10.0917976544  21.5072750275
3349  8  15.7063342547  9.9278503543  17.0566719902
3350  8  15.8935076065  13.1610078725  17.0277060156
3351  8  13.2307947525  11.7900885253  17.0284192668
3352  8  16.7216848980  8.7185433024  14.8180168181
3353  8  19.0085702187  10.0917976543  14.8172194844
3354  8  16.7211781441  11.4661079245  14.8168799202
3355  8  14.2444863620  10.2547820365  19.2689522240
3356  8  14.2455102718  13.0043289209  19.2659907382
3357  8  16.5322423269  11.6291129402  19.2672673880
3358  8  16.7211338509  11.7900885253  23.7184748100
3359  8  14.2455943487  9.9278503543  23.7467275333
3360  8  14.0584209969  13.1610078725  23.7177615587
3361  4  14.9680671815  11.6452463871  27.2985023454
3362  4  17.4441155350  10.0826131455  33.5467823191
3363  4  14.9662985600  8.5716415749  31.7786554506
3364  4  14.9694411073  11.6171118627  37.9972766291
3365  4  17.4446489758  10.1079900913  36.2287184154
3366  4  14.9682035961  8.5430086263  29.0969404184
3367  4  17.4597416717  10.0826131455  40.2368378623
3368  4  14.9838614218  11.6452463871  33.9885578885
3369  4  14.9824874961  11.6171118627  31.3072210859
3370  4  14.9856300434  8.5716415749  38.4687109938
3371  4  14.9837250073  8.5430086263  35.7869959615
3372  4  17.4592082309  10.1079900913  29.5386628723
3373  8  15.7064183316  13.0043289209  39.3361573677
3374  8  13.4196862765  11.6291129402  39.3374340175
3375  8  15.7074422412  10.2547820365  39.3391188535
3376  8  18.1826790626  11.4661079245  34.8870465496
3377  8  18.1821723087  8.7185433024  34.8881834475
3378  8  15.8952869880  10.0917976543  34.8873861138
3379  8  15.7063342547  9.9278503543  30.4367830765
3380  8  15.8935076065  13.1610078725  30.4078171019
3381  8  13.2307947525  11.7900885253  30.4085303531
3382  8  16.7216848981  8.7185433024  28.1981279044
3383  8  19.0085702187  10.0917976544  28.1973305707
3384  8  16.7211781441  11.4661079246  28.1969910065
3385  8  14.2444863621  10.2547820365  32.6490633103
3386  8  14.2455102717  13.0043289208  32.6461018246
3387  8  16.5322423268  11.6291129402  32.6473784744
3388  8  16.7211338509  11.7900885253  37.0985858962
3389  8  14.2455943487  9.9278503543  37.1268386196
3390  8  14.0584209969  13.1610078725  37.0978726450
3391  4  14.9680671815  11.6452463871  40.6786134317
3392  4  17.4441155350  10.0826131455  46.9268934053
3393  4  14.9662985600  8.5716415750  45.1587665369
3394  4  14.9694411073  11.6171118627  51.3773877153
3395  4  17.4446489759  10.1079900914  49.6088295016
3396  4  14.9682035961  8.5430086263  42.4770515047
3397  4  17.4597416717  10.0826131455  53.6169489485
3398  4  14.9838614219  11.6452463871  47.3686689748
3399  4  14.9824874961  11.6171118627  44.6873321722
3400  4  14.9856300434  8.5716415750  51.8488220800
3401  4  14.9837250073  8.5430086264  49.1671070477
3402  4  17.4592082309  10.1079900914  42.9187739585
3403  8  15.7064183316  13.0043289209  52.7162684539
3404  8  13.4196862765  11.6291129402  52.7175451038
3405  8  15.7074422413  10.2547820365  52.7192299397
3406  8  18.1826790627  11.4661079246  48.2671576358
3407  8  18.1821723087  8.7185433024  48.2682945338
3408  8  15.8952869880  10.0917976544  48.2674972000
3409  8  15.7063342547  9.9278503543  43.8168941627
3410  8  15.8935076065  13.1610078726  43.7879281882
3411  8  13.2307947525  11.7900885253  43.7886414394
3412  8  16.7216848980  8.7185433024  41.5782389907
3413  8  19.0085702187  10.0917976544  41.5774416569
3414  8  16.7211781441  11.4661079245  41.5771020927
3415  8  14.2444863621  10.2547820365  46.0291743966
3416  8  14.2455102717  13.0043289209  46.0262129108
3417  8  16.5322423269  11.6291129403  46.0274895606
3418  8  16.7211338509  11.7900885253  50.4786969825
3419  8  14.2455943487  9.9278503543  50.5069497058
3420  8  14.0584209969  13.1610078725  50.4779837313
3421  4  14.9680671815  11.6452463871  54.0587245179
3422  4  17.4441155350  10.0826131455  60.3070044917
3423  4  14.9662985600  8.5716415749  58.5388776231
3424  4  14.9694411072  11.6171118627  64.7574988015
3425  4  17.4446489759  10.1079900913  62.9889405880
3426  4  14.9682035961  8.5430086263  55.8571625909
3427  4  17.4597416717  10.0826131455  66.9970600347
3428  4  14.9838614219  11.6452463871  60.7487800611
3429  4  14.9824874961  11.6171118627  58.0674432585
3430  4  14.9856300434  8.5716415749  65.2289331663
3431  4  14.9837250073  8.5430086263  62.5472181341
3432  4  17.4592082309  10.1079900913  56.2988850448
3433  8  15.7064183316  13.0043289209  66.0963795402
3434  8  13.4196862765  11.6291129403  66.0976561900
3435  8  15.7074422413  10.2547820365  66.0993410259
3436  8  18.1826790627  11.4661079245  61.6472687222
3437  8  18.1821723087  8.7185433024  61.6484056201
3438  8  15.8952869880  10.0917976544  61.6476082864
3439  8  15.7063342547  9.9278503543  57.1970052490
3440  8  15.8935076065  13.1610078725  57.1680392744
3441  8  13.2307947525  11.7900885252  57.1687525257
3442  8  16.7216848980  8.7185433024  54.9583500769
3443  8  19.0085702187  10.0917976544  54.9575527432
3444  8  16.7211781440  11.4661079245  54.9572131790
3445  8  14.2444863621  10.2547820364  59.4092854829
3446  8  14.2455102717  13.0043289208  59.4063239971
3447  8  16.5322423268  11.6291129402  59.4076006469
3448  8  16.7211338509  11.7900885253  63.8588080688
3449  8  14.2455943487  9.9278503543  63.8870607921
3450  8  14.0584209968  13.1610078725  63.8580948176
3451  4  12.4947734072  16.2470498243  0.5097863375
3452  4  14.9676288495  14.6935193267  6.7555003826
3453  4  12.4913910420  13.1838987561  4.9875735765
3454  4  12.4972553877  16.2409629502  11.2127953907
3455  4  14.9742395340  14.7136538364  9.4415207497
3456  4  12.4898471661  13.1529388950  2.3069034781
3457  4  14.9842997539  14.6935193267  13.4455559258
3458  4  12.5052265928  16.2470498242  7.1998418807
3459  4  12.5027446123  16.2409629501  4.5227398476
3460  4  12.5086089580  13.1838987561  11.6776291196
3461  4  12.5101528339  13.1529388949  8.9969590213
3462  4  14.9776890693  14.7136538364  2.7514652065
3463  8  13.2337818152  17.6095067681  12.5567628261
3464  8  10.9449115397  16.2473887279  12.5433470610
3465  8  13.2305010851  14.8604418458  12.5417097163
3466  8  15.7099326737  16.0586881781  8.1045198615
3467  8  15.7095171946  13.3260627175  8.0952726849
3468  8  13.4240933710  14.6952545174  8.0998329334
3469  8  13.2216500401  14.5474117237  3.6451723196
3470  8  13.4087710215  17.8107637509  3.6153590349
3471  8  10.7494768554  16.3902542852  3.6391897912
3472  8  14.2424114087  13.3260627175  1.4052171417
3473  8  16.5278352324  14.6952545174  1.4097773903
3474  8  14.2419959297  16.0586881781  1.4144643183
3475  8  11.7694989149  14.8604418458  5.8516541732
3476  8  11.7662181849  17.6095067681  5.8667072829
3477  8  14.0550884604  16.2473887279  5.8532915179
3478  8  14.2505231446  16.3902542853  10.3292453344
3479  8  11.7783499599  14.5474117237  10.3352278628
3480  8  11.5912289785  17.8107637510  10.3054145781
3481  4  12.4947734072  16.2470498242  13.8898974238
3482  4  14.9676288495  14.6935193267  20.1356114689
3483  4  12.4913910420  13.1838987561  18.3676846627
3484  4  12.4972553877  16.2409629501  24.5929064770
3485  4  14.9742395340  14.7136538364  22.8216318359
3486  4  12.4898471662  13.1529388950  15.6870145645
3487  4  14.9842997539  14.6935193267  26.8256670120
3488  4  12.5052265928  16.2470498243  20.5799529669
3489  4  12.5027446124  16.2409629502  17.9028509339
3490  4  12.5086089580  13.1838987561  25.0577402059
3491  4  12.5101528339  13.1529388950  22.3770701076
3492  4  14.9776890694  14.7136538364  16.1315762928
3493  8  13.2337818151  17.6095067681  25.9368739123
3494  8  10.9449115396  16.2473887279  25.9234581473
3495  8  13.2305010851  14.8604418458  25.9218208026
3496  8  15.7099326737  16.0586881780  21.4846309477
3497  8  15.7095171946  13.3260627175  21.4753837711
3498  8  13.4240933710  14.6952545174  21.4799440196
3499  8  13.2216500402  14.5474117237  17.0252834059
3500  8  13.4087710215  17.8107637510  16.9954701212
3501  8  10.7494768554  16.3902542853  17.0193008775
3502  8  14.2424114088  13.3260627175  14.7853282280
3503  8  16.5278352324  14.6952545174  14.7898884765
3504  8  14.2419959297  16.0586881780  14.7945754046
3505  8  11.7694989149  14.8604418458  19.2317652594
3506  8  11.7662181849  17.6095067681  19.2468183692
3507  8  14.0550884604  16.2473887279  19.2334026042
3508  8  14.2505231446  16.3902542852  23.7093564206
3509  8  11.7783499598  14.5474117237  23.7153389491
3510  8  11.5912289785  17.8107637509  23.6855256643
3511  4  12.4947734072  16.2470498243  27.2700085101
3512  4  14.9676288495  14.6935193267  33.5157225552
3513  4  12.4913910420  13.1838987561  31.7477957490
3514  4  12.4972553877  16.2409629501  37.9730175633
3515  4  14.9742395340  14.7136538364  36.2017429222
3516  4  12.4898471661  13.1529388950  29.0671256507
3517  4  14.9842997538  14.6935193267  40.2057780983
3518  4  12.5052265928  16.2470498242  33.9600640532
3519  4  12.5027446124  16.2409629502  31.2829620201
3520  4  12.5086089580  13.1838987560  38.4378512922
3521  4  12.5101528339  13.1529388949  35.7571811939
3522  4  14.9776890694  14.7136538365  29.5116873791
3523  8  13.2337818151  17.6095067681  39.3169849986
3524  8  10.9449115396  16.2473887279  39.3035692336
3525  8  13.2305010851  14.8604418458  39.3019318889
3526  8  15.7099326737  16.0586881780  34.8647420340
3527  8  15.7095171946  13.3260627175  34.8554948574
3528  8  13.4240933710  14.6952545173  34.8600551059
3529  8  13.2216500402  14.5474117237  30.4053944922
3530  8  13.4087710215  17.8107637510  30.3755812074
3531  8  10.7494768554  16.3902542853  30.3994119638
3532  8  14.2424114088  13.3260627175  28.1654393143
3533  8  16.5278352324  14.6952545174  28.1699995628
3534  8  14.2419959297  16.0586881781  28.1746864909
3535  8  11.7694989149  14.8604418458  32.6118763457
3536  8  11.7662181848  17.6095067681  32.6269294554
3537  8  14.0550884604  16.2473887279  32.6135136904
3538  8  14.2505231446  16.3902542852  37.0894675069
3539  8  11.7783499598  14.5474117237  37.0954500354
3540  8  11.5912289785  17.8107637509  37.0656367506
3541  4  12.4947734072  16.2470498242  40.6501195963
3542  4  14.9676288495  14.6935193267  46.8958336415
3543  4  12.4913910420  13.1838987561  45.1279068353
3544  4  12.4972553877  16.2409629501  51.3531286495
3545  4  14.9742395340  14.7136538364  49.5818540085
3546  4  12.4898471661  13.1529388950  42.4472367370
3547  4  14.9842997539  14.6935193266  53.5858891846
3548  4  12.5052265928  16.2470498242  47.3401751395
3549  4  12.5027446123  16.2409629501  44.6630731064
3550  4  12.5086089580  13.1838987560  51.8179623785
3551  4  12.5101528339  13.1529388949  49.1372922802
3552  4  14.9776890693  14.7136538364  42.8917984653
3553  8  13.2337818152  17.6095067680  52.6970960849
3554  8  10.9449115397  16.2473887279  52.6836803198
3555  8  13.2305010851  14.8604418458  52.6820429751
3556  8  15.7099326737  16.0586881780  48.2448531203
3557  8  15.7095171947  13.3260627175  48.2356059437
3558  8  13.4240933710  14.6952545174  48.2401661923
3559  8  13.2216500402  14.5474117237  43.7855055785
3560  8  13.4087710215  17.8107637509  43.7556922937
3561  8  10.7494768554  16.3902542852  43.7795230500
3562  8  14.2424114087  13.3260627175  41.5455504006
3563  8  16.5278352324  14.6952545174  41.5501106491
3564  8  14.2419959297  16.0586881780  41.5547975772
3565  8  11.7694989149  14.8604418458  45.9919874320
3566  8  11.7662181848  17.6095067680  46.0070405418
3567  8  14.0550884603  16.2473887279  45.9936247767
3568  8  14.2505231446  16.3902542852  50.4695785932
3569  8  11.7783499598  14.5474117237  50.4755611216
3570  8  11.5912289785  17.8107637509  50.4457478368
3571  4  12.4947734072  16.2470498242  54.0302306826
3572  4  14.9676288495  14.6935193266  60.2759447277
3573  4  12.4913910420  13.1838987560  58.5080179216
3574  4  12.4972553876  16.2409629502  64.7332397358
3575  4  14.9742395340  14.7136538364  62.9619650948
3576  4  12.4898471662  13.1529388949  55.8273478233
3577  4  14.9842997538  14.6935193267  66.9660002708
3578  4  12.5052265928  16.2470498242  60.7202862257
3579  4  12.5027446124  16.2409629501  58.0431841927
3580  4  12.5086089579  13.1838987561  65.1980734647
3581  4  12.5101528338  13.1529388949  62.5174033664
3582  4  14.9776890694  14.7136538364  56.2719095516
3583  8  13.2337818152  17.6095067681  66.0772071711
3584  8  10.9449115396  16.2473887279  66.0637914061
3585  8  13.2305010851  14.8604418458  66.0621540614
3586  8  15.7099326737  16.0586881780  61.6249642066
3587  8  15.7095171946  13.3260627175  61.6157170300
3588  8  13.4240933710  14.6952545174  61.6202772785
3589  8  13.2216500402  14.5474117236  57.1656166648
3590  8  13.4087710215  17.8107637509  57.1358033800
3591  8  10.7494768555  16.3902542852  57.1596341363
3592  8  14.2424114088  13.3260627175  54.9256614868
3593  8  16.5278352324  14.6952545173  54.9302217353
3594  8  14.2419959297  16.0586881780  54.9349086634
3595  8  11.7694989149  14.8604418458  59.3720985182
3596  8  11.7662181849  17.6095067680  59.3871516280
3597  8  14.0550884604  16.2473887278  59.3737358630
3598  8  14.2505231446  16.3902542852  63.8496896795
3599  8  11.7783499598  14.5474117237  63.8556722079
3600  8  11.5912289784  17.8107637510  63.8258589231
3601  4  9.9882342811  20.7461925948  0.4808686617
3602  4  12.5011521983  19.2954846103  6.7314685602
3603  4  10.0182856045  17.8169777808  4.9549465970
3604  4  10.0903446633  20.9319836525  11.1996497699
3605  4  12.5048110176  19.3816811402  9.4411719820
3606  4  10.0174049266  17.7519760261  2.3002786196
3607  4  12.4988478017  19.2954846103  13.4215241033
3608  4  10.0598371156  20.7461925948  7.1709242048
3609  4  9.9577267334  20.9319836525  4.5095942268
3610  4  10.0297857922  17.8169777809  11.6450021401
3611  4  10.0306664701  17.7519760261  8.9903341628
3612  4  12.4951889824  19.3816811401  2.7511164388
3613  8  10.5210171092  22.2576581954  12.7471155109
3614  8  8.5125902170  20.6118390824  12.5518730920
3615  8  10.7730052230  19.4608672041  12.5338057680
3616  8  13.2809210782  20.4640297325  8.0648651373
3617  8  13.2353374390  17.9059191528  8.0771708527
3618  8  11.0165275695  19.2339677300  8.0933499027
3619  8  10.7505297016  19.1619444124  3.5977562713
3620  8  10.2684383341  22.6753150225  3.5348534500
3621  8  8.2743953758  20.7135361035  3.6253531414
3622  8  11.7646625610  17.9059191528  1.3871153095
3623  8  13.9834724306  19.2339677301  1.4032943596
3624  8  11.7190789218  20.4640297325  1.3748095942
3625  8  9.2750661736  19.4608672041  5.8437502248
3626  8  9.5270542875  22.2576581953  6.0570599677
3627  8  11.5354811796  20.6118390824  5.8618175489
3628  8  11.7736760208  20.7135361036  10.3154086845
3629  8  9.2975416950  19.1619444125  10.2878118144
3630  8  9.7796330624  22.6753150226  10.2249089933
3631  4  9.9882342810  20.7461925948  13.8609797480
3632  4  12.5011521982  19.2954846104  20.1115796464
3633  4  10.0182856045  17.8169777809  18.3350576833
3634  4  10.0903446633  20.9319836525  24.5797608562
3635  4  12.5048110176  19.3816811401  22.8212830682
3636  4  10.0174049265  17.7519760261  15.6803897059
3637  4  12.4988478017  19.2954846104  26.8016351895
3638  4  10.0598371155  20.7461925949  20.5510352910
3639  4  9.9577267334  20.9319836525  17.8897053130
3640  4  10.0297857922  17.8169777809  25.0251132264
3641  4  10.0306664701  17.7519760261  22.3704452490
3642  4  12.4951889824  19.3816811401  16.1312275251
3643  8  10.5210171092  22.2576581954  26.1272265972
3644  8  8.5125902170  20.6118390824  25.9319841782
3645  8  10.7730052230  19.4608672041  25.9139168542
3646  8  13.2809210781  20.4640297325  21.4449762236
3647  8  13.2353374390  17.9059191528  21.4572819389
3648  8  11.0165275694  19.2339677301  21.4734609890
3649  8  10.7505297017  19.1619444125  16.9778673575
3650  8  10.2684383344  22.6753150226  16.9149645364
3651  8  8.2743953759  20.7135361037  17.0054642274
3652  8  11.7646625610  17.9059191528  14.7672263958
3653  8  13.9834724305  19.2339677300  14.7834054458
3654  8  11.7190789218  20.4640297324  14.7549206805
3655  8  9.2750661736  19.4608672041  19.2238613111
3656  8  9.5270542872  22.2576581953  19.4371710538
3657  8  11.5354811795  20.6118390825  19.2419286352
3658  8  11.7736760209  20.7135361035  23.6955197709
3659  8  9.2975416950  19.1619444125  23.6679229006
3660  8  9.7796330626  22.6753150226  23.6050200794
3661  4  9.9882342810  20.7461925948  27.2410908342
3662  4  12.5011521982  19.2954846103  33.4916907327
3663  4  10.0182856044  17.8169777809  31.7151687695
3664  4  10.0903446633  20.9319836525  37.9598719424
3665  4  12.5048110176  19.3816811401  36.2013941545
3666  4  10.0174049265  17.7519760261  29.0605007921
3667  4  12.4988478018  19.2954846104  40.1817462758
3668  4  10.0598371155  20.7461925948  33.9311463773
3669  4  9.9577267332  20.9319836525  31.2698163993
3670  4  10.0297857922  17.8169777808  38.4052243126
3671  4  10.0306664701  17.7519760261  35.7505563353
3672  4  12.4951889824  19.3816811402  29.5113386113
3673  8  10.5210171093  22.2576581953  39.5073376833
3674  8  8.5125902171  20.6118390824  39.3120952645
3675  8  10.7730052231  19.4608672041  39.2940279405
3676  8  13.2809210782  20.4640297324  34.8250873099
3677  8  13.2353374390  17.9059191528  34.8373930252
3678  8  11.0165275694  19.2339677301  34.8535720752
3679  8  10.7505297016  19.1619444125  30.3579784438
3680  8  10.2684383341  22.6753150225  30.2950756226
3681  8  8.2743953757  20.7135361036  30.3855753138
3682  8  11.7646625610  17.9059191528  28.1473374820
3683  8  13.9834724305  19.2339677301  28.1635165321
3684  8  11.7190789218  20.4640297325  28.1350317667
3685  8  9.2750661735  19.4608672041  32.6039723973
3686  8  9.5270542873  22.2576581953  32.8172821401
3687  8  11.5354811795  20.6118390824  32.6220397214
3688  8  11.7736760209  20.7135361035  37.0756308570
3689  8  9.2975416950  19.1619444124  37.0480339869
3690  8  9.7796330626  22.6753150226  36.9851311657
3691  4  9.9882342811  20.7461925948  40.6212019204
3692  4  12.5011521982  19.2954846103  46.8718018189
3693  4  10.0182856045  17.8169777808  45.0952798558
3694  4  10.0903446634  20.9319836525  51.3399830287
3695  4  12.5048110176  19.3816811401  49.5815052407
3696  4  10.0174049266  17.7519760261  42.4406118784
3697  4  12.4988478017  19.2954846103  53.5618573620
3698  4  10.0598371155  20.7461925948  47.3112574635
3699  4  9.9577267333  20.9319836525  44.6499274855
3700  4  10.0297857922  17.8169777809  51.7853353989
3701  4  10.0306664701  17.7519760261  49.1306674216
3702  4  12.4951889824  19.3816811401  42.8914496976
3703  8  10.5210171092  22.2576581954  52.8874487696
3704  8  8.5125902171  20.6118390824  52.6922063508
3705  8  10.7730052231  19.4608672041  52.6741390267
3706  8  13.2809210781  20.4640297324  48.2051983961
3707  8  13.2353374390  17.9059191528  48.2175041114
3708  8  11.0165275694  19.2339677300  48.2336831615
3709  8  10.7505297016  19.1619444124  43.7380895301
3710  8  10.2684383341  22.6753150225  43.6751867088
3711  8  8.2743953758  20.7135361036  43.7656864001
3712  8  11.7646625610  17.9059191528  41.5274485683
3713  8  13.9834724306  19.2339677301  41.5436276184
3714  8  11.7190789218  20.4640297325  41.5151428530
3715  8  9.2750661735  19.4608672040  45.9840834836
3716  8  9.5270542873  22.2576581953  46.1973932264
3717  8  11.5354811795  20.6118390824  46.0021508076
3718  8  11.7736760209  20.7135361035  50.4557419433
3719  8  9.2975416950  19.1619444125  50.4281450732
3720  8  9.7796330627  22.6753150226  50.3652422520
3721  4  9.9882342811  20.7461925948  54.0013130067
3722  4  12.5011521983  19.2954846103  60.2519129052
3723  4  10.0182856045  17.8169777809  58.4753909420
3724  4  10.0903446633  20.9319836525  64.7200941150
3725  4  12.5048110176  19.3816811401  62.9616163270
3726  4  10.0174049266  17.7519760261  55.8207229647
3727  4  12.4988478018  19.2954846104  66.9419684483
3728  4  10.0598371156  20.7461925948  60.6913685498
3729  4  9.9577267334  20.9319836525  58.0300385718
3730  4  10.0297857922  17.8169777809  65.1654464852
3731  4  10.0306664701  17.7519760261  62.5107785079
3732  4  12.4951889824  19.3816811401  56.2715607838
3733  8  10.5210171092  22.2576581954  66.2675598560
3734  8  8.5125902171  20.6118390824  66.0723174371
3735  8  10.7730052231  19.4608672041  66.0542501130
3736  8  13.2809210782  20.4640297324  61.5853094824
3737  8  13.2353374389  17.9059191528  61.5976151977
3738  8  11.0165275694  19.2339677300  61.6137942477
3739  8  10.7505297017  19.1619444125  57.1182006163
3740  8  10.2684383342  22.6753150226  57.0552977951
3741  8  8.2743953758  20.7135361036  57.1457974863
3742  8  11.7646625611  17.9059191528  54.9075596545
3743  8  13.9834724306  19.2339677300  54.9237387046
3744  8  11.7190789218  20.4640297324  54.8952539392
3745  8  9.2750661736  19.4608672041  59.3641945698
3746  8  9.5270542874  22.2576581953  59.5775043127
3747  8  11.5354811796  20.6118390824  59.3822618939
3748  8  11.7736760208  20.7135361035  63.8358530295
3749  8  9.2975416950  19.1619444125  63.8082561595
3750  8  9.7796330626  22.6753150226  63.7453533383
3751  9  12.4798215084  12.4798215084  33.5502777157
