LAMMPS data file via write_data, version 11 Feb 2026, timestep = 148, units = metal

362 atoms
8 atom types

0 12.447907776 xlo xhi
0 12.9362452296 ylo yhi
0 52.3600831054 zlo zhi

Masses

1 26.9815
2 10.811
3 12.011
4 51.9961
5 55.845
6 95.95999999999999
7 58.6934
8 1.008

Atoms # atomic/kk

1 7 1.1454887647 1.4119103196 14.1727134823 0 0 0
2 7 3.6091798862 1.0775950399 14.6663881768 0 0 0
3 5 6.0772850531 0.954497258 14.908653887 0 0 0
9 7 7.3911650039 3.162946519 14.9172264638 0 0 0
5 7 11.0504923559 1.2606576958 14.598406425 0 0 0
6 7 12.3725660878 3.463623031 14.8187348856 -1 0 0
10 7 9.9138053275 3.3980768202 14.7771477152 0 0 0
16 4 0.4701376227 7.820166877 14.7956783455 0 0 0
20 7 10.446209215 7.6773853607 14.1808203286 0 0 0
26 7 0.1288663036 12.2121391051 14.9065503328 0 0 0
27 7 2.4831127889 11.815928569 14.4599737125 0 0 0
23 7 6.9223598339 9.0132799281 14.7752783775 0 0 0
28 7 4.9604433454 11.7947072893 14.6033267484 0 0 0
29 6 7.4882084661 11.5001811281 14.9172801882 0 0 0
24 7 9.2120310339 9.7459848435 14.5383087074 0 0 0
25 7 11.7635949967 9.8821998282 14.786977583 0 0 0
30 7 10.0625190034 11.9528272794 14.7579148329 0 0 0
7 7 2.4283629065 3.2822450627 14.9881346894 0 0 0
31 6 0.1328031287 1.5743575848 16.5416308897 0 0 0
32 7 2.6055093131 1.6927909964 16.9116860087 0 0 0
36 7 1.2202560891 3.8636882475 17.0259254174 0 0 0
37 7 3.7110784212 3.8448338925 17.0531784654 0 0 0
56 2 1.914705669 0.32836720239999906 15.6053723877 0 1 0
8 7 4.9294553752 3.1348423061 15.0068982697 0 0 0
33 7 4.9862005742 1.67252633 16.9510996016 0 0 0
34 7 7.4108517445 1.7767126087 16.9761183371 0 0 0
38 5 6.1794154888 3.8675942272 16.9851841422 0 0 0
4 6 8.6413267943 1.0042858327 14.9969790163 0 0 0
35 7 9.9861892678 1.6700282838 16.9400599926 0 0 0
39 7 8.7314378433 3.8703950509 16.8582664891 0 0 0
40 7 11.1912731091 3.8144464499 16.9966305862 0 0 0
11 7 1.2355940608 5.5026431298 15.0767186508 0 0 0
12 7 3.7240530163 5.3238748181 15.0875103273 0 0 0
17 7 2.6535920405 7.5027748451 15.1497942055 0 0 0
42 7 2.4545341247 6.1351681199 17.1375401145 0 0 0
47 7 3.887313657 8.205412347 17.059486297 0 0 0
13 7 6.1794836242 5.3131655815 15.0304414802 0 0 0
18 7 5.0805180546 7.4864993095 15.0647231601 0 0 0
19 2 7.0605303707 7.0266184404 15.385622426 0 0 0
43 7 4.9533942811 5.9705257778 17.0908342653 0 0 0
44 7 7.4777944783 5.9481975345 17.0840538523 0 0 0
48 7 6.3474873574 8.062655935 17.0457573992 0 0 0
14 7 8.7049321287 5.6662899182 14.9617322912 0 0 0
15 6 11.1813378817 5.612124041 15.1809815429 0 0 0
41 7 12.442892639199998 6.0058690444 17.2227572666 -1 0 0
45 7 9.9241882319 6.0462121458 17.2492146194 0 0 0
49 7 8.7173557277 7.9296122675 16.0657435651 0 0 0
50 7 11.1861950752 7.998616419 16.4498688817 0 0 0
85 6 9.7882876899 8.4810320373 18.5368136299 0 0 0
21 2 1.1661812644 10.4860239746 15.2089673103 0 0 0
22 7 2.9706173798 9.8726452768 15.6411650762 0 0 0
46 7 0.795414954 9.3748925792 16.8709079261 0 0 0
52 7 1.3511135545 11.8722759487 16.9851012455 0 0 0
57 7 3.7546244599 12.4443607337 16.6057727813 0 0 0
87 1 3.665729271 10.7232420717 18.2616407096 0 0 0
53 7 5.3366454137 10.1296584158 16.3233309466 0 0 0
54 7 7.7343649026 10.0615025715 16.9428639453 0 0 0
58 6 6.3203117768 12.3744197155 16.9509109783 0 0 0
51 3 11.5204929953 9.3779108621 17.6583861976 -1 0 0
55 7 10.1860634909 10.2836276937 16.6776516331 0 0 0
59 7 8.8374627373 12.3887068049 16.9581011774 0 0 0
60 7 11.2436560404 12.4747099952 16.8789518155 0 0 0
61 6 0.0485164334 0.0063735538 18.9909010428 0 0 0
66 6 1.3937868998 2.1735075333 19.0495514763 0 0 0
67 5 3.8318307737 2.1774089647 19.073494443 0 0 0
91 4 1.3617531422 0.7566149023 21.2961667613 0 0 0
92 7 3.7539852971 0.7319595843 21.0512741759 0 0 0
96 7 0.0828491417 2.8046390237 21.1835039588 0 0 0
97 7 2.5934658034 2.8574404178 21.1953671164 0 0 0
63 5 4.957520038 0.0606560815 18.9577108038 0 0 0
64 7 7.4424202569 0.0898428093 19.0972319865 0 0 0
68 7 6.1956863184 2.1665541982 19.0760401558 0 0 0
74 6 7.5025658392 4.2930488092 19.0506011985 0 0 0
93 7 6.260566516 0.7271507652 21.1694380599 0 0 0
98 7 5.0264664892 2.8814125382 21.1495579901 0 0 0
99 5 7.4800701229 2.8227539453 21.1651173647 0 0 0
65 7 10.0025726809 0.0879005866 19.0920525763 0 0 0
69 7 8.7393044619 2.1616497846 18.9913278452 0 0 0
70 7 11.2878592715 2.2458345733 18.9500729362 0 0 0
94 7 8.7148037681 0.7211924515 21.2320027073 0 0 0
95 7 11.3053180847 0.678084637 21.1954767436 0 0 0
100 6 10.0317133433 2.7922061032 21.0509099319 0 0 0
72 7 2.4845898017 4.3965760651 19.1030476938 0 0 0
76 7 1.2008790266 6.4422873601 19.256068769 0 0 0
77 7 3.784702203 6.5149421218 19.161150493 0 0 0
82 6 2.3595915143 8.496655588 18.9114509164 0 0 0
101 7 1.2051488201 4.9939772703 21.2554937471 0 0 0
102 6 3.7305436427 5.0501339338 21.2257439367 0 0 0
107 7 2.4692736667 7.1804618195 21.2286489863 0 0 0
73 7 4.9767258102 4.3240944737 19.083129246 0 0 0
78 7 6.1972840932 6.5267860971 19.1358692558 0 0 0
103 7 6.2759618479 5.0547685341 21.1719339889 0 0 0
108 7 5.0124393069 7.2362995053 21.2227761916 0 0 0
109 7 7.4200857774 7.256279911 21.2610126297 0 0 0
71 1 12.384381269299999 4.3858072042 19.1822707577 -1 0 0
75 5 9.909486263 4.3130637524 19.0294843997 0 0 0
79 7 8.6263389279 6.4797195525 19.3192167185 0 0 0
80 7 11.1143243567 6.4282026878 19.3541503896 0 0 0
81 4 12.3434377247 8.4805640427 19.1966659005 -1 0 0
104 7 8.7416108042 5.0308018458 21.2396183528 0 0 0
105 3 10.085005925282069 4.3796278063648115 22.284580012569762 0 0 0
106 7 12.4360138025 7.1044785977 21.3119334107 -1 0 0
110 7 9.8910938037 7.1736872078 21.2981339562 0 0 0
62 7 2.588251935 12.8619142834 19.0342742082 0 -1 0
86 7 1.2824485691 10.6979241478 19.1574392561 0 0 0
111 7 1.1803968843 9.297246223 21.1920510117 0 0 0
112 6 3.7023652841 9.3634289463 21.1390806223 0 0 0
116 1 0.037739456 11.4942994481 21.2937056893 0 0 0
117 7 2.4711494649 11.5360476797 21.1412532948 0 0 0
83 7 4.9469767378 8.7406771511 19.0793504621 0 0 0
84 7 7.3982270593 8.6474070803 19.0815809353 0 0 0
88 7 6.1632427861 10.8089778804 18.925915656 0 0 0
113 7 6.2147244044 9.4168985357 21.0311556163 0 0 0
118 7 4.964692632 11.5483935687 21.0384035582 0 0 0
119 4 7.4002762741 11.5438757954 21.0705972545 0 0 0
89 6 8.7320837203 10.8577564258 19.0343149764 0 0 0
90 4 11.272982912 10.8286089096 18.9346029402 0 0 0
114 7 8.7004877829 9.3236936667 20.9887083209 0 0 0
115 6 11.1097657727 9.2595762715 21.1715958888 0 0 0
120 7 9.9866369332 11.5240848583 21.1780515316 0 0 0
121 7 0.07818159293331811 1.3812829742828845 23.309584279727495 0 0 0
122 7 2.569535342915941 1.392655488021793 23.329642433151175 0 0 0
126 6 1.3493862150042806 3.575751440468353 23.265855283828717 0 0 0
127 7 3.844843085443307 3.579180394208842 23.36225898314942 0 0 0
156 1 1.4739036132436043 2.119054826201559 25.51518567951728 0 0 0
157 7 3.960227548211299 2.124817156648029 25.444813826612403 0 0 0
162 7 2.5928456485015903 4.250994990284813 25.429366797720494 0 0 0
123 7 4.986294274287462 1.4175897098906114 23.162339724948197 0 0 0
124 7 7.387767709143684 1.4895054152822078 23.48466634392935 0 0 0
128 7 6.297489740079077 3.653479333520413 23.18319598229529 0 0 0
153 7 5.189867840443019 0.058462679698985415 25.29329755430977 0 0 0
158 2 5.768510974940746 2.4473236275513557 24.627857789171795 0 0 0
163 7 5.111478141710093 4.232190923508878 25.422758381449686 0 0 0
164 5 7.470592997933077 4.0513785231661625 25.360545238478533 0 0 0
125 7 10.037103416527927 1.416058685558004 23.354237470895328 0 0 0
129 7 8.74507294884228 3.5346853945790757 23.347384694801338 0 0 0
130 4 11.360996048314234 3.604764841469638 23.4022147552482 0 0 0
155 4 10.112654140694966 0.050332577714761066 25.556184915958607 0 0 0
159 7 8.862122534309371 2.0870670516027685 25.446732787909077 0 0 0
160 7 11.394456803898045 2.142571314914393 25.420373929594238 0 0 0
165 7 10.058826776752534 4.204888060625626 25.412194188956054 0 0 0
131 7 0.06481917715118939 5.758292353591017 23.403723039593636 0 0 0
132 7 2.5363841189641176 5.7860650515129315 23.360617691055758 0 0 0
136 7 1.2967355891236096 7.899537133125236 23.304339196357276 0 0 0
137 7 3.770135109428713 7.9672236346061265 23.27818494464041 0 0 0
161 4 0.10290153952730074 4.327002234062814 25.469486755631106 0 0 0
166 7 1.331346181934004 6.4002013850922115 25.430992547544076 0 0 0
167 7 3.8011682291339377 6.423579439104489 25.444417310846628 0 0 0
171 6 0.10267647008925981 8.599040205682456 25.428740032781477 0 0 0
172 7 2.61560891822546 8.593416015186909 25.376119794750057 0 0 0
133 6 5.058319855692695 5.845548953439959 23.387988890035945 0 0 0
134 7 7.552362862618334 5.764866677714654 23.314961756567385 0 0 0
138 7 6.303450155389373 7.98290812745984 23.341810811806248 0 0 0
168 7 6.3577570345774586 6.380269574802293 25.434874673716106 0 0 0
173 7 5.097109504844504 8.538345025452516 25.333335727889306 0 0 0
135 7 10.057458749456806 5.8113731143218335 23.387965230776906 0 0 0
139 4 8.68676280136301 7.927678295714115 23.243458770150237 0 0 0
140 4 11.275334655284734 7.875614998845225 23.317238958905776 0 0 0
169 7 8.768413641158817 6.316886753688157 25.383784698476124 0 0 0
170 7 11.28250917713551 6.393153671783331 25.44835359018914 0 0 0
175 6 9.878659720203597 8.552233342781626 25.52215175477498 0 0 0
141 7 0.012707284144922866 10.052974897980997 23.343148595191604 0 0 0
142 7 2.4888031656428677 10.091268235769729 23.25455824150019 0 0 0
146 7 1.2949247885373896 12.220451787517352 23.350351384782705 0 0 0
147 7 3.7989730881295007 12.229282829603866 23.18044434032589 0 0 0
151 4 0.08501270075672986 12.860217426560252 25.41468010089167 0 -1 0
152 7 2.6473454329037702 12.928845552966894 25.37391077684172 0 -1 0
176 7 1.3348748093840068 10.783842575128146 25.431012239705122 0 0 0
177 6 3.8718842304580665 10.800664899830563 25.274308440675195 0 0 0
143 7 5.047361603289539 10.090596637311156 23.181442508929997 0 0 0
144 7 7.497670706192543 10.075241975372318 22.919757824458053 0 0 0
148 4 6.204852028313599 12.255956816263135 23.185776919407637 0 0 0
154 7 7.592690902185146 12.928268574624532 25.47308343213658 0 -1 0
178 6 6.609317607247436 10.52645997346517 25.22100993814238 0 0 0
145 7 9.987824570212673 10.059594526915278 23.31504857671955 0 0 0
149 6 8.700372525473705 12.258529715659334 23.328979096221236 0 0 0
150 7 11.239302731322397 12.203490618962919 23.40495568478246 0 0 0
174 3 8.405274940028336 9.493004518619516 24.423300469152927 0 0 0
179 5 8.990664615866779 10.908234867423365 25.580176144054338 0 0 0
180 5 11.328583477150183 10.852098735350976 25.50495982584488 0 0 0
181 7 1.383952353141752 0.6504590536289566 27.496571771374526 0 0 0
182 7 3.8701747733324416 0.6875551033722004 27.438145381879767 0 0 0
186 7 0.16575325952509248 2.8438542635771196 27.495242451057713 0 0 0
187 7 2.6545054402616963 2.8380261427620463 27.570231727997676 0 0 0
211 7 0.20438936522501072 1.430845345458241 29.59072669746661 0 0 0
212 7 2.7050017415993723 1.347364288795366 29.584514982151166 0 0 0
216 7 1.40630280156571 3.5403349038308827 29.594217541291098 0 0 0
217 4 3.819435022882841 3.558199572168044 29.60563500462249 0 0 0
183 7 6.303015467481441 0.7003729744172125 27.572160863140045 0 0 0
188 7 5.076721709191514 2.8591450239932374 27.58081883378003 0 0 0
189 7 7.588351334847024 2.7791858688008237 27.465981358774332 0 0 0
213 5 5.1306881114009535 1.4135807441016544 29.604461512127774 0 0 0
214 7 7.606720138197664 1.3414124605896125 29.59460989612009 0 0 0
218 7 6.357909508254531 3.522172624038212 29.550524883081593 0 0 0
184 7 8.879199148891763 0.7049947739660782 27.567963129247243 0 0 0
185 4 11.377951513858303 0.7082987821900505 27.540634772455903 0 0 0
190 7 10.13901292614388 2.8178328392558125 27.4929784856559 0 0 0
215 7 10.118516748627595 1.3894048323373118 29.63228346560149 0 0 0
219 7 8.833280421415532 3.498901761472827 29.53413072384073 0 0 0
220 7 11.36372127647868 3.545547919169585 29.525529094714848 0 0 0
191 7 1.386108455501024 4.991930487766481 27.47731157920132 0 0 0
192 7 3.827810729610292 4.97523687440802 27.488324356904645 0 0 0
196 7 0.13087958795517549 7.142464984025957 27.500755311107234 0 0 0
197 7 2.5736570005584865 7.1776152109848415 27.479965975637366 0 0 0
221 7 0.11516071571416384 5.712027830774513 29.575435095584943 0 0 0
222 7 2.586658188569204 5.7136189060994695 29.559866517834372 0 0 0
226 7 1.3583975727317308 7.8883094410158785 29.555124718376057 0 0 0
227 7 3.8547872883606535 7.897288547730484 29.475063308827394 0 0 0
193 7 6.36281964493276 4.9604864935859645 27.41942057896363 0 0 0
198 7 5.0959675511912765 7.1577027282277195 27.41639610285967 0 0 0
199 7 7.614018490150342 7.172899392014527 27.451815944638376 0 0 0
223 6 5.146542352018518 5.705616352643033 29.498358249848998 0 0 0
224 7 7.637523859510567 5.723590831623978 29.586738676677466 0 0 0
228 7 6.386605911533343 7.897199144743205 29.496879953810133 0 0 0
194 6 8.841267775752527 4.9825896696657175 27.496685111578827 0 0 0
195 7 11.354879176620232 4.979901407223148 27.511865036953353 0 0 0
200 7 10.117659177766644 7.142571253419175 27.542030668266225 0 0 0
225 7 10.095419206028957 5.727022868522359 29.609947803686044 0 0 0
229 7 8.839184222561286 7.867827176267225 29.52635363516628 0 0 0
230 7 11.363390729973766 7.915338137881489 29.526198841690782 0 0 0
201 5 1.3732591188279863 9.31020440292608 27.515365936081928 0 0 0
202 7 3.866401534162764 9.304921136930027 27.37771366597664 0 0 0
206 4 0.18189504740493276 11.462566705347303 27.526086269462294 0 0 0
207 7 2.6056478294559575 11.44200609222844 27.43973080290673 0 0 0
231 7 0.1596367163451874 10.063697331726821 29.56872777263941 0 0 0
232 7 2.6279059435160916 10.009813040654294 29.42776208922491 0 0 0
236 7 1.4691090683951167 12.169128241418033 29.555085503426355 0 0 0
203 7 6.368600150950842 9.270036013720857 27.39000657259464 0 0 0
208 7 5.131802442631281 11.485030368402214 27.322074009050574 0 0 0
209 6 7.576491857915898 11.5103568417235 27.638934516795366 0 0 0
233 7 5.143595332222617 10.038872005786844 29.324610298105142 0 0 0
234 7 7.594528026103899 10.073669407223123 29.66323767981183 0 0 0
238 7 6.206363801132959 12.221961863263978 29.680183637671192 0 0 0
204 7 8.832206847028337 9.353497504563885 27.62346467228498 0 0 0
205 7 11.339235063223239 9.40136364832775 27.547846480656094 0 0 0
210 7 10.145443875017072 11.539819535473038 27.584816444492212 0 0 0
235 7 10.07877152461211 10.16514425771801 29.60061833852689 0 0 0
239 4 8.872121675017867 12.240599230702129 29.730898397865253 0 0 0
240 7 11.391025881342552 12.253411750871534 29.562444175350457 0 0 0
237 3 4.027657635604425 0.2888008889417572 30.55889303516013 0 1 0
241 7 0.19657612325732948 0.08841819466288382 31.634833977101646 0 0 0
242 7 2.564313162305243 0.1294713381920732 31.745316016326584 0 0 0
246 4 1.3392580110806944 2.231193678050474 31.667548075389075 0 0 0
247 7 3.8749204180984784 2.141654889958784 31.648249645691497 0 0 0
248 7 6.400567338385358 2.1402787603541547 31.654726495415552 0 0 0
253 7 5.106011649541633 4.302886176303063 31.631423380000662 0 0 0
254 7 7.61398950543014 4.304424952520931 31.59764473556805 0 0 0
249 7 8.845137486146974 2.095837982093341 31.68261307584232 0 0 0
250 7 11.377647431954577 2.1296914546741936 31.658769045294367 0 0 0
255 1 10.10074257883117 4.213025085173938 31.50931969955846 0 0 0
251 7 0.1435534059137272 4.316729893685777 31.654017554003012 0 0 0
252 7 2.6300554346512754 4.311418232362864 31.676369323691336 0 0 0
256 7 1.3257057876203036 6.4956461141664095 31.63686511045671 0 0 0
257 6 3.787813507325165 6.4963590769555255 31.674335802580686 0 0 0
286 7 0.09637823649512775 7.268819230759878 33.62935700395701 0 0 0
258 7 6.344187048229215 6.4885345481776895 31.63141379335098 0 0 0
264 7 7.582241065447211 8.570386982163685 31.62094460746261 0 0 0
259 4 8.81365841338591 6.453383389403315 31.63319858000044 0 0 0
260 7 11.310812270255202 6.481867076476614 31.598080068284613 0 0 0
284 5 8.877975887961897 5.108800233625908 33.58394779015515 0 0 0
285 4 11.350315542034709 5.1474858333483615 33.641965733855415 0 0 0
290 7 10.079506616384306 7.248725499689164 33.595576012477835 0 0 0
261 7 0.1702766027852832 8.698929391417066 31.654003628072047 0 0 0
262 7 2.6589987744753065 8.71348583782326 31.535534915720607 0 0 0
266 7 1.5570727399127087 10.824520650941823 31.566343072341695 0 0 0
267 4 3.9126944549068376 11.274713487418024 30.84222989918196 0 0 0
292 7 3.9539504745452287 9.345347726224249 33.51995271023397 0 0 0
243 7 5.1623301255307465 12.893983094750677 32.10203700130816 0 -1 0
244 7 7.619380164334139 12.931055191248191 31.710568348941553 0 -1 0
263 1 5.0856639918848785 8.757279949041196 31.425451441882423 0 0 0
268 7 6.253706930890106 10.756091547226394 31.581161800748742 0 0 0
293 4 6.4478115502945155 9.31306119171227 33.64658039485651 0 0 0
245 7 10.104844497142029 12.877534060580373 31.866012535158625 0 -1 0
265 6 10.094770707422885 8.672821271067816 31.541573430829967 0 0 0
269 7 8.768494328770034 10.79499622761774 31.747303717820866 0 0 0
270 7 11.422098810149617 10.895714086543567 31.611738940464843 0 0 0
296 3 11.069661911487458 11.823366829829324 33.323383839623226 -1 0 0
271 7 1.4755185816409202 0.8893348617428747 33.7816032519144 0 0 0
272 7 3.916103530091681 0.9467434250267827 33.927974519206316 0 0 0
276 7 0.17080752222408147 2.981827641272872 33.732922339313795 0 0 0
277 7 2.634695636074515 3.066467237743478 33.80242954375186 0 0 0
301 7 0.18352377995598013 1.5347201147163327 35.75380342728865 0 0 0
302 7 2.61380368093799 1.6621870733121396 35.87742450274325 0 0 0
306 4 1.3765901873365138 3.829197697751397 35.929338525822544 0 0 0
307 7 3.9843632024514504 3.720094722768429 35.82927144482758 0 0 0
273 7 6.449641496568082 0.9643761747525758 33.91726278750459 0 0 0
278 1 5.206598220631608 2.988675456420321 33.72506741457103 0 0 0
279 7 7.718509397068953 3.029185264844553 33.73017485323746 0 0 0
303 7 5.234648037824384 1.651296632311749 35.96386491666585 0 0 0
304 4 7.754471130150675 1.6147216571619096 35.93412043460421 0 0 0
308 7 6.5175665615632425 3.6930395826509286 35.79972473235014 0 0 0
274 7 8.827171376756084 0.8879149914457721 33.833716378869234 0 0 0
275 4 11.43627055518725 0.7876127351895774 33.71033392616299 0 0 0
280 7 10.197142509188978 2.9864016077881037 33.7103746048084 0 0 0
305 7 10.21518043341183 1.545781668676978 35.72124100471727 0 0 0
309 7 9.005814209375494 3.653491453571973 35.777158172547864 0 0 0
310 4 11.568651751200774 3.9190971925409115 35.85257584445708 0 0 0
281 7 1.3269177655504116 5.175799961728006 33.85340285887361 0 0 0
282 4 3.8423280469365397 5.130670646356035 33.78213210444524 0 0 0
287 7 2.633125633612568 7.277548608190807 33.76013191486308 0 0 0
312 7 2.7212071079323077 5.778667134748595 35.80610120862333 0 0 0
316 7 1.2301060954709186 7.60987751077885 35.800738656870884 0 0 0
317 7 3.9269619168976515 8.023874888462977 35.7555195473982 0 0 0
283 7 6.370896305888276 5.091432910505961 33.679270161870136 0 0 0
288 7 5.1854771058008895 7.254314159248834 33.68933784870769 0 0 0
289 7 7.627305570574534 7.180808486946271 33.72008577686965 0 0 0
313 7 5.250520075345011 5.896513444917801 35.75536790318886 0 0 0
314 7 7.709049107696001 5.806374306108266 35.74642408350298 0 0 0
318 4 6.5435032824239325 8.102429724516359 35.83685110285113 0 0 0
311 2 12.390361497154693 5.985633528921012 35.33585351264078 -1 0 0
315 7 10.124172640255455 5.790914038971211 35.576893191572154 0 0 0
319 7 8.95393347990799 7.963105469701224 35.81151004979912 0 0 0
320 7 11.35497773356995 7.911012465066782 35.58880957061885 0 0 0
350 7 11.656558514141778 6.2676834998085935 37.303726965235036 0 0 0
355 3 10.427767224634199 7.88045274129149 37.26147743002568 0 0 0
291 7 1.4618804944665027 9.413382041641047 33.724866757522946 0 0 0
297 6 3.018184110322515 11.550793600852078 33.67002613506315 0 0 0
321 6 0.2023595670657086 10.051265557373984 35.90173684656702 0 0 0
322 7 2.6846960447695984 10.142207424168399 35.75453477530694 0 0 0
326 7 0.5003235210158992 11.640404498735142 33.67177649053568 0 0 0
327 6 3.898260721624454 12.48240072399746 36.07419544776612 0 0 0
356 4 1.3894926035460557 12.335108603923121 35.835042513959415 0 0 0
298 2 5.197440129535172 12.260669373197912 34.19006799503358 0 0 0
299 7 6.999096382326717 11.572849807575874 33.67811395467509 0 0 0
323 6 5.227497906906173 10.222978561432011 35.56680341307391 0 0 0
324 7 7.911313898455162 10.343546061111551 35.70416954553177 0 0 0
328 7 6.450220875277289 12.499959467329937 35.91795518025163 0 0 0
294 7 8.764514760915256 9.28130970128249 33.68667840509754 0 0 0
295 6 11.262530039194397 9.688527354961867 33.75980625105668 0 0 0
300 7 9.382634440098515 11.53762306206058 34.1646721690117 0 0 0
325 7 10.250744053033928 9.821216577348796 37.01899503839909 0 0 0
329 3 9.529656992675436 11.38475897607969 36.19327163986129 0 0 0
330 4 11.259405266924398 12.071239044567603 35.572542420731985 0 0 0
332 7 2.4768558161444436 0.0934657705703806 38.0186881831038 0 0 0
336 7 1.318633564340408 2.175458430873399 37.83010874462561 0 0 0
337 7 3.8648224788353582 2.1843399874862204 37.926059507759746 0 0 0
341 7 0.1869422997715329 4.236603095446137 38.058117032119966 0 0 0
342 7 2.67877149498607 4.282352450972693 37.88899817930689 0 0 0
333 7 5.205023704949767 0.11756590125959386 38.10290671984305 0 0 0
334 7 7.658732015223992 0.04732509347986718 38.00394462404635 0 0 0
338 7 6.520236187819897 2.228707976956426 37.95177996494851 0 0 0
362 8 5.166905819008464 2.9247946627065007 38.73839723775711 0 0 0
339 7 8.985637490608825 2.173839691386637 37.858169029047346 0 0 0
340 7 11.35607383170249 2.1798085422976676 37.72092811324675 0 0 0
346 7 1.4778621571146653 6.389422816061428 37.98519206280343 0 0 0
347 6 3.948630187034568 6.454783284155686 37.83933707982719 0 0 0
361 8 3.947065770460517 7.990329084822116 38.963099962228526 0 0 0
343 7 5.286331270022826 4.382569493331551 37.852127398317016 0 0 0
344 7 7.8296395068401035 4.417269389385251 37.83959686935656 0 0 0
348 6 6.646270255566161 6.640411955494118 37.82731422230022 0 0 0
345 4 10.201329410588201 4.322720506173061 37.801151666652075 0 0 0
349 7 9.222270664844881 6.610388417188463 37.85131587117055 0 0 0
351 7 12.257876206417253 8.557471701138063 37.82859220950411 -1 0 0
352 6 2.5069575746060258 8.635674864369241 37.74466059433398 0 0 0
357 7 3.8344533066006785 10.805539798032044 37.916068420273156 0 0 0
360 7 1.3900318415422919 10.883447616259964 37.87054935738026 1 0 0
353 7 5.145447936013265 8.707584599301427 37.88130993351693 0 0 0
354 7 7.94616293035183 8.936741417868816 37.81393854564015 0 0 0
358 6 6.421108247348677 10.840703684740227 37.785389336759486 0 0 0
331 7 12.393333758542814 12.876612157179952 37.62389103358916 -1 -1 0
335 5 9.916807384455776 12.887741389258688 37.385189964918055 0 -1 0
359 2 8.606093918973443 11.148909292884149 37.421204092873595 0 0 0

Velocities

1 0 0 0
2 0 0 0
3 0 0 0
9 0 0 0
5 0 0 0
6 0 0 0
10 0 0 0
16 0 0 0
20 0 0 0
26 0 0 0
27 0 0 0
23 0 0 0
28 0 0 0
29 0 0 0
24 0 0 0
25 0 0 0
30 0 0 0
7 0 0 0
31 0 0 0
32 0 0 0
36 0 0 0
37 0 0 0
56 0 0 0
8 0 0 0
33 0 0 0
34 0 0 0
38 0 0 0
4 0 0 0
35 0 0 0
39 0 0 0
40 0 0 0
11 0 0 0
12 0 0 0
17 0 0 0
42 0 0 0
47 0 0 0
13 0 0 0
18 0 0 0
19 0 0 0
43 0 0 0
44 0 0 0
48 0 0 0
14 0 0 0
15 0 0 0
41 0 0 0
45 0 0 0
49 0 0 0
50 0 0 0
85 0 0 0
21 0 0 0
22 0 0 0
46 0 0 0
52 0 0 0
57 0 0 0
87 0 0 0
53 0 0 0
54 0 0 0
58 0 0 0
51 0 0 0
55 0 0 0
59 0 0 0
60 0 0 0
61 0 0 0
66 0 0 0
67 0 0 0
91 0 0 0
92 0 0 0
96 0 0 0
97 0 0 0
63 0 0 0
64 0 0 0
68 0 0 0
74 0 0 0
93 0 0 0
98 0 0 0
99 0 0 0
65 0 0 0
69 0 0 0
70 0 0 0
94 0 0 0
95 0 0 0
100 0 0 0
72 0 0 0
76 0 0 0
77 0 0 0
82 0 0 0
101 0 0 0
102 0 0 0
107 0 0 0
73 0 0 0
78 0 0 0
103 0 0 0
108 0 0 0
109 0 0 0
71 0 0 0
75 0 0 0
79 0 0 0
80 0 0 0
81 0 0 0
104 0 0 0
105 0 0 0
106 0 0 0
110 0 0 0
62 0 0 0
86 0 0 0
111 0 0 0
112 0 0 0
116 0 0 0
117 0 0 0
83 0 0 0
84 0 0 0
88 0 0 0
113 0 0 0
118 0 0 0
119 0 0 0
89 0 0 0
90 0 0 0
114 0 0 0
115 0 0 0
120 0 0 0
121 0 0 0
122 0 0 0
126 0 0 0
127 0 0 0
156 0 0 0
157 0 0 0
162 0 0 0
123 0 0 0
124 0 0 0
128 0 0 0
153 0 0 0
158 0 0 0
163 0 0 0
164 0 0 0
125 0 0 0
129 0 0 0
130 0 0 0
155 0 0 0
159 0 0 0
160 0 0 0
165 0 0 0
131 0 0 0
132 0 0 0
136 0 0 0
137 0 0 0
161 0 0 0
166 0 0 0
167 0 0 0
171 0 0 0
172 0 0 0
133 0 0 0
134 0 0 0
138 0 0 0
168 0 0 0
173 0 0 0
135 0 0 0
139 0 0 0
140 0 0 0
169 0 0 0
170 0 0 0
175 0 0 0
141 0 0 0
142 0 0 0
146 0 0 0
147 0 0 0
151 0 0 0
152 0 0 0
176 0 0 0
177 0 0 0
143 0 0 0
144 0 0 0
148 0 0 0
154 0 0 0
178 0 0 0
145 0 0 0
149 0 0 0
150 0 0 0
174 0 0 0
179 0 0 0
180 0 0 0
181 0 0 0
182 0 0 0
186 0 0 0
187 0 0 0
211 0 0 0
212 0 0 0
216 0 0 0
217 0 0 0
183 0 0 0
188 0 0 0
189 0 0 0
213 0 0 0
214 0 0 0
218 0 0 0
184 0 0 0
185 0 0 0
190 0 0 0
215 0 0 0
219 0 0 0
220 0 0 0
191 0 0 0
192 0 0 0
196 0 0 0
197 0 0 0
221 0 0 0
222 0 0 0
226 0 0 0
227 0 0 0
193 0 0 0
198 0 0 0
199 0 0 0
223 0 0 0
224 0 0 0
228 0 0 0
194 0 0 0
195 0 0 0
200 0 0 0
225 0 0 0
229 0 0 0
230 0 0 0
201 0 0 0
202 0 0 0
206 0 0 0
207 0 0 0
231 0 0 0
232 0 0 0
236 0 0 0
203 0 0 0
208 0 0 0
209 0 0 0
233 0 0 0
234 0 0 0
238 0 0 0
204 0 0 0
205 0 0 0
210 0 0 0
235 0 0 0
239 0 0 0
240 0 0 0
237 0 0 0
241 0 0 0
242 0 0 0
246 0 0 0
247 0 0 0
248 0 0 0
253 0 0 0
254 0 0 0
249 0 0 0
250 0 0 0
255 0 0 0
251 0 0 0
252 0 0 0
256 0 0 0
257 0 0 0
286 0 0 0
258 0 0 0
264 0 0 0
259 0 0 0
260 0 0 0
284 0 0 0
285 0 0 0
290 0 0 0
261 0 0 0
262 0 0 0
266 0 0 0
267 0 0 0
292 0 0 0
243 0 0 0
244 0 0 0
263 0 0 0
268 0 0 0
293 0 0 0
245 0 0 0
265 0 0 0
269 0 0 0
270 0 0 0
296 0 0 0
271 0 0 0
272 0 0 0
276 0 0 0
277 0 0 0
301 0 0 0
302 0 0 0
306 0 0 0
307 0 0 0
273 0 0 0
278 0 0 0
279 0 0 0
303 0 0 0
304 0 0 0
308 0 0 0
274 0 0 0
275 0 0 0
280 0 0 0
305 0 0 0
309 0 0 0
310 0 0 0
281 0 0 0
282 0 0 0
287 0 0 0
312 0 0 0
316 0 0 0
317 0 0 0
283 0 0 0
288 0 0 0
289 0 0 0
313 0 0 0
314 0 0 0
318 0 0 0
311 0 0 0
315 0 0 0
319 0 0 0
320 0 0 0
350 0 0 0
355 0 0 0
291 0 0 0
297 0 0 0
321 0 0 0
322 0 0 0
326 0 0 0
327 0 0 0
356 0 0 0
298 0 0 0
299 0 0 0
323 0 0 0
324 0 0 0
328 0 0 0
294 0 0 0
295 0 0 0
300 0 0 0
325 0 0 0
329 0 0 0
330 0 0 0
332 0 0 0
336 0 0 0
337 0 0 0
341 0 0 0
342 0 0 0
333 0 0 0
334 0 0 0
338 0 0 0
362 0 0 0
339 0 0 0
340 0 0 0
346 0 0 0
347 0 0 0
361 0 0 0
343 0 0 0
344 0 0 0
348 0 0 0
345 0 0 0
349 0 0 0
351 0 0 0
352 0 0 0
357 0 0 0
360 0 0 0
353 0 0 0
354 0 0 0
358 0 0 0
331 0 0 0
335 0 0 0
359 0 0 0
