LAMMPS data file via write_data, version 11 Feb 2026, timestep = 3269, units = metal

500 atoms
8 atom types

-0.001389351226827597 17.856389351226852 xlo xhi
-0.001389351226827597 17.856389351226852 ylo yhi
-0.001389351226827597 17.856389351226852 zlo zhi

Masses

1 26.9815
2 10.811
3 12.011
4 51.9961
5 55.845
6 95.95999999999999
7 58.6934
8 1.008

Atoms # atomic/kk

102 7 3.541799429554188 1.7444701231734716 1.7931942714070015 0 0 0
23 6 1.8292450971509442 3.5246243212232353 1.5593627292573513 0 0 0
104 7 5.3464696085423915 1.6828860625653044 0.11900801739036102 0 0 0
221 5 6.964213384076851 3.4891287307400543 0.06288218163060587 0 0 0
108 7 5.324839909032838 1.8141458074271504 3.4725434330037963 0 0 0
202 7 7.193033862194924 1.7817701121123446 1.7764096975656856 0 0 0
203 7 10.4005831530534 1.4290954881169722 1.59641738443956 0 0 0
321 7 9.279479278434957 3.4897106244394354 0.9000897216046202 0 0 0
208 4 8.841655115079137 1.9607944647516153 3.527800259452948 0 0 0
302 2 12.265876036141119 2.362203505375855 1.8337209936547174 0 0 0
303 6 12.392284044727397 0.03530547725667983 1.5704127876062515 0 0 0
402 7 14.253693399210363 1.8543292461062355 1.7243626516693367 0 0 0
325 6 10.81954229551539 3.5053836765009256 3.18635408829247 0 0 0
2 7 17.846024066013513 1.755448678357639 1.6619051911473637 -1 0 0
403 7 16.06467241792897 0.051379207140502724 1.7110183919198305 0 0 0
423 7 16.128946571311058 3.5638683108802067 1.6342437957587093 0 0 0
408 5 16.26298024012799 2.1689564131750116 3.4838271796068665 0 0 0
43 7 1.7785253261151914 7.0696655638928645 1.7074716097302065 0 0 0
28 6 1.6615170657087157 5.214603548732243 3.5572380953184544 0 0 0
122 7 3.672107752181051 5.2950101214346335 1.7294509707199877 0 0 0
123 3 5.601215032972654 5.251803168105613 1.8282590009593067 0 0 0
145 7 3.575711461544673 7.062651138469219 3.5488291687074875 0 0 0
222 4 7.566293960188747 5.189537085418926 1.5332431912725737 0 0 0
223 3 8.736392156236683 3.789395737756352 2.676844865904827 0 0 0
224 3 8.779672083928242 6.301874324146098 0.10459997096310639 0 0 0
322 7 10.48041641744674 5.480758464551804 1.6179039331956266 0 0 0
323 5 12.484439497691872 4.257311819255061 1.0998296485635235 0 0 0
324 3 11.69230012029801 5.649052653562778 0.04458589668269025 0 0 0
343 5 12.488168374520905 6.9382201391639855 1.505511139083735 0 0 0
328 7 12.434105526956724 5.413537514764791 3.444531959904754 0 0 0
22 1 17.83222144806603 5.392202953453208 1.4703181906782539 -1 0 0
422 7 14.494970913115688 5.3817713315394595 1.7519265564556772 0 0 0
425 7 14.285827273927909 3.693162327355681 3.482026879880831 0 0 0
428 4 16.474135926649225 5.080815870122576 3.5303526087198405 0 0 0
445 6 14.327109979080632 7.112719289016803 3.520350126757075 0 0 0
42 7 0.09123476878344852 8.880612439037096 1.613706860182257 0 0 0
44 3 3.5233632676256237 8.963990465201547 0.07188013877186672 0 0 0
63 7 1.8372980898606164 10.652912326451167 1.676642059170454 0 0 0
45 4 0.019376785285469662 7.202916245284826 3.4641411940435174 0 0 0
48 7 1.808536422488149 8.854718958590864 3.5033751597643428 0 0 0
142 5 3.6494991452106893 8.888334838461118 1.8965270684628988 0 0 0
143 7 5.465348704361616 7.152366317365326 1.8167154465877808 0 0 0
144 7 5.424655998307751 8.982437274435132 0.02312405196128238 0 0 0
241 7 7.114178629319529 7.184938077102824 3.1908408941786006e-05 0 0 0
242 7 7.154111502112902 9.024683209251442 1.8073812259499942 0 0 0
243 7 8.875641474816756 7.284337725383223 1.8046819710467379 0 0 0
341 7 10.54330573255829 7.346738414692893 0.018130742340928423 0 0 0
342 7 10.72173552202099 8.971761915387722 1.7615889098161572 0 0 0
348 4 12.35894581071074 8.801753189055695 3.4785956264875146 0 0 0
442 6 14.283829349958248 8.975236536032106 1.7526665367311063 0 0 0
443 7 16.211255582062684 7.155407017368448 1.7163418691606893 0 0 0
463 7 16.084104629333762 10.693076151542137 1.6810744689676613 0 0 0
65 6 17.825985871809113 10.667146317026415 3.481243268647733 -1 0 0
448 4 16.206441144939667 8.883614983834288 3.4888355341815496 0 0 0
62 7 0.00841874572597413 12.485647994232457 1.6812242841794631 0 0 0
64 7 1.8140369179507572 12.505379621214823 17.856286322696114 0 0 -1
68 6 1.8188551461910196 12.473081343739217 3.5557754413169547 0 0 0
85 7 0.0070418529918406724 14.223142252789954 3.4919475065610297 0 0 0
161 4 3.6751345194354177 10.858195829235441 0.022471358383046383 0 0 0
163 7 5.364198532383776 10.757791848466589 1.8175148729360557 0 0 0
261 7 7.090879164986474 10.841226774108002 0.02428805506153013 0 0 0
162 7 3.6101541609880403 12.513753486007998 1.7939602094373575 0 0 0
183 7 5.3666688161233465 14.199727960952874 1.7864102783297826 0 0 0
263 7 8.955950338886604 10.72719208817591 1.7896045149921198 0 0 0
262 1 7.200836490197405 12.485471768139783 1.89398475252115 0 0 0
264 7 8.912034912513946 12.520199470664325 0.017837254133703025 0 0 0
362 7 10.701182839941175 12.515234498825752 1.765745289204144 0 0 0
381 7 10.665933513738786 14.309515812279587 0.014680838485686186 0 0 0
363 7 12.513733297731736 10.797740161449655 1.746695212182118 0 0 0
383 4 12.537804937315057 14.145177103760387 1.710051765496708 0 0 0
385 7 10.77349041261752 14.228136219160671 3.5160209021064954 0 0 0
462 7 14.325061927940531 12.478148344282786 1.680642682215384 0 0 0
483 7 16.077190972600118 14.234842377751127 1.703538039561577 0 0 0
468 7 16.03953507278812 12.454067981504403 3.4726985127173626 0 0 0
485 7 14.292043245558794 14.226481346659359 3.513598573681582 0 0 0
3 7 1.7309265755393264 17.837375119020347 1.8046121280151342 0 -1 0
83 7 1.7725805802381682 14.303300501828769 1.735727845445874 0 0 0
182 5 3.526927204906429 16.002875992301334 1.8558715463542321 0 0 0
88 7 1.7170208570387955 16.08295316781821 3.517844999178744 0 0 0
101 6 3.575925153479685 17.782526885464915 0.026052189264723125 0 -1 0
103 7 5.318487755866643 17.764908371018134 1.9174515217664332 0 -1 0
201 6 6.984613160415387 17.66454847802955 0.12405438071071405 0 -1 0
184 7 5.228620120615704 15.954553406139516 0.1148162880576042 0 0 0
282 7 7.125016425405408 15.95985249369016 1.8362780384538946 0 0 0
283 7 8.973961576005175 14.330776445654218 1.7393783763573647 0 0 0
284 7 9.818417718162749 16.791574510737295 0.7207775458205135 0 0 0
205 7 7.1812568625590085 17.769157142802527 3.459633719886018 0 -1 0
288 6 9.072178000752716 16.108060916752684 3.4559397525965467 0 0 0
382 2 10.851938961523791 15.458190798354103 1.7832609973509654 0 0 0
384 7 12.40731101841598 15.952470186590856 0.13324788005276664 0 0 0
388 6 12.463840032575513 16.09234783085474 3.471666224108356 0 0 0
82 7 17.836832832672506 16.091674003216422 1.7320579579015687 -1 0 0
482 7 14.325801845093078 16.088993973581903 1.7562799250356596 0 0 0
488 7 16.083223351157535 15.992626882053791 3.4571102217938954 0 0 0
7 7 1.7381717176737383 17.853524781184326 5.33176353871302 0 -1 0
8 6 1.5646611998685367 1.9408381910056924 3.58531068777766 0 0 0
106 7 3.5515993259376812 1.7566112915250536 5.339824377909836 0 0 0
206 7 6.957614407470421 1.5593673564472208 5.200865858702101 0 0 0
125 4 3.629427491397687 3.5100435046491647 3.570738522501259 0 0 0
127 7 5.333556402822062 3.5360514649814068 5.373127878137306 0 0 0
207 7 8.949636078331862 0.01825852266302843 5.32562637654088 0 0 0
305 7 10.696758013910738 0.049615672778910505 3.544477501058475 0 0 0
306 7 10.669755804485384 1.8644604246504477 5.2582242466356535 0 0 0
227 3 8.781941758252438 2.075362892946986 5.465284795473175 0 0 0
229 6 7.65853238853979 3.4427304268221537 6.63609776429497 0 0 0
307 4 12.40831316135152 0.03844086918097148 5.385091452330462 0 0 0
308 7 12.603791943241978 1.6923622006411267 3.655538007270829 0 0 0
312 7 12.547892567854964 1.86152937032094 7.100433493396465 0 0 0
329 7 10.691921181710764 3.5608010672359183 7.097794267662512 0 0 0
5 7 17.55458434645776 0.0495607479522978 3.717633010161596 -1 0 0
6 7 17.783618188308076 1.8591330139950095 5.412063555196015 -1 0 0
405 6 14.640875737684269 0.12232772033959108 3.7797705436935307 0 0 0
406 7 14.346666854654988 2.0075389781811928 5.376590429851126 0 0 0
409 6 14.337260228395767 17.852834606651484 7.00037099631294 0 -1 0
25 2 0.03263084682253614 3.58547348890555 4.263654731697459 0 0 0
26 4 0.06526813678258825 5.36065483049627 5.515330207020438 0 0 0
27 7 1.8098187220541564 3.5801387543179053 5.479850571560054 0 0 0
126 7 3.5643941013987357 5.315093162950142 5.321570237381371 0 0 0
47 7 1.8246347044054851 7.13892909510654 5.357554064147372 0 0 0
128 7 5.37335456271011 5.338562756365413 3.620747048934257 0 0 0
225 7 7.120525142929732 3.6658322156519247 3.671508713969444 0 0 0
147 7 5.379746831016123 7.142146925445595 5.330492778017578 0 0 0
149 4 3.588734275375648 7.107571526512347 7.083539050856005 0 0 0
226 5 7.159652868447499 5.49022745453001 5.352288476538804 0 0 0
228 7 8.96542853453572 5.423230003843458 3.631495712506601 0 0 0
232 7 9.012816296816291 5.449378018367468 7.0819705195138 0 0 0
326 7 10.769509005836271 5.400196479948547 5.301226168080655 0 0 0
327 7 12.450700859884446 3.5878233683545955 5.2671718284907945 0 0 0
426 6 14.255687844892018 5.287012381661151 5.4603989090315554 0 0 0
427 7 16.147036164092736 3.6725943870419746 5.4920629911667085 0 0 0
447 7 16.24820418316619 6.980931409598878 5.244203218112273 0 0 0
46 7 17.853071119748503 8.816142616917409 5.369844776328212 -1 0 0
67 6 1.800874913110188 10.57161477028247 5.445693690806797 0 0 0
146 7 3.648510025039729 8.89445739135658 5.350757971257576 0 0 0
148 7 5.413811450826329 8.943717246295096 3.5897621309095715 0 0 0
165 7 3.6324857408173585 10.693658975816406 3.5819474430267197 0 0 0
167 4 5.41768350309791 10.70854140966944 5.312800541242679 0 0 0
152 7 5.425061967696295 8.88660512852637 7.074993521639483 0 0 0
245 7 7.20090833503236 7.182922160371808 3.5852968038657185 0 0 0
246 7 7.189185516141953 8.938426640488176 5.348370300186827 0 0 0
247 7 8.97984055786385 7.1895904341217225 5.323936443502549 0 0 0
248 7 8.983650220322717 8.951717399797841 3.5828271655017834 0 0 0
265 7 7.168016179410897 10.700679355265184 3.6121142120728793 0 0 0
249 7 7.213052280613563 7.153538254937343 7.139674926162979 0 0 0
349 7 10.71302354813164 7.187362230547935 7.1237386366138455 0 0 0
345 4 10.763760974006061 7.176473329515667 3.5690681793007446 0 0 0
346 7 10.747851730059564 8.951120280129869 5.360468988443616 0 0 0
347 7 12.538037083933839 7.176239323885268 5.431691142132724 0 0 0
446 7 14.190784460128604 9.126730987598227 5.139722226045392 0 0 0
465 3 12.652157853951708 10.667922431296711 3.578048549418151 0 0 0
352 7 12.531652386440719 8.944661888811412 7.136336954261307 0 0 0
467 7 16.058072513460985 10.608747623849998 5.336645694418272 0 0 0
449 3 14.445609027556024 7.358846347835539 5.73267329285025 0 0 0
452 6 15.775444994420319 8.620518195180102 7.072576534600661 0 0 0
72 6 1.7566280245091614 12.562426307152911 7.087885209092618 0 0 0
166 7 3.647597381643603 12.501973227970094 5.343366867155431 0 0 0
168 7 5.378956610378611 12.500589940743367 3.6085792089400424 0 0 0
169 7 3.7058152020326323 10.744122461678913 7.127804547058866 0 0 0
189 7 3.6185924084971464 14.25782028180908 7.142617637388216 0 0 0
267 7 8.950997800242632 10.723536751284803 5.376245228004189 0 0 0
365 7 10.70725732487776 10.760356545104631 3.5943547834109006 0 0 0
266 7 7.182969891991626 12.474216655429977 5.34196444840156 0 0 0
268 7 8.956326329605607 12.499991720495858 3.596324673945018 0 0 0
269 7 7.151297221274598 10.715501004368226 7.116496538027111 0 0 0
272 4 8.958040904264712 12.433931295314308 7.1355091236092765 0 0 0
367 4 12.491485177778634 10.78433737552054 5.463054576943317 0 0 0
366 7 10.72068737948674 12.531083011405364 5.409538089633719 0 0 0
368 7 12.615825370765737 12.515712923245655 3.611269183045874 0 0 0
387 5 12.477572480137278 14.248867664090936 5.390026385263757 0 0 0
66 7 17.70587457932062 12.440105285120916 5.369051235302705 -1 0 0
466 6 14.585757119805576 12.59911370390102 5.581813970583326 0 0 0
472 3 15.844116586061709 13.869701299564522 6.95884077114937 0 0 0
89 7 17.723964057869164 14.203098061651977 7.142718546862731 -1 0 0
105 1 3.5183816730167154 17.83629787173515 3.596784675289552 0 -1 0
86 7 0.03910477935646749 16.04610247976293 5.314728029461623 0 0 0
87 7 1.7607649575326112 14.288782967556605 5.294145188463122 0 0 0
186 7 3.5220916398934063 16.048844177338964 5.3347373690384785 0 0 0
107 7 5.280060430703199 17.728722098979006 5.353306324923945 0 -1 0
185 7 3.576741082954425 14.340735216999143 3.575744156850671 0 0 0
187 7 5.365584831459335 14.320828648074432 5.344784438973286 0 0 0
188 4 5.40768713206827 15.961976450623526 3.5777672370524183 0 0 0
285 7 7.171435336005944 14.295435506356533 3.61054224583909 0 0 0
286 7 7.184187529613652 16.11176554912681 5.311705306973013 0 0 0
287 7 9.000370449419453 14.319287142808024 5.324961093277332 0 0 0
289 6 7.198375159816714 14.319298026621746 7.101492049670138 0 0 0
292 7 9.030220282526106 16.102988108054824 7.141638548846905 0 0 0
386 7 10.763779981955285 16.087060655069045 5.376933487506547 0 0 0
486 4 14.224526600616601 15.947856775506175 5.2983933338786615 0 0 0
407 2 16.09157612552505 16.987450751732744 5.322971515522009 0 -1 0
487 5 16.107531059627735 14.403800959529178 5.184706245966864 0 0 0
9 7 17.680584155795167 17.81137973625345 7.01218144253509 -1 -1 0
492 7 16.02322914135573 15.982355015234381 7.12817348626096 0 0 0
10 7 0.006278982980286674 1.7553205035446997 8.991850697136705 0 0 0
12 6 1.7445671572037151 1.7033980086913934 7.189319642694746 0 0 0
110 7 3.5847554904174497 1.7588454856801303 8.94626827751518 0 0 0
112 6 5.33429442821531 1.7526314591068428 7.168432303630733 0 0 0
131 7 5.388006949956436 3.5367239311754535 8.909207580557693 0 0 0
133 7 3.5923611913078357 3.531690808098809 10.700725067118054 0 0 0
233 7 7.1130745284992 3.524825157687315 10.701033424637599 0 0 0
210 7 7.149537979230911 1.6977365563419287 8.86813870492085 0 0 0
212 7 9.143456182342895 1.5506097497797453 7.257919627370483 0 0 0
231 6 8.987409200558051 3.3812109522107345 8.97068561133756 0 0 0
309 7 10.922187523632385 0.043808973499846145 7.300662243907973 0 0 0
310 2 10.885208162056752 1.965774996862703 8.317598529711672 0 0 0
311 7 12.117783955690115 0.7731636011123117 9.431103218387713 0 0 0
331 7 12.411406795834175 3.333800707894733 9.128284520323511 0 0 0
410 7 14.309579045011 1.769188268513844 9.003160294023258 0 0 0
411 7 16.073944123618535 0.004906907460031698 8.945093080903353 0 0 0
412 6 16.085042844900833 1.8722667771304546 7.245699772302028 0 0 0
29 7 0.03993668184739631 3.633867109131322 7.251975370135789 0 0 0
30 6 0.01961490927186291 5.39765494991121 9.01445820533099 0 0 0
31 7 1.8317551127922804 3.578373229213154 8.977769373245978 0 0 0
32 7 1.8892077645094623 5.419499964236075 7.210128195690375 0 0 0
51 7 1.8995781073834788 7.124132972041928 8.978246349968485 0 0 0
129 7 3.575506977832441 3.5810764156666566 7.196821369695085 0 0 0
130 4 3.6162873331253684 5.331457611143917 9.011625459801387 0 0 0
132 6 5.426900329782973 5.324647853935334 7.143934375406646 0 0 0
151 7 5.417568846356675 7.061363257127344 8.932176341224846 0 0 0
253 7 7.133687111053384 7.102707806558447 10.674810426898341 0 0 0
230 7 7.266191262079796 5.231444551948829 8.857389642021275 0 0 0
330 6 10.697386099804108 5.32412621690893 8.998169090097296 0 0 0
332 7 12.430978136259077 5.275972337613672 7.177287731547111 0 0 0
429 7 14.266249748110674 3.6308477042127887 7.3310427647733 0 0 0
430 7 14.263768885174823 5.374809171766604 9.04982627707265 0 0 0
431 7 16.093353226263115 3.6091426431588096 9.045841771917514 0 0 0
432 7 16.03281634716495 5.495477625225332 7.316302851695839 0 0 0
49 7 0.03433563940425861 7.16092340428137 7.23690198632079 0 0 0
50 7 0.06360894173301937 8.848347466051962 9.001157450862586 0 0 0
52 5 1.8367848607812363 8.81304789550893 7.173384565416252 0 0 0
150 6 3.7493225001490926 8.898179118624853 8.855235605955558 0 0 0
250 7 7.151098642660838 8.938414515044627 8.933813090266982 0 0 0
251 7 8.919009102473188 7.152824974442591 8.958571420284285 0 0 0
252 7 8.938464328232838 8.955295113394527 7.149285722473608 0 0 0
256 5 8.906044093314208 8.95182581099692 10.704250750007036 0 0 0
350 7 10.680637778547105 8.903302955377962 8.923329401877567 0 0 0
369 7 10.701403896562224 10.711704259788045 7.143927923607424 0 0 0
351 6 12.5234528214844 7.148786086543704 8.897812419321221 0 0 0
371 7 12.396384025790871 10.686587780704986 8.893745827121604 0 0 0
450 7 14.181728321976532 8.8636902677002 8.974750400317086 0 0 0
473 1 14.046697130926743 10.624298887395547 10.623944375259764 0 0 0
69 7 17.71051676857132 10.47563021095379 7.190517343654703 -1 0 0
451 7 16.077727653395748 7.323072362692353 9.289649771517762 0 0 0
456 2 16.72722665774533 8.815496556300303 10.685746967627756 0 0 0
469 7 14.306702855884007 10.675459143303977 7.237700197080903 0 0 0
471 7 16.050058125447364 10.386464172384228 9.20607069318501 0 0 0
71 6 1.793164752541768 10.71791950182538 8.852301664442843 0 0 0
76 7 1.795500459941412 12.464581029676541 10.692339530291061 0 0 0
91 7 1.7868724141324686 14.225236607777886 8.957757507801634 0 0 0
171 7 5.429519971044831 10.758258839310491 8.922092136960345 0 0 0
170 4 3.697124597774591 12.59114782393006 9.015019156507151 0 0 0
172 7 5.407535577494688 12.484128230195141 7.1485794801267355 0 0 0
176 7 5.432038068418685 12.500257434702306 10.695399900842872 0 0 0
191 7 5.385618311537707 14.271571631117181 8.91983866581829 0 0 0
271 7 8.913875321266437 10.717825140949143 8.921223378749065 0 0 0
273 7 7.1802806632905245 10.715675247977565 10.699258560765688 0 0 0
270 7 7.20609376575078 12.51230196551166 8.87345167469823 0 0 0
276 7 8.934025412093554 12.47757031808914 10.696365939476474 0 0 0
370 7 10.67305625659839 12.518588877036171 8.898297400384857 0 0 0
293 7 7.1726568767760694 14.247695962177012 10.642910820518509 0 0 0
372 7 12.456400454387333 12.531354590423977 7.17791425568795 0 0 0
376 7 12.420206198697066 12.522577629770263 10.659895128452638 0 0 0
470 7 14.208994008787554 12.460393084092477 8.916047635781625 0 0 0
70 7 17.7209757197149 12.351253921071098 8.889287801701498 -1 0 0
93 6 17.76564067359989 14.167203243809137 10.648518006816785 -1 0 0
491 7 15.93932408573695 14.153663808073821 8.870051323118837 0 0 0
11 7 1.7037851870923282 17.79824363741422 8.95116215632294 0 -1 0
109 7 3.531399780966861 17.76692482389618 7.2023053019104015 0 -1 0
113 6 3.537107773380679 17.82644700495726 10.676718213757185 0 -1 0
92 6 1.73130246963398 16.004861409853792 7.177420063596413 0 0 0
96 7 1.7066772873305704 16.018872430704626 10.687561103255469 0 0 0
111 7 5.340461729364529 17.786557537794998 8.920320283815244 0 -1 0
190 4 3.5740550677071368 15.892684802294397 9.028866269184485 0 0 0
192 7 5.339603053510155 16.048268731489927 7.192355359618587 0 0 0
196 7 5.4333853395566365 15.994125546324216 10.625612967262132 0 0 0
209 7 7.144390305623672 17.76618731757111 7.150073498469931 0 -1 0
211 7 8.927734563028576 17.783419482457873 8.962431939629179 0 -1 0
213 7 7.145851286089988 17.80773898732175 10.66617369701073 0 -1 0
290 4 7.195070267083854 16.12262955983572 8.925093202661047 0 0 0
291 7 8.98136567868929 14.305394486353677 8.893991856573448 0 0 0
389 4 10.725224074845034 14.293792640518356 7.145642784445915 0 0 0
390 7 10.758603938673655 16.1122854787418 8.96443360080481 0 0 0
391 4 12.424092850409494 14.32153735280287 9.013275007657102 0 0 0
392 7 12.458598734946635 16.098290078575612 7.153152641147984 0 0 0
396 4 12.44802583145617 16.118002861624685 10.68427700822313 0 0 0
489 7 14.074110235782546 14.384565393758544 7.25682055726112 0 0 0
490 7 14.15682673388708 16.18484713343188 8.95004767037031 0 0 0
493 7 14.237699282876601 14.298860465395 10.67655001560219 0 0 0
90 7 17.774048189715156 16.030262347815288 8.902293008736212 -1 0 0
16 7 1.741845872124021 1.7870512790597808 10.753323571057855 0 0 0
14 4 0.012918296258264949 1.710598430727301 12.533180316996479 0 0 0
114 7 3.4630082392300285 1.762811581193178 12.482038756112653 0 0 0
20 7 1.7861110856723306 1.7313492912368906 14.272046674535133 0 0 0
37 7 0.06110998889952777 3.540807821723677 14.237419986247335 0 0 0
116 3 5.2862558649559 1.6733971542465034 12.31992108554612 0 0 0
214 7 7.131979439175073 1.7319361807633706 12.466600057592732 0 0 0
135 7 5.333884757474413 3.5104081190286953 12.48243638138422 0 0 0
120 7 5.271778602164302 1.6300247736958053 14.231234648953675 0 0 0
237 7 7.123349938107204 3.447644948952649 14.237568188595219 0 0 0
216 7 8.86311186058292 1.7214513802254794 10.781301697207128 0 0 0
333 7 10.669404838958698 3.4431700418587217 10.819107953896275 0 0 0
314 7 10.527429933793973 1.8366365680977697 12.659630017143629 0 0 0
316 2 13.141846465411565 1.9561578357343985 10.781882242214957 0 0 0
413 7 14.254028584883235 0.065391692151948 10.699020494671863 0 0 0
315 6 12.407019014675605 0.23176411833130928 12.346028898941215 0 0 0
335 7 12.517548289853433 3.3894467263561987 12.385391557681185 0 0 0
416 7 16.14882215144855 1.796367444727338 10.783386697436256 0 0 0
414 7 14.377029979989938 1.8402837441852193 12.514216473298427 0 0 0
415 7 16.067520578179042 0.008057589634320917 12.523154060927043 0 0 0
437 4 14.38947463038413 3.5493984387528714 14.272055583256924 0 0 0
33 7 0.030841395751779313 3.5732539125943945 10.773942858421563 0 0 0
36 7 1.8710725860180326 5.349607695976761 10.779043385404186 0 0 0
34 7 0.04247337706050932 5.36543178047365 12.51205082281909 0 0 0
35 7 1.789324742435584 3.5722917614793617 12.500419676920552 0 0 0
55 7 1.956331973453041 7.077336807383788 12.600755899646876 0 0 0
136 7 5.365009868348008 5.302366687328578 10.717940336774094 0 0 0
153 7 3.666339589693029 7.091171066343167 10.757986591682608 0 0 0
134 4 3.6519071360361344 5.218915907346689 12.487877686558244 0 0 0
234 7 7.090077681833574 5.291440110204569 12.525060951328925 0 0 0
155 7 5.347929583271295 7.099352715892078 12.510417670322731 0 0 0
236 7 8.883066182162743 5.307789697945529 10.752880798585169 0 0 0
353 7 10.677992649664802 7.119578516898002 10.768605156770072 0 0 0
235 4 8.844168156909863 3.597441966013671 12.461976026459434 0 0 0
334 7 10.659668546561967 5.208813958308418 12.543995331603561 0 0 0
255 6 8.866018735706664 7.089951958605058 12.543229357414361 0 0 0
336 5 12.50797873330714 5.312418674054428 10.809155613361169 0 0 0
453 7 14.199608913204887 7.121050619769522 10.800755336786255 0 0 0
355 7 12.405684809976547 7.040519456610162 12.555425312515876 0 0 0
340 7 12.522991540257237 5.1490236498917685 14.231698937815215 0 0 0
457 7 14.214317688567048 7.093722073865868 14.274881025599376 0 0 0
433 7 14.32650465740685 3.6054381973972522 10.736214461524112 0 0 0
436 5 16.108168747096393 5.4030829197527614 10.822791692920598 0 0 0
434 7 14.299755825050468 5.327585518231327 12.531491032270033 0 0 0
435 7 16.137070780407793 3.5776695110182906 12.529730791664702 0 0 0
440 7 16.13127512417869 5.4236416645838155 14.199254709221844 0 0 0
53 7 0.11491921477596409 7.1425669523665 10.820209310919429 0 0 0
56 1 1.9025046433509951 8.817640392121298 10.843998907286004 0 0 0
73 7 0.0868690129907745 10.646874371960942 10.73529901410924 0 0 0
54 7 0.17533873965663846 8.909556047872929 12.545053931285143 0 0 0
57 7 0.05737876007578114 7.16992108512216 14.237959112748602 0 0 0
60 4 1.8279150695902149 8.944853802864143 14.259656343924346 0 0 0
77 7 0.001766579747053386 10.686506904667615 14.232956116870747 0 0 0
156 7 5.37779784772026 8.937805565387713 10.732294470814512 0 0 0
154 7 3.6409560387656974 8.950693639447843 12.57170698887762 0 0 0
254 6 7.058492536754258 8.9842614940417 12.54043291078717 0 0 0
373 7 10.689471683695137 10.686210581201069 10.722483193087077 0 0 0
275 7 8.952716177893263 10.696481159027746 12.526330852471677 0 0 0
354 7 10.669087211347707 8.898472425536319 12.57683358975462 0 0 0
356 7 12.363076800112003 8.878156460398579 10.767417840073547 0 0 0
375 7 12.437588248849961 10.67759922549458 12.558449549408104 0 0 0
454 7 14.089658321329312 8.855451444075005 12.547359830863558 0 0 0
455 7 16.08450162498489 7.400914488134699 12.341065755693425 0 0 0
475 6 16.045693101042122 10.336561654412828 12.33099131638215 0 0 0
193 2 2.84181067330569 14.266640796175688 10.76443821643479 0 0 0
75 4 1.8540075826466358 10.814608894835484 12.523379765693388 0 0 0
174 7 3.569944048035927 12.755571378871425 12.302927263833451 0 0 0
95 7 1.6710666961943843 14.250418314228268 12.4771956493071 0 0 0
177 7 3.537804230173269 10.765547000948974 14.253311052397011 0 0 0
80 7 1.7644460771135244 12.52298853452618 14.21128344000752 0 0 0
97 7 0.004151448159688581 14.257085855704243 14.259200705101774 0 0 0
197 7 3.5616020673355857 14.275103948519513 14.243981140078647 0 0 0
173 7 3.6026993853608253 10.725266142117006 10.7264037944429 0 0 0
175 7 5.2970722166697275 10.807949659144379 12.504705094404663 0 0 0
195 5 5.438918148659718 14.197244961731135 12.42492400959668 0 0 0
277 7 7.120135723232202 10.771059024722987 14.274502897399628 0 0 0
180 7 5.319605740656135 12.532589185897336 14.231125047448295 0 0 0
274 7 7.1643679971368455 12.469943099771772 12.510086195668526 0 0 0
295 7 8.878379272623379 14.25470310944259 12.493574126007166 0 0 0
280 7 8.90249702465181 12.558150019416601 14.281152621735005 0 0 0
374 6 10.724448714840172 12.53211603942704 12.51081403990782 0 0 0
474 6 14.17355358774663 12.53373723855704 12.519629326870003 0 0 0
476 7 15.971966017916202 12.405783709119351 10.732192353226417 0 0 0
74 4 17.80376158147054 12.4381702346282 12.475555913947085 -1 0 0
15 7 1.738727742987629 17.79938817717374 12.470960243899652 0 -1 0
117 7 3.5409575888406066 17.744946728022082 14.162099673915174 0 -1 0
100 7 1.8267946224234213 16.01893965609058 14.205493808396481 0 0 0
115 7 5.321918287570251 17.704372018084644 12.367629326047455 0 -1 0
194 7 3.584192700093557 15.739158830418162 12.212458196973596 0 0 0
294 7 7.104476203119465 16.000566042755857 12.447162670603282 0 0 0
217 7 7.060790613080256 17.773405269571683 14.167479292733615 0 -1 0
200 7 5.282565786484032 15.986769415507368 14.1081491990675 0 0 0
313 7 10.458563724921047 17.770281328782165 10.858024592902462 0 -1 0
296 7 8.87838843470375 16.003347384617914 10.744527673234728 0 0 0
393 7 10.69724636786959 14.330749805179172 10.727759154860124 0 0 0
215 5 8.862661550426695 17.831040301594545 12.573926672193707 0 -1 0
394 4 10.68667773375941 16.08037183165208 12.51947858540435 0 0 0
395 7 12.461693041959526 14.406118856864978 12.471779684629698 0 0 0
494 7 14.198424229103617 16.12739546403691 12.482010912374719 0 0 0
13 7 17.83426375979133 17.851529055629086 10.752207613964925 -1 -1 0
496 1 15.956797063809754 16.138105756177644 10.722632839518415 0 0 0
94 7 17.81128777835706 16.035901177158657 12.479280596933526 -1 0 0
495 7 16.032420269492704 14.299696015718933 12.508877134045056 0 0 0
17 7 17.84545887099549 17.816605385571314 14.224649060223959 -1 -1 0
4 7 1.7820913750673222 1.665734247882857 17.71942689216356 0 0 -1
21 7 0.0033503605229169594 3.530137858061294 17.710818275887377 0 0 -1
18 7 0.0316102319473884 1.7044914729928693 16.009249486726596 0 0 0
39 7 1.837231012902612 3.5066831488296843 16.063775458642137 0 0 0
121 7 3.6288197098896857 3.5033557988829873 17.79097289222612 0 0 -1
118 7 3.6972291437032174 1.5584802110335074 16.047230750117233 0 0 0
218 7 6.85767919184087 1.3318902396732273 16.050067452339672 0 0 0
137 7 3.5699237505921824 3.5487744707039055 14.283284221118647 0 0 0
139 6 5.410008915375167 3.4656331315669124 16.05255641506615 0 0 0
204 7 8.77533796941547 1.4209640871021993 17.78237883786987 0 0 -1
301 2 10.737256400162817 0.4565576703875331 17.587725789621707 0 0 -1
220 4 8.835422336094659 1.6474624999364633 14.357302731296794 0 0 0
317 7 10.68839674731997 0.015422053758161322 14.320347268955931 0 0 0
318 7 10.5269383441263 1.859839460785268 16.136234139236226 0 0 0
239 7 8.53751527628547 3.240063980517525 16.1577125525369 0 0 0
304 7 12.384937394914967 1.9687258114476731 17.732585351464035 0 0 -1
401 7 14.301031464789103 0.006513272244088758 17.813489735439294 0 0 -1
319 7 12.36857828956757 0.03253367744852003 16.243269349125022 0 0 0
320 6 12.387122517143476 2.0471993545309703 14.516693320100188 0 0 0
417 6 14.247899394500148 0.015963559487948236 14.366326847204299 0 0 0
418 7 14.29183163656612 1.8558887338087435 16.106203250443155 0 0 0
404 7 16.099400900035743 1.7617096912131895 17.778441480367757 0 0 -1
420 7 16.119587794396324 1.7647075707844415 14.289090218090248 0 0 0
439 7 16.14217137962694 3.5490309368061825 15.952487723879178 0 0 0
24 7 1.7990341995273729 5.39372149092372 17.71440331738876 0 0 -1
141 7 3.533414930678531 7.143120653955617 17.815247610173408 0 0 -1
38 7 0.061869250337253844 5.380974471310188 16.00696798480218 0 0 0
40 7 1.8490738180789077 5.323744403891936 14.286817207411136 0 0 0
124 4 5.361017220824454 5.33448702949915 17.819937344345114 0 0 -1
138 7 3.6006626580387127 5.306621449353432 16.06050871985914 0 0 0
140 7 5.38967565654422 5.297755708382486 14.291366730715593 0 0 0
157 1 3.7010101081697773 7.085275367262968 14.351383213296016 0 0 0
159 7 5.357855454520006 7.122789481402906 16.1425666428965 0 0 0
257 7 7.081571522611897 7.13792864028449 14.33794058169967 0 0 0
238 7 7.165478519016442 5.30605809845493 16.164529877440614 0 0 0
240 4 8.744081963640205 5.2805739923559685 14.368639664819572 0 0 0
337 7 10.466363051833495 3.664346647596739 14.442028151386424 0 0 0
338 6 10.017574015024044 5.070462391856553 16.74635636372822 0 0 0
357 6 10.690119090260193 6.964718098363268 14.458000482665646 0 0 0
339 7 12.343370791013562 3.9740546212793455 16.36787450179369 0 0 0
359 6 12.478442489020228 6.787025586405804 16.328685192399142 0 0 0
421 7 14.411801811955542 3.621116305739567 17.769097250291047 0 0 -1
424 7 16.13550612763702 5.390621537444029 17.679298130831388 0 0 -1
438 7 14.419371189134207 5.294906829593383 15.93430594166996 0 0 0
41 4 0.05871382473481705 7.286858424309547 17.604829161772624 0 0 -1
61 7 0.012530268386302081 10.676964556606602 17.756715919749464 0 0 -1
59 7 1.7888896347500012 7.221507350283497 15.994012034092293 0 0 0
158 7 3.536009062250819 9.025178210968035 16.074563972620588 0 0 0
160 7 5.327914293364148 8.968305723453465 14.337150082629833 0 0 0
258 7 7.085512678480925 9.019652661982823 16.071614555004505 0 0 0
244 7 8.870663025040571 9.097376943831913 17.818830293924847 0 0 -1
259 7 8.811973866588518 7.230179725947562 16.145254325346656 0 0 0
260 7 8.92132739347084 8.94300793877444 14.36642203325451 0 0 0
377 7 10.67869553859542 10.692065227096297 14.343693447551614 0 0 0
344 7 12.482371416375031 8.942721671205577 17.808432855967325 0 0 -1
358 4 10.722221121745468 8.974722238229583 16.10575387247609 0 0 0
360 7 12.42971024222799 8.8681413239251 14.388435441566386 0 0 0
379 7 12.446238499493656 10.699256825209167 16.060921505462247 0 0 0
458 7 14.256481533880274 8.866049424913617 16.064807537711427 0 0 0
477 7 14.241480983179077 10.660814176384289 14.305612915697305 0 0 0
441 7 14.436658218069947 7.1814656198541 17.84028137206624 0 0 -1
444 7 16.121544350483354 8.937023966508562 17.785937580711472 0 0 -1
58 4 17.814150358581028 8.922547925941053 15.96599900985027 -1 0 0
459 7 16.101507184661052 7.146137947062246 16.000208086458503 0 0 0
460 7 16.030008034562606 8.878398472982823 14.333796600514908 0 0 0
479 7 16.07352883946551 10.68105762304215 16.048440143495448 0 0 0
181 7 3.5514219908675377 14.242739847881571 17.82459553327515 0 0 -1
79 1 1.7790266187113075 10.803569162744216 16.08182030793044 0 0 0
78 7 0.03250589584237401 12.514505086939401 16.07445671681876 0 0 0
178 7 3.563837294583204 12.526492189084736 16.021821232525898 0 0 0
164 4 5.332387989351015 12.527051252968274 17.796234717389797 0 0 -1
179 7 5.350369188825394 10.787345584574968 16.077829118032383 0 0 0
278 7 7.073770088402205 12.549581903823556 16.033739713764227 0 0 0
199 5 5.285830911789034 14.21821222238145 16.00218053622787 0 0 0
297 5 7.013047767743876 14.257362445312861 14.311594827145695 0 0 0
361 7 10.710449099537517 10.73900882423165 17.821582362783374 0 0 -1
279 1 8.853017831736812 10.813809243611228 16.06650954404937 0 0 0
378 7 10.68674781094684 12.520741347921723 16.093247530342396 0 0 0
461 7 14.255141476434469 10.73536431804287 17.74571808451204 0 0 -1
364 7 12.455398128743644 12.525963895476577 17.815104476278844 0 0 -1
481 7 14.274185732689537 14.269451367456446 17.847035891456127 0 0 -1
380 7 12.4596619192519 12.48162237994677 14.34450693561012 0 0 0
478 7 14.238500764109594 12.53393454326387 16.062788992092763 0 0 0
464 7 16.07013480384162 12.492539218057637 17.75148612916483 0 0 -1
480 6 16.041648058579963 12.526796871649253 14.344080781018212 0 0 0
1 5 0.01792319316192317 17.833585218593957 17.823964895659728 0 -1 -1
84 7 1.7708091545793236 16.063078378592166 17.827347841887697 0 0 -1
19 7 1.7742764817616594 17.75807185118019 15.975524936032482 0 -1 0
98 1 0.017420075288322026 16.029907784306417 16.004717296821067 0 0 0
99 7 1.8237446180315027 14.303607503979535 16.05044981201405 0 0 0
119 2 5.231097652449828 17.70353558420782 15.387313994575699 0 -1 0
198 7 3.751972362878801 16.173660437454597 16.00286344515717 0 0 0
298 7 6.784121141540518 16.23768119983979 15.984094158147778 0 0 0
281 6 7.1659761225420056 14.39295291275066 17.738999680664318 0 0 -1
219 4 8.98466348798121 17.664559983643777 16.18843834389117 0 -1 0
299 7 8.970724000276142 14.310570608684717 16.0798342341414 0 0 0
300 6 8.857584729250693 16.009652410446698 14.308645551528311 0 0 0
397 7 10.736989988038584 14.300298878785972 14.29865924865682 0 0 0
398 4 10.736419105168796 16.13002220984416 16.19631498384091 0 0 0
399 7 12.454031223240545 14.309240039290728 16.080560720151723 0 0 0
400 7 12.395804975749689 16.142720659904047 14.29734935674649 0 0 0
497 7 14.195935825490587 14.361829860451289 14.300112796121939 0 0 0
498 7 14.203305125505215 16.09128714116093 16.136981864061447 0 0 0
81 7 17.836579937777763 14.292569149218387 17.805009520350037 -1 0 -1
484 7 16.089354739699548 16.100718945813714 17.835403762032634 0 0 -1
419 7 16.125316142248916 17.83798843902155 16.071731886164276 0 -1 0
499 7 16.040466023055505 14.338258321309683 16.08073460162805 0 0 0
500 7 16.052523798988606 16.0521037615466 14.281430059411466 0 0 0

Velocities

102 0 0 0
23 0 0 0
104 0 0 0
221 0 0 0
108 0 0 0
202 0 0 0
203 0 0 0
321 0 0 0
208 0 0 0
302 0 0 0
303 0 0 0
402 0 0 0
325 0 0 0
2 0 0 0
403 0 0 0
423 0 0 0
408 0 0 0
43 0 0 0
28 0 0 0
122 0 0 0
123 0 0 0
145 0 0 0
222 0 0 0
223 0 0 0
224 0 0 0
322 0 0 0
323 0 0 0
324 0 0 0
343 0 0 0
328 0 0 0
22 0 0 0
422 0 0 0
425 0 0 0
428 0 0 0
445 0 0 0
42 0 0 0
44 0 0 0
63 0 0 0
45 0 0 0
48 0 0 0
142 0 0 0
143 0 0 0
144 0 0 0
241 0 0 0
242 0 0 0
243 0 0 0
341 0 0 0
342 0 0 0
348 0 0 0
442 0 0 0
443 0 0 0
463 0 0 0
65 0 0 0
448 0 0 0
62 0 0 0
64 0 0 0
68 0 0 0
85 0 0 0
161 0 0 0
163 0 0 0
261 0 0 0
162 0 0 0
183 0 0 0
263 0 0 0
262 0 0 0
264 0 0 0
362 0 0 0
381 0 0 0
363 0 0 0
383 0 0 0
385 0 0 0
462 0 0 0
483 0 0 0
468 0 0 0
485 0 0 0
3 0 0 0
83 0 0 0
182 0 0 0
88 0 0 0
101 0 0 0
103 0 0 0
201 0 0 0
184 0 0 0
282 0 0 0
283 0 0 0
284 0 0 0
205 0 0 0
288 0 0 0
382 0 0 0
384 0 0 0
388 0 0 0
82 0 0 0
482 0 0 0
488 0 0 0
7 0 0 0
8 0 0 0
106 0 0 0
206 0 0 0
125 0 0 0
127 0 0 0
207 0 0 0
305 0 0 0
306 0 0 0
227 0 0 0
229 0 0 0
307 0 0 0
308 0 0 0
312 0 0 0
329 0 0 0
5 0 0 0
6 0 0 0
405 0 0 0
406 0 0 0
409 0 0 0
25 0 0 0
26 0 0 0
27 0 0 0
126 0 0 0
47 0 0 0
128 0 0 0
225 0 0 0
147 0 0 0
149 0 0 0
226 0 0 0
228 0 0 0
232 0 0 0
326 0 0 0
327 0 0 0
426 0 0 0
427 0 0 0
447 0 0 0
46 0 0 0
67 0 0 0
146 0 0 0
148 0 0 0
165 0 0 0
167 0 0 0
152 0 0 0
245 0 0 0
246 0 0 0
247 0 0 0
248 0 0 0
265 0 0 0
249 0 0 0
349 0 0 0
345 0 0 0
346 0 0 0
347 0 0 0
446 0 0 0
465 0 0 0
352 0 0 0
467 0 0 0
449 0 0 0
452 0 0 0
72 0 0 0
166 0 0 0
168 0 0 0
169 0 0 0
189 0 0 0
267 0 0 0
365 0 0 0
266 0 0 0
268 0 0 0
269 0 0 0
272 0 0 0
367 0 0 0
366 0 0 0
368 0 0 0
387 0 0 0
66 0 0 0
466 0 0 0
472 0 0 0
89 0 0 0
105 0 0 0
86 0 0 0
87 0 0 0
186 0 0 0
107 0 0 0
185 0 0 0
187 0 0 0
188 0 0 0
285 0 0 0
286 0 0 0
287 0 0 0
289 0 0 0
292 0 0 0
386 0 0 0
486 0 0 0
407 0 0 0
487 0 0 0
9 0 0 0
492 0 0 0
10 0 0 0
12 0 0 0
110 0 0 0
112 0 0 0
131 0 0 0
133 0 0 0
233 0 0 0
210 0 0 0
212 0 0 0
231 0 0 0
309 0 0 0
310 0 0 0
311 0 0 0
331 0 0 0
410 0 0 0
411 0 0 0
412 0 0 0
29 0 0 0
30 0 0 0
31 0 0 0
32 0 0 0
51 0 0 0
129 0 0 0
130 0 0 0
132 0 0 0
151 0 0 0
253 0 0 0
230 0 0 0
330 0 0 0
332 0 0 0
429 0 0 0
430 0 0 0
431 0 0 0
432 0 0 0
49 0 0 0
50 0 0 0
52 0 0 0
150 0 0 0
250 0 0 0
251 0 0 0
252 0 0 0
256 0 0 0
350 0 0 0
369 0 0 0
351 0 0 0
371 0 0 0
450 0 0 0
473 0 0 0
69 0 0 0
451 0 0 0
456 0 0 0
469 0 0 0
471 0 0 0
71 0 0 0
76 0 0 0
91 0 0 0
171 0 0 0
170 0 0 0
172 0 0 0
176 0 0 0
191 0 0 0
271 0 0 0
273 0 0 0
270 0 0 0
276 0 0 0
370 0 0 0
293 0 0 0
372 0 0 0
376 0 0 0
470 0 0 0
70 0 0 0
93 0 0 0
491 0 0 0
11 0 0 0
109 0 0 0
113 0 0 0
92 0 0 0
96 0 0 0
111 0 0 0
190 0 0 0
192 0 0 0
196 0 0 0
209 0 0 0
211 0 0 0
213 0 0 0
290 0 0 0
291 0 0 0
389 0 0 0
390 0 0 0
391 0 0 0
392 0 0 0
396 0 0 0
489 0 0 0
490 0 0 0
493 0 0 0
90 0 0 0
16 0 0 0
14 0 0 0
114 0 0 0
20 0 0 0
37 0 0 0
116 0 0 0
214 0 0 0
135 0 0 0
120 0 0 0
237 0 0 0
216 0 0 0
333 0 0 0
314 0 0 0
316 0 0 0
413 0 0 0
315 0 0 0
335 0 0 0
416 0 0 0
414 0 0 0
415 0 0 0
437 0 0 0
33 0 0 0
36 0 0 0
34 0 0 0
35 0 0 0
55 0 0 0
136 0 0 0
153 0 0 0
134 0 0 0
234 0 0 0
155 0 0 0
236 0 0 0
353 0 0 0
235 0 0 0
334 0 0 0
255 0 0 0
336 0 0 0
453 0 0 0
355 0 0 0
340 0 0 0
457 0 0 0
433 0 0 0
436 0 0 0
434 0 0 0
435 0 0 0
440 0 0 0
53 0 0 0
56 0 0 0
73 0 0 0
54 0 0 0
57 0 0 0
60 0 0 0
77 0 0 0
156 0 0 0
154 0 0 0
254 0 0 0
373 0 0 0
275 0 0 0
354 0 0 0
356 0 0 0
375 0 0 0
454 0 0 0
455 0 0 0
475 0 0 0
193 0 0 0
75 0 0 0
174 0 0 0
95 0 0 0
177 0 0 0
80 0 0 0
97 0 0 0
197 0 0 0
173 0 0 0
175 0 0 0
195 0 0 0
277 0 0 0
180 0 0 0
274 0 0 0
295 0 0 0
280 0 0 0
374 0 0 0
474 0 0 0
476 0 0 0
74 0 0 0
15 0 0 0
117 0 0 0
100 0 0 0
115 0 0 0
194 0 0 0
294 0 0 0
217 0 0 0
200 0 0 0
313 0 0 0
296 0 0 0
393 0 0 0
215 0 0 0
394 0 0 0
395 0 0 0
494 0 0 0
13 0 0 0
496 0 0 0
94 0 0 0
495 0 0 0
17 0 0 0
4 0 0 0
21 0 0 0
18 0 0 0
39 0 0 0
121 0 0 0
118 0 0 0
218 0 0 0
137 0 0 0
139 0 0 0
204 0 0 0
301 0 0 0
220 0 0 0
317 0 0 0
318 0 0 0
239 0 0 0
304 0 0 0
401 0 0 0
319 0 0 0
320 0 0 0
417 0 0 0
418 0 0 0
404 0 0 0
420 0 0 0
439 0 0 0
24 0 0 0
141 0 0 0
38 0 0 0
40 0 0 0
124 0 0 0
138 0 0 0
140 0 0 0
157 0 0 0
159 0 0 0
257 0 0 0
238 0 0 0
240 0 0 0
337 0 0 0
338 0 0 0
357 0 0 0
339 0 0 0
359 0 0 0
421 0 0 0
424 0 0 0
438 0 0 0
41 0 0 0
61 0 0 0
59 0 0 0
158 0 0 0
160 0 0 0
258 0 0 0
244 0 0 0
259 0 0 0
260 0 0 0
377 0 0 0
344 0 0 0
358 0 0 0
360 0 0 0
379 0 0 0
458 0 0 0
477 0 0 0
441 0 0 0
444 0 0 0
58 0 0 0
459 0 0 0
460 0 0 0
479 0 0 0
181 0 0 0
79 0 0 0
78 0 0 0
178 0 0 0
164 0 0 0
179 0 0 0
278 0 0 0
199 0 0 0
297 0 0 0
361 0 0 0
279 0 0 0
378 0 0 0
461 0 0 0
364 0 0 0
481 0 0 0
380 0 0 0
478 0 0 0
464 0 0 0
480 0 0 0
1 0 0 0
84 0 0 0
19 0 0 0
98 0 0 0
99 0 0 0
119 0 0 0
198 0 0 0
298 0 0 0
281 0 0 0
219 0 0 0
299 0 0 0
300 0 0 0
397 0 0 0
398 0 0 0
399 0 0 0
400 0 0 0
497 0 0 0
498 0 0 0
81 0 0 0
484 0 0 0
419 0 0 0
499 0 0 0
500 0 0 0
