LAMMPS (11 Feb 2026 - Development - patch_11Feb2026-99-gb75dfcc930-modified)
/home/akinyemi.az/miniforge3/envs/mace-lammps/lib/python3.11/site-packages/e3nn/o3/_wigner.py:10: FutureWarning: You are using `torch.load` with `weights_only=False` (the current default value), which uses the default pickle module implicitly. It is possible to construct malicious pickle data which will execute arbitrary code during unpickling (See https://github.com/pytorch/pytorch/blob/main/SECURITY.md#untrusted-models for more details). In a future release, the default value for `weights_only` will be flipped to `True`. This limits the functions that could be executed during unpickling. Arbitrary objects will no longer be allowed to be loaded via this mode unless they are explicitly allowlisted by the user via `torch.serialization.add_safe_globals`. We recommend you start setting `weights_only=True` for any use case where you don't have full control of the loaded file. Please open an issue on GitHub for any issues related to this experimental feature.
  _Jd, _W3j_flat, _W3j_indices = torch.load(os.path.join(os.path.dirname(__file__), 'constants.pt'))
KOKKOS mode with Kokkos version 5.0.2 is enabled
  using double precision
  using view layout = legacy
  will use up to 1 GPU(s) per node
  using 1 OpenMP thread(s) per MPI task
Reading data file ...
  orthogonal box = (0 0 0) to (12.447908 12.936245 52.360083)
  1 by 1 by 1 MPI processor grid
  reading atoms ...
  360 atoms
  read_data CPU = 0.019 seconds
120 atoms in group frozen_atoms
240 atoms in group free_atoms
GROUPS: frozen=120  free=240
### Phase 1: Surface minimization ###
  Top layer z BEFORE minimize: 37.3600831054 Ang

CITE-CITE-CITE-CITE-CITE-CITE-CITE-CITE-CITE-CITE-CITE-CITE-CITE

Your simulation uses code contributions which should be cited:
- KOKKOS package: https://doi.org/10.1145/3731599.3767498
The log file lists these citations in BibTeX format.

CITE-CITE-CITE-CITE-CITE-CITE-CITE-CITE-CITE-CITE-CITE-CITE-CITE

Neighbor list info ...
  update: every = 1 steps, delay = 0 steps, check = yes
  max neighbors/atom: 2000, page size: 100000
  master list distance cutoff = 7
  ghost atom cutoff = 7
  binsize = 7, bins = 2 2 8
  1 neighbor lists, perpetual/occasional/extra = 1 0 0
  (1) pair mliap/kk, perpetual
      attributes: full, newton on, kokkos_device
      pair build: full/bin/kk/device
      stencil: full/bin/3d
      bin: kk/device
Setting up cg/kk style minimization ...
  Unit style    : metal
  Current step  : 0
WARNING: Fix MINIMIZE/kk not compatible with sending data in Kokkos communication (src/KOKKOS/comm_kokkos.cpp:842)
WARNING: Fix with atom-based arrays not compatible with sending data in Kokkos communication, switching to legacy exchange/border communication (src/KOKKOS/comm_kokkos.cpp:849)
WARNING: Fix MINIMIZE/kk not (yet) compatible with Kokkos sorting on device (src/KOKKOS/atom_kokkos.cpp:219)
WARNING: Fix with atom-based arrays not (yet) compatible with Kokkos sorting on device, switching to legacy host sorting (src/KOKKOS/atom_kokkos.cpp:225)
Per MPI rank memory allocation (min/avg/max) = 63.38 | 63.38 | 63.38 Mbytes
   Step          Time           Temp          PotEng         KinEng         Press            Lx             Ly             Lz      
         0   0              0             -2358.2893      0              31181.666      12.447908      12.936245      52.360083    
       200   0.2            0             -2378.6177      0              16848.389      12.447908      12.936245      52.360083    
       251   0.251          0             -2378.6177      0              16848.431      12.447908      12.936245      52.360083    
Loop time of 18.0126 on 1 procs for 251 steps with 360 atoms

98.8% CPU use with 1 MPI tasks x 1 OpenMP threads

Minimization stats:
  Stopping criterion = force tolerance
  Energy initial, next-to-last, final = 
     -2358.28934486481  -2378.61770103156  -2378.61770103156
  Force two-norm initial, final = 13.720114 8.8396403e-07
  Force max component initial, final = 3.2674999 2.5526756e-07
  Final line search alpha, max atom move = 1 2.5526756e-07
  Iterations, force evaluations = 251 487

MPI task timing breakdown:
Section |  min time  |  avg time  |  max time  |%varavg| %total
---------------------------------------------------------------
Pair    | 17.907     | 17.907     | 17.907     |   0.0 | 99.41
Neigh   | 0.0023687  | 0.0023687  | 0.0023687  |   0.0 |  0.01
Comm    | 0.01632    | 0.01632    | 0.01632    |   0.0 |  0.09
Output  | 0.00012945 | 0.00012945 | 0.00012945 |   0.0 |  0.00
Modify  | 0.013257   | 0.013257   | 0.013257   |   0.0 |  0.07
Other   |            | 0.07356    |            |       |  0.41

Nlocal:            360 ave         360 max         360 min
Histogram: 1 0 0 0 0 0 0 0 0 0
Nghost:           1198 ave        1198 max        1198 min
Histogram: 1 0 0 0 0 0 0 0 0 0
Neighs:              0 ave           0 max           0 min
Histogram: 1 0 0 0 0 0 0 0 0 0
FullNghs:        43160 ave       43160 max       43160 min
Histogram: 1 0 0 0 0 0 0 0 0 0

Total # of neighbors = 43160
Ave neighs/atom = 119.88889
Neighbor list builds = 3
Dangerous builds = 0
  Top layer z AFTER minimize : 37.9163243535565 Ang
  Surface contraction (min)  : 0 Ang
### Minimization complete ###
### Phase 2: Heating to 300 K ###
WARNING: Temperature for thermo pressure is not for group all (src/thermo.cpp:570)
Setting up Verlet run ...
  Unit style    : metal
  Current step  : 251
  Time step     : 0.0005
Per MPI rank memory allocation (min/avg/max) = 66.76 | 66.76 | 66.76 Mbytes
   Step          Time           Temp          PotEng         KinEng         Press            Lx             Ly             Lz      
       251   0.251          300           -2378.6177      9.2679524      18022.512      12.447908      12.936245      52.360083    
       400   0.3255         296.06157     -2363.6921      9.1462818      23648.647      12.447908      12.936245      52.360083    
       600   0.4255         300           -2369.7885      9.2679524      18776.044      12.447908      12.936245      52.360083    
       800   0.5255         302.36326     -2369.02        9.340961       18266.117      12.447908      12.936245      52.360083    
      1000   0.6255         293.60211     -2369.1435      9.0703014      17325.033      12.447908      12.936245      52.360083    
      1200   0.7255         300           -2368.5119      9.2679524      16526.077      12.447908      12.936245      52.360083    
      1400   0.8255         304.88743     -2369.6276      9.4189406      12657.816      12.447908      12.936245      52.360083    
      1600   0.9255         300           -2368.6662      9.2679524      13444.817      12.447908      12.936245      52.360083    
      1800   1.0255         302.00078     -2368.8445      9.3297628      16719.182      12.447908      12.936245      52.360083    
      2000   1.1255         295.85508     -2369.3877      9.1399027      20084.124      12.447908      12.936245      52.360083    
      2200   1.2255         303.4919      -2370.0385      9.3758282      19516.931      12.447908      12.936245      52.360083    
      2400   1.3255         291.68632     -2369.2904      9.0111163      20978.373      12.447908      12.936245      52.360083    
      2600   1.4255         296.86939     -2369.1148      9.1712378      23009.124      12.447908      12.936245      52.360083    
      2800   1.5255         295.76344     -2369.8561      9.1370718      21355.53       12.447908      12.936245      52.360083    
      3000   1.6255         293.29706     -2369.1119      9.0608775      20842.03       12.447908      12.936245      52.360083    
      3200   1.7255         309.10679     -2370.2972      9.5492899      17568.198      12.447908      12.936245      52.360083    
      3400   1.8255         301.51143     -2369.1471      9.3146454      15827.115      12.447908      12.936245      52.360083    
      3600   1.9255         292.1573      -2368.5283      9.0256666      15215.601      12.447908      12.936245      52.360083    
      3800   2.0255         305.96096     -2369.2778      9.4521054      12472.363      12.447908      12.936245      52.360083    
      4000   2.1255         306.09336     -2368.7705      9.4561958      11953.132      12.447908      12.936245      52.360083    
      4200   2.2255         303.24712     -2369.0048      9.3682661      15113.962      12.447908      12.936245      52.360083    
      4400   2.3255         304.25227     -2369.8745      9.3993184      16207.3        12.447908      12.936245      52.360083    
      4600   2.4255         291.09037     -2369.0568      8.9927057      16943.387      12.447908      12.936245      52.360083    
      4800   2.5255         303.07714     -2369.4281      9.3630151      20619.136      12.447908      12.936245      52.360083    
      5000   2.6255         300           -2369.3867      9.2679524      20938.423      12.447908      12.936245      52.360083    
      5200   2.7255         302.37279     -2368.8966      9.3412554      21091.88       12.447908      12.936245      52.360083    
      5400   2.8255         290.34266     -2369.1889      8.9696066      19856.271      12.447908      12.936245      52.360083    
      5600   2.9255         296.06484     -2369.6679      9.1463827      18858.08       12.447908      12.936245      52.360083    
      5800   3.0255         306.76899     -2369.5107      9.4770679      16918.563      12.447908      12.936245      52.360083    
      6000   3.1255         300           -2369.2154      9.2679524      15880.326      12.447908      12.936245      52.360083    
      6200   3.2255         290.68143     -2369.3588      8.9800723      13796.019      12.447908      12.936245      52.360083    
      6400   3.3255         295.36416     -2368.851       9.1247367      14182.701      12.447908      12.936245      52.360083    
      6600   3.4255         301.77066     -2369.4237      9.3226537      16239.37       12.447908      12.936245      52.360083    
      6800   3.5255         307.78873     -2369.2462      9.5085709      15562.745      12.447908      12.936245      52.360083    
      7000   3.6255         306.80621     -2370.0735      9.4782177      18467.92       12.447908      12.936245      52.360083    
      7200   3.7255         291.67951     -2369.2495      9.010906       21042.773      12.447908      12.936245      52.360083    
      7400   3.8255         304.47623     -2370.1499      9.4062374      20712.268      12.447908      12.936245      52.360083    
      7600   3.9255         302.138       -2369.0656      9.334002       20864.251      12.447908      12.936245      52.360083    
      7800   4.0255         308.76346     -2369.5542      9.5386834      20578.399      12.447908      12.936245      52.360083    
      8000   4.1255         300           -2369.3337      9.2679524      19769.993      12.447908      12.936245      52.360083    
      8200   4.2255         300           -2369.273       9.2679524      16280.069      12.447908      12.936245      52.360083    
      8400   4.3255         301.12182     -2369.6569      9.3026091      14806.923      12.447908      12.936245      52.360083    
      8600   4.4255         307.56998     -2368.7817      9.5018131      14846.574      12.447908      12.936245      52.360083    
      8800   4.5255         300           -2369.2745      9.2679524      14004.48       12.447908      12.936245      52.360083    
      9000   4.6255         308.11808     -2369.5927      9.5187457      12805.849      12.447908      12.936245      52.360083    
      9200   4.7255         306.24902     -2369.8439      9.4610045      15400.131      12.447908      12.936245      52.360083    
      9400   4.8255         291.38575     -2369.0505      9.001831       16854.418      12.447908      12.936245      52.360083    
      9600   4.9255         291.62912     -2369.0579      9.0093494      19826.732      12.447908      12.936245      52.360083    
      9800   5.0255         301.14511     -2369.7479      9.3033285      21263.705      12.447908      12.936245      52.360083    
     10000   5.1255         306.08541     -2369.4258      9.4559499      20890.582      12.447908      12.936245      52.360083    
     10200   5.2255         300.60973     -2369.9565      9.2867888      19606.686      12.447908      12.936245      52.360083    
     10400   5.3255         300           -2369.615       9.2679524      17896.108      12.447908      12.936245      52.360083    
     10600   5.4255         300           -2369.2305      9.2679524      16718.518      12.447908      12.936245      52.360083    
     10800   5.5255         297.088       -2369.1405      9.1779914      15120.173      12.447908      12.936245      52.360083    
     11000   5.6255         294.0094      -2369.455       9.0828836      15085.366      12.447908      12.936245      52.360083    
     11200   5.7255         300.4575      -2368.6743      9.282086       14974.681      12.447908      12.936245      52.360083    
     11400   5.8255         300           -2368.8726      9.2679524      15912.369      12.447908      12.936245      52.360083    
     11600   5.9255         297.20754     -2370.0329      9.1816845      14048.256      12.447908      12.936245      52.360083    
     11800   6.0255         301.76765     -2368.7845      9.3225608      18196.838      12.447908      12.936245      52.360083    
     12000   6.1255         309.02977     -2369.1387      9.5469107      17588.189      12.447908      12.936245      52.360083    
     12200   6.2255         309.61197     -2369.9799      9.5648965      18817.606      12.447908      12.936245      52.360083    
     12400   6.3255         300           -2369.4327      9.2679524      21535.28       12.447908      12.936245      52.360083    
     12600   6.4255         305.36807     -2369.1281      9.433789       19299.651      12.447908      12.936245      52.360083    
     12800   6.5255         303.97441     -2369.0849      9.3907344      18650.265      12.447908      12.936245      52.360083    
     13000   6.6255         296.48881     -2369.1967      9.1594807      17332.354      12.447908      12.936245      52.360083    
     13200   6.7255         304.78971     -2368.5533      9.4159216      16730.062      12.447908      12.936245      52.360083    
     13400   6.8255         291.28772     -2368.5591      8.9988023      14133.933      12.447908      12.936245      52.360083    
     13600   6.9255         302.33415     -2369.7561      9.3400618      12857.778      12.447908      12.936245      52.360083    
     13800   7.0255         305.06994     -2368.8096      9.4245789      13667.037      12.447908      12.936245      52.360083    
     14000   7.1255         296.1137      -2368.7999      9.1478921      16245.087      12.447908      12.936245      52.360083    
     14200   7.2255         304.09329     -2369.4119      9.3944072      16828.84       12.447908      12.936245      52.360083    
     14400   7.3255         300           -2369.2816      9.2679524      18347.649      12.447908      12.936245      52.360083    
     14600   7.4255         300           -2369.2209      9.2679524      19175.2        12.447908      12.936245      52.360083    
     14800   7.5255         302.94074     -2369.3018      9.3588012      20227.735      12.447908      12.936245      52.360083    
     15000   7.6255         293.26304     -2369.8695      9.0598263      17916.418      12.447908      12.936245      52.360083    
     15200   7.7255         306.33491     -2370.1963      9.463658       19300.519      12.447908      12.936245      52.360083    
     15400   7.8255         300           -2368.5789      9.2679524      18507.105      12.447908      12.936245      52.360083    
     15600   7.9255         300.1665      -2368.5403      9.273096       16879.551      12.447908      12.936245      52.360083    
     15800   8.0255         290.58295     -2369.1463      8.9770299      15299.467      12.447908      12.936245      52.360083    
     16000   8.1255         305.23548     -2369.2467      9.4296929      15015.155      12.447908      12.936245      52.360083    
     16200   8.2255         294.93983     -2369.2474      9.1116276      15223.808      12.447908      12.936245      52.360083    
     16400   8.3255         294.91788     -2369.0916      9.1109495      15572.029      12.447908      12.936245      52.360083    
     16600   8.4255         300           -2369.5429      9.2679524      17288.712      12.447908      12.936245      52.360083    
     16800   8.5255         304.11985     -2370.2025      9.3952277      17999.959      12.447908      12.936245      52.360083    
     17000   8.6255         300           -2369.3909      9.2679524      17780.517      12.447908      12.936245      52.360083    
     17200   8.7255         302.10992     -2369.448       9.3331346      17594.905      12.447908      12.936245      52.360083    
     17400   8.8255         303.9527      -2369.465       9.3900638      18839.977      12.447908      12.936245      52.360083    
     17600   8.9255         291.91682     -2369.8699      9.0182374      18444.016      12.447908      12.936245      52.360083    
     17800   9.0255         297.14014     -2369.3499      9.1796023      17459.306      12.447908      12.936245      52.360083    
     18000   9.1255         309.79734     -2369.0822      9.5706234      16421.225      12.447908      12.936245      52.360083    
     18200   9.2255         300           -2368.7857      9.2679524      16529.824      12.447908      12.936245      52.360083    
     18400   9.3255         309.60131     -2369.4907      9.5645672      16013.586      12.447908      12.936245      52.360083    
     18600   9.4255         301.53        -2368.4904      9.3152188      15439.659      12.447908      12.936245      52.360083    
     18800   9.5255         300.10809     -2369.2713      9.2712915      15989.691      12.447908      12.936245      52.360083    
     19000   9.6255         290.76726     -2369.096       8.9827237      16492.12       12.447908      12.936245      52.360083    
     19200   9.7255         305.76198     -2369.8699      9.4459582      17694.188      12.447908      12.936245      52.360083    
     19400   9.8255         300           -2369.7704      9.2679524      18979.817      12.447908      12.936245      52.360083    
     19600   9.9255         292.17915     -2369.1592      9.0263416      17326.324      12.447908      12.936245      52.360083    
     19800   10.0255        300           -2368.9255      9.2679524      20107.719      12.447908      12.936245      52.360083    
     20000   10.1255        293.71362     -2370.1934      9.0737461      18983.726      12.447908      12.936245      52.360083    
     20200   10.2255        306.36618     -2369.3249      9.4646239      17663.808      12.447908      12.936245      52.360083    
     20251   10.251         299.88771     -2369.1247      9.2644833      17638.13       12.447908      12.936245      52.360083    
Loop time of 654.675 on 1 procs for 20000 steps with 360 atoms

Performance: 1.320 ns/day, 18.185 hours/ns, 30.550 timesteps/s, 10.998 katom-step/s
99.0% CPU use with 1 MPI tasks x 1 OpenMP threads

MPI task timing breakdown:
Section |  min time  |  avg time  |  max time  |%varavg| %total
---------------------------------------------------------------
Pair    | 652.05     | 652.05     | 652.05     |   0.0 | 99.60
Neigh   | 0.0063863  | 0.0063863  | 0.0063863  |   0.0 |  0.00
Comm    | 0.74405    | 0.74405    | 0.74405    |   0.0 |  0.11
Output  | 0.022103   | 0.022103   | 0.022103   |   0.0 |  0.00
Modify  | 0.89153    | 0.89153    | 0.89153    |   0.0 |  0.14
Other   |            | 0.9635     |            |       |  0.15

Nlocal:            360 ave         360 max         360 min
Histogram: 1 0 0 0 0 0 0 0 0 0
Nghost:           1198 ave        1198 max        1198 min
Histogram: 1 0 0 0 0 0 0 0 0 0
Neighs:              0 ave           0 max           0 min
Histogram: 1 0 0 0 0 0 0 0 0 0
FullNghs:        43012 ave       43012 max       43012 min
Histogram: 1 0 0 0 0 0 0 0 0 0

Total # of neighbors = 43012
Ave neighs/atom = 119.47778
Neighbor list builds = 9
Dangerous builds = 0
### Heating complete ###
### Phase 3: NVT equilibration at 300 K ###
WARNING: Temperature for thermo pressure is not for group all (src/thermo.cpp:570)
Setting up Verlet run ...
  Unit style    : metal
  Current step  : 20251
  Time step     : 0.0005
Per MPI rank memory allocation (min/avg/max) = 66.84 | 66.84 | 66.84 Mbytes
   Step          Time           Temp          PotEng         KinEng         Press            Lx             Ly             Lz      
     20251   10.251         299.88771     -2369.1247      9.2644833      17638.13       12.447908      12.936245      52.360083    
     20400   10.3255        291.72782     -2368.8727      9.0123984      15214.696      12.447908      12.936245      52.360083    
     20600   10.4255        302.45188     -2369.2039      9.3436989      16541.68       12.447908      12.936245      52.360083    
     20800   10.5255        283.34559     -2368.6137      8.7534448      16382.33       12.447908      12.936245      52.360083    
     21000   10.6255        317.86447     -2369.6802      9.8198426      17720.03       12.447908      12.936245      52.360083    
     21200   10.7255        294.82785     -2368.9685      9.1081684      16270.595      12.447908      12.936245      52.360083    
     21400   10.8255        303.98069     -2369.2513      9.3909285      19092.502      12.447908      12.936245      52.360083    
     21600   10.9255        285.51274     -2368.6807      8.8203948      18716.653      12.447908      12.936245      52.360083    
     21800   11.0255        325.74319     -2369.9236      10.063241      18107.084      12.447908      12.936245      52.360083    
     22000   11.1255        278.40517     -2368.461       8.6008196      17107.756      12.447908      12.936245      52.360083    
     22200   11.2255        318.93744     -2369.7134      9.8529902      16692.56       12.447908      12.936245      52.360083    
     22400   11.3255        294.84319     -2368.969       9.1086421      17631.709      12.447908      12.936245      52.360083    
     22600   11.4255        303.30744     -2369.2304      9.3701297      16747.236      12.447908      12.936245      52.360083    
     22800   11.5255        314.64628     -2369.5809      9.7204223      16066.97       12.447908      12.936245      52.360083    
     23000   11.6255        281.75707     -2368.5649      8.7043703      18117.864      12.447908      12.936245      52.360083    
     23200   11.7255        302.5222      -2369.2063      9.3458711      17838.351      12.447908      12.936245      52.360083    
     23400   11.8255        308.77446     -2369.3995      9.5390233      17827.944      12.447908      12.936245      52.360083    
     23600   11.9255        289.76294     -2368.8121      8.9516971      18053.965      12.447908      12.936245      52.360083    
     23800   12.0255        320.69322     -2369.7677      9.9072318      18241.328      12.447908      12.936245      52.360083    
     24000   12.1255        316.85044     -2369.6491      9.7885159      18110.25       12.447908      12.936245      52.360083    
     24200   12.2255        307.53929     -2369.3613      9.5008649      17945.779      12.447908      12.936245      52.360083    
     24400   12.3255        310.42651     -2369.4506      9.5900605      16777.455      12.447908      12.936245      52.360083    
     24600   12.4255        319.60383     -2369.7342      9.873577       15071.611      12.447908      12.936245      52.360083    
     24800   12.5255        307.76608     -2369.3685      9.5078713      18419.772      12.447908      12.936245      52.360083    
     25000   12.6255        302.17747     -2369.1958      9.3352215      16843.36       12.447908      12.936245      52.360083    
     25200   12.7255        311.99948     -2369.4992      9.6386546      16475.257      12.447908      12.936245      52.360083    
     25400   12.8255        303.08064     -2369.2238      9.363123       17902.842      12.447908      12.936245      52.360083    
     25600   12.9255        282.41328     -2368.5852      8.7246428      19279.938      12.447908      12.936245      52.360083    
     25800   13.0255        306.5802      -2369.3319      9.4712357      19347.046      12.447908      12.936245      52.360083    
     26000   13.1255        298.77751     -2369.0908      9.2301857      18776.6        12.447908      12.936245      52.360083    
     26200   13.2255        302.84565     -2369.2165      9.3558635      18929.371      12.447908      12.936245      52.360083    
     26400   13.3255        298.92844     -2369.0955      9.2348484      17629.531      12.447908      12.936245      52.360083    
     26600   13.4255        324.73554     -2369.8929      10.032112      17701.1        12.447908      12.936245      52.360083    
     26800   13.5255        282.49717     -2368.588       8.7272344      16349.021      12.447908      12.936245      52.360083    
     27000   13.6255        291.74602     -2368.8737      9.0129608      16971.629      12.447908      12.936245      52.360083    
     27200   13.7255        316.1654      -2369.6283      9.767353       15242.493      12.447908      12.936245      52.360083    
     27400   13.8255        289.39774     -2368.8012      8.9404149      15535.019      12.447908      12.936245      52.360083    
     27600   13.9255        316.87995     -2369.6504      9.7894276      15586.925      12.447908      12.936245      52.360083    
     27800   14.0255        305.97776     -2369.3135      9.4526244      17179.948      12.447908      12.936245      52.360083    
     28000   14.1255        291.83868     -2368.8766      9.0158232      18093.671      12.447908      12.936245      52.360083    
     28200   14.2255        311.25019     -2369.4765      9.6155066      19449.211      12.447908      12.936245      52.360083    
     28400   14.3255        299.78446     -2369.1224      9.2612937      19177.217      12.447908      12.936245      52.360083    
     28600   14.4255        310.67347     -2369.4587      9.5976898      17384.569      12.447908      12.936245      52.360083    
     28800   14.5255        310.9922      -2369.4686      9.6075364      19180.823      12.447908      12.936245      52.360083    
     29000   14.6255        305.76422     -2369.3072      9.4460275      17491.928      12.447908      12.936245      52.360083    
     29200   14.7255        305.72869     -2369.3061      9.4449299      16148.834      12.447908      12.936245      52.360083    
     29400   14.8255        314.52314     -2369.5779      9.7166183      16044.339      12.447908      12.936245      52.360083    
     29600   14.9255        300.95084     -2369.1587      9.297327       17842.417      12.447908      12.936245      52.360083    
     29800   15.0255        286.44207     -2368.7103      8.8491049      15407.115      12.447908      12.936245      52.360083    
     30000   15.1255        281.16198     -2368.5473      8.685986       17458.101      12.447908      12.936245      52.360083    
     30200   15.2255        330.69723     -2370.0778      10.216287      17625.646      12.447908      12.936245      52.360083    
     30400   15.3255        297.35543     -2369.0476      9.1862532      18784.159      12.447908      12.936245      52.360083    
     30600   15.4255        313.83837     -2369.5569      9.6954636      18958.588      12.447908      12.936245      52.360083    
     30800   15.5255        312.51734     -2369.5162      9.6546529      19726.62       12.447908      12.936245      52.360083    
     31000   15.6255        294.11829     -2368.9478      9.0862476      19801.922      12.447908      12.936245      52.360083    
     31200   15.7255        287.93198     -2368.7566      8.8951331      17178.209      12.447908      12.936245      52.360083    
     31400   15.8255        309.31982     -2369.4176      9.5558712      17942.85       12.447908      12.936245      52.360083    
     31600   15.9255        309.1712      -2369.413       9.5512797      17093.622      12.447908      12.936245      52.360083    
     31800   16.0255        287.39827     -2368.7403      8.8786451      17264.175      12.447908      12.936245      52.360083    
     32000   16.1255        306.48215     -2369.33        9.4682067      16479.921      12.447908      12.936245      52.360083    
     32200   16.2255        333.81219     -2370.1745      10.312518      16238.886      12.447908      12.936245      52.360083    
     32400   16.3255        317.10876     -2369.6584      9.7964962      16210.221      12.447908      12.936245      52.360083    
     32600   16.4255        317.06957     -2369.6572      9.7952856      18489.693      12.447908      12.936245      52.360083    
     32800   16.5255        313.93022     -2369.5604      9.6983012      17670.804      12.447908      12.936245      52.360083    
     33000   16.6255        310.26615     -2369.4472      9.5851063      18983.42       12.447908      12.936245      52.360083    
     33200   16.7255        313.31704     -2369.5415      9.6793581      19793.315      12.447908      12.936245      52.360083    
     33400   16.8255        318.89426     -2369.7138      9.8516561      20967.895      12.447908      12.936245      52.360083    
     33600   16.9255        310.37753     -2369.4508      9.5885474      20105.845      12.447908      12.936245      52.360083    
     33800   17.0255        310.2992      -2369.4485      9.5861274      19098.91       12.447908      12.936245      52.360083    
     34000   17.1255        313.14808     -2369.5365      9.6741382      18044.525      12.447908      12.936245      52.360083    
     34200   17.2255        321.28392     -2369.788       9.9254803      17295.056      12.447908      12.936245      52.360083    
     34400   17.3255        311.83615     -2369.4962      9.6336086      17256.627      12.447908      12.936245      52.360083    
     34600   17.4255        315.0215      -2369.5946      9.7320141      14679.812      12.447908      12.936245      52.360083    
     34800   17.5255        301.44845     -2369.1753      9.3126996      17217.76       12.447908      12.936245      52.360083    
     35000   17.6255        292.63851     -2368.9032      9.0405325      17175.866      12.447908      12.936245      52.360083    
     35200   17.7255        328.36692     -2370.0071      10.144297      17653.547      12.447908      12.936245      52.360083    
     35400   17.8255        315.69898     -2369.6158      9.7529438      19591.968      12.447908      12.936245      52.360083    
     35600   17.9255        287.77227     -2368.7531      8.8901991      18511.462      12.447908      12.936245      52.360083    
     35800   18.0255        302.5572      -2369.21        9.3469524      19109.697      12.447908      12.936245      52.360083    
     36000   18.1255        319.21369     -2369.7247      9.8615243      18352.448      12.447908      12.936245      52.360083    
     36200   18.2255        288.08704     -2368.763       8.8999234      19046.802      12.447908      12.936245      52.360083    
     36400   18.3255        310.57642     -2369.458       9.5946916      17476.736      12.447908      12.936245      52.360083    
     36600   18.4255        303.44288     -2369.2376      9.374314       17610.921      12.447908      12.936245      52.360083    
     36800   18.5255        308.42641     -2369.3916      9.5282709      16523.427      12.447908      12.936245      52.360083    
     37000   18.6255        283.35905     -2368.6173      8.7538605      17210.439      12.447908      12.936245      52.360083    
     37200   18.7255        296.15354     -2369.0126      9.1491229      16374.717      12.447908      12.936245      52.360083    
     37400   18.8255        300.78189     -2369.1556      9.2921073      17737.252      12.447908      12.936245      52.360083    
     37600   18.9255        322.96074     -2369.8412      9.9772825      16771.164      12.447908      12.936245      52.360083    
     37800   19.0255        323.21839     -2369.8491      9.9852421      16882.295      12.447908      12.936245      52.360083    
     38000   19.1255        303.18455     -2369.2303      9.3663332      20064.051      12.447908      12.936245      52.360083    
     38200   19.2255        320.56084     -2369.7671      9.9031421      19053.862      12.447908      12.936245      52.360083    
     38400   19.3255        315.6573      -2369.6157      9.751656       17061.32       12.447908      12.936245      52.360083    
     38600   19.4255        315.61252     -2369.6144      9.7502726      17066.703      12.447908      12.936245      52.360083    
     38800   19.5255        313.74701     -2369.557       9.6926413      17993.12       12.447908      12.936245      52.360083    
     39000   19.6255        304.24024     -2369.2633      9.398947       18235.603      12.447908      12.936245      52.360083    
     39200   19.7255        316.89312     -2369.6543      9.7898344      16621.783      12.447908      12.936245      52.360083    
     39400   19.8255        314.9232      -2369.5935      9.7289773      15545.218      12.447908      12.936245      52.360083    
     39600   19.9255        317.6445      -2369.6777      9.8130469      16706.383      12.447908      12.936245      52.360083    
     39800   20.0255        311.47361     -2369.4872      9.6224085      18057.356      12.447908      12.936245      52.360083    
     40000   20.1255        298.99273     -2369.1016      9.2368345      19395.89       12.447908      12.936245      52.360083    
     40200   20.2255        284.90143     -2368.6664      8.8015096      18278.373      12.447908      12.936245      52.360083    
     40400   20.3255        301.18845     -2369.1697      9.3046674      17423.372      12.447908      12.936245      52.360083    
     40600   20.4255        288.49556     -2368.7776      8.9125437      19517.477      12.447908      12.936245      52.360083    
     40800   20.5255        307.31876     -2369.3593      9.4940521      18979.602      12.447908      12.936245      52.360083    
     41000   20.6255        322.34047     -2369.8235      9.9581203      17404.452      12.447908      12.936245      52.360083    
     41200   20.7255        311.62423     -2369.4925      9.6270619      16731.817      12.447908      12.936245      52.360083    
     41400   20.8255        297.39725     -2369.0532      9.1875451      18192.349      12.447908      12.936245      52.360083    
     41600   20.9255        280.78673     -2368.5401      8.6743934      20094.779      12.447908      12.936245      52.360083    
     41800   21.0255        304.44251     -2369.271       9.4051955      17491.121      12.447908      12.936245      52.360083    
     42000   21.1255        312.364       -2369.5159      9.6499156      17311.397      12.447908      12.936245      52.360083    
     42200   21.2255        303.05628     -2369.2285      9.3623705      18329.526      12.447908      12.936245      52.360083    
     42400   21.3255        329.18938     -2370.036       10.169705      19693.256      12.447908      12.936245      52.360083    
     42600   21.4255        307.82797     -2369.3761      9.5097832      17222.419      12.447908      12.936245      52.360083    
     42800   21.5255        294.54284     -2368.9658      9.0993635      18377.534      12.447908      12.936245      52.360083    
     43000   21.6255        302.05087     -2369.1979      9.3313101      18876.447      12.447908      12.936245      52.360083    
     43200   21.7255        308.74516     -2369.4048      9.5381181      18635.002      12.447908      12.936245      52.360083    
     43400   21.8255        301.06297     -2369.1676      9.3007909      19364.227      12.447908      12.936245      52.360083    
     43600   21.9255        307.04159     -2369.3524      9.4854893      16286.17       12.447908      12.936245      52.360083    
     43800   22.0255        290.59467     -2368.8444      8.9773919      17308.37       12.447908      12.936245      52.360083    
     44000   22.1255        302.31075     -2369.2066      9.3393389      18117.222      12.447908      12.936245      52.360083    
     44200   22.2255        296.15974     -2369.0166      9.1493145      17753.96       12.447908      12.936245      52.360083    
     44400   22.3255        281.62933     -2368.5678      8.7004242      17825.435      12.447908      12.936245      52.360083    
     44600   22.4255        316.51535     -2369.6459      9.778164       17783.029      12.447908      12.936245      52.360083    
     44800   22.5255        311.42356     -2369.4886      9.6208624      17932.114      12.447908      12.936245      52.360083    
     45000   22.6255        307.61842     -2369.3712      9.5033097      19517.078      12.447908      12.936245      52.360083    
     45200   22.7255        308.67523     -2369.404       9.5359579      17684.152      12.447908      12.936245      52.360083    
     45400   22.8255        290.98136     -2368.8575      8.989338       17508.512      12.447908      12.936245      52.360083    
     45600   22.9255        304.47769     -2369.2746      9.4062826      19056.262      12.447908      12.936245      52.360083    
     45800   23.0255        319.73672     -2369.7462      9.8776823      17156.424      12.447908      12.936245      52.360083    
     46000   23.1255        306.69831     -2369.3435      9.4748845      17237.451      12.447908      12.936245      52.360083    
     46200   23.2255        315.22668     -2369.6071      9.7383528      16245.933      12.447908      12.936245      52.360083    
     46400   23.3255        299.3389      -2369.1164      9.2475289      18256.271      12.447908      12.936245      52.360083    
     46600   23.4255        311.62268     -2369.4961      9.6270137      17733.107      12.447908      12.936245      52.360083    
     46800   23.5255        301.9966      -2369.1988      9.3296336      17257.365      12.447908      12.936245      52.360083    
     47000   23.6255        301.85149     -2369.1946      9.3251509      17958.167      12.447908      12.936245      52.360083    
     47200   23.7255        314.12862     -2369.5739      9.7044304      17627.924      12.447908      12.936245      52.360083    
     47400   23.8255        298.93975     -2369.1048      9.235198       19177.85       12.447908      12.936245      52.360083    
     47600   23.9255        305.78344     -2369.3164      9.4466212      20071.051      12.447908      12.936245      52.360083    
     47800   24.0255        322.61288     -2369.8366      9.9665362      18143.289      12.447908      12.936245      52.360083    
     48000   24.1255        315.47821     -2369.6164      9.7461233      17361.516      12.447908      12.936245      52.360083    
     48200   24.2255        290.46738     -2368.8438      8.9734597      18610.598      12.447908      12.936245      52.360083    
     48400   24.3255        278.39422     -2368.4709      8.6004813      18056.644      12.447908      12.936245      52.360083    
     48600   24.4255        322.53432     -2369.8348      9.9641092      17718.339      12.447908      12.936245      52.360083    
     48800   24.5255        304.81549     -2369.2876      9.4167181      16888.23       12.447908      12.936245      52.360083    
     49000   24.6255        308.37792     -2369.3978      9.5267728      17084.322      12.447908      12.936245      52.360083    
     49200   24.7255        309.44539     -2369.431       9.5597506      17980.6        12.447908      12.936245      52.360083    
     49400   24.8255        310.14824     -2369.4529      9.5814637      18305.951      12.447908      12.936245      52.360083    
     49600   24.9255        302.86871     -2369.2282      9.3565758      17458.856      12.447908      12.936245      52.360083    
     49800   25.0255        309.02084     -2369.4183      9.5466348      17278.69       12.447908      12.936245      52.360083    
     50000   25.1255        307.23339     -2369.3634      9.4914149      19332.791      12.447908      12.936245      52.360083    
     50200   25.2255        287.99136     -2368.7691      8.8969675      18514.944      12.447908      12.936245      52.360083    
     50400   25.3255        281.76319     -2368.5768      8.7045596      16475.509      12.447908      12.936245      52.360083    
     50600   25.4255        284.85544     -2368.6725      8.800089       18616.771      12.447908      12.936245      52.360083    
     50800   25.5255        314.1382      -2369.5774      9.7047261      17903.134      12.447908      12.936245      52.360083    
     51000   25.6255        317.37898     -2369.6777      9.8048444      17120.52       12.447908      12.936245      52.360083    
     51200   25.7255        305.15264     -2369.3001      9.4271339      19922.245      12.447908      12.936245      52.360083    
     51400   25.8255        305.7914      -2369.3202      9.4468672      16340.751      12.447908      12.936245      52.360083    
     51600   25.9255        302.2981      -2369.2123      9.3389481      16225.379      12.447908      12.936245      52.360083    
     51800   26.0255        329.0738      -2370.0398      10.166134      18136.142      12.447908      12.936245      52.360083    
     52000   26.1255        298.52731     -2369.0962      9.2224565      18758.793      12.447908      12.936245      52.360083    
     52200   26.2255        311.05902     -2369.4837      9.6096006      17201.235      12.447908      12.936245      52.360083    
     52400   26.3255        318.55047     -2369.7152      9.8410353      16904.199      12.447908      12.936245      52.360083    
     52600   26.4255        310.27736     -2369.4598      9.5854526      18213.234      12.447908      12.936245      52.360083    
     52800   26.5255        299.98326     -2369.1419      9.2674353      18829.335      12.447908      12.936245      52.360083    
     53000   26.6255        297.44458     -2369.0638      9.1890073      18273.855      12.447908      12.936245      52.360083    
     53200   26.7255        318.43036     -2369.7123      9.8373246      17231.607      12.447908      12.936245      52.360083    
     53400   26.8255        309.77996     -2369.4453      9.5700865      18539.798      12.447908      12.936245      52.360083    
     53600   26.9255        328.10368     -2370.0117      10.136164      18246.031      12.447908      12.936245      52.360083    
     53800   27.0255        283.55828     -2368.6356      8.7600154      19292.958      12.447908      12.936245      52.360083    
     54000   27.1255        288.47372     -2368.7876      8.911869       16717.019      12.447908      12.936245      52.360083    
     54200   27.2255        296.36678     -2369.0317      9.1557108      18272.18       12.447908      12.936245      52.360083    
     54400   27.3255        301.76769     -2369.1988      9.3225621      17751.891      12.447908      12.936245      52.360083    
     54600   27.4255        299.41456     -2369.1263      9.2498664      18337.999      12.447908      12.936245      52.360083    
     54800   27.5255        268.874       -2368.183       8.3063713      18549.664      12.447908      12.936245      52.360083    
     55000   27.6255        298.88615     -2369.1104      9.2335421      18399.293      12.447908      12.936245      52.360083    
     55200   27.7255        318.95785     -2369.7307      9.8536207      18187.108      12.447908      12.936245      52.360083    
     55400   27.8255        322.15476     -2369.8298      9.9523831      18995.658      12.447908      12.936245      52.360083    
     55600   27.9255        321.37903     -2369.806       9.9284184      18461.794      12.447908      12.936245      52.360083    
     55800   28.0255        300.92056     -2369.1742      9.2963915      15109.002      12.447908      12.936245      52.360083    
     56000   28.1255        318.30941     -2369.7116      9.8335881      17872.808      12.447908      12.936245      52.360083    
     56200   28.2255        288.4037      -2368.7878      8.9097059      17981.737      12.447908      12.936245      52.360083    
     56400   28.3255        316.86546     -2369.6675      9.78898        18501.907      12.447908      12.936245      52.360083    
     56600   28.4255        304.43182     -2369.2835      9.4048654      16649.717      12.447908      12.936245      52.360083    
     56800   28.5255        295.62152     -2369.0115      9.1326871      18327.904      12.447908      12.936245      52.360083    
     57000   28.6255        299.55485     -2369.1334      9.2542004      19189.677      12.447908      12.936245      52.360083    
     57200   28.7255        291.9773      -2368.8995      9.0201059      17818.427      12.447908      12.936245      52.360083    
     57400   28.8255        305.6289      -2369.3215      9.4418469      19091.665      12.447908      12.936245      52.360083    
     57600   28.9255        307.55363     -2369.3812      9.501308       17460.211      12.447908      12.936245      52.360083    
     57800   29.0255        302.59164     -2369.2281      9.3480163      17407.548      12.447908      12.936245      52.360083    
     58000   29.1255        313.42118     -2369.5629      9.6825754      18828.894      12.447908      12.936245      52.360083    
     58200   29.2255        296.95493     -2369.0544      9.1738806      16593.449      12.447908      12.936245      52.360083    
     58400   29.3255        278.53555     -2368.4856      8.6048475      18264.536      12.447908      12.936245      52.360083    
     58600   29.4255        316.23017     -2369.6505      9.7693539      15958.64       12.447908      12.936245      52.360083    
     58800   29.5255        304.92727     -2369.3015      9.4201715      19337.793      12.447908      12.936245      52.360083    
     59000   29.6255        301.26028     -2369.1885      9.3068865      17776.163      12.447908      12.936245      52.360083    
     59200   29.7255        322.09262     -2369.8324      9.9504635      18232.762      12.447908      12.936245      52.360083    
     59400   29.8255        306.52769     -2369.3517      9.4696136      18938.901      12.447908      12.936245      52.360083    
     59600   29.9255        305.24556     -2369.3123      9.4300042      19315.106      12.447908      12.936245      52.360083    
     59800   30.0255        312.25371     -2369.5292      9.6465083      18100.383      12.447908      12.936245      52.360083    
     60000   30.1255        306.7939      -2369.3607      9.4778376      18589.483      12.447908      12.936245      52.360083    
     60200   30.2255        319.76055     -2369.7617      9.8784185      16274.994      12.447908      12.936245      52.360083    
     60400   30.3255        307.81614     -2369.3929      9.5094177      17882.173      12.447908      12.936245      52.360083    
     60600   30.4255        329.33818     -2370.0582      10.174302      18351.995      12.447908      12.936245      52.360083    
     60800   30.5255        294.35068     -2368.9774      9.0934268      17122.042      12.447908      12.936245      52.360083    
     61000   30.6255        298.42371     -2369.1034      9.2192558      17717.341      12.447908      12.936245      52.360083    
     61200   30.7255        318.59555     -2369.7269      9.8424279      16873.659      12.447908      12.936245      52.360083    
     61400   30.8255        284.74323     -2368.6813      8.7966223      16930.75       12.447908      12.936245      52.360083    
     61600   30.9255        294.69897     -2368.9892      9.1041866      18540.77       12.447908      12.936245      52.360083    
     61800   31.0255        316.28503     -2369.6564      9.7710488      16407.114      12.447908      12.936245      52.360083    
     62000   31.1255        297.67898     -2369.0817      9.1962488      18464.544      12.447908      12.936245      52.360083    
     62200   31.2255        301.18972     -2369.1906      9.3047068      18354.291      12.447908      12.936245      52.360083    
     62400   31.3255        314.27812     -2369.5952      9.7090488      18748.889      12.447908      12.936245      52.360083    
     62600   31.4255        312.85425     -2369.5515      9.6650609      18819.801      12.447908      12.936245      52.360083    
     62800   31.5255        314.23414     -2369.5944      9.7076903      18815.206      12.447908      12.936245      52.360083    
     63000   31.6255        312.64677     -2369.5457      9.6586513      17914.865      12.447908      12.936245      52.360083    
     63200   31.7255        311.77979     -2369.5191      9.6318676      17578.738      12.447908      12.936245      52.360083    
     63400   31.8255        318.25226     -2369.7194      9.8318227      17322.92       12.447908      12.936245      52.360083    
     63600   31.9255        314.79703     -2369.6129      9.7250796      17089.306      12.447908      12.936245      52.360083    
     63800   32.0255        313.67153     -2369.5784      9.6903093      17573.179      12.447908      12.936245      52.360083    
     64000   32.1255        303.22065     -2369.2559      9.3674487      16498.59       12.447908      12.936245      52.360083    
     64200   32.2255        301.22328     -2369.1945      9.3057435      17753.22       12.447908      12.936245      52.360083    
     64400   32.3255        321.41057     -2369.8184      9.9293929      17989.61       12.447908      12.936245      52.360083    
     64600   32.4255        306.21349     -2369.3492      9.4599068      17688.845      12.447908      12.936245      52.360083    
     64800   32.5255        301.20742     -2369.1947      9.3052535      19977.389      12.447908      12.936245      52.360083    
     65000   32.6255        280.59961     -2368.5585      8.6686128      18291.617      12.447908      12.936245      52.360083    
     65200   32.7255        306.83515     -2369.3692      9.4791118      19604.115      12.447908      12.936245      52.360083    
     65400   32.8255        309.22799     -2369.4436      9.5530344      18883.094      12.447908      12.936245      52.360083    
     65600   32.9255        323.11193     -2369.8728      9.9819532      18377.663      12.447908      12.936245      52.360083    
     65800   33.0255        311.39463     -2369.511       9.6199686      17159.768      12.447908      12.936245      52.360083    
     66000   33.1255        312.22532     -2369.5372      9.6456312      16319.47       12.447908      12.936245      52.360083    
     66200   33.2255        279.94724     -2368.5401      8.6484589      18023.46       12.447908      12.936245      52.360083    
     66400   33.3255        291.24756     -2368.8895      8.9975617      17670.184      12.447908      12.936245      52.360083    
     66600   33.4255        286.70591     -2368.7496      8.8572557      16215.03       12.447908      12.936245      52.360083    
     66800   33.5255        295.79299     -2369.0307      9.1379844      16734.181      12.447908      12.936245      52.360083    
     67000   33.6255        297.77246     -2369.0921      9.1991367      19009.77       12.447908      12.936245      52.360083    
     67200   33.7255        304.81799     -2369.3101      9.4167955      19664.266      12.447908      12.936245      52.360083    
     67400   33.8255        307.31412     -2369.3876      9.4939087      20454.987      12.447908      12.936245      52.360083    
     67600   33.9255        317.61196     -2369.7061      9.8120417      17642.097      12.447908      12.936245      52.360083    
     67800   34.0255        315.8038      -2369.6506      9.7561818      18579.892      12.447908      12.936245      52.360083    
     68000   34.1255        326.87536     -2369.993       10.098218      18493.285      12.447908      12.936245      52.360083    
     68200   34.2255        292.675       -2368.9365      9.0416598      18096.269      12.447908      12.936245      52.360083    
     68400   34.3255        305.25738     -2369.3256      9.4303697      17976.424      12.447908      12.936245      52.360083    
     68600   34.4255        315.72281     -2369.6494      9.7536798      16479.851      12.447908      12.936245      52.360083    
     68800   34.5255        312.89311     -2369.5622      9.6662615      18044.482      12.447908      12.936245      52.360083    
     69000   34.6255        302.85725     -2369.2524      9.3562219      17536.726      12.447908      12.936245      52.360083    
     69200   34.7255        293.42749     -2368.9615      9.0649066      17952.132      12.447908      12.936245      52.360083    
     69400   34.8255        296.02421     -2369.0421      9.1451277      17639.008      12.447908      12.936245      52.360083    
     69600   34.9255        299.97561     -2369.1645      9.2671989      18516.789      12.447908      12.936245      52.360083    
     69800   35.0255        305.62048     -2369.3392      9.441587       18671.339      12.447908      12.936245      52.360083    
     70000   35.1255        294.0071      -2368.9808      9.0828127      18783.294      12.447908      12.936245      52.360083    
     70200   35.2255        319.82382     -2369.7787      9.8803731      19139.892      12.447908      12.936245      52.360083    
     70400   35.3255        304.54146     -2369.307       9.4082524      19046.904      12.447908      12.936245      52.360083    
     70600   35.4255        300.25436     -2369.1747      9.2758103      18535.666      12.447908      12.936245      52.360083    
     70800   35.5255        295.43558     -2369.0263      9.126943       18899.558      12.447908      12.936245      52.360083    
     71000   35.6255        318.73391     -2369.7464      9.8467023      18390.386      12.447908      12.936245      52.360083    
     71200   35.7255        303.69335     -2369.2821      9.3820518      16012.278      12.447908      12.936245      52.360083    
     71400   35.8255        299.06169     -2369.1394      9.2389651      16940.863      12.447908      12.936245      52.360083    
     71600   35.9255        300.91281     -2369.1969      9.2961521      17067.214      12.447908      12.936245      52.360083    
     71800   36.0255        299.69223     -2369.1595      9.2584444      17794.249      12.447908      12.936245      52.360083    
     72000   36.1255        281.99069     -2368.613       8.7115876      18335.08       12.447908      12.936245      52.360083    
     72200   36.2255        313.22344     -2369.5784      9.6764666      19547.427      12.447908      12.936245      52.360083    
     72400   36.3255        310.22412     -2369.4859      9.5838079      19229.311      12.447908      12.936245      52.360083    
     72600   36.4255        311.35225     -2369.5212      9.6186595      18892.529      12.447908      12.936245      52.360083    
     72800   36.5255        329.0595      -2370.0687      10.165693      18404.635      12.447908      12.936245      52.360083    
     73000   36.6255        312.84446     -2369.568       9.6647585      19179.884      12.447908      12.936245      52.360083    
     73200   36.7255        319.79003     -2369.783       9.8793292      17385.433      12.447908      12.936245      52.360083    
     73400   36.8255        312.73083     -2369.5653      9.6612482      17789.457      12.447908      12.936245      52.360083    
     73600   36.9255        312.23068     -2369.5502      9.6457968      16618.55       12.447908      12.936245      52.360083    
     73800   37.0255        297.21693     -2369.0867      9.1819746      16765.156      12.447908      12.936245      52.360083    
     74000   37.1255        304.76348     -2369.3202      9.4151115      17417.624      12.447908      12.936245      52.360083    
     74200   37.2255        305.31792     -2369.3378      9.4322398      17361.316      12.447908      12.936245      52.360083    
     74400   37.3255        293.96102     -2368.9873      9.0813892      18978.747      12.447908      12.936245      52.360083    
     74600   37.4255        292.1319      -2368.9312      9.0248819      17709.33       12.447908      12.936245      52.360083    
     74800   37.5255        305.9086      -2369.3572      9.4504878      18764.792      12.447908      12.936245      52.360083    
     75000   37.6255        316.23039     -2369.6765      9.7693607      19380.179      12.447908      12.936245      52.360083    
     75200   37.7255        320.7714      -2369.8172      9.909647       17944.314      12.447908      12.936245      52.360083    
     75400   37.8255        299.19214     -2369.1509      9.242995       18039.162      12.447908      12.936245      52.360083    
     75600   37.9255        321.66474     -2369.8455      9.9372451      18450.261      12.447908      12.936245      52.360083    
     75800   38.0255        302.20286     -2369.2446      9.3360057      18503.71       12.447908      12.936245      52.360083    
     76000   38.1255        300.83714     -2369.2029      9.2938143      17987.284      12.447908      12.936245      52.360083    
     76200   38.2255        303.77921     -2369.2941      9.3847043      16765.601      12.447908      12.936245      52.360083    
     76400   38.3255        324.54054     -2369.9361      10.026088      15729.04       12.447908      12.936245      52.360083    
     76600   38.4255        317.15853     -2369.7083      9.7980338      16324.563      12.447908      12.936245      52.360083    
     76800   38.5255        289.94248     -2368.8679      8.9572437      17803.264      12.447908      12.936245      52.360083    
     77000   38.6255        314.13288     -2369.6156      9.704562       17416.348      12.447908      12.936245      52.360083    
     77200   38.7255        301.77239     -2369.2341      9.3227072      17417.335      12.447908      12.936245      52.360083    
     77400   38.8255        304.1119      -2369.3069      9.394982       18890.337      12.447908      12.936245      52.360083    
     77600   38.9255        311.58989     -2369.5383      9.6260009      18919.682      12.447908      12.936245      52.360083    
     77800   39.0255        304.26924     -2369.3126      9.3998427      20558.014      12.447908      12.936245      52.360083    
     78000   39.1255        305.37759     -2369.3472      9.4340831      18974.754      12.447908      12.936245      52.360083    
     78200   39.2255        319.86449     -2369.7952      9.8816296      18514.363      12.447908      12.936245      52.360083    
     78400   39.3255        301.92761     -2369.2415      9.3275023      19008.763      12.447908      12.936245      52.360083    
     78600   39.4255        313.3869      -2369.596       9.6815163      17407.795      12.447908      12.936245      52.360083    
     78800   39.5255        318.04012     -2369.7401      9.8252689      15777.754      12.447908      12.936245      52.360083    
     79000   39.6255        299.59224     -2369.1706      9.2553555      15090.135      12.447908      12.936245      52.360083    
     79200   39.7255        316.03952     -2369.6792      9.7634642      15994.87       12.447908      12.936245      52.360083    
     79400   39.8255        301.44509     -2369.2286      9.3125957      17563.715      12.447908      12.936245      52.360083    
     79600   39.9255        302.41213     -2369.259       9.3424708      17934.025      12.447908      12.936245      52.360083    
     79800   40.0255        303.11655     -2369.2813      9.3642325      19370.349      12.447908      12.936245      52.360083    
     80000   40.1255        325.52839     -2369.974       10.056606      19427.084      12.447908      12.936245      52.360083    
     80200   40.2255        309.9762      -2369.4939      9.576149       20267.656      12.447908      12.936245      52.360083    
     80400   40.3255        319.719       -2369.7954      9.8771348      19481.307      12.447908      12.936245      52.360083    
     80600   40.4255        310.30306     -2369.505       9.5862466      17535.343      12.447908      12.936245      52.360083    
     80800   40.5255        316.7889      -2369.7058      9.7866147      18980.607      12.447908      12.936245      52.360083    
     81000   40.6255        306.04782     -2369.3744      9.4547887      18106.691      12.447908      12.936245      52.360083    
     81200   40.7255        299.53143     -2369.1734      9.2534766      16997.807      12.447908      12.936245      52.360083    
     81400   40.8255        292.64663     -2368.9612      9.0407835      16136.867      12.447908      12.936245      52.360083    
     81600   40.9255        288.97472     -2368.8482      8.9273466      14609.859      12.447908      12.936245      52.360083    
     81800   41.0255        294.6068      -2369.0226      9.1013394      18134.384      12.447908      12.936245      52.360083    
     82000   41.1255        303.55214     -2369.2995      9.3776893      17573.111      12.447908      12.936245      52.360083    
     82200   41.2255        299.52917     -2369.1756      9.2534069      18467.039      12.447908      12.936245      52.360083    
     82400   41.3255        299.3894      -2369.1717      9.2490889      19023.273      12.447908      12.936245      52.360083    
     82600   41.4255        305.22317     -2369.3525      9.4293126      18448.366      12.447908      12.936245      52.360083    
     82800   41.5255        305.74786     -2369.369       9.445522       19640.51       12.447908      12.936245      52.360083    
     83000   41.6255        276.02633     -2368.4513      8.5273296      20407.144      12.447908      12.936245      52.360083    
     83200   41.7255        318.95707     -2369.7782      9.8535965      18430.029      12.447908      12.936245      52.360083    
     83400   41.8255        312.86324     -2369.5903      9.6653389      17523.416      12.447908      12.936245      52.360083    
     83600   41.9255        320.88991     -2369.8387      9.9133079      16378.755      12.447908      12.936245      52.360083    
     83800   42.0255        291.05412     -2368.9174      8.9915859      17878.14       12.447908      12.936245      52.360083    
     84000   42.1255        317.06092     -2369.7214      9.7950185      15068.303      12.447908      12.936245      52.360083    
     84200   42.2255        305.90185     -2369.3771      9.4502794      16998.649      12.447908      12.936245      52.360083    
     84400   42.3255        303.65306     -2369.3081      9.3808072      16402.24       12.447908      12.936245      52.360083    
     84600   42.4255        289.01688     -2368.8563      8.928649       19870.663      12.447908      12.936245      52.360083    
     84800   42.5255        323.11231     -2369.9103      9.981965       19846.953      12.447908      12.936245      52.360083    
     85000   42.6255        298.82502     -2369.1603      9.2316537      19780.99       12.447908      12.936245      52.360083    
     85200   42.7255        310.06209     -2369.5081      9.5788022      18996.327      12.447908      12.936245      52.360083    
     85400   42.8255        304.99647     -2369.3519      9.4223091      19596.177      12.447908      12.936245      52.360083    
     85600   42.9255        317.25293     -2369.7312      9.8009502      18164.09       12.447908      12.936245      52.360083    
     85800   43.0255        285.54665     -2368.752       8.8214425      18361.707      12.447908      12.936245      52.360083    
     86000   43.1255        311.42188     -2369.5519      9.6208107      15252.142      12.447908      12.936245      52.360083    
     86200   43.2255        288.829       -2368.8544      8.9228448      16230.233      12.447908      12.936245      52.360083    
     86400   43.3255        285.22318     -2368.7435      8.8114495      16834.263      12.447908      12.936245      52.360083    
     86600   43.4255        304.56375     -2369.3415      9.408941       16672.782      12.447908      12.936245      52.360083    
     86800   43.5255        314.45646     -2369.6477      9.7145583      16758.107      12.447908      12.936245      52.360083    
     87000   43.6255        317.45973     -2369.741       9.8073388      17955.375      12.447908      12.936245      52.360083    
     87200   43.7255        306.9266      -2369.416       9.4819371      19601.598      12.447908      12.936245      52.360083    
     87400   43.8255        305.9393      -2369.386       9.4514364      20085.011      12.447908      12.936245      52.360083    
     87600   43.9255        333.95086     -2370.2519      10.316802      19662.955      12.447908      12.936245      52.360083    
     87800   44.0255        310.55463     -2369.5296      9.5940184      19235.165      12.447908      12.936245      52.360083    
     88000   44.1255        326.0939      -2370.0102      10.074076      18873.894      12.447908      12.936245      52.360083    
     88200   44.2255        303.3769      -2369.3089      9.3722755      18444.869      12.447908      12.936245      52.360083    
     88400   44.3255        290.11185     -2368.8995      8.9624759      16804.944      12.447908      12.936245      52.360083    
     88600   44.4255        322.06886     -2369.8874      9.9497296      14547.149      12.447908      12.936245      52.360083    
     88800   44.5255        304.22304     -2369.3366      9.3984156      16248.49       12.447908      12.936245      52.360083    
     89000   44.6255        324.26921     -2369.9564      10.017705      17588.638      12.447908      12.936245      52.360083    
     89200   44.7255        307.39324     -2369.4355      9.4963532      16851.891      12.447908      12.936245      52.360083    
     89400   44.8255        300.91846     -2369.236       9.2963264      19012.637      12.447908      12.936245      52.360083    
     89600   44.9255        283.0472      -2368.6844      8.7442264      19405.587      12.447908      12.936245      52.360083    
     89800   45.0255        297.12505     -2369.1198      9.1791359      20851.071      12.447908      12.936245      52.360083    
     90000   45.1255        310.52418     -2369.5344      9.5930777      18964.983      12.447908      12.936245      52.360083    
     90200   45.2255        321.08318     -2369.861       9.9192788      18968.326      12.447908      12.936245      52.360083    
     90400   45.3255        311.57165     -2369.5679      9.6254373      19161.762      12.447908      12.936245      52.360083    
     90600   45.4255        302.27404     -2369.281       9.3382048      18125.884      12.447908      12.936245      52.360083    
     90800   45.5255        314.45859     -2369.6581      9.714624       16308.712      12.447908      12.936245      52.360083    
     91000   45.6255        289.04052     -2368.8733      8.9293793      16497.154      12.447908      12.936245      52.360083    
     91200   45.7255        286.31598     -2368.7897      8.8452097      15186.256      12.447908      12.936245      52.360083    
     91400   45.8255        307.27107     -2369.4376      9.4925788      16508.003      12.447908      12.936245      52.360083    
     91600   45.9255        311.6307      -2369.5729      9.6272615      16870.089      12.447908      12.936245      52.360083    
     91800   46.0255        319.76319     -2369.8247      9.8785         17773.18       12.447908      12.936245      52.360083    
     92000   46.1255        293.90054     -2369.0261      9.0795208      18249.302      12.447908      12.936245      52.360083    
     92200   46.2255        304.65422     -2369.359       9.4117359      19799.761      12.447908      12.936245      52.360083    
     92400   46.3255        320.95142     -2369.863       9.9152082      18248.086      12.447908      12.936245      52.360083    
     92600   46.4255        305.47946     -2369.3856      9.4372303      18743.985      12.447908      12.936245      52.360083    
     92800   46.5255        314.11196     -2369.6529      9.7039156      19541.038      12.447908      12.936245      52.360083    
     93000   46.6255        303.06819     -2369.3121      9.3627384      18865.871      12.447908      12.936245      52.360083    
     93200   46.7255        293.66384     -2369.0222      9.0722083      16236.211      12.447908      12.936245      52.360083    
     93400   46.8255        315.10136     -2369.6851      9.7344815      16886.046      12.447908      12.936245      52.360083    
     93600   46.9255        311.81273     -2369.5841      9.632885       16851.166      12.447908      12.936245      52.360083    
     93800   47.0255        294.92026     -2369.0628      9.1110232      16570.442      12.447908      12.936245      52.360083    
     94000   47.1255        308.04539     -2369.4688      9.5165001      16470.918      12.447908      12.936245      52.360083    
     94200   47.2255        291.2471      -2368.9504      8.9975474      16729.798      12.447908      12.936245      52.360083    
     94400   47.3255        293.82634     -2369.0306      9.0772283      16872.952      12.447908      12.936245      52.360083    
     94600   47.4255        299.24072     -2369.1984      9.2444957      18957.189      12.447908      12.936245      52.360083    
     94800   47.5255        305.9147      -2369.4052      9.4506763      19905.573      12.447908      12.936245      52.360083    
     95000   47.6255        292.13099     -2368.9801      9.0248538      20444.153      12.447908      12.936245      52.360083    
     95200   47.7255        315.77459     -2369.7111      9.7552795      18847.198      12.447908      12.936245      52.360083    
     95400   47.8255        326.68571     -2370.0487      10.092359      18940.736      12.447908      12.936245      52.360083    
     95600   47.9255        330.48438     -2370.1668      10.209712      18400.567      12.447908      12.936245      52.360083    
     95800   48.0255        309.21164     -2369.5101      9.5525293      17567.108      12.447908      12.936245      52.360083    
     96000   48.1255        282.23271     -2368.6771      8.7190645      16706.474      12.447908      12.936245      52.360083    
     96200   48.2255        298.02399     -2369.1656      9.2069073      16716.946      12.447908      12.936245      52.360083    
     96400   48.3255        316.06606     -2369.7236      9.764284       15943.19       12.447908      12.936245      52.360083    
     96600   48.4255        302.39958     -2369.302       9.342083       17148.998      12.447908      12.936245      52.360083    
     96800   48.5255        321.98759     -2369.9078      9.947219       16653.148      12.447908      12.936245      52.360083    
     97000   48.6255        288.34803     -2368.869       8.9079859      17522.961      12.447908      12.936245      52.360083    
     97200   48.7255        304.54367     -2369.3701      9.4083208      19723.201      12.447908      12.936245      52.360083    
     97400   48.8255        292.7647      -2369.0067      9.0444311      21570.817      12.447908      12.936245      52.360083    
     97600   48.9255        291.66562     -2368.9734      9.0104771      19062.972      12.447908      12.936245      52.360083    
     97800   49.0255        294.94338     -2369.0753      9.1117374      20644.608      12.447908      12.936245      52.360083    
     98000   49.1255        308.07587     -2369.4815      9.5174417      19221.555      12.447908      12.936245      52.360083    
     98200   49.2255        286.43327     -2368.8136      8.8488331      19742.943      12.447908      12.936245      52.360083    
     98400   49.3255        308.35615     -2369.4915      9.5261004      16591.814      12.447908      12.936245      52.360083    
     98600   49.4255        310.80573     -2369.5678      9.6017756      15115.121      12.447908      12.936245      52.360083    
     98800   49.5255        283.75991     -2368.7327      8.7662446      15892.124      12.447908      12.936245      52.360083    
     99000   49.6255        306.82537     -2369.4461      9.4788098      17614.886      12.447908      12.936245      52.360083    
     99200   49.7255        298.91624     -2369.2022      9.2344717      17149.787      12.447908      12.936245      52.360083    
     99400   49.8255        311.27607     -2369.5849      9.6163059      17022.494      12.447908      12.936245      52.360083    
     99600   49.9255        317.74855     -2369.7854      9.8162615      18100.534      12.447908      12.936245      52.360083    
     99800   50.0255        317.78674     -2369.7874      9.8174414      19897.714      12.447908      12.936245      52.360083    
    100000   50.1255        290.05991     -2368.9312      8.9608713      18978.584      12.447908      12.936245      52.360083    
    100200   50.2255        305.72052     -2369.4157      9.4446774      21165.533      12.447908      12.936245      52.360083    
    100400   50.3255        333.76037     -2370.2827      10.310918      18692.947      12.447908      12.936245      52.360083    
    100600   50.4255        302.11404     -2369.3057      9.3332618      19023.661      12.447908      12.936245      52.360083    
    100800   50.5255        298.37039     -2369.1906      9.2176085      17834.009      12.447908      12.936245      52.360083    
    101000   50.6255        313.56184     -2369.6605      9.6869208      15860.747      12.447908      12.936245      52.360083    
    101200   50.7255        318.52003     -2369.8144      9.8400948      16782.608      12.447908      12.936245      52.360083    
    101400   50.8255        297.26587     -2369.1583      9.1834866      15222.65       12.447908      12.936245      52.360083    
    101600   50.9255        298.93392     -2369.2105      9.2350178      14989.85       12.447908      12.936245      52.360083    
    101800   51.0255        324.64104     -2370.0055      10.029192      16881.789      12.447908      12.936245      52.360083    
    102000   51.1255        291.17825     -2368.9723      8.9954206      19214.508      12.447908      12.936245      52.360083    
    102200   51.2255        302.13161     -2369.3113      9.3338046      19694.486      12.447908      12.936245      52.360083    
    102400   51.3255        309.35573     -2369.5352      9.5569805      20483.22       12.447908      12.936245      52.360083    
    102600   51.4255        303.64131     -2369.3593      9.3804439      20364.853      12.447908      12.936245      52.360083    
    102800   51.5255        292.81345     -2369.0254      9.0459371      18912.509      12.447908      12.936245      52.360083    
    103000   51.6255        319.02171     -2369.8358      9.8555935      19476.841      12.447908      12.936245      52.360083    
    103200   51.7255        311.82019     -2369.6141      9.6331157      17674.466      12.447908      12.936245      52.360083    
    103400   51.8255        303.44063     -2369.3559      9.3742445      16046.341      12.447908      12.936245      52.360083    
    103600   51.9255        311.87796     -2369.6172      9.6349002      13900.311      12.447908      12.936245      52.360083    
    103800   52.0255        315.2545      -2369.7221      9.7392124      14874.651      12.447908      12.936245      52.360083    
    104000   52.1255        313.43113     -2369.6665      9.6828827      15736.925      12.447908      12.936245      52.360083    
    104200   52.2255        274.6509      -2368.469       8.4848383      15427.507      12.447908      12.936245      52.360083    
    104400   52.3255        313.53935     -2369.6712      9.686226       18470.003      12.447908      12.936245      52.360083    
    104600   52.4255        317.11111     -2369.7822      9.7965689      20621.296      12.447908      12.936245      52.360083    
    104800   52.5255        288.48888     -2368.8986      8.9123372      20666.881      12.447908      12.936245      52.360083    
    105000   52.6255        313.87779     -2369.6837      9.6966815      20621.613      12.447908      12.936245      52.360083    
    105200   52.7255        307.50318     -2369.4874      9.4997494      19553.625      12.447908      12.936245      52.360083    
    105400   52.8255        297.04028     -2369.1648      9.1765173      19704.868      12.447908      12.936245      52.360083    
    105600   52.9255        310.6223      -2369.5853      9.5961091      16707.192      12.447908      12.936245      52.360083    
    105800   53.0255        313.45722     -2369.6735      9.6836886      17075.174      12.447908      12.936245      52.360083    
    106000   53.1255        291.25898     -2368.9884      8.9979145      14759.587      12.447908      12.936245      52.360083    
    106200   53.2255        304.21882     -2369.3895      9.3982852      15533.402      12.447908      12.936245      52.360083    
    106400   53.3255        280.49479     -2368.6572      8.6653746      16977.503      12.447908      12.936245      52.360083    
    106600   53.4255        312.27888     -2369.6399      9.6472859      15618.028      12.447908      12.936245      52.360083    
    106800   53.5255        303.02389     -2369.3547      9.36137        15692.732      12.447908      12.936245      52.360083    
    107000   53.6255        312.43578     -2369.6462      9.6521331      19899.865      12.447908      12.936245      52.360083    
    107200   53.7255        301.54215     -2369.3105      9.3155942      20145.858      12.447908      12.936245      52.360083    
    107400   53.8255        286.03104     -2368.8318      8.8364069      21147.854      12.447908      12.936245      52.360083    
    107600   53.9255        310.75449     -2369.5965      9.6001928      21576.303      12.447908      12.936245      52.360083    
    107800   54.0255        301.37899     -2369.3075      9.3105538      20117.983      12.447908      12.936245      52.360083    
    108000   54.1255        307.65735     -2369.5023      9.5045123      17720.718      12.447908      12.936245      52.360083    
    108200   54.2255        300.80189     -2369.2911      9.2927255      16329.856      12.447908      12.936245      52.360083    
    108400   54.3255        308.77129     -2369.5381      9.5389253      15778.479      12.447908      12.936245      52.360083    
    108600   54.4255        292.62758     -2369.04        9.0401948      14148.199      12.447908      12.936245      52.360083    
    108800   54.5255        300.76587     -2369.2922      9.2916126      15451.425      12.447908      12.936245      52.360083    
    109000   54.6255        280.41194     -2368.664       8.662815       16361.529      12.447908      12.936245      52.360083    
    109200   54.7255        315.4143      -2369.7464      9.7441492      16856.19       12.447908      12.936245      52.360083    
    109400   54.8255        302.64898     -2369.3527      9.3497878      18651.565      12.447908      12.936245      52.360083    
    109600   54.9255        292.56129     -2369.0417      9.0381472      19693.932      12.447908      12.936245      52.360083    
    109800   55.0255        299.20465     -2369.2477      9.2433816      21379.167      12.447908      12.936245      52.360083    
    110000   55.1255        303.38912     -2369.3778      9.372653       20522.674      12.447908      12.936245      52.360083    
    110200   55.2255        300.53331     -2369.2904      9.284428       20867.567      12.447908      12.936245      52.360083    
    110400   55.3255        313.23602     -2369.6835      9.6768552      18753.482      12.447908      12.936245      52.360083    
    110600   55.4255        301.20254     -2369.3125      9.3051028      16437.136      12.447908      12.936245      52.360083    
    110800   55.5255        294.02668     -2369.0916      9.0834177      15155.175      12.447908      12.936245      52.360083    
    111000   55.6255        297.10831     -2369.1876      9.1786188      15125.619      12.447908      12.936245      52.360083    
    111200   55.7255        304.90553     -2369.4292      9.4194997      14486.863      12.447908      12.936245      52.360083    
    111400   55.8255        304.37393     -2369.4136      9.4030768      15356.343      12.447908      12.936245      52.360083    
    111600   55.9255        310.16679     -2369.5933      9.5820367      17365.98       12.447908      12.936245      52.360083    
    111800   56.0255        306.96207     -2369.4951      9.4830328      18372.342      12.447908      12.936245      52.360083    
    112000   56.1255        320.32263     -2369.9087      9.8957828      19127.986      12.447908      12.936245      52.360083    
    112200   56.2255        295.95764     -2369.1565      9.143071       21381.652      12.447908      12.936245      52.360083    
    112400   56.3255        329.43345     -2370.1917      10.177245      20763.145      12.447908      12.936245      52.360083    
    112600   56.4255        310.67251     -2369.6129      9.5976602      19092.124      12.447908      12.936245      52.360083    
    112800   56.5255        317.36039     -2369.8202      9.8042699      18489.845      12.447908      12.936245      52.360083    
    113000   56.6255        300.48937     -2369.2998      9.2830705      17246.425      12.447908      12.936245      52.360083    
    113200   56.7255        292.01537     -2369.0388      9.0212819      16730.906      12.447908      12.936245      52.360083    
    113400   56.8255        277.51405     -2368.5915      8.5732901      15239.087      12.447908      12.936245      52.360083    
    113600   56.9255        299.32587     -2369.2662      9.2471263      14792.077      12.447908      12.936245      52.360083    
    113800   57.0255        297.15877     -2369.2001      9.1801779      15934.054      12.447908      12.936245      52.360083    
    114000   57.1255        304.69835     -2369.4338      9.4130995      17889.655      12.447908      12.936245      52.360083    
    114200   57.2255        285.79964     -2368.8508      8.8292583      18913.09       12.447908      12.936245      52.360083    
    114400   57.3255        326.75992     -2370.1171      10.094651      20408.839      12.447908      12.936245      52.360083    
    114600   57.4255        283.5099      -2368.7817      8.7585208      21121.347      12.447908      12.936245      52.360083    
    114800   57.5255        308.99309     -2369.5698      9.5457775      21636.438      12.447908      12.936245      52.360083    
    115000   57.6255        307.87801     -2369.5361      9.5113293      20863.211      12.447908      12.936245      52.360083    
    115200   57.7255        287.36416     -2368.9031      8.8775911      19574.302      12.447908      12.936245      52.360083    
    115400   57.8255        295.76942     -2369.1636      9.1372562      20280.422      12.447908      12.936245      52.360083    
    115600   57.9255        292.0481      -2369.0495      9.0222931      17166.258      12.447908      12.936245      52.360083    
    115800   58.0255        308.08113     -2369.5457      9.5176043      16457.621      12.447908      12.936245      52.360083    
    116000   58.1255        285.46076     -2368.8476      8.818789       17271.302      12.447908      12.936245      52.360083    
    116200   58.2255        297.97715     -2369.2351      9.2054603      16487.533      12.447908      12.936245      52.360083    
    116400   58.3255        293.91676     -2369.1105      9.0800217      18606.671      12.447908      12.936245      52.360083    
    116600   58.4255        301.95043     -2369.3595      9.3282073      18615.762      12.447908      12.936245      52.360083    
    116800   58.5255        301.8778      -2369.358       9.3259636      19518.908      12.447908      12.936245      52.360083    
    117000   58.6255        299.52965     -2369.2864      9.2534218      19427.262      12.447908      12.936245      52.360083    
    117200   58.7255        308.92169     -2369.5774      9.5435716      21425.183      12.447908      12.936245      52.360083    
    117400   58.8255        287.77874     -2368.925       8.8903988      19850.824      12.447908      12.936245      52.360083    
    117600   58.9255        282.86447     -2368.7741      8.7385815      21085.376      12.447908      12.936245      52.360083    
    117800   59.0255        309.51729     -2369.5985      9.5619716      20411.351      12.447908      12.936245      52.360083    
    118000   59.1255        310.25062     -2369.6219      9.5846265      20060.849      12.447908      12.936245      52.360083    
    118200   59.2255        313.17158     -2369.7129      9.6748644      18468.297      12.447908      12.936245      52.360083    
    118400   59.3255        280.57829     -2368.7067      8.6679542      16696.737      12.447908      12.936245      52.360083    
    118600   59.4255        297.40414     -2369.2276      9.1877582      19062.068      12.447908      12.936245      52.360083    
    118800   59.5255        301.55911     -2369.3566      9.3161183      16954.212      12.447908      12.936245      52.360083    
    119000   59.6255        287.5969      -2368.9262      8.8847814      17912.427      12.447908      12.936245      52.360083    
    119200   59.7255        321.04406     -2369.9604      9.9180702      18322.17       12.447908      12.936245      52.360083    
    119400   59.8255        307.1765      -2369.5329      9.4896572      19089.831      12.447908      12.936245      52.360083    
    119600   59.9255        314.47185     -2369.7592      9.7150339      19720.447      12.447908      12.936245      52.360083    
    119800   60.0255        310.88958     -2369.6492      9.6043661      21279.361      12.447908      12.936245      52.360083    
    120000   60.1255        290.68607     -2369.026       8.9802154      20383.791      12.447908      12.936245      52.360083    
    120200   60.2255        304.68382     -2369.4592      9.4126504      20137.447      12.447908      12.936245      52.360083    
    120400   60.3255        314.79205     -2369.7724      9.7249259      19325.893      12.447908      12.936245      52.360083    
    120600   60.4255        283.84821     -2368.8173      8.7689724      18660.734      12.447908      12.936245      52.360083    
    120800   60.5255        303.01317     -2369.4103      9.3610387      17572.527      12.447908      12.936245      52.360083    
    121000   60.6255        285.7711      -2368.8785      8.8283766      19105.155      12.447908      12.936245      52.360083    
    121200   60.7255        282.92127     -2368.7912      8.7403363      17149.351      12.447908      12.936245      52.360083    
    121400   60.8255        303.19982     -2369.4186      9.3668051      17965.221      12.447908      12.936245      52.360083    
    121600   60.9255        310.0398      -2369.6309      9.5781137      17803.028      12.447908      12.936245      52.360083    
    121800   61.0255        310.80263     -2369.6554      9.60168        20184.313      12.447908      12.936245      52.360083    
    122000   61.1255        305.71426     -2369.4991      9.4444842      21490.819      12.447908      12.936245      52.360083    
    122200   61.2255        302.9871      -2369.4157      9.3602335      21526.503      12.447908      12.936245      52.360083    
    122400   61.3255        308.76837     -2369.5952      9.5388352      20565.758      12.447908      12.936245      52.360083    
    122600   61.4255        319.5801      -2369.9301      9.8728437      19872.766      12.447908      12.936245      52.360083    
    122800   61.5255        319.60751     -2369.9319      9.8736906      20606.824      12.447908      12.936245      52.360083    
    123000   61.6255        302.358       -2369.3999      9.3407985      18687.255      12.447908      12.936245      52.360083    
    123200   61.7255        287.30886     -2368.9358      8.8758829      18605.459      12.447908      12.936245      52.360083    
    123400   61.8255        286.3296      -2368.9064      8.8456302      17131.846      12.447908      12.936245      52.360083    
    123600   61.9255        296.88958     -2369.2336      9.1718617      17025.521      12.447908      12.936245      52.360083    
    123800   62.0255        289.64189     -2369.0106      8.9479576      18531.163      12.447908      12.936245      52.360083    
    124000   62.1255        283.29983     -2368.8156      8.7520311      18436.718      12.447908      12.936245      52.360083    
    124200   62.2255        316.10319     -2369.83        9.7654311      19769.485      12.447908      12.936245      52.360083    
    124400   62.3255        301.36349     -2369.3755      9.310075       20803.49       12.447908      12.936245      52.360083    
    124600   62.4255        306.80617     -2369.5446      9.4782165      18876.261      12.447908      12.936245      52.360083    
    124800   62.5255        288.45601     -2368.9786      8.911322       21267.918      12.447908      12.936245      52.360083    
    125000   62.6255        306.83685     -2369.5474      9.4791644      20088.881      12.447908      12.936245      52.360083    
    125200   62.7255        307.90577     -2369.5813      9.5121868      20223.356      12.447908      12.936245      52.360083    
    125400   62.8255        313.45323     -2369.7537      9.6835655      17602.081      12.447908      12.936245      52.360083    
    125600   62.9255        301.19285     -2369.3759      9.3048034      17749.997      12.447908      12.936245      52.360083    
    125800   63.0255        278.68204     -2368.6812      8.6093728      17715.77       12.447908      12.936245      52.360083    
    126000   63.1255        309.64154     -2369.6388      9.5658101      17706.814      12.447908      12.936245      52.360083    
    126200   63.2255        295.61844     -2369.2063      9.132592       18615.434      12.447908      12.936245      52.360083    
    126400   63.3255        309.61343     -2369.6399      9.5649417      17720.052      12.447908      12.936245      52.360083    
    126600   63.4255        326.10466     -2370.1504      10.074408      19464.789      12.447908      12.936245      52.360083    
    126800   63.5255        304.87189     -2369.4954      9.4184606      19773.274      12.447908      12.936245      52.360083    
    127000   63.6255        290.24642     -2369.0443      8.9666335      20064.493      12.447908      12.936245      52.360083    
    127200   63.7255        313.16346     -2369.7533      9.6746133      19929.575      12.447908      12.936245      52.360083    
    127400   63.8255        297.43778     -2369.2686      9.1887974      19897.67       12.447908      12.936245      52.360083    
    127600   63.9255        279.47122     -2368.7143      8.6337532      19304.95       12.447908      12.936245      52.360083    
    127800   64.0255        303.17954     -2369.448       9.3661786      18622.029      12.447908      12.936245      52.360083    
    128000   64.1255        303.2579      -2369.4513      9.3685993      18047.448      12.447908      12.936245      52.360083    
    128200   64.2255        296.3554      -2369.239       9.1553593      17970.099      12.447908      12.936245      52.360083    
    128400   64.3255        291.95343     -2369.104       9.0193682      18751.516      12.447908      12.936245      52.360083    
    128600   64.4255        302.33068     -2369.4256      9.3399546      18174.525      12.447908      12.936245      52.360083    
    128800   64.5255        298.14258     -2369.2973      9.2105707      18375.386      12.447908      12.936245      52.360083    
    129000   64.6255        321.2538      -2370.0123      9.9245497      18690.718      12.447908      12.936245      52.360083    
    129200   64.7255        310.10912     -2369.669       9.5802553      19685.264      12.447908      12.936245      52.360083    
    129400   64.8255        297.12514     -2369.2688      9.1791388      19805.939      12.447908      12.936245      52.360083    
    129600   64.9255        299.39509     -2369.3401      9.2492649      18948.517      12.447908      12.936245      52.360083    
    129800   65.0255        307.65065     -2369.5961      9.5043053      18150.503      12.447908      12.936245      52.360083    
    130000   65.1255        292.51729     -2369.1296      9.0367877      20227.597      12.447908      12.936245      52.360083    
    130200   65.2255        314.61462     -2369.8134      9.7194443      18967.13       12.447908      12.936245      52.360083    
    130400   65.3255        295.82158     -2369.2337      9.1388678      18342.016      12.447908      12.936245      52.360083    
    130600   65.4255        290.78983     -2369.0794      8.983421       16831.259      12.447908      12.936245      52.360083    
    130800   65.5255        311.64975     -2369.725       9.6278501      19016.731      12.447908      12.936245      52.360083    
    131000   65.6255        325.60104     -2370.1568      10.05885       19554.84       12.447908      12.936245      52.360083    
    131200   65.7255        257.96842     -2368.0683      7.9694636      19513.903      12.447908      12.936245      52.360083    
    131400   65.8255        294.67141     -2369.2033      9.1033353      18152.9        12.447908      12.936245      52.360083    
    131600   65.9255        286.16696     -2368.9417      8.8406057      19428.627      12.447908      12.936245      52.360083    
    131800   66.0255        291.45038     -2369.106       9.0038273      20550.841      12.447908      12.936245      52.360083    
    132000   66.1255        329.3584      -2370.2783      10.174926      18832.147      12.447908      12.936245      52.360083    
    132200   66.2255        298.72651     -2369.3329      9.2286102      19740.405      12.447908      12.936245      52.360083    
    132400   66.3255        336.20344     -2370.4919      10.386392      18841.031      12.447908      12.936245      52.360083    
    132600   66.4255        315.18633     -2369.8437      9.7371062      17330.852      12.447908      12.936245      52.360083    
    132800   66.5255        289.75647     -2369.0589      8.9514973      19622.94       12.447908      12.936245      52.360083    
    133000   66.6255        301.29847     -2369.4167      9.3080662      17835.893      12.447908      12.936245      52.360083    
    133200   66.7255        320.36101     -2370.007       9.8969687      18273.424      12.447908      12.936245      52.360083    
    133400   66.8255        293.76173     -2369.1861      9.0752324      16921.196      12.447908      12.936245      52.360083    
    133600   66.9255        340.40324     -2370.6282      10.516137      17158.306      12.447908      12.936245      52.360083    
    133800   67.0255        294.17646     -2369.2011      9.0880446      19104.281      12.447908      12.936245      52.360083    
    134000   67.1255        312.93562     -2369.7818      9.6675749      19236.09       12.447908      12.936245      52.360083    
    134200   67.2255        312.88218     -2369.7812      9.6659237      18479.299      12.447908      12.936245      52.360083    
    134400   67.3255        298.88399     -2369.3498      9.2334754      19350.191      12.447908      12.936245      52.360083    
    134600   67.4255        316.09967     -2369.8829      9.7653222      19705.179      12.447908      12.936245      52.360083    
    134800   67.5255        299.93156     -2369.3845      9.265838       18973.992      12.447908      12.936245      52.360083    
    135000   67.6255        316.03984     -2369.8833      9.7634739      17075.744      12.447908      12.936245      52.360083    
    135200   67.7255        329.41549     -2370.2976      10.17669       18319.875      12.447908      12.936245      52.360083    
    135400   67.8255        323.71928     -2370.1228      10.000716      16942.173      12.447908      12.936245      52.360083    
    135600   67.9255        303.67463     -2369.5047      9.3814734      16983.59       12.447908      12.936245      52.360083    
    135800   68.0255        308.98009     -2369.6696      9.545376       16974.933      12.447908      12.936245      52.360083    
    136000   68.1255        279.42864     -2368.7577      8.6324376      16438.94       12.447908      12.936245      52.360083    
    136200   68.2255        301.92588     -2369.4539      9.3274489      17733.414      12.447908      12.936245      52.360083    
    136400   68.3255        305.80227     -2369.5748      9.4472031      18474.43       12.447908      12.936245      52.360083    
    136600   68.4255        323.21093     -2370.114       9.9850119      18050.866      12.447908      12.936245      52.360083    
    136800   68.5255        297.05804     -2369.3069      9.1770658      19221.171      12.447908      12.936245      52.360083    
    137000   68.6255        285.09803     -2368.9385      8.8075833      19745.915      12.447908      12.936245      52.360083    
    137200   68.7255        323.97323     -2370.1409      10.008562      19824.727      12.447908      12.936245      52.360083    
    137400   68.8255        310.3847      -2369.7221      9.5887687      18895.366      12.447908      12.936245      52.360083    
    137600   68.9255        289.64331     -2369.0824      8.9480012      17492.063      12.447908      12.936245      52.360083    
    137800   69.0255        306.79223     -2369.6134      9.4777859      17933.476      12.447908      12.936245      52.360083    
    138000   69.1255        286.9092      -2369.0003      8.8635359      17807.182      12.447908      12.936245      52.360083    
    138200   69.2255        283.46503     -2368.8951      8.7571345      18500.187      12.447908      12.936245      52.360083    
    138400   69.3255        299.20115     -2369.3826      9.2432733      16772.08       12.447908      12.936245      52.360083    
    138600   69.4255        294.50309     -2369.2385      9.0981353      17043.358      12.447908      12.936245      52.360083    
    138800   69.5255        304.73333     -2369.5557      9.4141799      17735.796      12.447908      12.936245      52.360083    
    139000   69.6255        307.79872     -2369.6517      9.5088796      18635.898      12.447908      12.936245      52.360083    
    139200   69.7255        294.68912     -2369.2479      9.1038826      17542.882      12.447908      12.936245      52.360083    
    139400   69.8255        309.68104     -2369.7123      9.5670305      18764.694      12.447908      12.936245      52.360083    
    139600   69.9255        284.74259     -2368.943       8.7966026      19359.641      12.447908      12.936245      52.360083    
    139800   70.0255        300.15358     -2369.4203      9.2726971      19190.626      12.447908      12.936245      52.360083    
    140000   70.1255        289.4241      -2369.09        8.9412293      19499.911      12.447908      12.936245      52.360083    
    140200   70.2255        309.7736      -2369.72        9.5698898      18882.512      12.447908      12.936245      52.360083    
    140400   70.3255        306.86706     -2369.6313      9.4800977      18414.35       12.447908      12.936245      52.360083    
    140600   70.4255        305.17251     -2369.5803      9.4277475      15850.458      12.447908      12.936245      52.360083    
    140800   70.5255        286.80094     -2369.0138      8.8601916      18151.733      12.447908      12.936245      52.360083    
    141000   70.6255        311.72251     -2369.7851      9.6300979      17156.451      12.447908      12.936245      52.360083    
    141200   70.7255        294.71496     -2369.2608      9.1046807      16990          12.447908      12.936245      52.360083    
    141400   70.8255        289.49064     -2369.1006      8.9432851      18523.103      12.447908      12.936245      52.360083    
    141600   70.9255        318.23323     -2369.9899      9.8312347      17141.632      12.447908      12.936245      52.360083    
    141800   71.0255        296.73989     -2369.3271      9.1672372      18605.476      12.447908      12.936245      52.360083    
    142000   71.1255        314.27788     -2369.8702      9.7090415      21527.382      12.447908      12.936245      52.360083    
    142200   71.2255        297.00508     -2369.3379      9.1754298      19283.096      12.447908      12.936245      52.360083    
    142400   71.3255        295.76645     -2369.3008      9.1371647      21156.086      12.447908      12.936245      52.360083    
    142600   71.4255        323.35245     -2370.1544      9.9893836      18179.684      12.447908      12.936245      52.360083    
    142800   71.5255        290.09324     -2369.1281      8.9619011      18942.062      12.447908      12.936245      52.360083    
    143000   71.6255        280.58689     -2368.8356      8.6682198      17746.309      12.447908      12.936245      52.360083    
    143200   71.7255        295.01822     -2369.2827      9.1140494      16481.753      12.447908      12.936245      52.360083    
    143400   71.8255        301.43696     -2369.4824      9.3123448      15263.748      12.447908      12.936245      52.360083    
    143600   71.9255        322.70382     -2370.1406      9.9693456      16395.281      12.447908      12.936245      52.360083    
    143800   72.0255        300.44751     -2369.4543      9.2817774      17878.444      12.447908      12.936245      52.360083    
    144000   72.1255        289.95088     -2369.1313      8.9575033      18311.306      12.447908      12.936245      52.360083    
    144200   72.2255        299.59396     -2369.4305      9.2554085      19533.288      12.447908      12.936245      52.360083    
    144400   72.3255        299.05525     -2369.4152      9.2387659      20609.54       12.447908      12.936245      52.360083    
    144600   72.4255        296.50944     -2369.3379      9.1601178      20747.653      12.447908      12.936245      52.360083    
    144800   72.5255        310.50431     -2369.7715      9.5924639      20926.806      12.447908      12.936245      52.360083    
    145000   72.6255        305.57731     -2369.6207      9.4402532      22116.053      12.447908      12.936245      52.360083    
    145200   72.7255        303.08846     -2369.5451      9.3633649      19814.636      12.447908      12.936245      52.360083    
    145400   72.8255        293.82056     -2369.26        9.07705        19003.021      12.447908      12.936245      52.360083    
    145600   72.9255        272.01729     -2368.5878      8.4034775      18066.335      12.447908      12.936245      52.360083    
    145800   73.0255        299.74781     -2369.4459      9.2601613      16984.557      12.447908      12.936245      52.360083    
    146000   73.1255        317.44926     -2369.9941      9.8070154      16490.795      12.447908      12.936245      52.360083    
    146200   73.2255        293.55731     -2369.2572      9.0689172      17111.622      12.447908      12.936245      52.360083    
    146400   73.3255        305.51831     -2369.6281      9.4384304      17571.214      12.447908      12.936245      52.360083    
    146600   73.4255        296.73386     -2369.3581      9.167051       19691.452      12.447908      12.936245      52.360083    
    146800   73.5255        295.65126     -2369.326       9.1336061      20588.047      12.447908      12.936245      52.360083    
    147000   73.6255        312.59444     -2369.8509      9.6570346      20276.3        12.447908      12.936245      52.360083    
    147200   73.7255        330.79156     -2370.4146      10.219202      18456.641      12.447908      12.936245      52.360083    
    147400   73.8255        315.43654     -2369.9414      9.7448361      22087.498      12.447908      12.936245      52.360083    
    147600   73.9255        299.1702      -2369.4403      9.2423174      19962.276      12.447908      12.936245      52.360083    
    147800   74.0255        327.30545     -2370.3109      10.111504      18096.297      12.447908      12.936245      52.360083    
    148000   74.1255        321.51509     -2370.1334      9.9326219      17102.272      12.447908      12.936245      52.360083    
    148200   74.2255        307.61912     -2369.7054      9.5033311      16979.744      12.447908      12.936245      52.360083    
    148400   74.3255        303.71513     -2369.5862      9.3827245      16799.209      12.447908      12.936245      52.360083    
    148600   74.4255        308.6824      -2369.7411      9.5361794      17158.193      12.447908      12.936245      52.360083    
    148800   74.5255        282.31193     -2368.9277      8.7215118      17857.182      12.447908      12.936245      52.360083    
    149000   74.6255        286.44408     -2369.0568      8.8491671      18850.37       12.447908      12.936245      52.360083    
    149200   74.7255        295.70064     -2369.3442      9.1351315      20824          12.447908      12.936245      52.360083    
    149400   74.8255        296.31777     -2369.3647      9.1541968      21740.485      12.447908      12.936245      52.360083    
    149600   74.9255        305.91036     -2369.6626      9.4505422      20657.912      12.447908      12.936245      52.360083    
    149800   75.0255        292.45178     -2369.2481      9.0347638      20908.893      12.447908      12.936245      52.360083    
    150000   75.1255        310.16818     -2369.797       9.5820797      19734.207      12.447908      12.936245      52.360083    
    150200   75.2255        319.26948     -2370.0796      9.8632478      19275.396      12.447908      12.936245      52.360083    
    150400   75.3255        307.96544     -2369.7318      9.5140302      17181.577      12.447908      12.936245      52.360083    
    150600   75.4255        304.75361     -2369.6341      9.4148065      16536.573      12.447908      12.936245      52.360083    
    150800   75.5255        300.75589     -2369.512       9.2913042      16247.378      12.447908      12.936245      52.360083    
    151000   75.6255        296.52346     -2369.3827      9.1605509      16685.838      12.447908      12.936245      52.360083    
    151200   75.7255        301.93842     -2369.5514      9.3278363      17496.336      12.447908      12.936245      52.360083    
    151400   75.8255        306.61916     -2369.6975      9.4724392      18149.164      12.447908      12.936245      52.360083    
    151600   75.9255        290.72509     -2369.208       8.9814211      19826.846      12.447908      12.936245      52.360083    
    151800   76.0255        297.82485     -2369.4287      9.2007551      20073.459      12.447908      12.936245      52.360083    
    152000   76.1255        300.89053     -2369.5251      9.2954636      20994.789      12.447908      12.936245      52.360083    
    152200   76.2255        293.11761     -2369.2863      9.0553336      21370.733      12.447908      12.936245      52.360083    
    152400   76.3255        305.1746      -2369.6604      9.4278123      21680.939      12.447908      12.936245      52.360083    
    152600   76.4255        291.78372     -2369.2481      9.0141256      19850.83       12.447908      12.936245      52.360083    
    152800   76.5255        301.48925     -2369.5494      9.3139601      18895.959      12.447908      12.936245      52.360083    
    153000   76.6255        295.44785     -2369.3644      9.1273219      17855.981      12.447908      12.936245      52.360083    
    153200   76.7255        286.46341     -2369.0883      8.8497642      18233.383      12.447908      12.936245      52.360083    
    153400   76.8255        308.22547     -2369.7622      9.5220633      16497.358      12.447908      12.936245      52.360083    
    153600   76.9255        289.22313     -2369.1765      8.9350208      17511.841      12.447908      12.936245      52.360083    
    153800   77.0255        290.25743     -2369.2099      8.9669734      18444.487      12.447908      12.936245      52.360083    
    154000   77.1255        292.59127     -2369.2837      9.0390733      18016.956      12.447908      12.936245      52.360083    
    154200   77.2255        308.70961     -2369.7832      9.5370199      20701.84       12.447908      12.936245      52.360083    
    154400   77.3255        326.28232     -2370.3277      10.079897      19808.86       12.447908      12.936245      52.360083    
    154600   77.4255        310.44836     -2369.8401      9.5907353      20400.758      12.447908      12.936245      52.360083    
    154800   77.5255        317.34651     -2370.0547      9.8038413      21167.197      12.447908      12.936245      52.360083    
    155000   77.6255        298.58296     -2369.4767      9.2241757      20620.566      12.447908      12.936245      52.360083    
    155200   77.7255        299.94094     -2369.5201      9.2661277      19018.915      12.447908      12.936245      52.360083    
    155400   77.8255        316.52175     -2370.034       9.7783618      17467.788      12.447908      12.936245      52.360083    
    155600   77.9255        297.72169     -2369.4547      9.197568       17339.013      12.447908      12.936245      52.360083    
    155800   78.0255        300.16789     -2369.5319      9.2731389      15860.513      12.447908      12.936245      52.360083    
    156000   78.1255        293.44362     -2369.3256      9.0654051      16971.161      12.447908      12.936245      52.360083    
    156200   78.2255        291.18015     -2369.2573      8.9954793      19243.907      12.447908      12.936245      52.360083    
    156400   78.3255        298.2454      -2369.4774      9.2137471      18630.973      12.447908      12.936245      52.360083    
    156600   78.4255        283.95071     -2369.0372      8.7721388      20104.041      12.447908      12.936245      52.360083    
    156800   78.5255        272.43961     -2368.6832      8.4165244      20976.671      12.447908      12.936245      52.360083    
    157000   78.6255        302.42767     -2369.6112      9.3429509      21381.33       12.447908      12.936245      52.360083    
    157200   78.7255        298.36946     -2369.4877      9.2175798      20513.809      12.447908      12.936245      52.360083    
    157400   78.8255        301.88405     -2369.5978      9.3261567      20037.848      12.447908      12.936245      52.360083    
    157600   78.9255        316.1448      -2370.04        9.7667164      19990.396      12.447908      12.936245      52.360083    
    157800   79.0255        295.97107     -2369.4185      9.143486       18012.862      12.447908      12.936245      52.360083    
    158000   79.1255        312.26461     -2369.9233      9.6468452      16750.741      12.447908      12.936245      52.360083    
    158200   79.2255        304.60879     -2369.6884      9.4103325      16697.288      12.447908      12.936245      52.360083    
    158400   79.3255        268.61436     -2368.578       8.2983503      18714.478      12.447908      12.936245      52.360083    
    158600   79.4255        300.64339     -2369.5694      9.2878289      17116.675      12.447908      12.936245      52.360083    
    158800   79.5255        307.25349     -2369.7752      9.4920356      18508.827      12.447908      12.936245      52.360083    
    159000   79.6255        298.58116     -2369.5089      9.2241199      19481.583      12.447908      12.936245      52.360083    
    159200   79.7255        303.05397     -2369.6488      9.3622993      19377.143      12.447908      12.936245      52.360083    
    159400   79.8255        316.51936     -2370.0665      9.7782877      20173.443      12.447908      12.936245      52.360083    
    159600   79.9255        295.54        -2369.4199      9.1301689      21020.359      12.447908      12.936245      52.360083    
    159800   80.0255        310.76868     -2369.8923      9.6006311      19820.28       12.447908      12.936245      52.360083    
    160000   80.1255        303.39024     -2369.6659      9.3726876      19746.908      12.447908      12.936245      52.360083    
    160200   80.2255        307.00735     -2369.7795      9.4844316      19309.267      12.447908      12.936245      52.360083    
    160400   80.3255        292.47966     -2369.3322      9.0356251      16713.728      12.447908      12.936245      52.360083    
    160600   80.4255        283.84238     -2369.0669      8.7687921      16378.217      12.447908      12.936245      52.360083    
    160800   80.5255        291.30768     -2369.2994      8.9994191      17647.411      12.447908      12.936245      52.360083    
    161000   80.6255        296.35772     -2369.4571      9.1554309      17517.583      12.447908      12.936245      52.360083    
    161200   80.7255        308.89817     -2369.8463      9.542845       18690.006      12.447908      12.936245      52.360083    
    161400   80.8255        298.2435      -2369.5189      9.2136885      19852.9        12.447908      12.936245      52.360083    
    161600   80.9255        303.64036     -2369.6873      9.3804146      20727.885      12.447908      12.936245      52.360083    
    161800   81.0255        309.71686     -2369.8767      9.5681369      20023.978      12.447908      12.936245      52.360083    
    162000   81.1255        305.28608     -2369.7417      9.4312561      20313.087      12.447908      12.936245      52.360083    
    162200   81.2255        294.39747     -2369.4071      9.0948725      18362.583      12.447908      12.936245      52.360083    
    162400   81.3255        298.89713     -2369.5478      9.2338813      16380.795      12.447908      12.936245      52.360083    
    162600   81.4255        300.34564     -2369.5942      9.2786305      18765.402      12.447908      12.936245      52.360083    
    162800   81.5255        297.36516     -2369.5038      9.1865539      16049.645      12.447908      12.936245      52.360083    
    163000   81.6255        308.74191     -2369.8572      9.5380176      14953.418      12.447908      12.936245      52.360083    
    163200   81.7255        301.3768      -2369.6313      9.3104861      15877.063      12.447908      12.936245      52.360083    
    163400   81.8255        294.10604     -2369.4084      9.0858691      17013.289      12.447908      12.936245      52.360083    
    163600   81.9255        289.54296     -2369.2692      8.9449014      19051.159      12.447908      12.936245      52.360083    
    163800   82.0255        303.57883     -2369.7046      9.3785139      16770.455      12.447908      12.936245      52.360083    
    164000   82.1255        304.6591      -2369.7399      9.4118867      18236.157      12.447908      12.936245      52.360083    
    164200   82.2255        309.06921     -2369.8779      9.548129       17667.435      12.447908      12.936245      52.360083    
    164400   82.3255        310.51603     -2369.9244      9.592826       18106.356      12.447908      12.936245      52.360083    
    164600   82.4255        305.18687     -2369.7615      9.4281912      17539.123      12.447908      12.936245      52.360083    
    164800   82.5255        304.2725      -2369.7351      9.3999434      15185.631      12.447908      12.936245      52.360083    
    165000   82.6255        317.34945     -2370.1409      9.803932       16616.388      12.447908      12.936245      52.360083    
    165200   82.7255        281.14721     -2369.0241      8.6855298      17091.764      12.447908      12.936245      52.360083    
    165400   82.8255        298.45812     -2369.5608      9.2203189      16068.822      12.447908      12.936245      52.360083    
    165600   82.9255        297.7596      -2369.5412      9.1987392      15568.803      12.447908      12.936245      52.360083    
    165800   83.0255        285.62285     -2369.1681      8.8237965      17656.566      12.447908      12.936245      52.360083    
    166000   83.1255        296.67954     -2369.5114      9.1653728      17576.152      12.447908      12.936245      52.360083    
    166200   83.2255        288.9716      -2369.2751      8.9272502      19183.399      12.447908      12.936245      52.360083    
    166400   83.3255        303.31912     -2369.7204      9.3704906      19038.354      12.447908      12.936245      52.360083    
    166600   83.4255        285.92689     -2369.1848      8.8331894      18990.322      12.447908      12.936245      52.360083    
    166800   83.5255        314.47537     -2370.0688      9.7151424      19327.11       12.447908      12.936245      52.360083    
    167000   83.6255        293.31896     -2369.417       9.0615537      18132.497      12.447908      12.936245      52.360083    
    167200   83.7255        304.10235     -2369.7519      9.394687       15071.034      12.447908      12.936245      52.360083    
    167400   83.8255        297.81226     -2369.5594      9.2003661      16190.767      12.447908      12.936245      52.360083    
    167600   83.9255        304.17973     -2369.7581      9.3970774      16075.645      12.447908      12.936245      52.360083    
    167800   84.0255        289.76064     -2369.3146      8.951626       17706.702      12.447908      12.936245      52.360083    
    168000   84.1255        277.25153     -2368.9299      8.56518        15861.208      12.447908      12.936245      52.360083    
    168200   84.2255        308.47512     -2369.8965      9.5297758      16830.405      12.447908      12.936245      52.360083    
    168400   84.3255        301.89501     -2369.695       9.3264954      18080.161      12.447908      12.936245      52.360083    
    168600   84.4255        322.04593     -2370.3196      9.9490212      17947.256      12.447908      12.936245      52.360083    
    168800   84.5255        320.83573     -2370.2841      9.9116343      19306.277      12.447908      12.936245      52.360083    
    169000   84.6255        299.55008     -2369.6284      9.254053       19843.33       12.447908      12.936245      52.360083    
    169200   84.7255        299.63264     -2369.633       9.2566035      19690.668      12.447908      12.936245      52.360083    
    169400   84.8255        303.58097     -2369.7569      9.3785799      18767.714      12.447908      12.936245      52.360083    
    169600   84.9255        304.47506     -2369.7865      9.4062012      17590.813      12.447908      12.936245      52.360083    
    169800   85.0255        309.31075     -2369.9379      9.5555911      16809.625      12.447908      12.936245      52.360083    
    170000   85.1255        303.41575     -2369.7575      9.3734758      15071.231      12.447908      12.936245      52.360083    
    170200   85.2255        296.86027     -2369.557       9.1709561      15144.514      12.447908      12.936245      52.360083    
    170400   85.3255        295.10016     -2369.5047      9.1165809      15389.359      12.447908      12.936245      52.360083    
    170600   85.4255        282.76964     -2369.1256      8.7356519      17591.798      12.447908      12.936245      52.360083    
    170800   85.5255        304.30482     -2369.7931      9.4009419      17381.284      12.447908      12.936245      52.360083    
    171000   85.6255        310.43463     -2369.9843      9.5903113      19860.331      12.447908      12.936245      52.360083    
    171200   85.7255        311.33648     -2370.0142      9.6181722      18289.069      12.447908      12.936245      52.360083    
    171400   85.8255        288.45822     -2369.3094      8.9113901      19421.797      12.447908      12.936245      52.360083    
    171600   85.9255        308.54605     -2369.9321      9.5319672      19656.785      12.447908      12.936245      52.360083    
    171800   86.0255        305.56575     -2369.8418      9.4398962      17288.762      12.447908      12.936245      52.360083    
    172000   86.1255        284.5105      -2369.1934      8.7894325      18601.905      12.447908      12.936245      52.360083    
    172200   86.2255        311.2741      -2370.0224      9.6162453      17310.092      12.447908      12.936245      52.360083    
    172400   86.3255        307.96442     -2369.9222      9.5139985      16991.577      12.447908      12.936245      52.360083    
    172600   86.4255        308.37849     -2369.937       9.5267906      17154.781      12.447908      12.936245      52.360083    
    172800   86.5255        305.46727     -2369.8491      9.4368536      14631.514      12.447908      12.936245      52.360083    
    173000   86.6255        302.16832     -2369.7493      9.3349387      17517.375      12.447908      12.936245      52.360083    
    173200   86.7255        307.71218     -2369.9226      9.5062062      16245.613      12.447908      12.936245      52.360083    
    173400   86.8255        300.90837     -2369.7145      9.2960149      19534.659      12.447908      12.936245      52.360083    
    173600   86.9255        303.41471     -2369.794       9.3734437      17293.382      12.447908      12.936245      52.360083    
    173800   87.0255        322.15532     -2370.3751      9.9524005      19584.534      12.447908      12.936245      52.360083    
    174000   87.1255        317.88518     -2370.2452      9.8204824      19300.322      12.447908      12.936245      52.360083    
    174200   87.2255        291.59287     -2369.4349      9.0082295      20150.866      12.447908      12.936245      52.360083    
    174400   87.3255        311.37272     -2370.0482      9.6192917      17500.558      12.447908      12.936245      52.360083    
    174600   87.4255        309.71785     -2369.9992      9.5681677      17313.619      12.447908      12.936245      52.360083    
    174800   87.5255        290.55875     -2369.4093      8.9762821      16632.097      12.447908      12.936245      52.360083    
    175000   87.6255        309.09001     -2369.9839      9.5487716      17359.033      12.447908      12.936245      52.360083    
    175200   87.7255        286.24419     -2369.2802      8.8429917      16299.696      12.447908      12.936245      52.360083    
    175400   87.8255        270.98614     -2368.8109      8.3716221      16773.447      12.447908      12.936245      52.360083    
    175600   87.9255        280.28745     -2369.1004      8.6589691      16330.795      12.447908      12.936245      52.360083    
    175800   88.0255        304.04742     -2369.8367      9.3929901      17359.91       12.447908      12.936245      52.360083    
    176000   88.1255        294.0005      -2369.5284      9.0826089      18734.79       12.447908      12.936245      52.360083    
    176200   88.2255        297.78117     -2369.6474      9.1994056      20068.628      12.447908      12.936245      52.360083    
    176400   88.3255        304.59257     -2369.8599      9.4098315      18855.227      12.447908      12.936245      52.360083    
    176600   88.4255        312.85513     -2370.1175      9.665088       18941.337      12.447908      12.936245      52.360083    
    176800   88.5255        275.31386     -2368.9597      8.5053191      19448.764      12.447908      12.936245      52.360083    
    177000   88.6255        311.6771      -2370.0853      9.628695       18441.002      12.447908      12.936245      52.360083    
    177200   88.7255        285.22282     -2369.2701      8.8114385      15970.079      12.447908      12.936245      52.360083    
    177400   88.8255        294.16275     -2369.5485      9.0876213      15624.231      12.447908      12.936245      52.360083    
    177600   88.9255        286.75425     -2369.3218      8.8587492      16426.619      12.447908      12.936245      52.360083    
    177800   89.0255        290.44346     -2369.438       8.9727205      15329.839      12.447908      12.936245      52.360083    
    178000   89.1255        286.43992     -2369.3163      8.8490385      16145.22       12.447908      12.936245      52.360083    
    178200   89.2255        286.91725     -2369.3333      8.8637848      18063.351      12.447908      12.936245      52.360083    
    178400   89.3255        312.84104     -2370.1365      9.6646529      18930.251      12.447908      12.936245      52.360083    
    178600   89.4255        313.35185     -2370.1545      9.6804336      20079.672      12.447908      12.936245      52.360083    
    178800   89.5255        315.89325     -2370.2351      9.7589453      19919.146      12.447908      12.936245      52.360083    
    179000   89.6255        297.99836     -2369.6847      9.2061153      19365.711      12.447908      12.936245      52.360083    
    179200   89.7255        312.80781     -2370.1444      9.6636264      20600.969      12.447908      12.936245      52.360083    
    179400   89.8255        302.20136     -2369.8189      9.3359594      17532.459      12.447908      12.936245      52.360083    
    179600   89.9255        273.20629     -2368.9253      8.4402097      17956.031      12.447908      12.936245      52.360083    
    179800   90.0255        302.11828     -2369.8208      9.3333928      15865.568      12.447908      12.936245      52.360083    
    180000   90.1255        311.03591     -2370.0986      9.6088867      14972.044      12.447908      12.936245      52.360083    
    180200   90.2255        289.72308     -2369.4422      8.9504657      16541.202      12.447908      12.936245      52.360083    
    180400   90.3255        297.43691     -2369.6829      9.1887705      15744.442      12.447908      12.936245      52.360083    
    180600   90.4255        298.24412     -2369.7101      9.2137077      17925.753      12.447908      12.936245      52.360083    
    180800   90.5255        317.21564     -2370.2985      9.7997981      17260.847      12.447908      12.936245      52.360083    
    181000   90.6255        305.55029     -2369.9405      9.4394184      20525.148      12.447908      12.936245      52.360083    
    181200   90.7255        283.09285     -2369.249       8.7456369      21016.788      12.447908      12.936245      52.360083    
    181400   90.8255        302.91661     -2369.8637      9.3580557      18966.51       12.447908      12.936245      52.360083    
    181600   90.9255        313.23991     -2370.185       9.6769754      19321.368      12.447908      12.936245      52.360083    
    181800   91.0255        286.02658     -2369.3465      8.836269       18683.482      12.447908      12.936245      52.360083    
    182000   91.1255        280.47141     -2369.1772      8.6646523      17626.969      12.447908      12.936245      52.360083    
    182200   91.2255        297.82065     -2369.7155      9.2006253      14509.255      12.447908      12.936245      52.360083    
    182400   91.3255        290.58202     -2369.4941      8.9770011      15239.397      12.447908      12.936245      52.360083    
    182600   91.4255        297.19776     -2369.701       9.1813824      16410.583      12.447908      12.936245      52.360083    
    182800   91.5255        303.9686      -2369.9123      9.3905552      16417.739      12.447908      12.936245      52.360083    
    183000   91.6255        314.39611     -2370.2368      9.712694       17611.986      12.447908      12.936245      52.360083    
    183200   91.7255        291.26321     -2369.5245      8.9980452      19575.289      12.447908      12.936245      52.360083    
    183400   91.8255        279.65678     -2369.1682      8.6394857      19408.301      12.447908      12.936245      52.360083    
    183600   91.9255        298.31929     -2369.7473      9.21603        20996.704      12.447908      12.936245      52.360083    
    183800   92.0255        305.09335     -2369.9588      9.4253023      18795.121      12.447908      12.936245      52.360083    
    184000   92.1255        315.70216     -2370.289       9.7530419      17826.672      12.447908      12.936245      52.360083    
    184200   92.2255        303.08283     -2369.9015      9.3631907      19008.31       12.447908      12.936245      52.360083    
    184400   92.3255        287.34568     -2369.4177      8.8770204      18203.05       12.447908      12.936245      52.360083    
    184600   92.4255        290.65636     -2369.5223      8.9792976      15673.842      12.447908      12.936245      52.360083    
    184800   92.5255        281.1814      -2369.2319      8.6865861      15803.771      12.447908      12.936245      52.360083    
    185000   92.6255        295.10935     -2369.6646      9.1168648      15834.091      12.447908      12.936245      52.360083    
    185200   92.7255        306.22714     -2370.0106      9.4603284      18062.843      12.447908      12.936245      52.360083    
    185400   92.8255        286.14035     -2369.3924      8.8397837      16446.532      12.447908      12.936245      52.360083    
    185600   92.9255        314.48441     -2370.2704      9.7154217      18587.906      12.447908      12.936245      52.360083    
    185800   93.0255        317.1408      -2370.3549      9.7974861      19106.982      12.447908      12.936245      52.360083    
    186000   93.1255        314.0485      -2370.2618      9.7019551      21134.66       12.447908      12.936245      52.360083    
    186200   93.2255        294.11349     -2369.6483      9.0860994      21705.538      12.447908      12.936245      52.360083    
    186400   93.3255        280.56354     -2369.2321      8.6674986      18726.862      12.447908      12.936245      52.360083    
    186600   93.4255        306.35269     -2370.0314      9.464207       17814.266      12.447908      12.936245      52.360083    
    186800   93.5255        293.96911     -2369.6512      9.081639       17013.354      12.447908      12.936245      52.360083    
    187000   93.6255        296.20415     -2369.7227      9.1506867      17691.099      12.447908      12.936245      52.360083    
    187200   93.7255        293.14784     -2369.6307      9.0562673      15765.741      12.447908      12.936245      52.360083    
    187400   93.8255        296.53836     -2369.738       9.1610112      16059.539      12.447908      12.936245      52.360083    
    187600   93.9255        285.99282     -2369.4145      8.8352261      17304.071      12.447908      12.936245      52.360083    
    187800   94.0255        297.38788     -2369.7691      9.1872556      19090.728      12.447908      12.936245      52.360083    
    188000   94.1255        301.65677     -2369.9035      9.3191352      17483.337      12.447908      12.936245      52.360083    
    188200   94.2255        293.61442     -2369.6575      9.0706814      18402.908      12.447908      12.936245      52.360083    
    188400   94.3255        313.54653     -2370.2757      9.6864478      19760.78       12.447908      12.936245      52.360083    
    188600   94.4255        307.77931     -2370.1001      9.5082799      21194.334      12.447908      12.936245      52.360083    
    188800   94.5255        304.17011     -2369.9911      9.3967802      17561.569      12.447908      12.936245      52.360083    
    189000   94.6255        299.56613     -2369.8513      9.2545488      18155.864      12.447908      12.936245      52.360083    
    189200   94.7255        314.01261     -2370.3003      9.7008464      18297.817      12.447908      12.936245      52.360083    
    189400   94.8255        294.79957     -2369.7091      9.1072947      16760.572      12.447908      12.936245      52.360083    
    189600   94.9255        297.4675      -2369.7942      9.1897153      15975.061      12.447908      12.936245      52.360083    
    189800   95.0255        288.91083     -2369.5321      8.9253729      15610.44       12.447908      12.936245      52.360083    
    190000   95.1255        285.75578     -2369.4371      8.8279032      16001.786      12.447908      12.936245      52.360083    
    190200   95.2255        320.60588     -2370.5164      9.9045336      17312.847      12.447908      12.936245      52.360083    
    190400   95.3255        304.17568     -2370.0113      9.3969525      19502.918      12.447908      12.936245      52.360083    
    190600   95.4255        298.13252     -2369.8272      9.2102601      17806.022      12.447908      12.936245      52.360083    
    190800   95.5255        292.78338     -2369.6645      9.0450081      18481.586      12.447908      12.936245      52.360083    
    191000   95.6255        302.03638     -2369.9529      9.3308627      19780.112      12.447908      12.936245      52.360083    
    191200   95.7255        292.13861     -2369.6496      9.025089       19140.157      12.447908      12.936245      52.360083    
    191400   95.8255        287.23868     -2369.5008      8.8737147      18276.214      12.447908      12.936245      52.360083    
    191600   95.9255        291.11791     -2369.6232      8.9935564      17331.202      12.447908      12.936245      52.360083    
    191800   96.0255        302.41978     -2369.975       9.3427072      16804.774      12.447908      12.936245      52.360083    
    192000   96.1255        302.51462     -2369.9805      9.345637       17111.125      12.447908      12.936245      52.360083    
    192200   96.2255        293.69505     -2369.7106      9.0731724      16646.624      12.447908      12.936245      52.360083    
    192400   96.3255        286.15827     -2369.4803      8.8403375      17381.097      12.447908      12.936245      52.360083    
    192600   96.4255        283.8475      -2369.4115      8.7689504      16072.479      12.447908      12.936245      52.360083    
    192800   96.5255        294.71847     -2369.75        9.104789       17538.058      12.447908      12.936245      52.360083    
    193000   96.6255        308.55807     -2370.1802      9.5323383      18954.43       12.447908      12.936245      52.360083    
    193200   96.7255        309.48566     -2370.2115      9.5609947      18325.802      12.447908      12.936245      52.360083    
    193400   96.8255        317.95864     -2370.4758      9.8227519      19741.238      12.447908      12.936245      52.360083    
    193600   96.9255        310.32137     -2370.2424      9.5868122      19336.237      12.447908      12.936245      52.360083    
    193800   97.0255        290.88422     -2369.6445      8.9863369      19671.592      12.447908      12.936245      52.360083    
    194000   97.1255        296.29766     -2369.8144      9.1535754      18021.794      12.447908      12.936245      52.360083    
    194200   97.2255        287.86005     -2369.5563      8.8929108      18655.376      12.447908      12.936245      52.360083    
    194400   97.3255        291.23977     -2369.6634      8.9973211      16838.831      12.447908      12.936245      52.360083    
    194600   97.4255        281.43841     -2369.3633      8.6945258      16717.937      12.447908      12.936245      52.360083    
    194800   97.5255        304.38166     -2370.0748      9.4033157      16014.254      12.447908      12.936245      52.360083    
    195000   97.6255        300.16221     -2369.9469      9.2729636      17738.556      12.447908      12.936245      52.360083    
    195200   97.7255        305.05374     -2370.1008      9.4240784      16828.99       12.447908      12.936245      52.360083    
    195400   97.8255        289.38775     -2369.6194      8.9401064      17143.663      12.447908      12.936245      52.360083    
    195600   97.9255        301.9369      -2370.0098      9.3277894      16850.243      12.447908      12.936245      52.360083    
    195800   98.0255        283.27958     -2369.4359      8.7514057      18701.518      12.447908      12.936245      52.360083    
    196000   98.1255        288.38957     -2369.5965      8.9092693      19255.655      12.447908      12.936245      52.360083    
    196200   98.2255        293.05364     -2369.7432      9.0533574      19200.039      12.447908      12.936245      52.360083    
    196400   98.3255        292.00032     -2369.7135      9.0208168      18210.539      12.447908      12.936245      52.360083    
    196600   98.4255        292.21486     -2369.7227      9.0274447      17631.36       12.447908      12.936245      52.360083    
    196800   98.5255        297.27835     -2369.8817      9.1838719      18768.36       12.447908      12.936245      52.360083    
    197000   98.6255        296.35706     -2369.856       9.1554104      15919.002      12.447908      12.936245      52.360083    
    197200   98.7255        323.81336     -2370.707       10.003623      15885.515      12.447908      12.936245      52.360083    
    197400   98.8255        297.53908     -2369.8979      9.1919267      15626.57       12.447908      12.936245      52.360083    
    197600   98.9255        275.37738     -2369.2159      8.5072814      16558.369      12.447908      12.936245      52.360083    
    197800   99.0255        298.02144     -2369.9182      9.2068285      15362.697      12.447908      12.936245      52.360083    
    198000   99.1255        299.79876     -2369.9757      9.2617354      16163.281      12.447908      12.936245      52.360083    
    198200   99.2255        303.17207     -2370.0827      9.3659476      17733.8        12.447908      12.936245      52.360083    
    198400   99.3255        304.98394     -2370.1415      9.421922       19222.914      12.447908      12.936245      52.360083    
    198600   99.4255        299.01228     -2369.9597      9.2374385      19514.911      12.447908      12.936245      52.360083    
    198800   99.5255        298.94817     -2369.9605      9.2354582      19237.303      12.447908      12.936245      52.360083    
    199000   99.6255        291.29991     -2369.7269      8.999179       19456.824      12.447908      12.936245      52.360083    
    199200   99.7255        283.21691     -2369.4799      8.7494694      18672.704      12.447908      12.936245      52.360083    
    199400   99.8255        294.76578     -2369.8394      9.1062507      15389.565      12.447908      12.936245      52.360083    
    199600   99.9255        289.65586     -2369.6843      8.9483892      15233.975      12.447908      12.936245      52.360083    
    199800   100.0255       281.88337     -2369.447       8.7082723      16510.36       12.447908      12.936245      52.360083    
    200000   100.1255       294.3963      -2369.8362      9.0948364      15072.718      12.447908      12.936245      52.360083    
    200200   100.2255       295.00107     -2369.8577      9.1135197      15135.647      12.447908      12.936245      52.360083    
    200400   100.3255       293.92645     -2369.8272      9.0803213      14615.915      12.447908      12.936245      52.360083    
    200600   100.4255       292.81589     -2369.7957      9.0460125      17606.799      12.447908      12.936245      52.360083    
    200800   100.5255       320.04618     -2370.6398      9.8872426      19210.145      12.447908      12.936245      52.360083    
    201000   100.6255       290.93535     -2369.7432      8.9879167      19502.187      12.447908      12.936245      52.360083    
    201200   100.7255       322.03926     -2370.7069      9.9488152      19726.092      12.447908      12.936245      52.360083    
    201400   100.8255       309.97413     -2370.3369      9.5760848      19008.736      12.447908      12.936245      52.360083    
    201600   100.9255       310.9087      -2370.3685      9.6049568      18789.177      12.447908      12.936245      52.360083    
    201800   101.0255       297.2643      -2369.9496      9.1834379      17188.975      12.447908      12.936245      52.360083    
    202000   101.1255       294.9164      -2369.8801      9.1109038      15357.91       12.447908      12.936245      52.360083    
    202200   101.2255       287.52433     -2369.6544      8.8825393      15628.155      12.447908      12.936245      52.360083    
    202400   101.3255       305.17429     -2370.2025      9.4278027      14095.799      12.447908      12.936245      52.360083    
    202600   101.4255       310.55136     -2370.3714      9.5939175      15184.461      12.447908      12.936245      52.360083    
    202800   101.5255       295.69315     -2369.915       9.1349002      17347.254      12.447908      12.936245      52.360083    
    203000   101.6255       305.55955     -2370.2227      9.4397047      15554.178      12.447908      12.936245      52.360083    
    203200   101.7255       317.89224     -2370.6066      9.8207004      19342.606      12.447908      12.936245      52.360083    
    203400   101.8255       296.21828     -2369.9397      9.1511229      18600.192      12.447908      12.936245      52.360083    
    203600   101.9255       294.99734     -2369.9048      9.1134042      20608.374      12.447908      12.936245      52.360083    
    203800   102.0255       292.30646     -2369.8245      9.0302746      19470.784      12.447908      12.936245      52.360083    
    204000   102.1255       290.04485     -2369.7573      8.9604061      18911.88       12.447908      12.936245      52.360083    
    204200   102.2255       291.8319      -2369.8155      9.0156138      19402.522      12.447908      12.936245      52.360083    
    204400   102.3255       295.69863     -2369.9377      9.1350693      17186.438      12.447908      12.936245      52.360083    
    204600   102.4255       312.86793     -2370.471       9.6654835      15700.268      12.447908      12.936245      52.360083    
    204800   102.5255       291.41198     -2369.8108      9.0026411      16087.482      12.447908      12.936245      52.360083    
    205000   102.6255       293.61032     -2369.8815      9.0705548      14535.112      12.447908      12.936245      52.360083    
    205200   102.7255       304.00925     -2370.2057      9.3918108      16418.319      12.447908      12.936245      52.360083    
    205400   102.8255       298.0255      -2370.0237      9.2069537      16865.886      12.447908      12.936245      52.360083    
    205600   102.9255       300.28319     -2370.0963      9.2767011      17897.252      12.447908      12.936245      52.360083    
    205800   103.0255       293.8879      -2369.9014      9.0791301      19229.316      12.447908      12.936245      52.360083    
    206000   103.1255       301.86045     -2370.1506      9.3254276      16439.397      12.447908      12.936245      52.360083    
    206200   103.2255       293.37813     -2369.8915      9.0633817      19422.834      12.447908      12.936245      52.360083    
    206400   103.3255       296.01713     -2369.9758      9.1449089      20146.024      12.447908      12.936245      52.360083    
    206600   103.4255       306.92521     -2370.3157      9.4818941      17619.669      12.447908      12.936245      52.360083    
    206800   103.5255       283.21138     -2369.5859      8.7492988      17613.838      12.447908      12.936245      52.360083    
    207000   103.6255       286.32295     -2369.6848      8.845425       16728.187      12.447908      12.936245      52.360083    
    207200   103.7255       308.87089     -2370.3841      9.5420023      15344.658      12.447908      12.936245      52.360083    
    207400   103.8255       301.08388     -2370.1466      9.3014368      16331.515      12.447908      12.936245      52.360083    
    207600   103.9255       286.36644     -2369.6947      8.8467685      15561.148      12.447908      12.936245      52.360083    
    207800   104.0255       294.14089     -2369.9377      9.086946       17042.954      12.447908      12.936245      52.360083    
    208000   104.1255       302.37774     -2370.195       9.3414083      15511.293      12.447908      12.936245      52.360083    
    208200   104.2255       302.46156     -2370.2005      9.3439979      16917.711      12.447908      12.936245      52.360083    
    208400   104.3255       295.57482     -2369.9906      9.1312444      18439.436      12.447908      12.936245      52.360083    
    208600   104.4255       286.76912     -2369.7213      8.8592084      16965.12       12.447908      12.936245      52.360083    
    208800   104.5255       302.85708     -2370.2213      9.3562167      19813.202      12.447908      12.936245      52.360083    
    209000   104.6255       298.37778     -2370.0857      9.2178368      17913.488      12.447908      12.936245      52.360083    
    209200   104.7255       313.97825     -2370.5705      9.6997849      17574.67       12.447908      12.936245      52.360083    
    209400   104.8255       289.74551     -2369.8248      8.9511586      18085.709      12.447908      12.936245      52.360083    
    209600   104.9255       323.57316     -2370.8728      9.9962023      16230.223      12.447908      12.936245      52.360083    
    209800   105.0255       294.76373     -2369.9857      9.1061873      16682.32       12.447908      12.936245      52.360083    
    210000   105.1255       291.31073     -2369.8818      8.9995133      17033.14       12.447908      12.936245      52.360083    
    210200   105.2255       292.90107     -2369.9337      9.0486439      14885.686      12.447908      12.936245      52.360083    
    210400   105.3255       274.17711     -2369.3582      8.4702013      17097.99       12.447908      12.936245      52.360083    
    210600   105.4255       264.87595     -2369.0737      8.1828591      16337.77       12.447908      12.936245      52.360083    
    210800   105.5255       306.39788     -2370.3594      9.4656034      18149.977      12.447908      12.936245      52.360083    
    211000   105.6255       297.15344     -2370.0766      9.1800131      17778.962      12.447908      12.936245      52.360083    
    211200   105.7255       284.89073     -2369.7007      8.8011791      19948.955      12.447908      12.936245      52.360083    
    211400   105.8255       310.90256     -2370.5073      9.604767       18946.405      12.447908      12.936245      52.360083    
    211600   105.9255       274.85544     -2369.3963      8.4911572      18620.478      12.447908      12.936245      52.360083    
    211800   106.0255       301.3284      -2370.2171      9.308991       17439.356      12.447908      12.936245      52.360083    
    212000   106.1255       287.93855     -2369.8063      8.8953361      16618.316      12.447908      12.936245      52.360083    
    212200   106.2255       265.95639     -2369.1301      8.2162371      16030.334      12.447908      12.936245      52.360083    
    212400   106.3255       294.4892      -2370.0146      9.0977062      16009.349      12.447908      12.936245      52.360083    
    212600   106.4255       312.48024     -2370.5732      9.6535068      15213.991      12.447908      12.936245      52.360083    
    212800   106.5255       306.09031     -2370.3787      9.4561014      16444.315      12.447908      12.936245      52.360083    
    213000   106.6255       299.19268     -2370.1684      9.2430116      15843.927      12.447908      12.936245      52.360083    
    213200   106.7255       301.02618     -2370.2279      9.2996542      17598.238      12.447908      12.936245      52.360083    
    213400   106.8255       282.56943     -2369.6605      8.7294669      18567.11       12.447908      12.936245      52.360083    
    213600   106.9255       304.56299     -2370.3429      9.4089177      18947.65       12.447908      12.936245      52.360083    
    2/home/akinyemi.az/miniforge3/envs/mace-lammps/lib/python3.11/tempfile.py:934: ResourceWarning: Implicitly cleaning up <TemporaryDirectory '/tmp/tmpfsebevn3'>
  _warnings.warn(warn_message, ResourceWarning)
13800   107.0255       289.85588     -2369.8913      8.9545683      18761.864      12.447908      12.936245      52.360083    
    214000   107.1255       306.65638     -2370.4134      9.4735892      18788.056      12.447908      12.936245      52.360083    
    214200   107.2255       309.78075     -2370.5128      9.570111       15807.769      12.447908      12.936245      52.360083    
    214400   107.3255       286.63012     -2369.8004      8.8549144      16980.006      12.447908      12.936245      52.360083    
    214600   107.4255       292.38512     -2369.9811      9.0327045      16016.324      12.447908      12.936245      52.360083    
    214800   107.5255       302.65431     -2370.3013      9.3499523      16750.375      12.447908      12.936245      52.360083    
    215000   107.6255       278.63319     -2369.562       8.6078638      16018.336      12.447908      12.936245      52.360083    
    215200   107.7255       289.55993     -2369.9025      8.9454256      16839.164      12.447908      12.936245      52.360083    
    215400   107.8255       302.16915     -2370.295       9.3349642      17472.408      12.447908      12.936245      52.360083    
    215600   107.9255       291.40441     -2369.9651      9.0024073      16706.558      12.447908      12.936245      52.360083    
    215800   108.0255       301.02731     -2370.2654      9.2996894      17740.574      12.447908      12.936245      52.360083    
    216000   108.1255       283.54475     -2369.7283      8.7595973      19360.773      12.447908      12.936245      52.360083    
    216200   108.2255       295.01068     -2370.0854      9.1138166      17559.975      12.447908      12.936245      52.360083    
    216400   108.3255       294.37928     -2370.0686      9.0943104      16428.505      12.447908      12.936245      52.360083    
    216600   108.4255       294.11389     -2370.0634      9.0861117      19815.11       12.447908      12.936245      52.360083    
    216800   108.5255       268.98632     -2369.2899      8.3098415      17679.532      12.447908      12.936245      52.360083    
    217000   108.6255       287.20722     -2369.8558      8.8727428      18521.746      12.447908      12.936245      52.360083    
    217200   108.7255       271.52753     -2369.3742      8.3883475      16067.678      12.447908      12.936245      52.360083    
    217400   108.8255       305.78428     -2370.4355      9.4466472      17504.31       12.447908      12.936245      52.360083    
    217600   108.9255       316.33516     -2370.7643      9.7725973      16934.599      12.447908      12.936245      52.360083    
    217800   109.0255       297.15473     -2370.1746      9.180053       16691.789      12.447908      12.936245      52.360083    
    218000   109.1255       277.95496     -2369.5842      8.5869111      16946.116      12.447908      12.936245      52.360083    
    218200   109.2255       277.38035     -2369.5695      8.5691595      18047.964      12.447908      12.936245      52.360083    
    218400   109.3255       304.23718     -2370.402       9.3988524      17201.396      12.447908      12.936245      52.360083    
    218600   109.4255       289.68014     -2369.9552      8.9491392      16702.611      12.447908      12.936245      52.360083    
    218800   109.5255       307.92417     -2370.5217      9.5127551      18801.661      12.447908      12.936245      52.360083    
    219000   109.6255       295.79304     -2370.1499      9.137986       16341.88       12.447908      12.936245      52.360083    
    219200   109.7255       298.48334     -2370.2358      9.221098       18057.961      12.447908      12.936245      52.360083    
    219400   109.8255       292.59203     -2370.0568      9.0390966      17693.738      12.447908      12.936245      52.360083    
    219600   109.9255       300.18522     -2370.2942      9.2736746      17115.028      12.447908      12.936245      52.360083    
    219800   110.0255       280.94683     -2369.7027      8.6793395      17388.185      12.447908      12.936245      52.360083    
    220000   110.1255       282.96079     -2369.7678      8.7415572      17377.962      12.447908      12.936245      52.360083    
    220200   110.2255       273.80411     -2369.4876      8.458678       15398.611      12.447908      12.936245      52.360083    
    220251   110.251        312.26157     -2370.6765      9.6467513      15563.923      12.447908      12.936245      52.360083    
Loop time of 6695.98 on 1 procs for 200000 steps with 360 atoms

Performance: 1.290 ns/day, 18.600 hours/ns, 29.869 timesteps/s, 10.753 katom-step/s
99.0% CPU use with 1 MPI tasks x 1 OpenMP threads

MPI task timing breakdown:
Section |  min time  |  avg time  |  max time  |%varavg| %total
---------------------------------------------------------------
Pair    | 6469.3     | 6469.3     | 6469.3     |   0.0 | 96.61
Neigh   | 0.028393   | 0.028393   | 0.028393   |   0.0 |  0.00
Comm    | 7.2065     | 7.2065     | 7.2065     |   0.0 |  0.11
Output  | 0.48895    | 0.48895    | 0.48895    |   0.0 |  0.01
Modify  | 210.17     | 210.17     | 210.17     |   0.0 |  3.14
Other   |            | 8.82       |            |       |  0.13

Nlocal:            360 ave         360 max         360 min
Histogram: 1 0 0 0 0 0 0 0 0 0
Nghost:           1200 ave        1200 max        1200 min
Histogram: 1 0 0 0 0 0 0 0 0 0
Neighs:              0 ave           0 max           0 min
Histogram: 1 0 0 0 0 0 0 0 0 0
FullNghs:        42860 ave       42860 max       42860 min
Histogram: 1 0 0 0 0 0 0 0 0 0

Total # of neighbors = 42860
Ave neighs/atom = 119.05556
Neighbor list builds = 41
Dangerous builds = 0
### Equilibration complete ###
RELAXATION_RESULTS_START
  z_top_before_Ang     : 38.6535291086207 Ang
  z_top_after_min_Ang  : 38.6535291086207 Ang
  surface_contraction  : 0 Ang
  z_top_after_nvt_Ang  : 38.6535291086207
  pe_final_eV          : -2370.67654974438
RELAXATION_RESULTS_END
System init for write_restart ...
System init for write_data ...
Relaxed slab written: structures/notebook04-surface-relaxation/12345/hastelloy_12345_slab_relaxed.lammps
Total wall time: 2:03:13
Surface relaxation finished: Thu May 14 11:57:02 PM EDT 2026
