LAMMPS data file via write_data, version 11 Feb 2026, timestep = 180, units = metal

362 atoms
8 atom types

0 12.447907776 xlo xhi
0 12.9362452296 ylo yhi
0 52.3600831054 zlo zhi

Masses

1 26.9815
2 10.811
3 12.011
4 51.9961
5 55.845
6 95.95999999999999
7 58.6934
8 1.008

Atoms # atomic/kk

1 7 1.1137113031 0.8213056377 14.6458442544 0 0 0
2 7 3.5521467993 0.7369833292 14.8745272759 0 0 0
3 5 6.0128484835 0.8661002607 14.9410273606 0 0 0
9 7 7.2838490898 3.061485717 14.8964308127 0 0 0
4 6 8.6338279095 0.9701610672 14.9495025372 0 0 0
5 7 11.0217092745 1.2520186303 14.4653209196 0 0 0
6 7 12.2639913093 3.4770388474 14.6467423155 -1 0 0
10 7 9.8060835872 3.3786149654 14.7263539351 0 0 0
16 4 0.2139193522 7.6728894562 14.6155204607 0 0 0
14 7 8.5725153511 5.6382438032 14.8971888336 0 0 0
20 7 10.22617336 7.6570207772 13.9929623834 0 0 0
22 7 3.6153938959 9.5118272928 14.9226525987 0 0 0
23 7 6.5830708033 9.0861380619 14.8549518434 0 0 0
28 7 4.815824606 11.6095683554 14.8226355783 0 0 0
29 6 7.3722206234 11.4983227586 14.9207476072 0 0 0
24 7 9.050267351 9.6672434403 14.6595074518 0 0 0
25 7 11.9433998717 9.8784548083 14.7147805643 0 0 0
30 7 9.9219178274 11.8565293517 14.5823374761 0 0 0
7 7 2.2244278673 2.9702781815 15.1108540678 0 0 0
32 7 2.3057735265 1.2533933958 16.93475001 0 0 0
36 7 1.1352675494 3.9681480296 17.066800341 0 0 0
37 7 3.5682797031 3.6456713851 17.0971915677 0 0 0
8 7 4.7779833266 2.9844932416 15.0244944963 0 0 0
33 7 4.8273182743 1.5350531227 16.986551739 0 0 0
34 7 7.3550776725 1.7107978943 16.9500837575 0 0 0
38 5 6.0741467629 3.7413718214 16.9740739685 0 0 0
31 6 12.3913000935 1.8883392073 16.4894812447 -1 0 0
35 7 9.9190937242 1.7128950373 16.9082174088 0 0 0
39 7 8.6334205619 3.8636350755 16.8179895682 0 0 0
40 7 11.0697873134 3.9524196695 16.9685655977 0 0 0
11 7 1.1325159023 5.4321519621 15.0298648606 0 0 0
12 7 3.5505664693 5.1458182768 15.1256363525 0 0 0
17 7 2.4264587984 7.5047093361 15.095063866 0 0 0
42 7 2.3709022815 6.0749554728 17.1158740735 0 0 0
46 7 0.8166128193 8.4131626729 16.8638252625 0 0 0
47 7 3.8140361054 8.0091511251 17.0307430596 0 0 0
13 7 6.0443871312 5.1854642162 15.0121872704 0 0 0
18 7 4.8936291095 7.3016176803 14.9806898798 0 0 0
19 2 6.8414713252 6.9747072356 15.3200005465 0 0 0
43 7 4.8527088278 5.8105449035 17.0809632393 0 0 0
44 7 7.340924499 5.8800224159 17.0270952222 0 0 0
48 7 6.2238050879 7.9923564856 17.0217814927 0 0 0
15 6 11.0457942592 5.6383565695 15.0891852747 0 0 0
41 7 12.3145471385 6.1094617649 17.1318770918 -1 0 0
45 7 9.8059114772 6.1104944937 17.1833292361 0 0 0
49 7 8.468429199 7.8578113362 16.0258690791 0 0 0
50 7 10.9043843251 8.1163238005 16.2182311104 0 0 0
85 6 9.8291561263 8.5173936977 18.4534573388 0 0 0
21 2 1.5469184204 9.4727356587 15.2141180887 0 0 0
26 7 0.3129936142 10.8021185085 16.8329366666 0 0 0
27 7 2.0307224553 11.476675607 15.1548148102 0 0 0
52 7 2.6125130949 10.0807166029 17.0469460252 0 0 0
56 2 0.9256786272 12.7047536866 16.3582462584 0 0 0
57 7 3.7020280411 12.2256452092 16.9334370809 0 0 0
61 6 0.103773691 12.914119814800001 18.5798943425 0 -1 0
53 7 5.126658067 10.1104152289 16.7830658184 0 0 0
54 7 7.692477589 10.043801355 16.9252811036 0 0 0
58 6 6.2929857705 12.3385525054 17.0159377302 0 0 0
51 3 11.6191907962 9.3703530782 17.5028465653 -1 0 0
55 7 10.2421186304 10.4082028541 16.649672521 0 0 0
59 7 8.8413922637 12.3709071028 16.8941788773 0 0 0
60 7 11.2973371544 12.6226231243 16.35432226 0 0 0
62 7 2.5615108705 0.0362035485 19.1477003657 0 0 0
66 6 1.352087127 2.2318342886 19.0708844716 0 0 0
67 5 3.7965060942 2.1845093372 19.1089571573 0 0 0
91 4 1.3634017621 0.7873689837 21.2571913451 0 0 0
92 7 3.794226599 0.7431598758 21.13750191 0 0 0
96 7 0.0818398676 2.8665460279 21.1814724359 0 0 0
97 7 2.6037366438 2.8644328228 21.2140599314 0 0 0
63 5 5.0130565391 0.1201396407 19.0682040289 0 0 0
64 7 7.495596467 0.110342631 19.0969961689 0 0 0
68 7 6.1911625703 2.1775697989 19.0541381069 0 0 0
73 7 4.9399859645 4.3115639679 19.0808444754 0 0 0
93 7 6.3216186889 0.7422133371 21.2114280549 0 0 0
98 7 5.0464890634 2.8788030133 21.156730555 0 0 0
99 5 7.5012216635 2.8458062181 21.1465756361 0 0 0
65 7 10.0801304272 0.1065487012 18.9684922367 0 0 0
69 7 8.7310725904 2.1890169043 18.9669963216 0 0 0
70 7 11.2903690738 2.2927407527 18.9119995363 0 0 0
94 7 8.7774111105 0.7555452584 21.1819060725 0 0 0
95 7 11.3628525944 0.72641687 21.0350745594 0 0 0
100 6 10.0447145789 2.84337011 21.0236745032 0 0 0
72 7 2.4484207282 4.4231072112 19.1209610471 0 0 0
76 7 1.1658922912 6.4993750047 19.1944079097 0 0 0
77 7 3.7588813697 6.5005138756 19.148711873 0 0 0
82 6 2.4331532856 8.5389225502 19.0281898596 0 0 0
101 7 1.2086380863 5.0327229131 21.2367972996 0 0 0
102 6 3.7381526169 5.0487020448 21.2310031514 0 0 0
107 7 2.4725111755 7.1733214789 21.2418807198 0 0 0
74 6 7.4689868564 4.3181435819 19.0304476252 0 0 0
78 7 6.170237902 6.5260528853 19.1093418597 0 0 0
103 7 6.2784224384 5.0594655358 21.1607485873 0 0 0
108 7 5.0193298877 7.223494662 21.211762887 0 0 0
109 7 7.4265222286 7.2679630961 21.2436962817 0 0 0
71 1 12.3279373157 4.4568231342 19.2000615889 -1 0 0
75 5 9.8611454395 4.3669905211 19.0145125389 0 0 0
79 7 8.6133213718 6.5195132388 19.2895962404 0 0 0
80 7 11.0925524574 6.5122969559 19.2872885435 0 0 0
81 4 12.370095144799999 8.5852753597 19.1918567346 -1 0 0
104 7 8.738862596 5.0638699973 21.2200043903 0 0 0
105 3 10.088851976683815 4.425536442364103 22.26676761571415 0 0 0
106 7 12.4419420687 7.1393087647 21.2777067176 -1 0 0
110 7 9.9017253633 7.1962155046 21.2754141709 0 0 0
86 7 1.3040220759 10.7594812152 19.1743642987 0 0 0
87 1 3.8459563645 10.8825534785 19.0135215432 0 0 0
111 7 1.2012857292 9.336353981 21.2204115458 0 0 0
112 6 3.7478709283 9.3413661583 21.2427124677 0 0 0
116 1 0.0586565897 11.5508848377 21.180266888 0 0 0
117 7 2.5220044427 11.5419976838 21.179037409 0 0 0
83 7 4.9686274228 8.7306012115 19.0370989362 0 0 0
84 7 7.422654832 8.6409959432 19.0150946314 0 0 0
88 7 6.2751154536 10.8242885579 19.0255608085 0 0 0
113 7 6.2407203807 9.3993290099 21.0379728141 0 0 0
118 7 5.041532521 11.5618649392 21.1472156713 0 0 0
119 4 7.4722747108 11.5781127873 21.0806437026 0 0 0
89 6 8.7829335956 10.8728354539 18.983455907 0 0 0
90 4 11.2852334195 10.8109661311 18.8951444514 0 0 0
114 7 8.7071889781 9.345956294 20.9379700304 0 0 0
115 6 11.1203198917 9.2930847331 21.1713688049 0 0 0
120 7 10.0191413517 11.5604237039 21.1262723599 0 0 0
121 7 0.083512354947115 1.4111246070084487 23.260860772290123 0 0 0
122 7 2.5719372377892764 1.4075563524355224 23.32181288067862 0 0 0
126 6 1.3551774639150906 3.607341826790355 23.26522014236143 0 0 0
127 7 3.8563367235231407 3.5916986362375942 23.37088907811782 0 0 0
152 7 2.6567137240211265 0.013374218549174019 25.379538399195685 0 0 0
156 1 1.4894596973728655 2.14336950007787 25.506426120653 0 0 0
157 7 3.9780244042616446 2.1403176336396634 25.449390246614815 0 0 0
162 7 2.606782194728499 4.2706238239576315 25.433591026697044 0 0 0
123 7 5.012712543816476 1.433121873541503 23.20467024936816 0 0 0
124 7 7.418110601073075 1.524866910670365 23.482049368448923 0 0 0
128 7 6.310738656102734 3.670616371569498 23.174992811604092 0 0 0
153 7 5.201591217376273 0.06612271625265528 25.335275045487663 0 0 0
154 7 7.61317520220721 0.014325412469554114 25.46074048497898 0 0 0
158 2 5.8019250088011685 2.4868031356840317 24.646956264867182 0 0 0
163 7 5.122664317712013 4.2536628479208085 25.428680217374733 0 0 0
164 5 7.482178555382209 4.068065264303059 25.348591613906834 0 0 0
125 7 10.066952180412052 1.4498475175068606 23.304717677020093 0 0 0
129 7 8.762264350092975 3.567291700525792 23.33316576356059 0 0 0
130 4 11.365479624750916 3.6465350261282525 23.3867259681271 0 0 0
155 4 10.137634738634636 0.0778842343271387 25.5207857785746 0 0 0
159 7 8.891025010938396 2.1111841531406914 25.426360190878306 0 0 0
160 7 11.415463416456085 2.173013978171327 25.395285209388906 0 0 0
165 7 10.072367021731472 4.235425794395483 25.40130641578782 0 0 0
131 7 0.07889378257793968 5.797255949123839 23.389461624767314 0 0 0
132 7 2.5520965539225045 5.7991978105489945 23.36955234693817 0 0 0
136 7 1.3163639379150198 7.924979637569301 23.29939823734234 0 0 0
137 7 3.792068412272874 7.966531243651924 23.325886498915494 0 0 0
161 4 0.11831116002266039 4.356239626827934 25.458231857026604 0 0 0
166 7 1.3463446453933758 6.426364784119922 25.428463172127607 0 0 0
167 7 3.8177152984049796 6.437980080103033 25.454504879416966 0 0 0
172 7 2.6312055518508086 8.612133789119893 25.399876937093286 0 0 0
133 6 5.076068553871178 5.853136501370169 23.38966130753669 0 0 0
134 7 7.565757734192246 5.789743829851097 23.305678097541843 0 0 0
138 7 6.3197766766984165 7.998336942065026 23.34406503444002 0 0 0
168 7 6.372595924050016 6.395760075311448 25.435884670654342 0 0 0
173 7 5.120546461639761 8.553235357575447 25.358695232677473 0 0 0
135 7 10.070739025211607 5.85048300041348 23.376875272770487 0 0 0
139 4 8.706166429202032 7.9583421101003164 23.21442271956313 0 0 0
140 4 11.295480094427173 7.911332575017922 23.297342245990087 0 0 0
169 7 8.781237531081024 6.346542609501005 25.37465888725527 0 0 0
170 7 11.298883227358743 6.422529612290575 25.437407397181403 0 0 0
175 6 9.902187085363238 8.579017313111802 25.50203922228711 0 0 0
141 7 0.02846012978468464 10.09587604850196 23.330993185281 0 0 0
142 7 2.510299947251574 10.10974162337346 23.30276058637689 0 0 0
146 7 1.3079448181430164 12.24432494241699 23.31768709332719 0 0 0
147 7 3.8219774211285746 12.243384769415524 23.234663616986865 0 0 0
151 4 0.10181417364046505 12.889228132260104 25.373947585392784 0 -1 0
171 6 0.12124911994128132 8.631574167995044 25.41272378145124 0 0 0
176 7 1.3518195424818922 10.814771727340142 25.434926362326916 0 0 0
177 6 3.8931827494525315 10.816378431051819 25.319771151762087 0 0 0
143 7 5.08152014705275 10.112216421181722 23.23870056042525 0 0 0
144 7 7.516655861300069 10.099970480259568 22.907573804271344 0 0 0
148 4 6.237111190227384 12.283552397895003 23.265742808838652 0 0 0
178 6 6.651473235731814 10.525224954129786 25.242712458450594 0 0 0
145 7 10.003604521322389 10.100287786635896 23.301755747496422 0 0 0
149 6 8.728602614528274 12.30075912216616 23.29309396062869 0 0 0
150 7 11.265786518370136 12.239322689283833 23.33577618089088 0 0 0
174 3 8.425818632880667 9.514212886308664 24.408365172920554 0 0 0
179 5 9.019345836941879 10.940568902048339 25.55892410483581 0 0 0
180 5 11.351553597219002 10.888474752775048 25.48220103552377 0 0 0
181 7 1.3938999500112341 0.6723814360791904 27.488641050276357 0 0 0
182 7 3.8824224456067045 0.7060885009219359 27.44998970986615 0 0 0
186 7 0.17916941140385087 2.8700657071125972 27.482933151971487 0 0 0
187 7 2.667053325001256 2.8564947315602875 27.56909640414197 0 0 0
211 7 0.21473090661454097 1.4549684713777067 29.580651881494973 0 0 0
212 7 2.714275156270662 1.3685396785592414 29.585093586751196 0 0 0
216 7 1.41806324605584 3.5622093387738847 29.58949005821632 0 0 0
217 4 3.8317422985293614 3.5754655523495904 29.607235266335593 0 0 0
183 7 6.320830463079312 0.7214031949541971 27.571827081832033 0 0 0
188 7 5.091123505532483 2.876594794589422 27.58163438550418 0 0 0
189 7 7.606489172444527 2.8000322747514135 27.45256021246191 0 0 0
213 5 5.144667087617234 1.4293163687455677 29.60459964808329 0 0 0
214 7 7.6249180529927925 1.362705147339678 29.585741270985206 0 0 0
218 7 6.372992541744144 3.53874531877616 29.54742137173202 0 0 0
184 7 8.901096827892198 0.7305945902237166 27.551330289470666 0 0 0
185 4 11.39418962439454 0.7343400473053645 27.51903387252248 0 0 0
190 7 10.156390651713314 2.8453719786933296 27.477959650095315 0 0 0
215 7 10.133852987562411 1.4156021259875846 29.61872823130654 0 0 0
219 7 8.847432928843043 3.52267238000468 29.52206387616613 0 0 0
220 7 11.376923418153517 3.571623192195333 29.514439241440755 0 0 0
191 7 1.3989261736064127 5.0158335960482425 27.47515780603388 0 0 0
192 7 3.8409032908417715 4.9915787839482215 27.495045432456696 0 0 0
196 7 0.14437463608093526 7.171403384602058 27.490210784749106 0 0 0
197 7 2.58793317150941 7.19462198524137 27.487904029723467 0 0 0
221 7 0.12837383714976702 5.73678588266311 29.567704401288974 0 0 0
222 7 2.599701207235722 5.731509453916386 29.563196580440597 0 0 0
226 7 1.3701450621391378 7.90889997787378 29.554384183997044 0 0 0
227 7 3.868106825715622 7.911841096408701 29.486348694863715 0 0 0
193 7 6.378156671290272 4.977532187379179 27.420804367029977 0 0 0
198 7 5.110906174941149 7.171798697742091 27.426324232874695 0 0 0
199 7 7.622982333413081 7.194096560673279 27.45022122646475 0 0 0
223 6 5.161369772183262 5.720134849940807 29.50333463238319 0 0 0
224 7 7.65245742837852 5.744409305685034 29.58286523628301 0 0 0
228 7 6.3991567157169404 7.913378392153445 29.504908757219546 0 0 0
194 6 8.854864159311475 5.009079899153804 27.485940369991702 0 0 0
195 7 11.36896504206218 5.008614030261436 27.501385571411287 0 0 0
200 7 10.1291479761344 7.170742147260942 27.528503621355664 0 0 0
225 7 10.108959254691927 5.753278692506168 29.598675095433737 0 0 0
229 7 8.851761334465232 7.893332195312357 29.51527342167988 0 0 0
230 7 11.375547823682883 7.941116027321204 29.513635520415484 0 0 0
201 5 1.385272117071012 9.33487562928892 27.516703115025056 0 0 0
202 7 3.8804008177174407 9.319046191063112 27.401354180919107 0 0 0
206 4 0.19463402676300792 11.490663428101874 27.518836130959723 0 0 0
207 7 2.6181584662531905 11.464845550154227 27.456110590272644 0 0 0
231 7 0.1698852709049835 10.087812277318235 29.560275774835617 0 0 0
232 7 2.638052673193687 10.027627284495955 29.43731091949514 0 0 0
236 7 1.4774536588683873 12.192196409706701 29.55663300995817 0 0 0
203 7 6.3792772881793045 9.291611888946294 27.412231943278506 0 0 0
208 7 5.148956027446449 11.500189832348639 27.358120286610205 0 0 0
209 6 7.598788496424544 11.537627188693321 27.63181870963171 0 0 0
233 7 5.154209586996103 10.05272572827925 29.346444470485103 0 0 0
234 7 7.60942471834184 10.094236660787448 29.65671186869285 0 0 0
238 7 6.228956601681654 12.240708027629443 29.68126180564256 0 0 0
204 7 8.84391004798264 9.378085841096322 27.603540047890547 0 0 0
205 7 11.353353628288232 9.429605756865222 27.530889356113914 0 0 0
210 7 10.163424980413152 11.567881444643119 27.565473809090534 0 0 0
235 7 10.091513451239758 10.188614038803294 29.583817868660027 0 0 0
239 4 8.890234195447082 12.264630079887601 29.721027568283848 0 0 0
240 7 11.401493958665204 12.278869635732734 29.55024696055976 0 0 0
237 3 4.037478276955799 0.3164049699052247 30.56602568266695 0 1 0
241 7 0.20600177364311087 0.11184152152345989 31.62794692134655 0 0 0
242 7 2.572388314437263 0.14971240779907363 31.74714286819609 0 0 0
246 4 1.3494200212921066 2.2525888643789655 31.66211287619416 0 0 0
247 7 3.8885233053499744 2.157876421300545 31.64852159478707 0 0 0
244 7 7.634226942287664 0.016416101289364222 31.70556628950062 0 0 0
248 7 6.4151662468683615 2.158854922069516 31.65116583822489 0 0 0
249 7 8.859003825251051 2.1187589060404477 31.67288608363823 0 0 0
250 7 11.38944153352902 2.1542688369626393 31.649761585177476 0 0 0
255 1 10.112559811793947 4.237343242141875 31.498179354917294 0 0 0
251 7 0.15529101938166148 4.339908475195836 31.646920642811285 0 0 0
252 7 2.6420259945842717 4.328553245736994 31.676505833488044 0 0 0
256 7 1.3386051461452455 6.515738895175392 31.635161594175667 0 0 0
257 6 3.800729742674751 6.511867929144042 31.67966346485611 0 0 0
286 7 0.109354029758342 7.292025617942072 33.62380424474128 0 0 0
253 7 5.119076410374627 4.319150163458884 31.632639574865536 0 0 0
254 7 7.627162715561794 4.324661173285718 31.59229573919237 0 0 0
258 7 6.358548329266961 6.506455920709564 31.633483182526334 0 0 0
264 7 7.596126475945525 8.591969239611979 31.617811279559234 0 0 0
259 4 8.82772828413006 6.477491807888373 31.625708825068983 0 0 0
260 7 11.324062691177145 6.506966016649176 31.588280243989377 0 0 0
284 5 8.890714351191813 5.132602311393202 33.57586522067264 0 0 0
285 4 11.361159936034925 5.171391826998107 33.63058390792529 0 0 0
290 7 10.093509165800496 7.274267930956197 33.58642598967402 0 0 0
261 7 0.18215541765526908 8.72198832338186 31.647903470121772 0 0 0
262 7 2.6709377239603125 8.73083538278528 31.541495818769118 0 0 0
266 7 1.5686321967464274 10.84423222338907 31.565031130071937 0 0 0
267 4 3.923474123832303 11.299973601340302 30.844988540986616 0 0 0
292 7 3.965771173414894 9.365025309066278 33.526486375925664 0 0 0
243 7 5.177868989725685 12.912445507463087 32.10312765896951 0 -1 0
263 1 5.098272004349644 8.773015643012391 31.437798184473962 0 0 0
268 7 6.268570322758901 10.77422456463793 31.580475618030466 0 0 0
293 4 6.462912190237362 9.334775880330486 33.64914381861524 0 0 0
245 7 10.117525736532212 12.901939050220975 31.858174190444235 0 -1 0
265 6 10.107450070330257 8.69799993066781 31.52936884401429 0 0 0
269 7 8.783018263078798 10.81839830963749 31.73798437063082 0 0 0
270 7 11.432872699332657 10.919731437957834 31.600778757169937 0 0 0
296 3 11.0831160866435 11.847328317008039 33.31391552079445 -1 0 0
271 7 1.488018064023134 0.9123984299819277 33.779774598489816 0 0 0
272 7 3.929412992704799 0.9662808524472996 33.92804433641485 0 0 0
276 7 0.18332424344278334 3.0045254718350427 33.726683946423364 0 0 0
277 7 2.6477500441062047 3.0867585991081357 33.80256398764323 0 0 0
301 7 0.1970278363819804 1.556877790172743 35.74911144982059 0 0 0
302 7 2.627851963165725 1.681899388317004 35.877072073329785 0 0 0
306 4 1.3927140424826145 3.8474954717374468 35.92764638283105 0 0 0
307 7 3.9980960241838557 3.740175697668887 35.829947565106615 0 0 0
273 7 6.46387809164956 0.9860181548182915 33.916319591261875 0 0 0
278 1 5.220072932209284 3.008395130744619 33.7247299192596 0 0 0
279 7 7.731831646294844 3.0514278347851014 33.724975184964684 0 0 0
303 7 5.24881173702551 1.671790753470985 35.96302190900326 0 0 0
304 4 7.769334305205869 1.6369325951564966 35.93070197859477 0 0 0
308 7 6.531795704678298 3.7140956260761597 35.79770082596433 0 0 0
274 7 8.841086439459415 0.9116696161593032 33.826578426770965 0 0 0
275 4 11.44817341290763 0.811596817507075 33.703533128016836 0 0 0
280 7 10.209685620180768 3.010574857070304 33.701799072657856 0 0 0
305 7 10.228693299757634 1.5701681681215982 35.71421316294998 0 0 0
309 7 9.020119802898792 3.6772887007531128 35.770777573071 0 0 0
310 4 11.583659808014064 3.9437872083289087 35.84508119707267 0 0 0
281 7 1.3378908287448728 5.197084050276157 33.85468479814725 0 0 0
282 4 3.854373059198915 5.1491471513894265 33.78551686110467 0 0 0
287 7 2.6455101567045336 7.29767191365088 33.76258483911655 0 0 0
312 7 2.733867539790778 5.799623376262335 35.8085844586471 0 0 0
316 7 1.2400419815570798 7.629452867242607 35.80012459810438 0 0 0
317 7 3.940728162503252 8.044218578036213 35.75716652823653 0 0 0
283 7 6.3837079336692755 5.112111204357564 33.67905545766961 0 0 0
288 7 5.1992601546061 7.274617127638702 33.69146464803618 0 0 0
289 7 7.641872834480658 7.2035322570325535 33.71712700572812 0 0 0
313 7 5.263667274107992 5.916689634742692 35.75653589668082 0 0 0
314 7 7.722550810753302 5.82906278066826 35.74312565359238 0 0 0
318 4 6.556792060444594 8.123235685123795 35.83569135375276 0 0 0
311 2 12.396836013201373 6.010648069589082 35.32622436141465 -1 0 0
315 7 10.137872189615669 5.815693433716478 35.56779396840352 0 0 0
319 7 8.966862871228555 7.986920014256989 35.80487674986858 0 0 0
320 7 11.366308375941875 7.937900738446584 35.58177244769131 0 0 0
350 7 11.672627264028371 6.291010895330224 37.294013615976844 0 0 0
355 3 10.441195589467453 7.9046142640268675 37.25552071489384 0 0 0
291 7 1.4740088331824481 9.435190679975054 33.723656843469115 0 0 0
297 6 3.030846030162351 11.571241506892257 33.67047469820696 0 0 0
321 6 0.21443446958949622 10.075842805507335 35.89649490546673 0 0 0
322 7 2.698105803301797 10.162482263053764 35.75434705777369 0 0 0
326 7 0.513274402634083 11.664672819463018 33.665975882900014 0 0 0
327 6 3.913004536329439 12.502717761079378 36.074845935781724 0 0 0
356 4 1.4041455869820298 12.356882324348964 35.83115124377701 0 0 0
298 2 5.211527949813659 12.281562398295991 34.190136373509446 0 0 0
299 7 7.013104588798792 11.59559659632091 33.67468374729888 0 0 0
323 6 5.2412622958731925 10.244341426110044 35.568344886053715 0 0 0
324 7 7.926008139333891 10.365326468703927 35.69949433621123 0 0 0
328 7 6.465670707892319 12.521118748916665 35.9165204049805 0 0 0
294 7 8.779333763714162 9.306176942721423 33.678873546385304 0 0 0
295 6 11.276890025736291 9.713263001331748 33.75034549651561 0 0 0
300 7 9.397018143806369 11.561543263797068 34.15862200614281 0 0 0
325 7 10.264025623899835 9.845672755503013 37.014513102814625 0 0 0
329 3 9.543308967920641 11.409037730596914 36.18756420426077 0 0 0
330 4 11.272939087130665 12.095975037409257 35.56631221368125 0 0 0
335 5 9.930465752776092 12.912218523428027 37.37924947847615 0 -1 0
332 7 2.489579676700374 0.11434991129761053 38.0170676755029 0 0 0
336 7 1.3314837256432834 2.1963604972329405 37.828316617933126 0 0 0
337 7 3.8784702506515303 2.2048329021922157 37.92542813675539 0 0 0
341 7 0.2001904645691986 4.259025364858733 38.05284737638292 0 0 0
333 7 5.219779716418251 0.13867558513828682 38.10258793017704 0 0 0
334 7 7.673500387418602 0.07008809283192025 38.00215009708639 0 0 0
338 7 6.53484164933685 2.2503578607694434 37.949484262434574 0 0 0
362 8 5.181554327181798 2.9450438946072492 38.73659469592591 0 0 0
339 7 9.000124346156682 2.1975802169644254 37.85359480856922 0 0 0
340 7 11.369571761486164 2.2030594372389425 37.714216259716935 0 0 0
342 7 2.692104291384489 4.303420034161872 37.88891632376528 0 0 0
346 7 1.4911027496760556 6.411221829960887 37.98896597344386 0 0 0
347 6 3.962125931985605 6.475931872767082 37.84114720948674 0 0 0
361 8 3.9600195273193575 8.012800714561436 38.963006703438666 0 0 0
343 7 5.30061988078918 4.403647527450418 37.85160530235132 0 0 0
344 7 7.844350214772378 4.4393972874658125 37.83547582655409 0 0 0
348 6 6.66070641797945 6.661820078530884 37.826082146559074 0 0 0
345 4 10.216222270990336 4.346569312155916 37.79327721485993 0 0 0
349 7 9.237083927872915 6.632934664495906 37.84401238431555 0 0 0
351 7 12.27024438967743 8.580519535434943 37.82317994876213 -1 0 0
352 6 2.5198028608651533 8.656287659127784 37.743579344186415 0 0 0
357 7 3.8478114812053623 10.826163717147793 37.916899392054276 0 0 0
360 7 1.4031027615067162 10.904415240397745 37.86662439784713 1 0 0
353 7 5.15959139338198 8.72875276327719 37.88150244461342 0 0 0
354 7 7.961429538027951 8.95803103047636 37.8099160294902 0 0 0
358 6 6.4364705858691025 10.862071682506997 37.784275275453346 0 0 0
331 7 12.40659684074676 12.898415739398857 37.61904152724097 -1 -1 0
359 2 8.619726674491922 11.173853733736209 37.415463162047864 0 0 0

Velocities

1 0 0 0
2 0 0 0
3 0 0 0
9 0 0 0
4 0 0 0
5 0 0 0
6 0 0 0
10 0 0 0
16 0 0 0
14 0 0 0
20 0 0 0
22 0 0 0
23 0 0 0
28 0 0 0
29 0 0 0
24 0 0 0
25 0 0 0
30 0 0 0
7 0 0 0
32 0 0 0
36 0 0 0
37 0 0 0
8 0 0 0
33 0 0 0
34 0 0 0
38 0 0 0
31 0 0 0
35 0 0 0
39 0 0 0
40 0 0 0
11 0 0 0
12 0 0 0
17 0 0 0
42 0 0 0
46 0 0 0
47 0 0 0
13 0 0 0
18 0 0 0
19 0 0 0
43 0 0 0
44 0 0 0
48 0 0 0
15 0 0 0
41 0 0 0
45 0 0 0
49 0 0 0
50 0 0 0
85 0 0 0
21 0 0 0
26 0 0 0
27 0 0 0
52 0 0 0
56 0 0 0
57 0 0 0
61 0 0 0
53 0 0 0
54 0 0 0
58 0 0 0
51 0 0 0
55 0 0 0
59 0 0 0
60 0 0 0
62 0 0 0
66 0 0 0
67 0 0 0
91 0 0 0
92 0 0 0
96 0 0 0
97 0 0 0
63 0 0 0
64 0 0 0
68 0 0 0
73 0 0 0
93 0 0 0
98 0 0 0
99 0 0 0
65 0 0 0
69 0 0 0
70 0 0 0
94 0 0 0
95 0 0 0
100 0 0 0
72 0 0 0
76 0 0 0
77 0 0 0
82 0 0 0
101 0 0 0
102 0 0 0
107 0 0 0
74 0 0 0
78 0 0 0
103 0 0 0
108 0 0 0
109 0 0 0
71 0 0 0
75 0 0 0
79 0 0 0
80 0 0 0
81 0 0 0
104 0 0 0
105 0 0 0
106 0 0 0
110 0 0 0
86 0 0 0
87 0 0 0
111 0 0 0
112 0 0 0
116 0 0 0
117 0 0 0
83 0 0 0
84 0 0 0
88 0 0 0
113 0 0 0
118 0 0 0
119 0 0 0
89 0 0 0
90 0 0 0
114 0 0 0
115 0 0 0
120 0 0 0
121 0 0 0
122 0 0 0
126 0 0 0
127 0 0 0
152 0 0 0
156 0 0 0
157 0 0 0
162 0 0 0
123 0 0 0
124 0 0 0
128 0 0 0
153 0 0 0
154 0 0 0
158 0 0 0
163 0 0 0
164 0 0 0
125 0 0 0
129 0 0 0
130 0 0 0
155 0 0 0
159 0 0 0
160 0 0 0
165 0 0 0
131 0 0 0
132 0 0 0
136 0 0 0
137 0 0 0
161 0 0 0
166 0 0 0
167 0 0 0
172 0 0 0
133 0 0 0
134 0 0 0
138 0 0 0
168 0 0 0
173 0 0 0
135 0 0 0
139 0 0 0
140 0 0 0
169 0 0 0
170 0 0 0
175 0 0 0
141 0 0 0
142 0 0 0
146 0 0 0
147 0 0 0
151 0 0 0
171 0 0 0
176 0 0 0
177 0 0 0
143 0 0 0
144 0 0 0
148 0 0 0
178 0 0 0
145 0 0 0
149 0 0 0
150 0 0 0
174 0 0 0
179 0 0 0
180 0 0 0
181 0 0 0
182 0 0 0
186 0 0 0
187 0 0 0
211 0 0 0
212 0 0 0
216 0 0 0
217 0 0 0
183 0 0 0
188 0 0 0
189 0 0 0
213 0 0 0
214 0 0 0
218 0 0 0
184 0 0 0
185 0 0 0
190 0 0 0
215 0 0 0
219 0 0 0
220 0 0 0
191 0 0 0
192 0 0 0
196 0 0 0
197 0 0 0
221 0 0 0
222 0 0 0
226 0 0 0
227 0 0 0
193 0 0 0
198 0 0 0
199 0 0 0
223 0 0 0
224 0 0 0
228 0 0 0
194 0 0 0
195 0 0 0
200 0 0 0
225 0 0 0
229 0 0 0
230 0 0 0
201 0 0 0
202 0 0 0
206 0 0 0
207 0 0 0
231 0 0 0
232 0 0 0
236 0 0 0
203 0 0 0
208 0 0 0
209 0 0 0
233 0 0 0
234 0 0 0
238 0 0 0
204 0 0 0
205 0 0 0
210 0 0 0
235 0 0 0
239 0 0 0
240 0 0 0
237 0 0 0
241 0 0 0
242 0 0 0
246 0 0 0
247 0 0 0
244 0 0 0
248 0 0 0
249 0 0 0
250 0 0 0
255 0 0 0
251 0 0 0
252 0 0 0
256 0 0 0
257 0 0 0
286 0 0 0
253 0 0 0
254 0 0 0
258 0 0 0
264 0 0 0
259 0 0 0
260 0 0 0
284 0 0 0
285 0 0 0
290 0 0 0
261 0 0 0
262 0 0 0
266 0 0 0
267 0 0 0
292 0 0 0
243 0 0 0
263 0 0 0
268 0 0 0
293 0 0 0
245 0 0 0
265 0 0 0
269 0 0 0
270 0 0 0
296 0 0 0
271 0 0 0
272 0 0 0
276 0 0 0
277 0 0 0
301 0 0 0
302 0 0 0
306 0 0 0
307 0 0 0
273 0 0 0
278 0 0 0
279 0 0 0
303 0 0 0
304 0 0 0
308 0 0 0
274 0 0 0
275 0 0 0
280 0 0 0
305 0 0 0
309 0 0 0
310 0 0 0
281 0 0 0
282 0 0 0
287 0 0 0
312 0 0 0
316 0 0 0
317 0 0 0
283 0 0 0
288 0 0 0
289 0 0 0
313 0 0 0
314 0 0 0
318 0 0 0
311 0 0 0
315 0 0 0
319 0 0 0
320 0 0 0
350 0 0 0
355 0 0 0
291 0 0 0
297 0 0 0
321 0 0 0
322 0 0 0
326 0 0 0
327 0 0 0
356 0 0 0
298 0 0 0
299 0 0 0
323 0 0 0
324 0 0 0
328 0 0 0
294 0 0 0
295 0 0 0
300 0 0 0
325 0 0 0
329 0 0 0
330 0 0 0
335 0 0 0
332 0 0 0
336 0 0 0
337 0 0 0
341 0 0 0
333 0 0 0
334 0 0 0
338 0 0 0
362 0 0 0
339 0 0 0
340 0 0 0
342 0 0 0
346 0 0 0
347 0 0 0
361 0 0 0
343 0 0 0
344 0 0 0
348 0 0 0
345 0 0 0
349 0 0 0
351 0 0 0
352 0 0 0
357 0 0 0
360 0 0 0
353 0 0 0
354 0 0 0
358 0 0 0
331 0 0 0
359 0 0 0
