LAMMPS data file via write_data, version 11 Feb 2026, timestep = 140, units = metal

362 atoms
8 atom types

0 12.447907776 xlo xhi
0 12.9362452296 ylo yhi
0 52.3600831054 zlo zhi

Masses

1 26.9815
2 10.811
3 12.011
4 51.9961
5 55.845
6 95.95999999999999
7 58.6934
8 1.008

Atoms # atomic/kk

1 7 1.1497425844 1.4144291198 14.1719979085 0 0 0
2 7 3.6134687145 1.0800467879 14.6656212437 0 0 0
3 5 6.0815886619 0.9569444931 14.9079465101 0 0 0
9 7 7.3954709878 3.1653816956 14.9165633718 0 0 0
5 7 11.0547564448 1.2631455811 14.5977267469 0 0 0
6 7 12.3768259844 3.466109773 14.8180276734 -1 0 0
10 7 9.9180716954 3.4005463942 14.7764912213 0 0 0
16 4 0.4744295382 7.8226831776 14.7949356288 0 0 0
20 7 10.4505041057 7.6798324646 14.1800469501 0 0 0
26 7 0.1331167084 12.2146332404 14.9057766073 0 0 0
27 7 2.4873797396 11.8183947458 14.4592042762 0 0 0
23 7 6.9266134788 9.0157719158 14.7745963284 0 0 0
28 7 4.9647374426 11.7971628958 14.602642409 0 0 0
29 6 7.4924961157 11.5026151494 14.9166242995 0 0 0
24 7 9.2163032891 9.7484361665 14.5374967052 0 0 0
25 7 11.7678442713 9.8846864877 14.786174169 0 0 0
30 7 10.0667758176 11.9552914272 14.757184991 0 0 0
7 7 2.4326605698 3.2847729455 14.9872775365 0 0 0
31 6 0.1370685033 1.5768251166 16.5409528459 0 0 0
32 7 2.609799181 1.695311649 16.9108417606 0 0 0
36 7 1.2245322607 3.8662226514 17.0250583843 0 0 0
37 7 3.7153748501 3.8473247158 17.0523498386 0 0 0
56 2 1.9189723599 0.33084736130000003 15.6045903178 0 1 0
8 7 4.9337581363 3.1373027548 15.0061374648 0 0 0
33 7 4.9904912465 1.6750001137 16.9503411318 0 0 0
34 7 7.4151563942 1.7791585102 16.9754753984 0 0 0
38 5 6.1837345251 3.8700430528 16.9844835293 0 0 0
4 6 8.6456161979 1.0067342063 14.9963399852 0 0 0
35 7 9.9904525802 1.6724837965 16.9394330368 0 0 0
39 7 8.7357186923 3.8728485041 16.8576333175 0 0 0
40 7 11.1955345255 3.8169207873 16.9959574416 0 0 0
11 7 1.2398711842 5.5051792815 15.0758691519 0 0 0
12 7 3.7283490145 5.3263903199 15.0866907709 0 0 0
17 7 2.6579083374 7.5053439282 15.1489485754 0 0 0
42 7 2.4588164731 6.1376717082 17.1366667934 0 0 0
47 7 3.8916673081 8.2078082659 17.0586478724 0 0 0
13 7 6.1838130694 5.3155787921 15.0297182962 0 0 0
18 7 5.0848667121 7.4888750582 15.0639197999 0 0 0
19 2 7.0648360032 7.0290503333 15.3848938711 0 0 0
43 7 4.9577202127 5.9729617473 17.0900603592 0 0 0
44 7 7.4821104613 5.9506618606 17.083374682 0 0 0
48 7 6.3517966691 8.0650997957 17.0450086588 0 0 0
14 7 8.7092193576 5.6687248297 14.9610395757 0 0 0
15 6 11.1856037548 5.6145957277 15.1802713774 0 0 0
41 7 12.4471711936 6.008396389 17.2219733868 -1 0 0
45 7 9.9284767185 6.0486621934 17.248553061 0 0 0
49 7 8.7216424076 7.9320761402 16.0649625125 0 0 0
50 7 11.1904412725 8.0010967525 16.4490949671 0 0 0
85 6 9.7924519849 8.4834882941 18.5359623763 0 0 0
21 2 1.1704220354 10.4885279669 15.2082105369 0 0 0
22 7 2.9748319952 9.8752519564 15.6406784464 0 0 0
46 7 0.799569627 9.3774555759 16.8701348744 0 0 0
52 7 1.3553308909 11.874830441 16.9843399516 0 0 0
57 7 3.7588701805 12.4468104353 16.6050476392 0 0 0
87 1 3.6700706715 10.7258804526 18.2611606787 0 0 0
53 7 5.3409190981 10.1321486111 16.3227167594 0 0 0
54 7 7.738634248 10.0639445907 16.9422222866 0 0 0
58 6 6.324598403 12.3768997915 16.9502337736 0 0 0
51 3 11.5246613632 9.3804098021 17.6576166708 -1 0 0
55 7 10.1902802494 10.2861158537 16.6768642345 0 0 0
59 7 8.8417287328 12.3911615771 16.9574660891 0 0 0
60 7 11.2479122514 12.4771716689 16.878211375 0 0 0
61 6 0.0527017033 0.0089065881 18.9901813448 0 0 0
66 6 1.3979632263 2.1760740248 19.0486428377 0 0 0
67 5 3.8360612202 2.1799463238 19.0726429075 0 0 0
91 4 1.3659414355 0.7591550663 21.2953314418 0 0 0
92 7 3.7582348313 0.7345000373 21.0504209071 0 0 0
96 7 0.0870213404 2.8071541535 21.1826954604 0 0 0
97 7 2.5976821626 2.8599755801 21.1943844394 0 0 0
63 5 4.961770923 0.0631852196 18.9569407682 0 0 0
64 7 7.4466866643 0.0923032347 19.0966095755 0 0 0
68 7 6.1999465948 2.1690387216 19.075325693 0 0 0
74 6 7.5068417395 4.2955105964 19.0499735031 0 0 0
93 7 6.2648083061 0.7296382035 21.1687202545 0 0 0
98 7 5.0307084051 2.8839245556 21.1487605341 0 0 0
99 5 7.4843073441 2.8251628317 21.1645743864 0 0 0
65 7 10.0067906371 0.0903551821 19.0914557807 0 0 0
69 7 8.7435549052 2.1641093334 18.9907564244 0 0 0
70 7 11.292023484 2.2483556153 18.9494682525 0 0 0
94 7 8.719020184 0.7235952946 21.2315540182 0 0 0
95 7 11.3095260819 0.6805453101 21.1948570105 0 0 0
100 6 10.0358923279 2.7946241203 21.0504018358 0 0 0
72 7 2.4888364967 4.399127424 19.102146419 0 0 0
76 7 1.2051520298 6.4448593796 19.2552077089 0 0 0
77 7 3.788965515 6.5174885994 19.1602759879 0 0 0
82 6 2.3638515492 8.4992215655 18.9104847269 0 0 0
101 7 1.2093939915 4.9965184419 21.2545513951 0 0 0
102 6 3.7347872191 5.0526652518 21.2248300042 0 0 0
107 7 2.4735498236 7.1830291345 21.2277194893 0 0 0
73 7 4.9809929092 4.3265890736 19.0823350046 0 0 0
78 7 6.2015672642 6.5292243836 19.1351564436 0 0 0
103 7 6.2802159067 5.0571876721 21.1712673534 0 0 0
108 7 5.0166982783 7.2387865717 21.2219468223 0 0 0
109 7 7.4243397829 7.2586553356 21.2603968591 0 0 0
71 1 12.388627158599999 4.3883715676 19.1814266081 -1 0 0
75 5 9.9137295111 4.315548833 19.0289145472 0 0 0
79 7 8.6306455217 6.4821666009 19.3186500677 0 0 0
80 7 11.1185625877 6.4307617978 19.353482346 0 0 0
81 4 12.3476916673 8.4830854356 19.1958443102 -1 0 0
104 7 8.7458214416 5.0332000682 21.2390931737 0 0 0
105 3 10.089235881293366 4.3820518743773516 22.284096902109663 0 0 0
106 7 12.440321558299999 7.1070326106 21.3111075372 -1 0 0
110 7 9.8953778702 7.1760212619 21.2976777965 0 0 0
62 7 2.5924532143 12.864527762000002 19.033453496 0 -1 0
86 7 1.2866785527 10.7004771797 19.1566095298 0 0 0
111 7 1.1846665904 9.2997931012 21.1911611317 0 0 0
112 6 3.7066301461 9.3659637719 21.1382030997 0 0 0
116 1 0.041962507 11.4967726941 21.2929159587 0 0 0
117 7 2.4753961852 11.5386071438 21.1403847135 0 0 0
83 7 4.9512654343 8.7431684175 19.0785252367 0 0 0
84 7 7.4024763088 8.6498206961 19.0808953029 0 0 0
88 7 6.1675483126 10.8114586083 18.9252304338 0 0 0
113 7 6.2190025033 9.419338967 21.0304275954 0 0 0
118 7 4.9689634221 11.5508955698 21.0375810651 0 0 0
119 4 7.4045377363 11.5463122735 21.0699835669 0 0 0
89 6 8.7363364151 10.8601869287 19.0337011767 0 0 0
90 4 11.2772029232 10.8310890744 18.9338598023 0 0 0
114 7 8.7047484128 9.3260368273 20.988037477 0 0 0
115 6 11.1139967077 9.261991403 21.1708079289 0 0 0
120 7 9.9908573263 11.526507989 21.1774539872 0 0 0
121 7 0.08239044369294354 1.38365752172379 23.308961123990624 0 0 0
122 7 2.573785254883195 1.3953151344013266 23.32832890798491 0 0 0
126 6 1.3534534354384662 3.578310562046504 23.26475945342179 0 0 0
127 7 3.848934624215903 3.5819459435240075 23.36077931740786 0 0 0
156 1 1.477687816296651 2.1214772507485806 25.51371145066926 0 0 0
157 7 3.964031453718722 2.127746341991229 25.442750460854366 0 0 0
162 7 2.5968092020942493 4.253770339758233 25.427656451119237 0 0 0
123 7 4.990719270222099 1.4204040268635054 23.161270762432203 0 0 0
124 7 7.392165671057266 1.4918502960095128 23.484571528764867 0 0 0
128 7 6.30176201780859 3.655795123365304 23.18254708747708 0 0 0
153 7 5.194757133349036 0.061907269919856435 25.291877275268064 0 0 0
158 2 5.773353359604268 2.4492818679459596 24.627525745527457 0 0 0
163 7 5.115829199476234 4.23509166472327 25.42085568498495 0 0 0
164 5 7.475040888559374 4.053228120404438 25.35972989096858 0 0 0
125 7 10.041414547225022 1.4181902911094455 23.353786616373476 0 0 0
129 7 8.749456373261959 3.5369087078933483 23.346935217317814 0 0 0
130 4 11.365116412328648 3.6070201483003306 23.401813616209015 0 0 0
155 4 10.117254786227171 0.05222012986179627 25.55626699929559 0 0 0
159 7 8.86695758470903 2.0891118517243505 25.44652948315239 0 0 0
160 7 11.398682747581656 2.144631646114226 25.42005794948925 0 0 0
165 7 10.063222471083629 4.207024828043502 25.41213934757455 0 0 0
131 7 0.06891123438526715 5.760814513899513 23.403102224351812 0 0 0
132 7 2.5404253704322364 5.788786939980151 23.359496841807495 0 0 0
136 7 1.3007961222250013 7.9022051476954305 23.30372058871489 0 0 0
137 7 3.7742963805641496 7.9699551770645005 23.277215897525664 0 0 0
161 4 0.10691673005376953 4.3294339565878985 25.468699875872257 0 0 0
166 7 1.3353835363039883 6.403034784774745 25.430141393852615 0 0 0
167 7 3.8053368932577185 6.426780675747539 25.442716470272067 0 0 0
171 6 0.10671498577701483 8.601533713830142 25.42887307541684 0 0 0
172 7 2.619770641285307 8.596531231348322 25.37516655956704 0 0 0
133 6 5.062568778428542 5.848193458413001 23.38672671652366 0 0 0
134 7 7.556745067381493 5.767200476796601 23.31433805302209 0 0 0
138 7 6.307683571791021 7.985492479378447 23.34074432472635 0 0 0
168 7 6.362198865544916 6.3835772145530365 25.433317133985636 0 0 0
173 7 5.101419141538543 8.541706137519123 25.332081847110864 0 0 0
135 7 10.061744171143998 5.813647353649594 23.38771519786004 0 0 0
139 4 8.691155121601438 7.930063430184087 23.243285716787707 0 0 0
140 4 11.279491227360412 7.878015324274757 23.316968279531277 0 0 0
169 7 8.772796524470325 6.318862320918841 25.383648017049506 0 0 0
170 7 11.286709778923637 6.395587468832097 25.44839267966963 0 0 0
175 6 9.882590350577082 8.554453113196827 25.52256702820855 0 0 0
141 7 0.016986782431291935 10.05534041685102 23.342716416654003 0 0 0
142 7 2.4930303130924445 10.093938350035957 23.253636617583577 0 0 0
146 7 1.2991897271643547 12.222977569968211 23.34948520098085 0 0 0
147 7 3.8033812707656782 12.232061942386983 23.17929581392561 0 0 0
151 4 0.08915263109329094 12.86240858456525 25.4143354150581 0 -1 0
152 7 2.6515629001892056 12.931621087147544 25.37249803177442 0 -1 0
176 7 1.3390604470387781 10.786403942653227 25.430394806276617 0 0 0
177 6 3.87620125949824 10.803820413418574 25.27299706641371 0 0 0
143 7 5.051725044787239 10.093284740476266 23.180413794592305 0 0 0
144 7 7.502201108105661 10.0774815952386 22.919073786428598 0 0 0
148 4 6.209388102294372 12.258483439224639 23.184566264062926 0 0 0
154 7 7.597558480521967 12.930682519823447 25.47294101710867 0 -1 0
178 6 6.6137801158881455 10.529661015646198 25.219847290600345 0 0 0
145 7 9.992285498409068 10.06184962081826 23.31475882052053 0 0 0
149 6 8.704796847309195 12.260708467250028 23.328704123240158 0 0 0
150 7 11.243692884877758 12.205681393221717 23.404703480860274 0 0 0
174 3 8.409873332161617 9.495703725899887 24.422903904629038 0 0 0
179 5 8.995104324845968 10.910344087535089 25.58047026856126 0 0 0
180 5 11.33284089886182 10.854141171430761 25.50541404555219 0 0 0
181 7 1.3881729533405098 0.6530145143610809 27.495444609062673 0 0 0
182 7 3.8748578403439358 0.6903339463029675 27.435670850864636 0 0 0
186 7 0.17003477282516127 2.84625828973986 27.494378567262647 0 0 0
187 7 2.6588132661989143 2.840616778128205 27.567837606878467 0 0 0
211 7 0.208681591280735 1.4337039847644053 29.590130422107926 0 0 0
212 7 2.7098865690376015 1.348158117917104 29.5814054651942 0 0 0
216 7 1.4103508315984747 3.543024903732908 29.59183923522946 0 0 0
217 4 3.823641355284735 3.5606801834708017 29.60036327434295 0 0 0
183 7 6.308449600694462 0.7031445874846185 27.57130345115273 0 0 0
188 7 5.081849910067516 2.8613937778020815 27.577286382039734 0 0 0
189 7 7.593921535161356 2.781749123639073 27.46522163038668 0 0 0
213 5 5.134353050021928 1.4140195548118504 29.601684540323184 0 0 0
214 7 7.6120507975897365 1.3439298798567554 29.594232740596546 0 0 0
218 7 6.36206874377052 3.5250662882474675 29.546516572183222 0 0 0
184 7 8.88446760475171 0.7071454258184888 27.56855172935193 0 0 0
185 4 11.382400838270957 0.7104711431485506 27.54120099611376 0 0 0
190 7 10.143782884000167 2.820110366996003 27.493163686150016 0 0 0
215 7 10.123254146062369 1.3919992898742601 29.63436151405584 0 0 0
219 7 8.838373172970314 3.501362036807714 29.53453393641445 0 0 0
220 7 11.36849587928119 3.548255261907267 29.525505930561028 0 0 0
191 7 1.3902241800147468 4.994660194233415 27.47578619221458 0 0 0
192 7 3.8323676092910457 4.978116873230218 27.485314431613833 0 0 0
196 7 0.13517800642361724 7.14518241105382 27.501282626235728 0 0 0
197 7 2.577969424630641 7.180945523279538 27.47825755057707 0 0 0
221 7 0.11931141843231075 5.714969480223231 29.57633966061975 0 0 0
222 7 2.5908138810348067 5.717223942394665 29.55624450381066 0 0 0
226 7 1.3627763335968175 7.891428884477953 29.55511404353486 0 0 0
227 7 3.85935500371792 7.901317056905313 29.472809425201415 0 0 0
193 7 6.367851913997623 4.963514850106358 27.41701337013703 0 0 0
198 7 5.10059488499623 7.1612595743658565 27.41431828529463 0 0 0
199 7 7.619212994961792 7.176145077474687 27.450706554190702 0 0 0
223 6 5.150923751717324 5.709333995616144 29.494777150942557 0 0 0
224 7 7.642150314289911 5.726877726904835 29.58499150576894 0 0 0
228 7 6.391775778034193 7.900983822627068 29.494985893439242 0 0 0
194 6 8.846399101129686 4.985172912583756 27.496904412497422 0 0 0
195 7 11.359499900284382 4.982488321862673 27.511949733072427 0 0 0
200 7 10.122482587072554 7.145274687571966 27.542917765581308 0 0 0
225 7 10.100341631986486 5.73048733904546 29.6109260244342 0 0 0
229 7 8.844166554769144 7.871366270669793 29.52726373498767 0 0 0
230 7 11.367878444391108 7.917796392525104 29.528863954059766 0 0 0
201 5 1.3775480431260652 9.313118650771147 27.515455458164716 0 0 0
202 7 3.870804189559823 9.30856409587261 27.37649948624176 0 0 0
206 4 0.18616199179046397 11.464741576882561 27.526351959190702 0 0 0
207 7 2.609849175980901 11.44508425453203 27.438329817704314 0 0 0
231 7 0.16395384775646885 10.066300411642153 29.57092533265501 0 0 0
232 7 2.632052187443899 10.013673920262669 29.427292609161626 0 0 0
236 7 1.4725421507283873 12.171298701856802 29.554869075182445 0 0 0
203 7 6.373349308359597 9.27334471768031 27.388974079894606 0 0 0
208 7 5.136690896940361 11.48826250305191 27.320272300497766 0 0 0
209 6 7.581205526010722 11.51284320839136 27.638642822588963 0 0 0
233 7 5.147796918493046 10.042954817998076 29.32365278279258 0 0 0
234 7 7.599599554554367 10.076340025154604 29.66327682326976 0 0 0
238 7 6.21221726074533 12.224591809937229 29.679357319717674 0 0 0
204 7 8.837309175023242 9.356329233768308 27.624112968718705 0 0 0
205 7 11.343996690807947 9.403493403039793 27.54914262342783 0 0 0
210 7 10.150071852423157 11.541717943048774 27.585579158168194 0 0 0
235 7 10.08377120309988 10.167219579208579 29.60268453105524 0 0 0
239 4 8.877436765050927 12.242395025077778 29.73179610637074 0 0 0
240 7 11.395229752272725 12.25557395146485 29.563177097897224 0 0 0
237 3 4.031328952478367 0.2840744903830565 30.552491630318244 0 1 0
241 7 0.20119679439331198 0.09198914273071909 31.63318867646245 0 0 0
242 7 2.570061727848365 0.13184029860567456 31.742160656835782 0 0 0
246 4 1.3442986374355697 2.2356547192788296 31.66660503114912 0 0 0
247 7 3.879550490406683 2.145897686853907 31.641220189482066 0 0 0
248 7 6.4062103445347836 2.1451635918538097 31.649540722765163 0 0 0
253 7 5.110296221102637 4.305796857575684 31.626050147117265 0 0 0
254 7 7.619559864515916 4.3073305546474545 31.59457420313369 0 0 0
249 7 8.850972008564769 2.0999251726760875 31.686495383114533 0 0 0
250 7 11.382962951106824 2.1341494422468523 31.660808794843096 0 0 0
255 1 10.10788519192279 4.217351596902872 31.509281111109118 0 0 0
251 7 0.14833320304835096 4.320683536095663 31.65525774785741 0 0 0
252 7 2.6341743941931397 4.315619361678505 31.668982842615968 0 0 0
256 7 1.3293526204679256 6.499474407023874 31.63752639532522 0 0 0
257 6 3.791271013569305 6.499126518578477 31.670364056404626 0 0 0
286 7 0.10167260550593098 7.272833327767973 33.633362642960584 0 0 0
258 7 6.348323638752515 6.492528423455667 31.626601606174827 0 0 0
264 7 7.587161298180001 8.57489394814592 31.622902980440532 0 0 0
259 4 8.81744802839139 6.457585841817009 31.63205613373834 0 0 0
260 7 11.315247711305155 6.484482110450893 31.60225809887464 0 0 0
284 5 8.884502106852157 5.113952669516932 33.57614823770687 0 0 0
285 4 11.35573321159095 5.1503975411208724 33.65051406488086 0 0 0
290 7 10.083338618266358 7.252680048935852 33.59908332134184 0 0 0
261 7 0.17500079695197995 8.702840504498052 31.657247702936555 0 0 0
262 7 2.663265384047083 8.716720373104215 31.533780907700347 0 0 0
266 7 1.5614403837193704 10.827674281045173 31.56917149833251 0 0 0
267 4 3.91659997747017 11.270728922572767 30.84982402433322 0 0 0
292 7 3.958888898455475 9.36402020577106 33.51059191620255 0 0 0
243 7 5.170143288021802 12.89908081993701 32.09195729580299 0 -1 0
244 7 7.627089080826721 12.933829898284205 31.710492162951905 0 -1 0
263 1 5.0918387784869115 8.759346211659118 31.423205391233648 0 0 0
268 7 6.2591178878443765 10.758471652216574 31.579982912218668 0 0 0
293 4 6.452863042305994 9.317919875340293 33.64971761371976 0 0 0
245 7 10.109627675145697 12.880716196835555 31.86797383283682 0 -1 0
265 6 10.09964455164473 8.675593409968355 31.545188054848243 0 0 0
269 7 8.772941485877002 10.79581399978579 31.75008050464562 0 0 0
270 7 11.426199706744994 10.89965268649989 31.614759112392022 0 0 0
296 3 11.070962180404893 11.829787814073448 33.327770217934734 -1 0 0
271 7 1.4766753881097778 0.8962740181306952 33.773872112377376 0 0 0
272 7 3.9230004844699438 0.9517062757815892 33.91207043580232 0 0 0
276 7 0.17938008023418467 2.989079349108578 33.73453420183476 0 0 0
277 7 2.6445875636658625 3.0746101306639275 33.79398880708364 0 0 0
301 7 0.19144618720709888 1.5441531926384535 35.752072162485796 0 0 0
302 7 2.6160506619314257 1.6673108477644498 35.852438689047375 0 0 0
306 4 1.3968582533709992 3.832881857991836 35.94300257692587 0 0 0
307 7 3.9901049843720853 3.7263568959076356 35.83102648676208 0 0 0
273 7 6.460541442634291 0.9665494339237495 33.902887930047456 0 0 0
278 1 5.2168111132319 2.993144035943985 33.726053997742284 0 0 0
279 7 7.724974968576407 3.0369424435488863 33.73438643647359 0 0 0
303 7 5.243488208678542 1.6607779795099002 35.93928663736327 0 0 0
304 4 7.759784092348067 1.6243732483326958 35.924893879428296 0 0 0
308 7 6.520979752189362 3.705708268992259 35.80721429336141 0 0 0
274 7 8.837691854202083 0.894241698012269 33.841343845899004 0 0 0
275 4 11.441181353435955 0.7954800330786483 33.70995539340888 0 0 0
280 7 10.204780760749824 2.9987025932368154 33.713500082541536 0 0 0
305 7 10.227336466275922 1.5693366925413847 35.71876424295836 0 0 0
309 7 9.007648071437172 3.6661913049703987 35.78808430286901 0 0 0
310 4 11.56612790664762 3.924232743352421 35.875159097198804 0 0 0
281 7 1.3316746872807836 5.177663692426767 33.8542228692934 0 0 0
282 4 3.848920159494899 5.134538247150349 33.7775026758959 0 0 0
287 7 2.63760147697149 7.2850496829499765 33.75686123824435 0 0 0
312 7 2.724554689687224 5.784796425575179 35.798648951751055 0 0 0
316 7 1.2350103484747101 7.617482695745675 35.80476884357957 0 0 0
317 7 3.927313817173694 8.038472433297075 35.748642648844324 0 0 0
283 7 6.373944998221355 5.095674195969677 33.66933915178984 0 0 0
288 7 5.187246074153136 7.266569373427175 33.68021316318207 0 0 0
289 7 7.630104903823729 7.186297522275416 33.71644005403677 0 0 0
313 7 5.246223603626141 5.9076446813009325 35.7352372410379 0 0 0
314 7 7.702684374619607 5.810878677401066 35.73376595150853 0 0 0
318 4 6.5430809440185165 8.11428375680203 35.8310589721767 0 0 0
311 2 12.402811491251356 5.9885431340899675 35.33339496014445 -1 0 0
315 7 10.125893384466792 5.797161042117405 35.57916175288561 0 0 0
319 7 8.953152212328444 7.949274736752199 35.840489143161555 0 0 0
320 7 11.357353807316441 7.919580499049444 35.591639275488426 0 0 0
350 7 11.672017577032152 6.26076217457979 37.290887380986895 0 0 0
355 3 10.436514852312303 7.897679273992417 37.26642972479596 0 0 0
291 7 1.4680134870213335 9.420563031886983 33.72969527155082 0 0 0
297 6 3.016974096843937 11.563628917731359 33.67902691694253 0 0 0
321 6 0.206722581212346 10.061129945244248 35.90097650235819 0 0 0
322 7 2.6911278004886285 10.15946871023566 35.76267161724869 0 0 0
326 7 0.5029202165850672 11.646962711285928 33.67229731481584 0 0 0
327 6 3.9104137019970877 12.500974556236425 36.078874748544365 0 0 0
356 4 1.3949933280415434 12.346881694344356 35.83825720700049 0 0 0
298 2 5.203638573728744 12.275213074356772 34.19200572118786 0 0 0
299 7 6.998945522182062 11.574589274681877 33.67731446533603 0 0 0
323 6 5.231436449218013 10.236369648086663 35.565720872825025 0 0 0
324 7 7.913494645369306 10.346797676217088 35.708174054678736 0 0 0
328 7 6.463224125436154 12.50770183465908 35.91490761380442 0 0 0
294 7 8.770047961219658 9.279365452969722 33.69633384461567 0 0 0
295 6 11.266410770572552 9.69354740295175 33.7625192789385 0 0 0
300 7 9.380294130949098 11.537820468881728 34.160958136955806 0 0 0
325 7 10.254778958834509 9.835990825800387 37.00930914381666 0 0 0
329 3 9.531316384199528 11.401358266723113 36.1881252187808 0 0 0
330 4 11.25933244118952 12.078117677432981 35.56434997088896 0 0 0
335 5 9.908043355157623 12.91570377407642 37.37570792720182 0 -1 0
332 7 2.481629517292717 0.08695700616330937 38.021361310791065 0 0 0
336 7 1.3337942580063258 2.1742155364173334 37.82544355742732 0 0 0
337 7 3.8692498247109257 2.1844584074912823 37.86117629431034 0 0 0
341 7 0.21046073870498758 4.2351094586193 38.069092060447566 0 0 0
342 7 2.710757160785985 4.281557954573898 37.9037888345345 0 0 0
333 7 5.206133782007626 0.1504202932143686 38.10254370845813 0 0 0
334 7 7.649594151766268 0.06841997577802295 38.0047067065325 0 0 0
338 7 6.529242982294402 2.258529499895604 37.90021181877831 0 0 0
339 7 8.990501320431518 2.1851481520249605 37.861525796532526 0 0 0
340 7 11.364061458609338 2.1838135139967396 37.71889984369538 0 0 0
346 7 1.4901836778005055 6.391423423222747 37.98798177326225 0 0 0
347 6 3.95151492226111 6.462420512425572 37.8255099943585 0 0 0
361 8 3.9540476777477624 7.990227054539687 38.959033344371456 0 0 0
343 7 5.301637256374407 4.408693728022788 37.820380628797345 0 0 0
344 7 7.823981280515501 4.420281104488254 37.88038617428309 0 0 0
348 6 6.646361648265669 6.66430561491894 37.802848106584925 0 0 0
345 4 10.218179880645314 4.332411031493804 37.83106512781685 0 0 0
349 7 9.258584123453648 6.642617520158967 37.92668158666594 0 0 0
351 7 12.257409228739974 8.565561407497674 37.82949758946579 -1 0 0
362 8 8.949469619343056 5.288298381497491 38.851499295873715 0 0 0
352 6 2.5091187716848395 8.644952090008646 37.74835943393001 0 0 0
357 7 3.8381874560604055 10.819144014454448 37.92009687398055 0 0 0
360 7 1.3852719318048177 10.884834328598316 37.8766746091794 1 0 0
353 7 5.141377963098042 8.722155452657143 37.87104511975245 0 0 0
354 7 7.953872905967029 8.943230082120406 37.81895167915068 0 0 0
358 6 6.425828917988243 10.853152086322268 37.78836624423045 0 0 0
331 7 12.39174282413474 12.881760332202697 37.62019821333222 -1 -1 0
359 2 8.601742231855585 11.183117398232945 37.409534514824756 0 0 0

Velocities

1 0 0 0
2 0 0 0
3 0 0 0
9 0 0 0
5 0 0 0
6 0 0 0
10 0 0 0
16 0 0 0
20 0 0 0
26 0 0 0
27 0 0 0
23 0 0 0
28 0 0 0
29 0 0 0
24 0 0 0
25 0 0 0
30 0 0 0
7 0 0 0
31 0 0 0
32 0 0 0
36 0 0 0
37 0 0 0
56 0 0 0
8 0 0 0
33 0 0 0
34 0 0 0
38 0 0 0
4 0 0 0
35 0 0 0
39 0 0 0
40 0 0 0
11 0 0 0
12 0 0 0
17 0 0 0
42 0 0 0
47 0 0 0
13 0 0 0
18 0 0 0
19 0 0 0
43 0 0 0
44 0 0 0
48 0 0 0
14 0 0 0
15 0 0 0
41 0 0 0
45 0 0 0
49 0 0 0
50 0 0 0
85 0 0 0
21 0 0 0
22 0 0 0
46 0 0 0
52 0 0 0
57 0 0 0
87 0 0 0
53 0 0 0
54 0 0 0
58 0 0 0
51 0 0 0
55 0 0 0
59 0 0 0
60 0 0 0
61 0 0 0
66 0 0 0
67 0 0 0
91 0 0 0
92 0 0 0
96 0 0 0
97 0 0 0
63 0 0 0
64 0 0 0
68 0 0 0
74 0 0 0
93 0 0 0
98 0 0 0
99 0 0 0
65 0 0 0
69 0 0 0
70 0 0 0
94 0 0 0
95 0 0 0
100 0 0 0
72 0 0 0
76 0 0 0
77 0 0 0
82 0 0 0
101 0 0 0
102 0 0 0
107 0 0 0
73 0 0 0
78 0 0 0
103 0 0 0
108 0 0 0
109 0 0 0
71 0 0 0
75 0 0 0
79 0 0 0
80 0 0 0
81 0 0 0
104 0 0 0
105 0 0 0
106 0 0 0
110 0 0 0
62 0 0 0
86 0 0 0
111 0 0 0
112 0 0 0
116 0 0 0
117 0 0 0
83 0 0 0
84 0 0 0
88 0 0 0
113 0 0 0
118 0 0 0
119 0 0 0
89 0 0 0
90 0 0 0
114 0 0 0
115 0 0 0
120 0 0 0
121 0 0 0
122 0 0 0
126 0 0 0
127 0 0 0
156 0 0 0
157 0 0 0
162 0 0 0
123 0 0 0
124 0 0 0
128 0 0 0
153 0 0 0
158 0 0 0
163 0 0 0
164 0 0 0
125 0 0 0
129 0 0 0
130 0 0 0
155 0 0 0
159 0 0 0
160 0 0 0
165 0 0 0
131 0 0 0
132 0 0 0
136 0 0 0
137 0 0 0
161 0 0 0
166 0 0 0
167 0 0 0
171 0 0 0
172 0 0 0
133 0 0 0
134 0 0 0
138 0 0 0
168 0 0 0
173 0 0 0
135 0 0 0
139 0 0 0
140 0 0 0
169 0 0 0
170 0 0 0
175 0 0 0
141 0 0 0
142 0 0 0
146 0 0 0
147 0 0 0
151 0 0 0
152 0 0 0
176 0 0 0
177 0 0 0
143 0 0 0
144 0 0 0
148 0 0 0
154 0 0 0
178 0 0 0
145 0 0 0
149 0 0 0
150 0 0 0
174 0 0 0
179 0 0 0
180 0 0 0
181 0 0 0
182 0 0 0
186 0 0 0
187 0 0 0
211 0 0 0
212 0 0 0
216 0 0 0
217 0 0 0
183 0 0 0
188 0 0 0
189 0 0 0
213 0 0 0
214 0 0 0
218 0 0 0
184 0 0 0
185 0 0 0
190 0 0 0
215 0 0 0
219 0 0 0
220 0 0 0
191 0 0 0
192 0 0 0
196 0 0 0
197 0 0 0
221 0 0 0
222 0 0 0
226 0 0 0
227 0 0 0
193 0 0 0
198 0 0 0
199 0 0 0
223 0 0 0
224 0 0 0
228 0 0 0
194 0 0 0
195 0 0 0
200 0 0 0
225 0 0 0
229 0 0 0
230 0 0 0
201 0 0 0
202 0 0 0
206 0 0 0
207 0 0 0
231 0 0 0
232 0 0 0
236 0 0 0
203 0 0 0
208 0 0 0
209 0 0 0
233 0 0 0
234 0 0 0
238 0 0 0
204 0 0 0
205 0 0 0
210 0 0 0
235 0 0 0
239 0 0 0
240 0 0 0
237 0 0 0
241 0 0 0
242 0 0 0
246 0 0 0
247 0 0 0
248 0 0 0
253 0 0 0
254 0 0 0
249 0 0 0
250 0 0 0
255 0 0 0
251 0 0 0
252 0 0 0
256 0 0 0
257 0 0 0
286 0 0 0
258 0 0 0
264 0 0 0
259 0 0 0
260 0 0 0
284 0 0 0
285 0 0 0
290 0 0 0
261 0 0 0
262 0 0 0
266 0 0 0
267 0 0 0
292 0 0 0
243 0 0 0
244 0 0 0
263 0 0 0
268 0 0 0
293 0 0 0
245 0 0 0
265 0 0 0
269 0 0 0
270 0 0 0
296 0 0 0
271 0 0 0
272 0 0 0
276 0 0 0
277 0 0 0
301 0 0 0
302 0 0 0
306 0 0 0
307 0 0 0
273 0 0 0
278 0 0 0
279 0 0 0
303 0 0 0
304 0 0 0
308 0 0 0
274 0 0 0
275 0 0 0
280 0 0 0
305 0 0 0
309 0 0 0
310 0 0 0
281 0 0 0
282 0 0 0
287 0 0 0
312 0 0 0
316 0 0 0
317 0 0 0
283 0 0 0
288 0 0 0
289 0 0 0
313 0 0 0
314 0 0 0
318 0 0 0
311 0 0 0
315 0 0 0
319 0 0 0
320 0 0 0
350 0 0 0
355 0 0 0
291 0 0 0
297 0 0 0
321 0 0 0
322 0 0 0
326 0 0 0
327 0 0 0
356 0 0 0
298 0 0 0
299 0 0 0
323 0 0 0
324 0 0 0
328 0 0 0
294 0 0 0
295 0 0 0
300 0 0 0
325 0 0 0
329 0 0 0
330 0 0 0
335 0 0 0
332 0 0 0
336 0 0 0
337 0 0 0
341 0 0 0
342 0 0 0
333 0 0 0
334 0 0 0
338 0 0 0
339 0 0 0
340 0 0 0
346 0 0 0
347 0 0 0
361 0 0 0
343 0 0 0
344 0 0 0
348 0 0 0
345 0 0 0
349 0 0 0
351 0 0 0
362 0 0 0
352 0 0 0
357 0 0 0
360 0 0 0
353 0 0 0
354 0 0 0
358 0 0 0
331 0 0 0
359 0 0 0
