LAMMPS data file via write_data, version 11 Feb 2026, timestep = 158, units = metal

362 atoms
8 atom types

0 12.447907776 xlo xhi
0 12.9362452296 ylo yhi
0 52.3600831054 zlo zhi

Masses

1 26.9815
2 10.811
3 12.011
4 51.9961
5 55.845
6 95.95999999999999
7 58.6934
8 1.008

Atoms # atomic/kk

1 7 1.1258466585 0.8238897812 14.6422938276 0 0 0
2 7 3.5643659884 0.7395322579 14.8707344081 0 0 0
3 5 6.025108482 0.868674738 14.9374995012 0 0 0
9 7 7.2960841274 3.0640627172 14.8928840014 0 0 0
4 6 8.6460647334 0.9727011669 14.9461359803 0 0 0
5 7 11.0338965836 1.2546061387 14.4617852771 0 0 0
6 7 12.276140525699999 3.479705423 14.6432066611 -1 0 0
10 7 9.8182658326 3.3811991561 14.7228078386 0 0 0
16 4 0.2259814519 7.6755482258 14.6122028552 0 0 0
14 7 8.5846403821 5.6408339332 14.8936750376 0 0 0
20 7 10.2382885855 7.6596590826 13.9895786276 0 0 0
22 7 3.6275672669 9.5145490974 14.9191976737 0 0 0
23 7 6.5953547399 9.0887663636 14.8515429278 0 0 0
28 7 4.8281525095 11.6121679587 14.8190861513 0 0 0
29 6 7.3844965689 11.5008861096 14.9174134271 0 0 0
24 7 9.0625840854 9.6698238411 14.6563310832 0 0 0
25 7 11.955569227 9.8811333051 14.711502925 0 0 0
30 7 9.9341535035 11.8590816825 14.5789921021 0 0 0
7 7 2.2366275412 2.9728554832 15.107019974 0 0 0
32 7 2.3179736881 1.2559057992 16.9309167949 0 0 0
36 7 1.1474574169 3.9708655556 17.0628370478 0 0 0
37 7 3.5804601598 3.6482723083 17.0933666219 0 0 0
8 7 4.7902088582 2.9871060268 15.0207457225 0 0 0
33 7 4.8395372481 1.5376847564 16.9828118622 0 0 0
34 7 7.3673113469 1.7134447529 16.9466095923 0 0 0
38 5 6.0863328811 3.7439962659 16.9704045537 0 0 0
31 6 12.4034430084 1.8909701279 16.4859238419 -1 0 0
35 7 9.9312454135 1.7155270943 16.9048412711 0 0 0
39 7 8.6456229872 3.8662562756 16.8144456376 0 0 0
40 7 11.0819410424 3.9550305269 16.965056305 0 0 0
11 7 1.1446469324 5.4348818376 15.0260694713 0 0 0
12 7 3.5626900949 5.1484805577 15.1219206343 0 0 0
17 7 2.4385770546 7.5074786302 15.0915466828 0 0 0
42 7 2.383026307 6.0776576292 17.1121693546 0 0 0
46 7 0.8286859941 8.4158989619 16.8604808114 0 0 0
47 7 3.8261955571 8.0118781577 17.0271996095 0 0 0
13 7 6.05655161 5.1880970737 15.0085441604 0 0 0
18 7 4.9057925003 7.3043180487 14.9771488543 0 0 0
19 2 6.8536186495 6.977322444 15.3165061377 0 0 0
43 7 4.8648420644 5.813203138 17.0772632937 0 0 0
44 7 7.3530650486 5.8825877453 17.0235615538 0 0 0
48 7 6.2359860304 7.9949701301 17.0183179437 0 0 0
15 6 11.0578650057 5.640977567 15.0857099726 0 0 0
41 7 12.326697432 6.1121527479 17.1282591442 -1 0 0
45 7 9.8180962713 6.113097881 17.1799470035 0 0 0
49 7 8.4805823599 7.8603568623 16.0225049768 0 0 0
50 7 10.9164802038 8.1190485303 16.2149166215 0 0 0
85 6 9.8413720948 8.5199856099 18.4502400156 0 0 0
21 2 1.5590526246 9.4753946373 15.2106705632 0 0 0
26 7 0.3250709551 10.8048357361 16.829685923 0 0 0
27 7 2.0427785984 11.4793243543 15.1513638937 0 0 0
52 7 2.6246336227 10.0834386148 17.0434612153 0 0 0
56 2 0.9376495606 12.7073769653 16.3547446491 0 0 0
57 7 3.7143440256 12.2282740215 16.9297674244 0 0 0
61 6 0.1157897204 12.9166925065 18.5765511058 0 -1 0
53 7 5.1389182954 10.1130770845 16.7795785273 0 0 0
54 7 7.7047226421 10.046412777 16.9219980073 0 0 0
58 6 6.305279419 12.3412079951 17.0125464704 0 0 0
51 3 11.631332556499999 9.3730274319 17.4996517185 -1 0 0
55 7 10.2543068487 10.4109151438 16.6465322716 0 0 0
59 7 8.8535717872 12.373568992 16.8909683908 0 0 0
60 7 11.3094244623 12.6253103691 16.3509139157 0 0 0
62 7 2.5736646259 0.0388543075 19.1439181185 0 0 0
66 6 1.3642494207 2.2344944668 19.0668712525 0 0 0
67 5 3.8086827999 2.1871528118 19.105059664 0 0 0
91 4 1.3755439329 0.790024294 21.253306303 0 0 0
92 7 3.8064369689 0.745857905 21.1336665129 0 0 0
96 7 0.0939459262 2.8690908483 21.1775742489 0 0 0
97 7 2.6158864852 2.8670949948 21.2098995492 0 0 0
63 5 5.0252028261 0.1227941709 19.0645022981 0 0 0
64 7 7.5077679081 0.1128785971 19.0938368095 0 0 0
68 7 6.2033384106 2.1801628394 19.0505078471 0 0 0
93 7 6.3337088693 0.7448682495 21.2078824526 0 0 0
98 7 5.0586466718 2.8815029423 21.1528906657 0 0 0
99 5 7.5133856754 2.8482187768 21.1431811117 0 0 0
65 7 10.0922092776 0.1090864113 18.9654187322 0 0 0
69 7 8.7432136098 2.1914622413 18.9636777837 0 0 0
70 7 11.3024681549 2.295283526 18.9085484184 0 0 0
94 7 8.7894094669 0.7578687308 21.1792249102 0 0 0
95 7 11.3749407028 0.7288366803 21.0318315824 0 0 0
100 6 10.0567896019 2.8455960262 21.0202929669 0 0 0
72 7 2.4605423122 4.4258259732 19.1170056027 0 0 0
76 7 1.1780168301 6.5021615521 19.1907840514 0 0 0
77 7 3.7710111135 6.503244874 19.1449010506 0 0 0
82 6 2.4453133351 8.5417008278 19.0246931511 0 0 0
101 7 1.2207539353 5.0354041389 21.2328311338 0 0 0
102 6 3.7502624146 5.0514131419 21.2269806199 0 0 0
106 7 0.0062088604 7.1420591461 21.2743147916 0 0 0
107 7 2.4846365166 7.1760998099 21.2382210242 0 0 0
73 7 4.9521603916 4.3142071081 19.0770368338 0 0 0
74 6 7.481201084 4.3206408963 19.0268684431 0 0 0
78 7 6.1824319863 6.5286180772 19.1057408001 0 0 0
103 7 6.2906548943 5.0619734735 21.1570669213 0 0 0
108 7 5.0314909174 7.2261626129 21.2078828844 0 0 0
109 7 7.4387948978 7.2704210269 21.2403010346 0 0 0
71 1 12.340172513099999 4.459446799 19.1961468083 -1 0 0
75 5 9.873323622 4.3694564698 19.0110814807 0 0 0
79 7 8.6255400165 6.5220273249 19.2862313998 0 0 0
80 7 11.1047447389 6.5148575118 19.2839343666 0 0 0
81 4 12.3822152269 8.5880181156 19.188710651 -1 0 0
104 7 8.751111802 5.0662506007 21.2164813896 0 0 0
105 3 10.101110366167946 4.42789530159235 22.263341103387084 0 0 0
110 7 9.9139017778 7.198695077 21.2721959597 0 0 0
86 7 1.3161877581 10.7622064303 19.171019448 0 0 0
87 1 3.8581632427 10.8852458026 19.0099092325 0 0 0
111 7 1.2134752876 9.3391291416 21.2171104299 0 0 0
112 6 3.7600854135 9.3441431032 21.2390959322 0 0 0
116 1 0.0708371451 11.5534654431 21.1771192258 0 0 0
117 7 2.5342404801 11.5447751173 21.1754992157 0 0 0
83 7 4.9808377868 8.7332858144 19.0335570843 0 0 0
84 7 7.4348603463 8.643529659 19.0117104416 0 0 0
88 7 6.2873403272 10.8269194883 19.0221870342 0 0 0
113 7 6.2530137818 9.4019100759 21.0345662247 0 0 0
118 7 5.0537678294 11.5645202769 21.1435680943 0 0 0
119 4 7.4844615931 11.580616948 21.0776114583 0 0 0
89 6 8.7950866138 10.8754011447 18.9803225004 0 0 0
90 4 11.2973558935 10.8135521432 18.8920940342 0 0 0
114 7 8.7193989602 9.3483986978 20.9346854699 0 0 0
115 6 11.1324548665 9.2956620624 21.1684680922 0 0 0
120 7 10.0312385576 11.5628781625 21.1234253441 0 0 0
121 7 0.09571052923224566 1.413535466693842 23.25733257450416 0 0 0
122 7 2.5841088209828262 1.410209206917282 23.3175676133412 0 0 0
126 6 1.3672005224304584 3.6098932479986128 23.261142513675996 0 0 0
127 7 3.8683514407434623 3.5945164265288345 23.366170278658455 0 0 0
152 7 2.668477012723211 0.01602462865540196 25.375317451519763 0 0 0
156 1 1.50101535315942 2.1457475742584258 25.502225026798563 0 0 0
157 7 3.9897181577442 2.143097641497678 25.443858303357437 0 0 0
162 7 2.6187363538715878 4.273298471386664 25.4287925173931 0 0 0
123 7 5.025131344936926 1.4359654267474868 23.200606484205785 0 0 0
124 7 7.430505223752968 1.5273049800473055 23.479106829343124 0 0 0
128 7 6.3229502672596904 3.672981848877856 23.171310543572986 0 0 0
153 7 5.214291483004665 0.06915365041592672 25.330836482279267 0 0 0
154 7 7.625984972225108 0.01662955375065546 25.45757566165326 0 0 0
158 2 5.814888940906367 2.4887613428232735 24.64368378562604 0 0 0
163 7 5.134908214629409 4.256568220538884 25.423483707019766 0 0 0
164 5 7.494507426747925 4.06989829852376 25.344681029559283 0 0 0
125 7 10.079302902304983 1.452050867595266 23.301518853064792 0 0 0
129 7 8.774662552845225 3.5696054209308423 23.32984710260839 0 0 0
130 4 11.377629788589955 3.6488331203292432 23.383485387436725 0 0 0
155 4 10.150273706952998 0.07969809232869601 25.517714335850286 0 0 0
159 7 8.903961712787286 2.1132510958024757 25.423171170350745 0 0 0
160 7 11.427764723414805 2.1751637606314556 25.39228949358992 0 0 0
165 7 10.08485656358357 4.2375003768877155 25.398643857398056 0 0 0
131 7 0.09105854221987957 5.799743313786 23.386384576473038 0 0 0
132 7 2.5641052640887416 5.80195173279763 23.36555421548798 0 0 0
136 7 1.3284646475159445 7.927656473734497 23.296173866751204 0 0 0
137 7 3.8041843110935716 7.969363871358275 23.322207127222878 0 0 0
161 4 0.13037987721269245 4.3585796715722624 25.455149934177722 0 0 0
166 7 1.3585779008336398 6.42916847707464 25.425080908526535 0 0 0
167 7 3.829900252724363 6.441181693647453 25.450007688802668 0 0 0
172 7 2.643454258493383 8.615160190878628 25.396616551363987 0 0 0
133 6 5.088213294778403 5.855874825248326 23.385322454399002 0 0 0
134 7 7.57805181212721 5.792078973485398 23.30213136872646 0 0 0
138 7 6.331860095743672 8.00102094100443 23.34031055103846 0 0 0
168 7 6.3847850465552884 6.399188590234385 25.431406970683863 0 0 0
173 7 5.132681266653601 8.556730770085437 25.354959935486864 0 0 0
135 7 10.083046625708274 5.852655562981618 23.373872777256818 0 0 0
139 4 8.718467150814867 7.960590406777584 23.21150177898314 0 0 0
140 4 11.30755999704178 7.913628203387468 23.294601985487784 0 0 0
169 7 8.793438645489836 6.348297262142902 25.371689762628165 0 0 0
170 7 11.311110715380403 6.424688160880004 25.43509064510916 0 0 0
175 6 9.91387623668516 8.580832922458509 25.499809272492374 0 0 0
141 7 0.040769125101169604 10.098185909519986 23.328022082344507 0 0 0
142 7 2.522579078088587 10.112457199412281 23.29928995534811 0 0 0
146 7 1.3202000989874887 12.24684158041597 23.314075883479777 0 0 0
147 7 3.8343806315221287 12.246165300003506 23.23091991727468 0 0 0
151 4 0.1138150982692623 12.891294715708476 25.370528034728125 0 -1 0
171 6 0.13334164853424385 8.633819726516078 25.410127286996147 0 0 0
176 7 1.3639602944517155 10.81710597882289 25.43169185753004 0 0 0
177 6 3.905212303762323 10.819517978958517 25.31624533873682 0 0 0
143 7 5.093756911980868 10.115065840921993 23.235137806187613 0 0 0
144 7 7.529153588507198 10.102199391317805 22.90435816000975 0 0 0
148 4 6.249714407748198 12.28613867306025 23.261587873073903 0 0 0
178 6 6.663730556302466 10.528303131633912 25.23900642816124 0 0 0
145 7 10.015957743210118 10.10241751177735 23.299140748962294 0 0 0
149 6 8.741081882791002 12.302875456934618 23.29026666666949 0 0 0
150 7 11.278125415035715 12.241511316270858 23.332549931855787 0 0 0
174 3 8.43809439636636 9.516448735081061 24.405430380791273 0 0 0
179 5 9.031593103610383 10.942398718482963 25.556331864342713 0 0 0
180 5 11.363714208836289 10.890359534533314 25.479254735531327 0 0 0
181 7 1.4053889531197992 0.6748809039907439 27.485022626843723 0 0 0
182 7 3.8947805169952936 0.7086740611269422 27.443775449664876 0 0 0
186 7 0.19133357492141545 2.8720880289178954 27.480316892836953 0 0 0
187 7 2.6794787621097638 2.858902936053746 27.563384174818747 0 0 0
211 7 0.2266691897646624 1.457394145811386 29.579805732952146 0 0 0
212 7 2.726847786239388 1.3684370181268373 29.578003134427362 0 0 0
216 7 1.4306232675737622 3.564808578464812 29.583897896076945 0 0 0
217 4 3.8441847416913513 3.577730375580209 29.598293342098792 0 0 0
183 7 6.334076696490031 0.7237903330753042 27.567246763748567 0 0 0
188 7 5.104326758439842 2.878620956075128 27.574319505726418 0 0 0
189 7 7.6199591318982804 2.802564237802972 27.448412004556292 0 0 0
213 5 5.155679967568082 1.4289576816363798 29.59746058610665 0 0 0
214 7 7.637777232451971 1.3654946480926755 29.58109163949744 0 0 0
218 7 6.384941246458299 3.5417044607733863 29.53981214940549 0 0 0
184 7 8.914421465096952 0.7328089982445601 27.548549663940097 0 0 0
185 4 11.406269712377627 0.736563081828446 27.516152719502557 0 0 0
190 7 10.169188199000226 2.847787664023777 27.475794390548508 0 0 0
215 7 10.146854669396665 1.418649500682353 29.618191186422475 0 0 0
219 7 8.860248761333061 3.5252903384605045 29.51960924721726 0 0 0
220 7 11.389909460807086 3.573453547056671 29.51377175447516 0 0 0
191 7 1.4113565479560723 5.018409632163219 27.470828829608163 0 0 0
192 7 3.853566008253613 4.994318173461718 27.48885862146381 0 0 0
196 7 0.15715153701232493 7.173896511982696 27.488140494365148 0 0 0
197 7 2.600746756892418 7.197904485191582 27.484261591440642 0 0 0
221 7 0.14128960295726137 5.739385417053211 29.56574621787119 0 0 0
222 7 2.61259633273147 5.735156651795131 29.557089124353283 0 0 0
226 7 1.3836128880850418 7.911939816952066 29.552779488960343 0 0 0
227 7 3.8811090150743923 7.916807166389844 29.483187932668216 0 0 0
193 7 6.391031701530477 4.980560967590799 27.415210030175814 0 0 0
198 7 5.123282732565386 7.175659197370726 27.421640502033085 0 0 0
199 7 7.635723578886481 7.19728680786102 27.44639708122855 0 0 0
223 6 5.173692194466179 5.724363216264374 29.49639359217208 0 0 0
224 7 7.664823935963297 5.747745671527117 29.577984547103892 0 0 0
228 7 6.411942476464014 7.917829510731256 29.501030412002038 0 0 0
194 6 8.867801282251596 5.011584853090768 27.48327818395582 0 0 0
195 7 11.381716526332207 5.010729652776125 27.499573535890264 0 0 0
200 7 10.14185643051343 7.1729230176306835 27.52681457202888 0 0 0
225 7 10.121636745210617 5.7550238357632315 29.597433989897077 0 0 0
229 7 8.864308995339693 7.896059818056315 29.513412647347664 0 0 0
230 7 11.388231891320613 7.9435656092041045 29.512298491233036 0 0 0
201 5 1.3978389596068372 9.337405887231425 27.514256904122483 0 0 0
202 7 3.892647535658492 9.322925862398646 27.398424910159953 0 0 0
206 4 0.20665772877274463 11.492720317116774 27.515662334982444 0 0 0
207 7 2.6297942465983426 11.46791996007475 27.45271797776917 0 0 0
231 7 0.18233939906685928 10.090125245958292 29.558061988775695 0 0 0
232 7 2.6498812906191382 10.03187035032429 29.435375008526545 0 0 0
236 7 1.4870697740588124 12.194756172868868 29.55445237722077 0 0 0
203 7 6.39157138394443 9.29505908850748 27.409064910597092 0 0 0
208 7 5.161491062022141 11.503201667784294 27.354101210300083 0 0 0
209 6 7.611361396025172 11.539794314941835 27.628668655066047 0 0 0
233 7 5.166697349200189 10.05689754000206 29.344242514004417 0 0 0
234 7 7.62255101169755 10.097325637130496 29.65504509924841 0 0 0
238 7 6.242560301540145 12.242804843144453 29.677950904049087 0 0 0
204 7 8.856455077056761 9.380392891570262 27.60150791253037 0 0 0
205 7 11.365867721512515 9.43151083730347 27.52855047450943 0 0 0
210 7 10.175968199889642 11.56966053821167 27.562666792104178 0 0 0
235 7 10.104247627859419 10.190549113441442 29.581670030388004 0 0 0
239 4 8.903250852847092 12.266832728513217 29.717209938767045 0 0 0
240 7 11.413520076956688 12.281414174275502 29.547301612987354 0 0 0
237 3 4.048777683290122 0.3106647568997605 30.556298856619453 0 1 0
241 7 0.21547331399931324 0.1148073135680787 31.62954877089209 0 0 0
242 7 2.585025931805004 0.15186950278611458 31.74029542716634 0 0 0
246 4 1.363294526324608 2.2563391084149744 31.654473419685186 0 0 0
247 7 3.900694222041502 2.161847355953668 31.636267348256045 0 0 0
244 7 7.648649440462272 0.01940431466420458 31.6995048956132 0 0 0
248 7 6.427986079975586 2.163945722768106 31.641657869333024 0 0 0
249 7 8.871718724591668 2.1218564056574865 31.67210119734717 0 0 0
250 7 11.402073743995484 2.1562767503187965 31.654856820426872 0 0 0
255 1 10.125751758708029 4.23763076537776 31.497997017870055 0 0 0
251 7 0.1684985570132693 4.342436917390391 31.64512656902048 0 0 0
252 7 2.654440601538539 4.333259946995991 31.666040854664587 0 0 0
256 7 1.3513600472336125 6.518677234230014 31.63395824387865 0 0 0
257 6 3.8128678883593143 6.5155317379231645 31.673453831573426 0 0 0
286 7 0.12284020919028973 7.297361412829389 33.621888263403285 0 0 0
253 7 5.131441868512124 4.323434662853343 31.623091620871396 0 0 0
254 7 7.6402070617678595 4.328155523001528 31.586296175649757 0 0 0
258 7 6.371385492134471 6.510850273707209 31.625384608371935 0 0 0
264 7 7.609123615486583 8.596708928503597 31.61715521008233 0 0 0
259 4 8.840552788027571 6.47990123657531 31.622782069332622 0 0 0
260 7 11.336990643293273 6.510012754949557 31.586584399092295 0 0 0
284 5 8.904986062607595 5.137793103129411 33.57065878213846 0 0 0
285 4 11.370589079497286 5.1740622306882385 33.627811206404225 0 0 0
290 7 10.105448255608096 7.2784817672742586 33.585650956709934 0 0 0
261 7 0.19568534674320506 8.725475858594768 31.646010563910615 0 0 0
262 7 2.685455794827763 8.736164401877732 31.540862944004406 0 0 0
266 7 1.5794357083019903 10.84796401667892 31.56561825824334 0 0 0
267 4 3.9359063590669296 11.295098915777107 30.851530623976192 0 0 0
292 7 3.979677544795002 9.382827929049053 33.52479344206649 0 0 0
243 7 5.193567345398146 12.917224512133142 32.08964562730732 0 -1 0
263 1 5.1127883843482165 8.776981675650669 31.436334317464162 0 0 0
268 7 6.284638000434777 10.777948743893282 31.580463048260892 0 0 0
293 4 6.472941182634621 9.346755819184935 33.65190068467891 0 0 0
245 7 10.129753717624276 12.905685427873124 31.853051573834048 0 -1 0
265 6 10.119892617648032 8.70076998350249 31.528477252476588 0 0 0
269 7 8.79808118383375 10.822063543749326 31.73731105262257 0 0 0
270 7 11.445243596099544 10.923048788024094 31.59734314979325 0 0 0
296 3 11.095341876433858 11.848219776587255 33.31053921318793 -1 0 0
271 7 1.491335185884184 0.9167158896891363 33.767226692782174 0 0 0
272 7 3.939148298036794 0.9687578590288483 33.90358706097037 0 0 0
276 7 0.19419054979831868 3.006012284747101 33.72545769928438 0 0 0
277 7 2.661762576101815 3.092491651003245 33.7857789054393 0 0 0
301 7 0.20132475518622966 1.5598850667281594 35.74287243202476 0 0 0
302 7 2.630364036206199 1.681950398846348 35.84430854255443 0 0 0
306 4 1.431187012061558 3.8438772088197193 35.93798544487119 0 0 0
307 7 4.007343288821374 3.7462017268459116 35.82511583186822 0 0 0
273 7 6.475377787392063 0.9912594136130223 33.89680314016618 0 0 0
278 1 5.233492868210558 3.014346359877599 33.716802454254555 0 0 0
279 7 7.7456123234142344 3.0609594829392757 33.72279003545074 0 0 0
303 7 5.25412654873097 1.6831039549856257 35.925217094341306 0 0 0
304 4 7.75891238983536 1.6641688360913705 35.90801908329296 0 0 0
308 7 6.539374331513442 3.7270184810256004 35.79073449907694 0 0 0
274 7 8.850560338789284 0.9177429949736929 33.82518447054288 0 0 0
275 4 11.446199577436115 0.8084480799015613 33.71204513311305 0 0 0
280 7 10.222233630049379 3.0131570126672877 33.71139835574443 0 0 0
305 7 10.225943885910922 1.5614671880274575 35.72765480552785 0 0 0
309 7 9.0388811949258 3.683325342862798 35.779515968755035 0 0 0
310 4 11.621772398935212 3.968041426574913 35.83867643189744 0 0 0
281 7 1.3477754994458806 5.198434902891042 33.8583932841636 0 0 0
282 4 3.8661900194073766 5.153241053335921 33.77800794227962 0 0 0
287 7 2.659300132176342 7.303900008264441 33.75929609494112 0 0 0
312 7 2.749127716984996 5.808326942788716 35.80214012822 0 0 0
316 7 1.2527919903840496 7.634455848956635 35.79979037422374 0 0 0
317 7 3.9538794439473586 8.061012257878795 35.75188428750899 0 0 0
283 7 6.396231896427771 5.119134056974922 33.66683543430241 0 0 0
288 7 5.210002758184489 7.28677558578916 33.679886784471655 0 0 0
289 7 7.652694654489766 7.211085214478726 33.710292948258676 0 0 0
313 7 5.272762286661592 5.930787115024811 35.734645194699326 0 0 0
314 7 7.736322974041775 5.834491309778346 35.72735277079909 0 0 0
318 4 6.563894896022446 8.131329125305855 35.82725971640175 0 0 0
311 2 12.40773595866695 6.024575777016101 35.31869819713105 -1 0 0
315 7 10.150613691326722 5.8210912898301626 35.56753051899297 0 0 0
319 7 8.976001712633924 7.988722455043437 35.80559513943396 0 0 0
320 7 11.376750891412332 7.943893701123734 35.580032591854625 0 0 0
350 7 11.692582990209129 6.297092807513574 37.291979030380325 0 0 0
355 3 10.454405668254456 7.9075279860123455 37.255781407252975 0 0 0
291 7 1.4879287233576899 9.440663553497838 33.724434704740176 0 0 0
297 6 3.0370624523693515 11.58334270652332 33.67639169247039 0 0 0
321 6 0.22847898959419005 10.07638347380867 35.88965945491148 0 0 0
322 7 2.71189505553241 10.178833636754522 35.75764267072271 0 0 0
326 7 0.5236044384000768 11.668113987036868 33.6678469673081 0 0 0
327 6 3.9268069912840193 12.520441133200832 36.07513754528245 0 0 0
356 4 1.4135602896652801 12.367943274720563 35.835010781707915 0 0 0
298 2 5.227744788834709 12.295568706504206 34.19399597547081 0 0 0
299 7 7.027940700562955 11.605811045496234 33.67631487781986 0 0 0
323 6 5.257195086773178 10.263951209162686 35.57699394105876 0 0 0
324 7 7.934620572482747 10.374033169065058 35.69599966192829 0 0 0
328 7 6.4869280741133375 12.542063393460642 35.92148022007293 0 0 0
294 7 8.790997768337089 9.312492296464645 33.6798990140844 0 0 0
295 6 11.286792049915242 9.717884657137946 33.7466897753311 0 0 0
300 7 9.414509643355505 11.568413361807293 34.16427678239 0 0 0
325 7 10.266795349522896 9.848070658226906 37.01356464856605 0 0 0
329 3 9.553689904571973 11.425192804310043 36.19190719281715 0 0 0
330 4 11.290376574754742 12.097907056744292 35.579987835529074 0 0 0
335 5 9.922395973976553 12.885610426330206 37.44046035833347 0 -1 0
332 7 2.50268846857778 0.10891499842641915 38.01844904467424 0 0 0
336 7 1.3518320485511135 2.197493733624502 37.817391419188574 0 0 0
337 7 3.8844489555254924 2.2069883865553317 37.85384495244014 0 0 0
341 7 0.22522967782880635 4.266561006004169 38.05725613205055 0 0 0
333 7 5.215476331262846 0.17283062899185742 38.09766872322886 0 0 0
334 7 7.66407293437149 0.10807494470154894 38.06557963541998 0 0 0
338 7 6.525119576115967 2.2760440882833084 37.883046204463994 0 0 0
339 7 9.016593200076993 2.187340752194995 37.88679033841679 0 0 0
340 7 11.394734403712208 2.2205878099057967 37.70572464578781 0 0 0
342 7 2.7259061521634442 4.306574269889432 37.907442474176925 0 0 0
346 7 1.510477193315743 6.415255630067541 37.99337204483669 0 0 0
347 6 3.976809815110858 6.4855711293218965 37.82641493166881 0 0 0
361 8 3.975925798875298 8.01000845355283 38.95916956240347 0 0 0
343 7 5.307206093959845 4.427043570813901 37.816484169900654 0 0 0
344 7 7.843181017565359 4.444009228239742 37.833058098641914 0 0 0
348 6 6.680032126966013 6.661399953590028 37.8060549983482 0 0 0
345 4 10.234235597969546 4.355536496366118 37.79128897306259 0 0 0
349 7 9.253590345668172 6.632906032243792 37.84349195203065 0 0 0
351 7 12.283781439812547 8.58787758851492 37.8202804051502 -1 0 0
352 6 2.5342582512683154 8.663945971948484 37.74356274507016 0 0 0
357 7 3.8578311339225015 10.835722623534355 37.91715953064773 0 0 0
360 7 1.4028307509219817 10.908201844020919 37.865911301452144 1 0 0
353 7 5.176566695095743 8.736588265138769 37.87628876910426 0 0 0
354 7 7.9678220693432085 8.962301949009891 37.802596338575704 0 0 0
358 6 6.448737504174872 10.880911313287214 37.79880272440545 0 0 0
331 7 12.423580381873148 12.917755193161709 37.6275401785752 -1 -1 0
359 2 8.611827445205469 11.167761190521423 37.40525474389935 0 0 0
362 8 9.098648196398448 0.7592616561056885 38.833218634186395 0 1 0

Velocities

1 0 0 0
2 0 0 0
3 0 0 0
9 0 0 0
4 0 0 0
5 0 0 0
6 0 0 0
10 0 0 0
16 0 0 0
14 0 0 0
20 0 0 0
22 0 0 0
23 0 0 0
28 0 0 0
29 0 0 0
24 0 0 0
25 0 0 0
30 0 0 0
7 0 0 0
32 0 0 0
36 0 0 0
37 0 0 0
8 0 0 0
33 0 0 0
34 0 0 0
38 0 0 0
31 0 0 0
35 0 0 0
39 0 0 0
40 0 0 0
11 0 0 0
12 0 0 0
17 0 0 0
42 0 0 0
46 0 0 0
47 0 0 0
13 0 0 0
18 0 0 0
19 0 0 0
43 0 0 0
44 0 0 0
48 0 0 0
15 0 0 0
41 0 0 0
45 0 0 0
49 0 0 0
50 0 0 0
85 0 0 0
21 0 0 0
26 0 0 0
27 0 0 0
52 0 0 0
56 0 0 0
57 0 0 0
61 0 0 0
53 0 0 0
54 0 0 0
58 0 0 0
51 0 0 0
55 0 0 0
59 0 0 0
60 0 0 0
62 0 0 0
66 0 0 0
67 0 0 0
91 0 0 0
92 0 0 0
96 0 0 0
97 0 0 0
63 0 0 0
64 0 0 0
68 0 0 0
93 0 0 0
98 0 0 0
99 0 0 0
65 0 0 0
69 0 0 0
70 0 0 0
94 0 0 0
95 0 0 0
100 0 0 0
72 0 0 0
76 0 0 0
77 0 0 0
82 0 0 0
101 0 0 0
102 0 0 0
106 0 0 0
107 0 0 0
73 0 0 0
74 0 0 0
78 0 0 0
103 0 0 0
108 0 0 0
109 0 0 0
71 0 0 0
75 0 0 0
79 0 0 0
80 0 0 0
81 0 0 0
104 0 0 0
105 0 0 0
110 0 0 0
86 0 0 0
87 0 0 0
111 0 0 0
112 0 0 0
116 0 0 0
117 0 0 0
83 0 0 0
84 0 0 0
88 0 0 0
113 0 0 0
118 0 0 0
119 0 0 0
89 0 0 0
90 0 0 0
114 0 0 0
115 0 0 0
120 0 0 0
121 0 0 0
122 0 0 0
126 0 0 0
127 0 0 0
152 0 0 0
156 0 0 0
157 0 0 0
162 0 0 0
123 0 0 0
124 0 0 0
128 0 0 0
153 0 0 0
154 0 0 0
158 0 0 0
163 0 0 0
164 0 0 0
125 0 0 0
129 0 0 0
130 0 0 0
155 0 0 0
159 0 0 0
160 0 0 0
165 0 0 0
131 0 0 0
132 0 0 0
136 0 0 0
137 0 0 0
161 0 0 0
166 0 0 0
167 0 0 0
172 0 0 0
133 0 0 0
134 0 0 0
138 0 0 0
168 0 0 0
173 0 0 0
135 0 0 0
139 0 0 0
140 0 0 0
169 0 0 0
170 0 0 0
175 0 0 0
141 0 0 0
142 0 0 0
146 0 0 0
147 0 0 0
151 0 0 0
171 0 0 0
176 0 0 0
177 0 0 0
143 0 0 0
144 0 0 0
148 0 0 0
178 0 0 0
145 0 0 0
149 0 0 0
150 0 0 0
174 0 0 0
179 0 0 0
180 0 0 0
181 0 0 0
182 0 0 0
186 0 0 0
187 0 0 0
211 0 0 0
212 0 0 0
216 0 0 0
217 0 0 0
183 0 0 0
188 0 0 0
189 0 0 0
213 0 0 0
214 0 0 0
218 0 0 0
184 0 0 0
185 0 0 0
190 0 0 0
215 0 0 0
219 0 0 0
220 0 0 0
191 0 0 0
192 0 0 0
196 0 0 0
197 0 0 0
221 0 0 0
222 0 0 0
226 0 0 0
227 0 0 0
193 0 0 0
198 0 0 0
199 0 0 0
223 0 0 0
224 0 0 0
228 0 0 0
194 0 0 0
195 0 0 0
200 0 0 0
225 0 0 0
229 0 0 0
230 0 0 0
201 0 0 0
202 0 0 0
206 0 0 0
207 0 0 0
231 0 0 0
232 0 0 0
236 0 0 0
203 0 0 0
208 0 0 0
209 0 0 0
233 0 0 0
234 0 0 0
238 0 0 0
204 0 0 0
205 0 0 0
210 0 0 0
235 0 0 0
239 0 0 0
240 0 0 0
237 0 0 0
241 0 0 0
242 0 0 0
246 0 0 0
247 0 0 0
244 0 0 0
248 0 0 0
249 0 0 0
250 0 0 0
255 0 0 0
251 0 0 0
252 0 0 0
256 0 0 0
257 0 0 0
286 0 0 0
253 0 0 0
254 0 0 0
258 0 0 0
264 0 0 0
259 0 0 0
260 0 0 0
284 0 0 0
285 0 0 0
290 0 0 0
261 0 0 0
262 0 0 0
266 0 0 0
267 0 0 0
292 0 0 0
243 0 0 0
263 0 0 0
268 0 0 0
293 0 0 0
245 0 0 0
265 0 0 0
269 0 0 0
270 0 0 0
296 0 0 0
271 0 0 0
272 0 0 0
276 0 0 0
277 0 0 0
301 0 0 0
302 0 0 0
306 0 0 0
307 0 0 0
273 0 0 0
278 0 0 0
279 0 0 0
303 0 0 0
304 0 0 0
308 0 0 0
274 0 0 0
275 0 0 0
280 0 0 0
305 0 0 0
309 0 0 0
310 0 0 0
281 0 0 0
282 0 0 0
287 0 0 0
312 0 0 0
316 0 0 0
317 0 0 0
283 0 0 0
288 0 0 0
289 0 0 0
313 0 0 0
314 0 0 0
318 0 0 0
311 0 0 0
315 0 0 0
319 0 0 0
320 0 0 0
350 0 0 0
355 0 0 0
291 0 0 0
297 0 0 0
321 0 0 0
322 0 0 0
326 0 0 0
327 0 0 0
356 0 0 0
298 0 0 0
299 0 0 0
323 0 0 0
324 0 0 0
328 0 0 0
294 0 0 0
295 0 0 0
300 0 0 0
325 0 0 0
329 0 0 0
330 0 0 0
335 0 0 0
332 0 0 0
336 0 0 0
337 0 0 0
341 0 0 0
333 0 0 0
334 0 0 0
338 0 0 0
339 0 0 0
340 0 0 0
342 0 0 0
346 0 0 0
347 0 0 0
361 0 0 0
343 0 0 0
344 0 0 0
348 0 0 0
345 0 0 0
349 0 0 0
351 0 0 0
352 0 0 0
357 0 0 0
360 0 0 0
353 0 0 0
354 0 0 0
358 0 0 0
331 0 0 0
359 0 0 0
362 0 0 0
