T=300K Start: Mon Apr 27 05:42:30 AM EDT 2026
LAMMPS (11 Feb 2026 - Development - patch_11Feb2026-99-gb75dfcc930-modified)
KOKKOS mode with Kokkos version 5.0.2 is enabled
  using double precision
  using view layout = legacy
  will use up to 1 GPU(s) per node
  using 1 OpenMP thread(s) per MPI task
Reading data file ...
  orthogonal box = (0 0 0) to (17.867204 17.867204 17.867204)
  1 by 1 by 1 MPI processor grid
  reading atoms ...
  501 atoms
  read_data CPU = 0.016 seconds
/home/akinyemi.az/miniforge3/envs/mace-lammps/lib/python3.11/site-packages/e3nn/o3/_wigner.py:10: FutureWarning: You are using `torch.load` with `weights_only=False` (the current default value), which uses the default pickle module implicitly. It is possible to construct malicious pickle data which will execute arbitrary code during unpickling (See https://github.com/pytorch/pytorch/blob/main/SECURITY.md#untrusted-models for more details). In a future release, the default value for `weights_only` will be flipped to `True`. This limits the functions that could be executed during unpickling. Arbitrary objects will no longer be allowed to be loaded via this mode unless they are explicitly allowlisted by the user via `torch.serialization.add_safe_globals`. We recommend you start setting `weights_only=True` for any use case where you don't have full control of the loaded file. Please open an issue on GitHub for any issues related to this experimental feature.
  _Jd, _W3j_flat, _W3j_indices = torch.load(os.path.join(os.path.dirname(__file__), 'constants.pt'))
1 atoms in group H_atom
500 atoms in group metal
### Phase 1: Equilibration 250 ps at 300 K ###

CITE-CITE-CITE-CITE-CITE-CITE-CITE-CITE-CITE-CITE-CITE-CITE-CITE

Your simulation uses code contributions which should be cited:
- KOKKOS package: https://doi.org/10.1145/3731599.3767498
The log file lists these citations in BibTeX format.

CITE-CITE-CITE-CITE-CITE-CITE-CITE-CITE-CITE-CITE-CITE-CITE-CITE

Neighbor list info ...
  update: every = 1 steps, delay = 0 steps, check = yes
  max neighbors/atom: 2000, page size: 100000
  master list distance cutoff = 7
  ghost atom cutoff = 7
  binsize = 7, bins = 3 3 3
  1 neighbor lists, perpetual/occasional/extra = 1 0 0
  (1) pair mliap/kk, perpetual
      attributes: full, newton on, kokkos_device
      pair build: full/bin/kk/device
      stencil: full/bin/3d
      bin: kk/device
Setting up Verlet run ...
  Unit style    : metal
  Current step  : 0
  Time step     : 0.0005
Per MPI rank memory allocation (min/avg/max) = 81.23 | 81.23 | 81.23 Mbytes
   Step          Temp          PotEng         KinEng         TotEng         Press          Volume    
         0   300           -3369.5198      19.389022     -3350.1308      4718.9449      5703.8719    
      1000   294.45319     -3351.1726      19.030531     -3332.142       21236.564      5703.8719    
      2000   295.42385     -3352.3866      19.093265     -3333.2933      19210.155      5703.8719    
      3000   307.32923     -3351.7835      19.862711     -3331.9208      27140.199      5703.8719    
      4000   304.61908     -3350.1361      19.687553     -3330.4485      23471.162      5703.8719    
      5000   290.73487     -3349.9267      18.790216     -3331.1365      25459.681      5703.8719    
      6000   306.14084     -3350.4835      19.785905     -3330.6976      21458.204      5703.8719    
      7000   276.4652      -3350.2574      17.867966     -3332.3895      21063.934      5703.8719    
      8000   283.84792     -3351.9568      18.345112     -3333.6117      17837.496      5703.8719    
      9000   302.31932     -3352.2127      19.538919     -3332.6738      18233.106      5703.8719    
     10000   299.90377     -3352.0331      19.382803     -3332.6503      17728.033      5703.8719    
     11000   311.84404     -3351.7931      20.154503     -3331.6386      21365.291      5703.8719    
     12000   313.06529     -3352.8735      20.233432     -3332.6401      21476.464      5703.8719    
     13000   318.7172      -3353.7523      20.598716     -3333.1536      18867.831      5703.8719    
     14000   310.56095     -3353.6891      20.071577     -3333.6175      18289.106      5703.8719    
     15000   299.57657     -3353.7769      19.361655     -3334.4152      20501.258      5703.8719    
     16000   310.45517     -3351.7827      20.06474      -3331.718       21754.638      5703.8719    
     17000   327.23666     -3352.6435      21.149329     -3331.4942      20149.454      5703.8719    
     18000   309.358       -3352.8173      19.99383      -3332.8234      21128.162      5703.8719    
     19000   299.80028     -3353.0861      19.376114     -3333.7099      22941.097      5703.8719    
     20000   299.99971     -3353.1645      19.389003     -3333.7755      20603.592      5703.8719    
     21000   298.53212     -3352.4821      19.294152     -3333.1879      22194.246      5703.8719    
     22000   304.39097     -3353.8144      19.67281      -3334.1416      21349.234      5703.8719    
     23000   279.82752     -3353.508       18.085273     -3335.4227      20173.454      5703.8719    
     24000   310.17666     -3352.9354      20.04674      -3332.8887      19056.123      5703.8719    
     25000   294.64572     -3353.3961      19.042974     -3334.3531      21301.955      5703.8719    
     26000   302.42138     -3353.9074      19.545515     -3334.3619      20552.632      5703.8719    
     27000   301.05123     -3352.253       19.456963     -3332.7961      24770.602      5703.8719    
     28000   296.43033     -3352.2032      19.158314     -3333.0449      21268.024      5703.8719    
     29000   294.35561     -3351.5532      19.024224     -3332.529       20687.199      5703.8719    
     30000   294.11143     -3352.577       19.008443     -3333.5686      20766.172      5703.8719    
     31000   285.59302     -3353.195       18.457898     -3334.7371      20240.326      5703.8719    
     32000   298.28932     -3353.1172      19.27846      -3333.8387      19242.81       5703.8719    
     33000   294.92128     -3351.9922      19.060783     -3332.9314      20728.658      5703.8719    
     34000   306.82518     -3350.7978      19.830134     -3330.9677      24604.044      5703.8719    
     35000   289.41695     -3353.0895      18.705038     -3334.3845      20471.907      5703.8719    
     36000   293.76357     -3353.6319      18.985961     -3334.6459      19928.346      5703.8719    
     37000   303.48961     -3352.3539      19.614556     -3332.7394      20146.432      5703.8719    
     38000   315.22287     -3352.6037      20.372877     -3332.2308      21444.982      5703.8719    
     39000   310.87395     -3353.9134      20.091806     -3333.8216      20453.057      5703.8719    
     40000   296.14977     -3353.1598      19.140181     -3334.0197      19892.443      5703.8719    
     41000   304.24031     -3352.7713      19.663073     -3333.1082      20166.658      5703.8719    
     42000   297.33906     -3350.9351      19.217045     -3331.7181      23515.635      5703.8719    
     43000   313.78021     -3352.7666      20.279638     -3332.487       20085.968      5703.8719    
     44000   314.36744     -3353.5759      20.317591     -3333.2583      19481.617      5703.8719    
     45000   299.33982     -3354.4733      19.346354     -3335.1269      18634.174      5703.8719    
     46000   295.01942     -3354.2342      19.067126     -3335.1671      18623.215      5703.8719    
     47000   291.77533     -3352.4175      18.857461     -3333.5601      21550.271      5703.8719    
     48000   310.50125     -3352.6786      20.067719     -3332.6109      20069.538      5703.8719    
     49000   307.79116     -3354.067       19.892565     -3334.1744      19683.053      5703.8719    
     50000   305.54187     -3352.2233      19.747193     -3332.4761      19652.814      5703.8719    
     51000   304.9393      -3351.6084      19.708249     -3331.9002      22456.547      5703.8719    
     52000   298.35974     -3351.9433      19.283011     -3332.6602      23260.239      5703.8719    
     53000   296.25034     -3353.198       19.146681     -3334.0513      20398.424      5703.8719    
     54000   300.8013      -3353.7175      19.44081      -3334.2767      20606.197      5703.8719    
     55000   294.5784      -3351.8999      19.038623     -3332.8613      21671.353      5703.8719    
     56000   321.57887     -3353.3907      20.783666     -3332.607       21684.481      5703.8719    
     57000   311.81313     -3353.8617      20.152505     -3333.7092      20466.211      5703.8719    
     58000   291.93803     -3353.3033      18.867976     -3334.4353      19979.18       5703.8719    
     59000   307.83553     -3351.1342      19.895433     -3331.2387      20930.389      5703.8719    
     60000   308.50425     -3352.1204      19.938652     -3332.1817      21954.963      5703.8719    
     61000   309.95619     -3354.0409      20.032491     -3334.0084      21464.162      5703.8719    
     62000   312.45416     -3353.0614      20.193935     -3332.8675      18592.292      5703.8719    
     63000   293.17689     -3352.8647      18.948043     -3333.9167      21298.88       5703.8719    
     64000   287.40226     -3353.7694      18.574829     -3335.1945      19330.669      5703.8719    
     65000   303.16758     -3353.9652      19.593742     -3334.3715      18460.591      5703.8719    
     66000   305.99453     -3353.836       19.776449     -3334.0596      20374.253      5703.8719    
     67000   316.29134     -3351.8077      20.441932     -3331.3657      21894.927      5703.8719    
     68000   305.14098     -3352.0457      19.721284     -3332.3244      23001.895      5703.8719    
     69000   314.09336     -3354.1703      20.299877     -3333.8704      18775.728      5703.8719    
     70000   310.50324     -3352.9999      20.067847     -3332.9321      18825.694      5703.8719    
     71000   306.88538     -3352.1738      19.834024     -3332.3398      21134.082      5703.8719    
     72000   301.11688     -3352.2209      19.461206     -3332.7597      19478.541      5703.8719    
     73000   299.96963     -3352.788       19.387059     -3333.4009      20017.639      5703.8719    
     74000   293.23981     -3352.6964      18.95211      -3333.7443      19058.07       5703.8719    
     75000   285.55912     -3352.9477      18.455706     -3334.492       21581.615      5703.8719    
     76000   294.84831     -3352.2045      19.056068     -3333.1484      20166.932      5703.8719    
     77000   300.37477     -3352.8197      19.413243     -3333.4064      21482.226      5703.8719    
     78000   287.22514     -3353.487       18.563382     -3334.9236      20853.183      5703.8719    
     79000   312.42653     -3354.3059      20.19215      -3334.1137      17258.645      5703.8719    
     80000   311.16163     -3353.4271      20.110399     -3333.3167      20853.229      5703.8719    
     81000   309.26397     -3352.6475      19.987753     -3332.6597      21789.002      5703.8719    
     82000   277.26445     -3353.0747      17.919622     -3335.1551      21156.479      5703.8719    
     83000   307.87093     -3354.2622      19.897721     -3334.3645      20274.98       5703.8719    
     84000   295.26087     -3352.6514      19.082731     -3333.5687      20507.284      5703.8719    
     85000   308.42794     -3352.5339      19.93372      -3332.6002      23278.478      5703.8719    
     86000   290.4302      -3352.0779      18.770525     -3333.3074      21783.591      5703.8719    
     87000   299.78742     -3353.2688      19.375283     -3333.8935      18568.073      5703.8719    
     88000   315.62061     -3354.5947      20.398583     -3334.1961      19099.511      5703.8719    
     89000   291.6594      -3353.2076      18.849968     -3334.3576      19600.082      5703.8719    
     90000   299.21416     -3351.7622      19.338233     -3332.4239      21802.392      5703.8719    
     91000   311.45434     -3353.3398      20.129317     -3333.2105      19942.725      5703.8719    
     92000   286.63194     -3353.0502      18.525043     -3334.5251      18979.876      5703.8719    
     93000   301.30208     -3353.4504      19.473175     -3333.9772      18820.19       5703.8719    
     94000   309.75513     -3352.957       20.019496     -3332.9375      22552.999      5703.8719    
     95000   313.66427     -3353.4723      20.272145     -3333.2001      19022.168      5703.8719    
     96000   288.70838     -3352.3058      18.659244     -3333.6465      21407.817      5703.8719    
     97000   291.51634     -3353.2701      18.840722     -3334.4294      19450.939      5703.8719    
     98000   293.71501     -3353.1503      18.982822     -3334.1675      19910.829      5703.8719    
     99000   317.80407     -3353.3603      20.5397       -3332.8206      21124.195      5703.8719    
    100000   310.2386      -3351.8792      20.050743     -3331.8284      19277.231      5703.8719    
    101000   294.36774     -3351.658       19.025008     -3332.633       23897.305      5703.8719    
    102000   301.74792     -3352.4063      19.50199      -3332.9043      21391.352      5703.8719    
    103000   292.69907     -3352.6517      18.917162     -3333.7345      19894.786      5703.8719    
    104000   304.08453     -3352.0804      19.653005     -3332.4274      20881.968      5703.8719    
    105000   303.61002     -3352.3416      19.622338     -3332.7193      19682.198      5703.8719    
    106000   317.75705     -3353.4031      20.536661     -3332.8664      20624.445      5703.8719    
    107000   295.20881     -3353.3349      19.079367     -3334.2555      19817.068      5703.8719    
    108000   280.23971     -3353.2154      18.111913     -3335.1035      21287.812      5703.8719    
    109000   300.61625     -3353.2029      19.42885      -3333.7741      20734.588      5703.8719    
    110000   301.80119     -3352.7545      19.505433     -3333.2491      20668.325      5703.8719    
    111000   314.48989     -3354.3207      20.325505     -3333.9952      18513.53       5703.8719    
    112000   300.71832     -3352.4819      19.435447     -3333.0465      21995.805      5703.8719    
    113000   312.41262     -3352.2091      20.19125      -3332.0178      21270.845      5703.8719    
    114000   310.80452     -3353.0978      20.087318     -3333.0105      21863.76       5703.8719    
    115000   289.51282     -3353.3965      18.711235     -3334.6853      19085.46       5703.8719    
    116000   285.16585     -3352.1672      18.43029      -3333.737       22463.592      5703.8719    
    117000   298.60608     -3351.7406      19.298933     -3332.4417      21753.092      5703.8719    
    118000   318.57267     -3352.4174      20.589375     -3331.828       20978.351      5703.8719    
    119000   292.67155     -3351.1849      18.915384     -3332.2695      21031.879      5703.8719    
    120000   313.45373     -3353.5391      20.258537     -3333.2805      20277.971      5703.8719    
    121000   295.84544     -3353.9639      19.120512     -3334.8434      20197.563      5703.8719    
    122000   312.88484     -3354.2804      20.22177      -3334.0586      18757.834      5703.8719    
    123000   298.97978     -3352.8527      19.323085     -3333.5296      21799.737      5703.8719    
    124000   304.62758     -3351.6681      19.688103     -3331.98        22942.635      5703.8719    
    125000   327.79728     -3352.7234      21.185562     -3331.5379      22012.992      5703.8719    
    126000   303.69868     -3353.2149      19.628068     -3333.5868      20749.444      5703.8719    
    127000   285.43854     -3352.9079      18.447914     -3334.46        18307.354      5703.8719    
    128000   319.99328     -3352.5347      20.681189     -3331.8535      21356.801      5703.8719    
    129000   309.35772     -3351.6591      19.993812     -3331.6653      21731.958      5703.8719    
    130000   294.92622     -3352.375       19.061103     -3333.3139      19826.597      5703.8719    
    131000   307.80802     -3354.1095      19.893654     -3334.2159      20090.408      5703.8719    
    132000   304.0698      -3351.597       19.652053     -3331.945       19448.911      5703.8719    
    133000   318.50255     -3353.4983      20.584843     -3332.9135      19474.058      5703.8719    
    134000   313.51184     -3353.8596      20.262293     -3333.5973      20737.122      5703.8719    
    135000   292.91045     -3352.6489      18.930824     -3333.7181      20288.448      5703.8719    
    136000   315.41694     -3352.6672      20.38542      -3332.2818      21650.731      5703.8719    
    137000   312.07662     -3351.8818      20.169535     -3331.7122      19736.453      5703.8719    
    138000   322.05042     -3353.7726      20.814142     -3332.9585      20967.043      5703.8719    
    139000   294.53261     -3353.6444      19.035664     -3334.6087      18444.06       5703.8719    
    140000   302.21985     -3353.4471      19.532491     -3333.9147      17392.375      5703.8719    
    141000   305.09026     -3351.9447      19.718006     -3332.2267      23063.322      5703.8719    
    142000   309.50333     -3351.1587      20.003223     -3331.1554      22508.655      5703.8719    
    143000   308.52806     -3353.1635      19.940191     -3333.2234      19753.364      5703.8719    
    144000   294.15474     -3353.5725      19.011242     -3334.5613      20886.831      5703.8719    
    145000   293.03391     -3353.2141      18.938803     -3334.2753      21262.492      5703.8719    
    146000   304.03988     -3352.6371      19.650119     -3332.987       19946.098      5703.8719    
    147000   299.40094     -3352.4684      19.350304     -3333.1181      21851.966      5703.8719    
    148000   302.64972     -3351.5044      19.560273     -3331.9441      21660.827      5703.8719    
    149000   311.79641     -3352.015       20.151424     -3331.8635      18129.281      5703.8719    
    150000   321.47804     -3353.5463      20.777149     -3332.7691      19253.836      5703.8719    
    151000   302.08601     -3353.5974      19.523841     -3334.0735      19518.946      5703.8719    
    152000   280.98117     -3353.492       18.159834     -3335.3322      21589.924      5703.8719    
    153000   297.09782     -3353.6896      19.201454     -3334.4882      18820.739      5703.8719    
    154000   315.34418     -3353.1036      20.380717     -3332.7229      20444.27       5703.8719    
    155000   299.34481     -3352.5147      19.346677     -3333.168       20442.669      5703.8719    
    156000   302.78553     -3353.7882      19.569051     -3334.2191      19562.581      5703.8719    
    157000   303.60341     -3353.7493      19.621911     -3334.1274      17143.856      5703.8719    
    158000   303.32744     -3352.4228      19.604074     -3332.8188      19557.909      5703.8719    
    159000   309.18246     -3352.1509      19.982485     -3332.1684      21488.996      5703.8719    
    160000   304.57644     -3352.9871      19.684798     -3333.3023      20096.656      5703.8719    
    161000   311.50553     -3352.9686      20.132625     -3332.836       19839.485      5703.8719    
    162000   301.86066     -3354.0356      19.509277     -3334.5264      19148.636      5703.8719    
    163000   294.57558     -3354.2426      19.038441     -3335.2041      18682.143      5703.8719    
    164000   291.39779     -3353.4444      18.83306      -3334.6113      18773.791      5703.8719    
    165000   303.96265     -3352.2038      19.645128     -3332.5587      19048.54       5703.8719    
    166000   308.41044     -3352.6453      19.932589     -3332.7127      18698.383      5703.8719    
    167000   300.07275     -3353.8539      19.393724     -3334.4601      18218.543      5703.8719    
    168000   291.19681     -3353.0877      18.820071     -3334.2676      21372.108      5703.8719    
    169000   302.02388     -3351.8786      19.519825     -3332.3587      18235.432      5703.8719    
    170000   312.19491     -3353.8968      20.17718      -3333.7196      17888.176      5703.8719    
    171000   299.80792     -3353.1622      19.376608     -3333.7856      18892.735      5703.8719    
    172000   304.19376     -3352.4732      19.660065     -3332.8131      20135.703      5703.8719    
    173000   303.3029      -3352.8675      19.602488     -3333.265       21221.321      5703.8719    
    174000   301.07896     -3354.4223      19.458755     -3334.9635      16920.257      5703.8719    
    175000   286.73844     -3352.7965      18.531926     -3334.2646      20700.173      5703.8719    
    176000   295.84423     -3353.1767      19.120434     -3334.0562      21511.058      5703.8719    
    177000   303.07032     -3352.9104      19.587457     -3333.323       19866.251      5703.8719    
    178000   292.36532     -3351.283       18.895592     -3332.3874      21861.695      5703.8719    
    179000   298.18912     -3352.5784      19.271985     -3333.3064      19785.343      5703.8719    
    180000   268.16195     -3353.5894      17.331326     -3336.2581      16524.952      5703.8719    
    181000   296.67705     -3353.1123      19.174259     -3333.938       19676.572      5703.8719    
    182000   278.79239     -3350.8973      18.018372     -3332.8789      20938.653      5703.8719    
    183000   293.59342     -3352.0836      18.974964     -3333.1087      19912.007      5703.8719    
    184000   289.23692     -3353.4944      18.693403     -3334.801       18774.011      5703.8719    
    185000   280.25169     -3353.1186      18.112687     -3335.006       19664.044      5703.8719    
    186000   308.00026     -3353.3562      19.906079     -3333.4501      22334.929      5703.8719    
    187000   309.93767     -3352.7638      20.031294     -3332.7325      20225.249      5703.8719    
    188000   286.99767     -3353.6257      18.54868      -3335.0771      20409.355      5703.8719    
    189000   297.78704     -3354.3021      19.245998     -3335.0561      18378.425      5703.8719    
    190000   308.28563     -3352.4563      19.924523     -3332.5318      21508.648      5703.8719    
    191000   309.66336     -3352.9384      20.013566     -3332.9248      19695.179      5703.8719    
    192000   284.38684     -3354.2287      18.379942     -3335.8487      19919.253      5703.8719    
    193000   290.37111     -3352.5929      18.766706     -3333.8262      20029.322      5703.8719    
    194000   314.09949     -3353.3015      20.300273     -3333.0012      20664.439      5703.8719    
    195000   308.40479     -3352.6863      19.932224     -3332.7541      19042.893      5703.8719    
    196000   314.13623     -3353.9667      20.302647     -3333.6641      19042.789      5703.8719    
    197000   273.91725     -3353.5352      17.703292     -3335.8319      19616.786      5703.8719    
    198000   289.34296     -3352.9844      18.700256     -3334.2842      19928.664      5703.8719    
    199000   299.9604      -3352.4309      19.386462     -3333.0445      19752.932      5703.8719    
    200000   304.29467     -3353.0188      19.666586     -3333.3523      21160.32       5703.8719    
    201000   304.69119     -3354.4394      19.692213     -3334.7472      18911.066      5703.8719    
    202000   298.29325     -3353.3101      19.278714     -3334.0313      20862.179      5703.8719    
    203000   309.38896     -3352.1321      19.995831     -3332.1363      19179.371      5703.8719    
    204000   299.91131     -3352.4042      19.38329      -3333.0209      21922.329      5703.8719    
    205000   301.87837     -3352.7719      19.510421     -3333.2615      19369.919      5703.8719    
    206000   310.8958      -3354.7759      20.093218     -3334.6827      18618.84       5703.8719    
    207000   291.50137     -3352.9999      18.839755     -3334.1601      19595.338      5703.8719    
    208000   301.95543     -3353.8862      19.515401     -3334.3708      16865.842      5703.8719    
    209000   297.60045     -3351.9519      19.233939     -3332.7179      20241.146      5703.8719    
    210000   311.4854      -3352.44        20.131324     -3332.3086      19859.388      5703.8719    
    211000   294.66165     -3352.7262      19.044004     -3333.6822      21324.076      5703.8719    
    212000   303.76949     -3351.9383      19.632644     -3332.3057      19004.836      5703.8719    
    213000   300.15593     -3353.0462      19.3991       -3333.6471      18549.462      5703.8719    
    214000   277.94157     -3352.8139      17.963384     -3334.8505      19230.33       5703.8719    
    215000   286.58368     -3352.3255      18.521924     -3333.8036      22470.09       5703.8719    
    216000   301.68121     -3351.5282      19.497678     -3332.0305      19883.046      5703.8719    
    217000   304.52448     -3351.6998      19.68144      -3332.0184      21481.078      5703.8719    
    218000   303.79672     -3353.7057      19.634404     -3334.0713      18271.533      5703.8719    
    219000   278.44717     -3352.5879      17.996061     -3334.5918      20032.646      5703.8719    
    220000   304.13528     -3352.7263      19.656285     -3333.07        20322.618      5703.8719    
    221000   305.79318     -3351.9708      19.763435     -3332.2073      22302.575      5703.8719    
    222000   297.03725     -3352.2149      19.197539     -3333.0174      21548.097      5703.8719    
    223000   308.70651     -3353.4171      19.951724     -3333.4653      19468.319      5703.8719    
    224000   293.95241     -3352.9625      18.998166     -3333.9644      23158.708      5703.8719    
    225000   291.96668     -3354.1141      18.869827     -3335.2443      18571.061      5703.8719    
    226000   298.14874     -3353.6152      19.269374     -3334.3459      20130.749      5703.8719    
    227000   301.28203     -3352.5345      19.47188      -3333.0626      18093.602      5703.8719    
    228000   289.37755     -3352.4549      18.702492     -3333.7524      20204.655      5703.8719    
    229000   305.54553     -3353.4912      19.747429     -3333.7437      18090.109      5703.8719    
    230000   312.93076     -3353.797       20.224738     -3333.5723      20066.957      5703.8719    
    231000   303.60618     -3353.9298      19.62209      -3334.3077      18867.142      5703.8719    
    232000   286.45969     -3353.3427      18.51391      -3334.8288      21645.42       5703.8719    
    233000   317.26809     -3352.3772      20.50506      -3331.8722      20198.573      5703.8719    
    234000   298.99961     -3352.4889      19.324367     -3333.1645      19288.927      5703.8719    
    235000   283.64583     -3352.6074      18.33205      -3334.2753      19083.32       5703.8719    
    236000   295.41206     -3353.4328      19.092503     -3334.3403      19356.905      5703.8719    
    237000   303.85392     -3353.4412      19.638101     -3333.8031      19749.459      5703.8719    
    238000   306.95884     -3352.9847      19.838772     -3333.1459      19624.528      5703.8719    
    239000   318.07916     -3354.104       20.557479     -3333.5466      18787.959      5703.8719    
    240000   296.19085     -3352.8601      19.142836     -3333.7173      16935.084      5703.8719    
    241000   288.54693     -3353.2738      18.648809     -3334.625       19166.437      5703.8719    
    242000   300.07691     -3352.4128      19.393992     -3333.0188      21172.711      5703.8719    
    243000   291.8518      -3352.3746      18.862403     -3333.5122      19266.519      5703.8719    
    244000   305.72099     -3352.9262      19.758769     -3333.1674      22973.922      5703.8719    
    245000   296.84959     -3351.9403      19.185411     -3332.7549      20182.774      5703.8719    
    246000   289.89704     -3352.4461      18.736066     -3333.71        21681.95       5703.8719    
    247000   280.36627     -3352.6996      18.120093     -3334.5795      22615.68       5703.8719    
    248000   285.89804     -3352.8426      18.477611     -3334.365       21394.281      5703.8719    
    249000   296.95237     -3353.3718      19.192053     -3334.1797      18556.028      5703.8719    
    250000   308.29506     -3352.9633      19.925132     -3333.0381      19744.055      5703.8719    
    251000   289.83525     -3353.2599      18.732073     -3334.5278      18413.064      5703.8719    
    252000   275.29803     -3353.3132      17.792532     -3335.5206      18070.964      5703.8719    
    253000   296.52203     -3353.5062      19.16424      -3334.3419      19597.439      5703.8719    
    254000   306.94641     -3353.7351      19.837969     -3333.8971      19266.833      5703.8719    
    255000   312.13555     -3353.8565      20.173343     -3333.6832      20455.973      5703.8719    
    256000   297.95548     -3351.0326      19.256884     -3331.7757      23779.269      5703.8719    
    257000   316.18454     -3351.8325      20.43503      -3331.3975      21202.928      5703.8719    
    258000   293.97013     -3353.2022      18.999311     -3334.2029      20483.953      5703.8719    
    259000   299.12292     -3353.8934      19.332336     -3334.5611      19465.147      5703.8719    
    260000   314.95168     -3352.198       20.35535      -3331.8427      21105.531      5703.8719    
    261000   312.67703     -3352.6644      20.208339     -3332.456       21272.587      5703.8719    
    262000   289.62956     -3352.6345      18.71878      -3333.9157      20424.652      5703.8719    
    263000   304.11786     -3353.8579      19.655159     -3334.2027      19011.079      5703.8719    
    264000   301.49235     -3352.6036      19.485473     -3333.1181      20692.94       5703.8719    
    265000   309.84994     -3353.7571      20.025624     -3333.7314      19244.279      5703.8719    
    266000   290.6174      -3353.2028      18.782623     -3334.4202      21817.026      5703.8719    
    267000   282.11279     -3354.0996      18.23297      -3335.8667      17484.68       5703.8719    
    268000   309.89474     -3352.7         20.028519     -3332.6714      21047.518      5703.8719    
    269000   302.79628     -3352.9279      19.569746     -3333.3582      19452.01       5703.8719    
    270000   288.77869     -3353.3003      18.663788     -3334.6365      19185.787      5703.8719    
    271000   299.13878     -3352.8486      19.333361     -3333.5152      19378.642      5703.8719    
    272000   313.7773      -3352.1602      20.27945      -3331.8808      21982.076      5703.8719    
    273000   307.35199     -3352.9394      19.864182     -3333.0752      20621.952      5703.8719    
    274000   304.66119     -3353.1839      19.690275     -3333.4936      20043.965      5703.8719    
    275000   264.3966      -3352.816       17.087971     -3335.728       22178.087      5703.8719    
    276000   315.45491     -3353.2523      20.387874     -3332.8644      20555.689      5703.8719    
    277000   306.66436     -3352.6268      19.81974      -3332.8071      20527.689      5703.8719    
    278000   275.54704     -3353.2201      17.808625     -3335.4114      20062.288      5703.8719    
    279000   290.01217     -3352.6461      18.743507     -3333.9026      19780.516      5703.8719    
    280000   303.31411     -3352.7065      19.603213     -3333.1033      19900.9        5703.8719    
    281000   303.03601     -3352.9445      19.58524      -3333.3593      21151.1        5703.8719    
    282000   297.34957     -3354.078       19.217724     -3334.8602      18875.688      5703.8719    
    283000   272.61251     -3352.6795      17.618966     -3335.0606      20233.801      5703.8719    
    284000   318.26982     -3353.7571      20.569802     -3333.1873      18617.698      5703.8719    
    285000   297.63332     -3352.6086      19.236063     -3333.3725      19762.176      5703.8719    
    286000   311.72844     -3352.8156      20.147032     -3332.6685      20541.965      5703.8719    
    287000   296.8522      -3353.2729      19.18558      -3334.0873      21177.338      5703.8719    
    288000   286.1301      -3353.9533      18.492609     -3335.4607      17484.045      5703.8719    
    289000   303.31345     -3354.0112      19.60317      -3334.4081      19254.856      5703.8719    
    290000   310.71948     -3353.368       20.081822     -3333.2861      20466.663      5703.8719    
    291000   319.7042      -3353.1131      20.662506     -3332.4506      19698.88       5703.8719    
    292000   303.66857     -3353.0628      19.626121     -3333.4367      21534.426      5703.8719    
    293000   301.16821     -3353.3993      19.464524     -3333.9348      20165.817      5703.8719    
    294000   289.43321     -3351.6427      18.706089     -3332.9366      20603.803      5703.8719    
    295000   293.62905     -3352.201       18.977267     -3333.2237      20301.769      5703.8719    
    296000   311.53994     -3352.4771      20.134849     -3332.3423      22259.97       5703.8719    
    297000   290.03986     -3352.4831      18.745297     -3333.7378      20211.128      5703.8719    
    298000   290.46984     -3352.5566      18.773087     -3333.7835      19048.484      5703.8719    
    299000   296.18369     -3353.0924      19.142373     -3333.95        18556.165      5703.8719    
    300000   290.54256     -3351.3893      18.777786     -3332.6115      21421.176      5703.8719    
    301000   302.61093     -3352.1008      19.557766     -3332.543       20804.005      5703.8719    
    302000   304.09739     -3351.6579      19.653836     -3332.0041      21493.868      5703.8719    
    303000   308.73137     -3351.7163      19.953331     -3331.763       22509.313      5703.8719    
    304000   300.26482     -3353.6121      19.406137     -3334.2059      21661.02       5703.8719    
    305000   284.61861     -3353.2465      18.394921     -3334.8516      18608.761      5703.8719    
    306000   322.97407     -3354.0545      20.873837     -3333.1807      20159.052      5703.8719    
    307000   317.96636     -3352.7812      20.550189     -3332.231       21165.332      5703.8719    
    308000   318.28794     -3352.5099      20.570973     -3331.939       19366.556      5703.8719    
    309000   310.00335     -3353.3609      20.035539     -3333.3254      22057.01       5703.8719    
    310000   325.73553     -3354.766       21.052311     -3333.7137      20519.051      5703.8719    
    311000   295.56212     -3351.4432      19.102201     -3332.341       21097.156      5703.8719    
    312000   311.82947     -3352.0427      20.153561     -3331.8892      19998.694      5703.8719    
    313000   316.9503      -3352.9293      20.484521     -3332.4448      20004.608      5703.8719    
    314000   284.33407     -3352.5276      18.376532     -3334.151       21047.196      5703.8719    
    315000   279.74436     -3353.385       18.079898     -3335.3051      21049.114      5703.8719    
    316000   289.30036     -3352.4424      18.697503     -3333.7449      19287.096      5703.8719    
    317000   309.22843     -3352.9827      19.985456     -3332.9972      21101.462      5703.8719    
    318000   307.18977     -3352.6173      19.853697     -3332.7636      19049.799      5703.8719    
    319000   301.72132     -3351.6501      19.500271     -3332.1499      21909.32       5703.8719    
    320000   305.67304     -3353.796       19.755671     -3334.0403      17916.897      5703.8719    
    321000   283.39303     -3352.3062      18.315712     -3333.9905      18731.179      5703.8719    
    322000   296.77066     -3352.6885      19.180309     -3333.5082      18219.881      5703.8719    
    323000   302.22116     -3351.1497      19.532575     -3331.6171      20334.847      5703.8719    
    324000   305.18895     -3351.7347      19.724384     -3332.0103      18971.459      5703.8719    
    325000   288.08139     -3352.3915      18.618721     -3333.7728      21093.289      5703.8719    
    326000   297.60032     -3352.9982      19.23393      -3333.7643      18952.43       5703.8719    
    327000   297.6507      -3352.018       19.237186     -3332.7808      19954.941      5703.8719    
    328000   302.62841     -3353.3314      19.558896     -3333.7725      20127.412      5703.8719    
    329000   287.62873     -3353.3453      18.589466     -3334.7559      21387.527      5703.8719    
    330000   296.92466     -3352.7157      19.190262     -3333.5255      20899.25       5703.8719    
    331000   299.28442     -3352.5182      19.342774     -3333.1754      19437.7        5703.8719    
    332000   298.78927     -3354.036       19.310772     -3334.7252      19430.828      5703.8719    
    333000   301.15712     -3353.904       19.463807     -3334.4402      19043.978      5703.8719    
    334000   291.90767     -3352.2634      18.866014     -3333.3974      21545.749      5703.8719    
    335000   303.9         -3352.2635      19.641079     -3332.6224      21948.613      5703.8719    
    336000   292.47664     -3352.2004      18.902787     -3333.2976      20059.832      5703.8719    
    337000   282.43406     -3352.6433      18.253734     -3334.3895      20990.98       5703.8719    
    338000   285.15595     -3352.9075      18.42965      -3334.4779      20119.51       5703.8719    
    339000   301.96036     -3352.4565      19.51572      -3332.9408      18943.227      5703.8719    
    340000   306.24617     -3351.6902      19.792712     -3331.8975      22417.345      5703.8719    
    341000   299.12225     -3352.104       19.332293     -3332.7717      18010.358      5703.8719    
    342000   296.90117     -3352.7434      19.188744     -3333.5547      20524.09       5703.8719    
    343000   300.32205     -3353.5987      19.409836     -3334.1888      21836.051      5703.8719    
    344000   285.53849     -3352.9089      18.454374     -3334.4545      21743.268      5703.8719    
    345000   293.50353     -3353.8003      18.969155     -3334.8311      20220.34       5703.8719    
    346000   302.82474     -3352.4643      19.571585     -3332.8927      21717.721      5703.8719    
    347000   295.61648     -3352.322       19.105714     -3333.2163      19179.479      5703.8719    
    348000   287.48919     -3353.0133      18.580447     -3334.4329      20259.822      5703.8719    
    349000   283.60514     -3353.0665      18.329421     -3334.7371      21237.757      5703.8719    
    350000   297.54077     -3354.2116      19.230082     -3334.9815      20688.498      5703.8719    
    351000   297.10285     -3353.6947      19.201779     -3334.4929      19710.831      5703.8719    
    352000   307.01621     -3353.0546      19.84248      -3333.2121      20702.497      5703.8719    
    353000   285.66334     -3352.3408      18.462442     -3333.8783      19215.624      5703.8719    
    354000   278.71008     -3352.6995      18.013052     -3334.6864      18930.876      5703.8719    
    355000   310.43085     -3352.4993      20.063168     -3332.4361      19624.495      5703.8719    
    356000   316.65353     -3353.4598      20.46534      -3332.9944      19376.698      5703.8719    
    357000   274.93467     -3353.6083      17.769048     -3335.8393      18312.304      5703.8719    
    358000   298.7749      -3352.1225      19.309844     -3332.8126      22592.007      5703.8719    
    359000   295.842       -3351.4987      19.12029      -3332.3784      22419.338      5703.8719    
    360000   325.35957     -3352.5773      21.028013     -3331.5492      18901.934      5703.8719    
    361000   290.86227     -3352.5989      18.798449     -3333.8004      18242.57       5703.8719    
    362000   306.1037      -3353.4551      19.783504     -3333.6716      19073.457      5703.8719    
    363000   299.27234     -3352.8646      19.341993     -3333.5226      20819.674      5703.8719    
    364000   318.07185     -3351.5446      20.557006     -3330.9876      21274.45       5703.8719    
    365000   302.96334     -3352.4214      19.580543     -3332.8409      21927.129      5703.8719    
    366000   301.34451     -3352.8673      19.475918     -3333.3914      19745.189      5703.8719    
    367000   306.36264     -3354.1535      19.80024      -3334.3533      18241.736      5703.8719    
    368000   300.70859     -3352.8964      19.434818     -3333.4615      22214.387      5703.8719    
    369000   306.52933     -3351.871       19.811013     -3332.06        20404.475      5703.8719    
    370000   318.44173     -3353.2922      20.580912     -3332.7113      21884.361      5703.8719    
    371000   285.2689      -3352.2203      18.43695      -3333.7833      19020.043      5703.8719    
    372000   298.10688     -3351.9422      19.266669     -3332.6755      21325.412      5703.8719    
    373000   305.75607     -3352.0277      19.761037     -3332.2667      19728.494      5703.8719    
    374000   299.54204     -3352.2262      19.359424     -3332.8668      19549.57       5703.8719    
    375000   279.70736     -3353.2434      18.077507     -3335.1659      19116.176      5703.8719    
    376000   289.23986     -3353.9005      18.693593     -3335.2069      20493.016      5703.8719    
    377000   305.66377     -3352.436       19.755072     -3332.6809      19892.849      5703.8719    
    378000   307.52543     -3352.5697      19.875391     -3332.6943      19263.738      5703.8719    
    379000   304.92542     -3353.6807      19.707352     -3333.9734      20722.505      5703.8719    
    380000   305.52454     -3351.3731      19.746073     -3331.627       22934.904      5703.8719    
    381000   324.62583     -3352.7766      20.980591     -3331.796       21449.665      5703.8719    
    382000   300.96214     -3352.6368      19.451205     -3333.1856      20705.584      5703.8719    
    383000   289.80817     -3353.2032      18.730323     -3334.4729      20269.317      5703.8719    
    384000   298.2083      -3352.9649      19.273224     -3333.6917      21160.411      5703.8719    
    385000   311.63222     -3352.2424      20.140813     -3332.1016      20042.233      5703.8719    
    386000   305.54722     -3352.337       19.747539     -3332.5895      20732.809      5703.8719    
    387000   294.15431     -3352.1097      19.011215     -3333.0985      22746.888      5703.8719    
    388000   295.58334     -3353.5846      19.103573     -3334.4811      18351.54       5703.8719    
    389000   301.82942     -3354.9858      19.507257     -3335.4785      17962.428      5703.8719    
    390000   310.24377     -3353.7749      20.051077     -3333.7238      20951.691      5703.8719    
    391000   305.78538     -3352.5618      19.762932     -3332.7989      22209.004      5703.8719    
    392000   282.17009     -3352.6126      18.236673     -3334.3759      22377.512      5703.8719    
    393000   309.21351     -3353.3426      19.984491     -3333.3581      20099.976      5703.8719    
    394000   310.72777     -3352.5794      20.082358     -3332.497       20277.343      5703.8719    
    395000   313.63041     -3354.1558      20.269956     -3333.8858      19480.562      5703.8719    
    396000   276.52686     -3352.7531      17.871951     -3334.8812      22346.359      5703.8719    
    397000   295.78998     -3353.9209      19.116928     -3334.804       22046.133      5703.8719    
    398000   291.7206      -3352.3189      18.853923     -3333.4649      21182.705      5703.8719    
    399000   294.71553     -3352.4277      19.047486     -3333.3802      24754.888      5703.8719    
    400000   293.49028     -3353.7224      18.968298     -3334.7541      19611.551      5703.8719    
    401000   289.3285      -3353.12        18.699322     -3334.4207      21717.695      5703.8719    
    402000   295.67235     -3353.4832      19.109325     -3334.3738      19460.861      5703.8719    
    403000   313.06558     -3352.8652      20.233451     -3332.6317      23081.995      5703.8719    
    404000   327.6019      -3353.1228      21.172934     -3331.9499      22028.857      5703.8719    
    405000   314.77181     -3353.2647      20.343725     -3332.9209      20074.959      5703.8719    
    406000   300.96816     -3353.5689      19.451594     -3334.1174      21398.673      5703.8719    
    407000   290.53775     -3352.4765      18.777476     -3333.699       23548.387      5703.8719    
    408000   312.31037     -3352.3816      20.184642     -3332.1969      24812.137      5703.8719    
    409000   309.6906      -3352.7553      20.015326     -3332.74        24736.088      5703.8719    
    410000   300.70298     -3352.6665      19.434456     -3333.232       22375.217      5703.8719    
    411000   291.01708     -3352.8828      18.808455     -3334.0744      22138.001      5703.8719    
    412000   293.30095     -3353.1338      18.956062     -3334.1777      20266.457      5703.8719    
    413000   318.24129     -3353.2168      20.567958     -3332.6488      23234.086      5703.8719    
    414000   311.70243     -3352.5254      20.145351     -3332.38        23614.366      5703.8719    
    415000   300.0807      -3352.2219      19.394237     -3332.8277      23821.478      5703.8719    
    416000   305.61047     -3353.5206      19.751627     -3333.769       19934.442      5703.8719    
    417000   291.75741     -3353.7512      18.856303     -3334.8949      21865.83       5703.8719    
    418000   287.17653     -3354.4996      18.56024      -3335.9393      21637.344      5703.8719    
    419000   308.90503     -3354.2255      19.964555     -3334.2609      21339.689      5703.8719    
    420000   302.43687     -3352.6126      19.546517     -3333.0661      20427.857      5703.8719    
    421000   314.41422     -3352.6822      20.320614     -3332.3616      22584.113      5703.8719    
    422000   308.72604     -3353.4532      19.952986     -3333.5002      21679.461      5703.8719    
    423000   279.25741     -3352.9277      18.048427     -3334.8793      21367.479      5703.8719    
    424000   284.44978     -3353.2975      18.38401      -3334.9135      23349.987      5703.8719    
    425000   304.45454     -3352.8948      19.676919     -3333.2179      23511.951      5703.8719    
    426000   288.77436     -3354.3465      18.663508     -3335.683       21450.081      5703.8719    
    427000   284.65409     -3353.5309      18.397215     -3335.1337      21200.552      5703.8719    
    428000   308.35321     -3353.4944      19.92889      -3333.5655      20811.931      5703.8719    
    429000   308.89158     -3353.5397      19.963685     -3333.576       21516.402      5703.8719    
    430000   282.19967     -3353.2089      18.238585     -3334.9703      21568.423      5703.8719    
    431000   293.96804     -3354.5035      18.999175     -3335.5043      21129.494      5703.8719    
    432000   291.29594     -3352.5093      18.826478     -3333.6828      23355.483      5703.8719    
    433000   314.1934      -3353.1284      20.306342     -3332.8221      21532.224      5703.8719    
    434000   308.8336      -3353.502       19.959938     -3333.5421      21419.402      5703.8719    
    435000   293.33428     -3354.2988      18.958216     -3335.3406      20467.757      5703.8719    
    436000   293.81521     -3353.5148      18.989298     -3334.5255      19277.165      5703.8719    
    437000   304.72033     -3353.5708      19.694097     -3333.8767      19096.268      5703.8719    
    438000   318.46206     -3354.2707      20.582226     -3333.6885      22913.802      5703.8719    
    439000   297.20238     -3354.4417      19.208211     -3335.2334      20347.695      5703.8719    
    440000   305.00954     -3354.7224      19.712789     -3335.0096      22189.635      5703.8719    
    441000   304.26179     -3354.0907      19.664461     -3334.4262      19154.376      5703.8719    
    442000   295.23237     -3352.5045      19.08089      -3333.4236      23206.976      5703.8719    
    443000   313.50274     -3351.8637      20.261705     -3331.602       22961.57       5703.8719    
    444000   300.50407     -3353.0169      19.4216       -3333.5953      21259.583      5703.8719    
    445000   310.11856     -3354.5024      20.042985     -3334.4595      21112.155      5703.8719    
    446000   298.38567     -3352.7176      19.284687     -3333.4329      23461.186      5703.8719    
    447000   304.0049      -3352.7517      19.647859     -3333.1038      22216.467      5703.8719    
    448000   310.80599     -3353.8077      20.087413     -3333.7203      22620.132      5703.8719    
    449000   295.60388     -3353.8816      19.1049       -3334.7767      20179.699      5703.8719    
    450000   306.59028     -3353.6422      19.814952     -3333.8272      20415.57       5703.8719    
    451000   316.49361     -3354.1659      20.455005     -3333.7109      21429.293      5703.8719    
    452000   301.238       -3353.954       19.469034     -3334.4849      19867.482      5703.8719    
    453000   287.98257     -3353.8955      18.612335     -3335.2832      19502.206      5703.8719    
    454000   290.1913      -3354.1429      18.755085     -3335.3878      19146.355      5703.8719    
    455000   302.34095     -3354.0655      19.540318     -3334.5251      20303.327      5703.8719    
    456000   307.59691     -3353.6929      19.880011     -3333.8129      21241.394      5703.8719    
    457000   328.46041     -3353.3135      21.22842      -3332.085       21538.099      5703.8719    
    458000   319.0951      -3353.5817      20.623139     -3332.9585      21114.026      5703.8719    
    459000   296.26884     -3353.3961      19.147877     -3334.2483      18150.952      5703.8719    
    460000   276.21832     -3352.0959      17.85201      -3334.2439      19637.843      5703.8719    
    461000   306.98649     -3354.9036      19.840559     -3335.063       19002.969      5703.8719    
    462000   297.1908      -3353.3676      19.207463     -3334.1602      20680.921      5703.8719    
    463000   302.74944     -3352.5479      19.566718     -3332.9812      20596.15       5703.8719    
    464000   287.35148     -3352.5352      18.571547     -3333.9637      20237.359      5703.8719    
    465000   314.98999     -3354.3642      20.357826     -3334.0064      22893.942      5703.8719    
    466000   310.47423     -3355.1811      20.065972     -3335.1152      18295.712      5703.8719    
    467000   293.60471     -3353.4648      18.975694     -3334.4891      21129.566      5703.8719    
    468000   315.81068     -3352.6659      20.410867     -3332.255       20405.595      5703.8719    
    469000   311.3697      -3352.721       20.123846     -3332.5971      21850.793      5703.8719    
    470000   291.21486     -3353.8027      18.821237     -3334.9815      18760.564      5703.8719    
    471000   307.32829     -3353.4187      19.86265      -3333.5561      21945.415      5703.8719    
    472000   306.1734      -3353.6121      19.788009     -3333.8241      22447.83       5703.8719    
    473000   286.83627     -3352.9648      18.538249     -3334.4266      22371.867      5703.8719    
    474000   305.19606     -3352.6758      19.724843     -3332.9509      22912.495      5703.8719    
    475000   301.58812     -3351.5852      19.491662     -3332.0936      23595.522      5703.8719    
    476000   294.92659     -3353.1372      19.061127     -3334.076       23525.616      5703.8719    
    477000   289.67523     -3353.4158      18.721731     -3334.6941      18068.224      5703.8719    
    478000   302.96976     -3354.7411      19.580958     -3335.1602      19273.476      5703.8719    
    479000   296.54913     -3353.3158      19.165992     -3334.1498      22007.566      5703.8719    
    480000   296.53758     -3352.2737      19.165245     -3333.1084      21504.631      5703.8719    
    481000   296.83871     -3352.8982      19.184708     -3333.7135      21161.699      5703.8719    
    482000   309.37285     -3353.8065      19.99479      -3333.8118      23394.073      5703.8719    
    483000   299.12237     -3354.722       19.3323       -3335.3897      18753.393      5703.8719    
    484000   295.96988     -3353.3006      19.128555     -3334.1721      23343.489      5703.8719    
    485000   308.41624     -3353.8178      19.932964     -3333.8848      22027.963      5703.8719    
    486000   328.54055     -3352.3078      21.2336       -3331.0742      22960.467      5703.8719    
    487000   285.75418     -3353.4071      18.468313     -3334.9388      22992.734      5703.8719    
    488000   289.30202     -3354.5146      18.69761      -3335.817       21275.762      5703.8719    
    489000   304.8569      -3355.6281      19.702924     -3335.9252      20173.249      5703.8719    
    490000   303.45795     -3353.2317      19.61251      -3333.6192      23077.571      5703.8719    
    491000   285.29815     -3353.4156      18.43884      -3334.9768      22035.963      5703.8719    
    492000   301.73813     -3353.9692      19.501357     -3334.4678      20690.463      5703.8719    
    493000   313.01678     -3353.3709      20.230297     -3333.1406      22912.715      5703.8719    
    494000   309.80744     -3352.9492      20.022877     -3332.9264      22177.061      5703.8719    
    495000   308.97178     -3354.605       19.968869     -3334.6361      20207.636      5703.8719    
    496000   279.76386     -3353.6643      18.081158     -3335.5832      19863.964      5703.8719    
    497000   279.05387     -3352.8527      18.035272     -3334.8174      22404.44       5703.8719    
    498000   316.20644     -3351.2376      20.436445     -3330.8012      24848.887      5703.8719    
    499000   302.51967     -3354.2373      19.551868     -3334.6854      20003.663      5703.8719    
    500000   293.84724     -3353.5293      18.991368     -3334.5379      22988          5703.8719    
Loop time of 15669.2 on 1 procs for 500000 steps with 501 atoms

Performance: 1.379 ns/day, 17.410 hours/ns, 31.910 timesteps/s, 15.987 katom-step/s
99.1% CPU use with 1 MPI tasks x 1 OpenMP threads

MPI task timing breakdown:
Section |  min time  |  avg time  |  max time  |%varavg| %total
---------------------------------------------------------------
Pair    | 15598      | 15598      | 15598      |   0.0 | 99.55
Neigh   | 0.090047   | 0.090047   | 0.090047   |   0.0 |  0.00
Comm    | 21.224     | 21.224     | 21.224     |   0.0 |  0.14
Output  | 0.76614    | 0.76614    | 0.76614    |   0.0 |  0.00
Modify  | 27.972     | 27.972     | 27.972     |   0.0 |  0.18
Other   |            | 20.88      |            |       |  0.13

Nlocal:            501 ave         501 max         501 min
Histogram: 1 0 0 0 0 0 0 0 0 0
Nghost:           2035 ave        2035 max        2035 min
Histogram: 1 0 0 0 0 0 0 0 0 0
Neighs:              0 ave           0 max           0 min
Histogram: 1 0 0 0 0 0 0 0 0 0
FullNghs:        66398 ave       66398 max       66398 min
Histogram: 1 0 0 0 0 0 0 0 0 0

Total # of neighbors = 66398
Ave neighs/atom = 132.53094
Neighbor list builds = 229
Dangerous builds = 0
### Phase 2: Production 750 ps at 300 K ###
Setting up Verlet run ...
  Unit style    : metal
  Current step  : 500000
  Time step     : 0.0005
WARNING: Fix STORE/ATOM not compatible with sending data in Kokkos communication (src/KOKKOS/comm_kokkos.cpp:842)
WARNING: Fix with atom-based arrays not compatible with sending data in Kokkos communication, switching to legacy exchange/border communication (src/KOKKOS/comm_kokkos.cpp:849)
WARNING: Fix STORE/ATOM not (yet) compatible with Kokkos sorting on device (src/KOKKOS/atom_kokkos.cpp:219)
WARNING: Fix with atom-based arrays not (yet) compatible with Kokkos sorting on device, switching to legacy host sorting (src/KOKKOS/atom_kokkos.cpp:225)
Per MPI rank memory allocation (min/avg/max) = 88.92 | 88.92 | 88.92 Mbytes
   Step          Temp          PotEng         KinEng         TotEng         Press          Volume    
    500000   293.84724     -3353.5293      18.991368     -3334.5379      22988          5703.8719    
    501000   301.18752     -3353.7341      19.465771     -3334.2684      19897.163      5703.8719    
    502000   321.05484     -3352.5134      20.749797     -3331.7636      23177.341      5703.8719    
    503000   299.9951      -3352.8261      19.388705     -3333.4373      22796.216      5703.8719    
    504000   309.65496     -3354.1266      20.013022     -3334.1136      17540.496      5703.8719    
    505000   299.71391     -3354.518       19.370532     -3335.1475      19249.599      5703.8719    
    506000   309.10326     -3354.1345      19.977366     -3334.1571      19739.44       5703.8719    
    507000   314.12344     -3354.3975      20.301821     -3334.0957      21444.997      5703.8719    
    508000   311.15535     -3354.5189      20.109993     -3334.4089      19402.737      5703.8719    
    509000   305.21599     -3353.6692      19.726132     -3333.9431      21562.143      5703.8719    
    510000   314.074       -3353.4138      20.298625     -3333.1152      20875.767      5703.8719    
    511000   304.03215     -3353.8359      19.64962      -3334.1863      19405.299      5703.8719    
    512000   284.43793     -3354.047       18.383244     -3335.6637      19860.472      5703.8719    
    513000   284.09025     -3354.3539      18.360773     -3335.9931      21166.565      5703.8719    
    514000   319.04169     -3354.3234      20.619688     -3333.7038      21660.963      5703.8719    
    515000   303.69635     -3352.726       19.627917     -3333.0981      23919.188      5703.8719    
    516000   316.16027     -3353.8331      20.433461     -3333.3996      22902.634      5703.8719    
    517000   291.71768     -3353.4073      18.853735     -3334.5536      20900.819      5703.8719    
    518000   289.6996      -3353.6626      18.723306     -3334.9393      24020.388      5703.8719    
    519000   294.94226     -3353.3696      19.06214      -3334.3074      22969.44       5703.8719    
    520000   303.92491     -3354.8995      19.642689     -3335.2568      21452.593      5703.8719    
    521000   315.48543     -3354.2087      20.389846     -3333.8188      21564.46       5703.8719    
    522000   317.88207     -3353.1411      20.544741     -3332.5964      21380.525      5703.8719    
    523000   310.19716     -3353.8156      20.048065     -3333.7675      25368.077      5703.8719    
    524000   302.62151     -3354.0018      19.55845      -3334.4434      19412.075      5703.8719    
    525000   298.15466     -3354.4267      19.269757     -3335.1569      21978.733      5703.8719    
    526000   282.6875      -3353.6253      18.270114     -3335.3551      21581.558      5703.8719    
    527000   313.17858     -3354.4987      20.240754     -3334.2579      21168.001      5703.8719    
    528000   307.5729      -3353.5061      19.878459     -3333.6276      23343.419      5703.8719    
    529000   305.6819      -3353.9372      19.756243     -3334.181       22048.494      5703.8719    
    530000   304.094       -3354.9714      19.653617     -3335.3178      19403.276      5703.8719    
    531000   304.74321     -3355.401       19.695576     -3335.7054      20256.419      5703.8719    
    532000   300.82773     -3352.9966      19.442518     -3333.5541      21582.273      5703.8719    
    533000   287.59665     -3352.573       18.587392     -3333.9857      22774.192      5703.8719    
    534000   299.06497     -3354.298       19.328591     -3334.9694      21459.489      5703.8719    
    535000   286.76312     -3354.5254      18.533521     -3335.9918      21139.845      5703.8719    
    536000   282.44774     -3353.6546      18.254618     -3335.3999      20648.131      5703.8719    
    537000   293.97818     -3353.7472      18.999831     -3334.7473      23039.95       5703.8719    
    538000   322.34102     -3353.3146      20.832924     -3332.4817      20166.045      5703.8719    
    539000   303.55064     -3352.2799      19.6185       -3332.6614      24543.927      5703.8719    
    540000   301.27758     -3353.8946      19.471592     -3334.423       20514.668      5703.8719    
    541000   302.48058     -3354.0171      19.549342     -3334.4677      22830.03       5703.8719    
    542000   309.59031     -3353.7121      20.008844     -3333.7033      21518.945      5703.8719    
    543000   319.1688      -3352.823       20.627903     -3332.1951      22315.317      5703.8719    
    544000   297.71836     -3352.5337      19.241559     -3333.2922      18881.973      5703.8719    
    545000   293.21257     -3353.4981      18.95035      -3334.5478      20814.158      5703.8719    
    546000   305.69171     -3353.5999      19.756877     -3333.843       20550.791      5703.8719    
    547000   314.47204     -3352.8263      20.324351     -3332.5019      22769.685      5703.8719    
    548000   310.95093     -3353.2913      20.096781     -3333.1945      22488.764      5703.8719    
    549000   288.24228     -3353.4136      18.62912      -3334.7844      23623.771      5703.8719    
    550000   300.5832      -3353.3984      19.426714     -3333.9717      22551.172      5703.8719    
    551000   304.81645     -3352.9625      19.700309     -3333.2622      21365.489      5703.8719    
    552000   301.50752     -3354.2584      19.486453     -3334.7719      19289.237      5703.8719    
    553000   290.74801     -3353.4246      18.791065     -3334.6335      20176.724      5703.8719    
    554000   302.14901     -3353.4767      19.527912     -3333.9488      20757.462      5703.8719    
    555000   320.5986      -3352.6908      20.720311     -3331.9705      22979.725      5703.8719    
    556000   302.4996      -3354.3838      19.550571     -3334.8332      20866.868      5703.8719    
    557000   290.62017     -3353.1846      18.782803     -3334.4018      20925.012      5703.8719    
    558000   325.86584     -3352.5649      21.060733     -3331.5042      20680.836      5703.8719    
    559000   298.82202     -3353.0939      19.312889     -3333.781       21180.596      5703.8719    
    560000   304.67324     -3354.886       19.691053     -3335.1949      18261.219      5703.8719    
    561000   292.95353     -3353.7428      18.933608     -3334.8092      20068.26       5703.8719    
    562000   288.95057     -3352.8191      18.674896     -3334.1442      19647.517      5703.8719    
    563000   302.11222     -3352.9165      19.525535     -3333.391       22647.855      5703.8719    
    564000   294.2324      -3353.6801      19.016262     -3334.6638      21154.996      5703.8719    
    565000   302.00037     -3355.1567      19.518306     -3335.6384      20169.228      5703.8719    
    566000   289.78123     -3353.8163      18.728582     -3335.0877      23131.704      5703.8719    
    567000   303.52192     -3353.7561      19.616644     -3334.1394      21968.232      5703.8719    
    568000   297.53523     -3352.3869      19.229723     -3333.1571      22425.864      5703.8719    
    569000   307.99395     -3353.8884      19.905671     -3333.9828      21986.146      5703.8719    
    570000   292.78378     -3354.1978      18.922637     -3335.2752      20987.041      5703.8719    
    571000   291.38513     -3354.3027      18.832242     -3335.4705      22587.547      5703.8719    
    572000   289.42053     -3352.486       18.70527      -3333.7808      22630.117      5703.8719    
    573000   303.71206     -3353.5524      19.628933     -3333.9235      21038.56       5703.8719    
    574000   293.00231     -3354.1629      18.936761     -3335.2262      21941.617      5703.8719    
    575000   290.09245     -3353.1358      18.748696     -3334.3871      22386.02       5703.8719    
    576000   289.2984      -3352.3841      18.697377     -3333.6867      23582.143      5703.8719    
    577000   284.22259     -3353.5111      18.369327     -3335.1418      21657.931      5703.8719    
    578000   278.9816      -3354.738       18.030601     -3336.7074      19463.87       5703.8719    
    579000   306.97212     -3353.1642      19.839631     -3333.3246      22144.614      5703.8719    
    580000   312.05623     -3352.7727      20.168217     -3332.6045      21751.333      5703.8719    
    581000   294.52502     -3353.0842      19.035173     -3334.049       20589.441      5703.8719    
    582000   300.6862      -3353.8734      19.433371     -3334.44        22240.298      5703.8719    
    583000   313.78098     -3353.4949      20.279687     -3333.2153      23953.373      5703.8719    
    584000   321.84421     -3353.9267      20.800815     -3333.1259      22548.222      5703.8719    
    585000   304.02379     -3353.5704      19.64908      -3333.9213      22124.316      5703.8719    
    586000   289.82085     -3353.4984      18.731143     -3334.7672      21060.978      5703.8719    
    587000   295.02682     -3354.4111      19.067605     -3335.3435      17822.015      5703.8719    
    588000   287.82259     -3353.4396      18.601995     -3334.8376      21738.67       5703.8719    
    589000   311.99243     -3354.7864      20.164093     -3334.6223      19485.025      5703.8719    
    590000   308.4394      -3355.2325      19.934461     -3335.298       21381.138      5703.8719    
    591000   313.35994     -3353.8428      20.252476     -3333.5904      21902.609      5703.8719    
    592000   294.65363     -3352.9795      19.043486     -3333.936       20570.715      5703.8719    
    593000   286.93475     -3353.2396      18.544613     -3334.695       22195.304      5703.8719    
    594000   277.9477      -3354.6043      17.96378      -3336.6405      19098.102      5703.8719    
    595000   317.00987     -3353.6813      20.488371     -3333.193       22519.713      5703.8719    
    596000   309.38586     -3353.5613      19.99563      -3333.5657      21048.933      5703.8719    
    597000   283.92398     -3353.9117      18.350028     -3335.5617      19973.019      5703.8719    
    598000   287.60967     -3354.0754      18.588234     -3335.4872      19837.708      5703.8719    
    599000   317.22905     -3352.7079      20.502536     -3332.2054      23396.628      5703.8719    
    600000   306.99047     -3353.9216      19.840817     -3334.0808      21685.16       5703.8719    
    601000   291.56961     -3353.5455      18.844165     -3334.7013      22008.704      5703.8719    
    602000   292.56927     -3354.1372      18.908773     -3335.2284      21927.129      5703.8719    
    603000   287.57315     -3353.5821      18.585874     -3334.9962      22152.788      5703.8719    
    604000   304.54819     -3353.3661      19.682972     -3333.6832      19128.821      5703.8719    
    605000   293.28914     -3353.4146      18.955298     -3334.4594      23422.861      5703.8719    
    606000   293.29465     -3353.9766      18.955655     -3335.021       20167.239      5703.8719    
    607000   307.31019     -3353.7798      19.86148      -3333.9183      20763.369      5703.8719    
    608000   287.4455      -3352.9922      18.577624     -3334.4145      24326.106      5703.8719    
    609000   279.02527     -3353.9839      18.033423     -3335.9504      20425.432      5703.8719    
    610000   299.29921     -3354.4881      19.34373      -3335.1444      21024.348      5703.8719    
    611000   303.48478     -3353.1055      19.614244     -3333.4913      22629.932      5703.8719    
    612000   293.20841     -3352.9797      18.950081     -3334.0296      21062.779      5703.8719    
    613000   300.04008     -3353.0087      19.391612     -3333.6171      21291.023      5703.8719    
    614000   297.38544     -3353.6356      19.220042     -3334.4155      24220.258      5703.8719    
    615000   292.72911     -3353.6978      18.919103     -3334.7787      21180.849      5703.8719    
    616000   317.36124     -3352.6408      20.51108      -3332.1298      24208.582      5703.8719    
    617000   330.6277      -3354.5799      21.368492     -3333.2114      22654.344      5703.8719    
    618000   303.31312     -3353.9636      19.603149     -3334.3604      18254.97       5703.8719    
    619000   279.71817     -3354.6171      18.078205     -3336.5389      20982.202      5703.8719    
    620000   309.64075     -3353.3966      20.012104     -3333.3845      20651.421      5703.8719    
    621000   302.92354     -3352.5009      19.57797      -3332.923       23402.689      5703.8719    
    622000   305.70422     -3354.0584      19.757686     -3334.3007      21821.826      5703.8719    
    623000   293.01659     -3353.5976      18.937683     -3334.66        22884.742      5703.8719    
    624000   305.91467     -3353.6112      19.771287     -3333.8399      21262.187      5703.8719    
    625000   300.4205      -3352.8542      19.416199     -3333.438       23117.047      5703.8719    
    626000   292.21185     -3354.3692      18.885673     -3335.4835      21796.901      5703.8719    
    627000   300.59364     -3354.87        19.427389     -3335.4426      20890.517      5703.8719    
    628000   293.6303      -3353.654       18.977347     -3334.6767      21423.492      5703.8719    
    629000   307.15403     -3353.671       19.851387     -3333.8196      21614.127      5703.8719    
    630000   301.66328     -3352.9997      19.496519     -3333.5032      21406.96       5703.8719    
    631000   286.64234     -3352.9626      18.525715     -3334.4369      21675.372      5703.8719    
    632000   302.58484     -3353.382       19.55608      -3333.8259      21693.954      5703.8719    
    633000   337.09545     -3353.26        21.786504     -3331.4735      23004.547      5703.8719    
    634000   297.66327     -3352.761       19.237998     -3333.523       23838.756      5703.8719    
    635000   262.49444     -3354.9821      16.965035     -3338.0171      19263.445      5703.8719    
    636000   317.7834      -3353.9552      20.538364     -3333.4168      20735.219      5703.8719    
    637000   293.66613     -3353.3291      18.979663     -3334.3494      20797.66       5703.8719    
    638000   287.96717     -3353.4466      18.611339     -3334.8353      21068.099      5703.8719    
    639000   297.56237     -3352.9624      19.231477     -3333.731       22315.746      5703.8719    
    640000   314.10981     -3353.7657      20.30094      -3333.4647      20340.99       5703.8719    
    641000   305.20189     -3353.8071      19.725221     -3334.0819      19568.523      5703.8719    
    642000   295.28136     -3354.175       19.084055     -3335.0909      20620.979      5703.8719    
    643000   281.53417     -3353.7776      18.195574     -3335.5821      19763.732      5703.8719    
    644000   313.07365     -3354.3493      20.233972     -3334.1153      20172.337      5703.8719    
    645000   292.29124     -3353.2423      18.890804     -3334.3515      21717.797      5703.8719    
    646000   287.88133     -3354.1236      18.605791     -3335.5178      21098.554      5703.8719    
    647000   300.57341     -3354.1565      19.426081     -3334.7304      21615.283      5703.8719    
    648000   303.35996     -3353.4491      19.606176     -3333.8429      21025.389      5703.8719    
    649000   294.02152     -3351.5174      19.002632     -3332.5148      20974.089      5703.8719    
    650000   304.18504     -3353.0622      19.659501     -3333.4027      20359.123      5703.8719    
    651000   297.44396     -3352.996       19.223825     -3333.7721      23180.193      5703.8719    
    652000   299.2647      -3354.4599      19.341499     -3335.1184      21745.386      5703.8719    
    653000   279.86017     -3354.009       18.087383     -3335.9217      22774.177      5703.8719    
    654000   297.96922     -3353.4784      19.257772     -3334.2206      18919.609      5703.8719    
    655000   300.38079     -3352.5719      19.413632     -3333.1583      22843.436      5703.8719    
    656000   306.71419     -3353.4214      19.82296      -3333.5984      22340.404      5703.8719    
    657000   295.62628     -3353.8492      19.106348     -3334.7428      22285.806      5703.8719    
    658000   283.18302     -3353.2321      18.302139     -3334.9299      19447.635      5703.8719    
    659000   286.8008      -3353.2496      18.535956     -3334.7137      20857.37       5703.8719    
    660000   312.88715     -3353.5759      20.221919     -3333.354       20498.038      5703.8719    
    661000   297.99143     -3351.9359      19.259208     -3332.6767      22826.169      5703.8719    
    662000   305.2848      -3353.4908      19.730579     -3333.7603      21145.858      5703.8719    
    663000   293.68756     -3353.9196      18.981048     -3334.9386      21982.525      5703.8719    
    664000   293.69501     -3353.7842      18.98153      -3334.8027      21562.928      5703.8719    
    665000   310.59994     -3352.9871      20.074097     -3332.913       22678.417      5703.8719    
    666000   304.41074     -3352.5477      19.674089     -3332.8736      23576.383      5703.8719    
    667000   307.31104     -3353.0976      19.861535     -3333.236       22328.315      5703.8719    
    668000   288.76423     -3353.575       18.662853     -3334.9122      19286.795      5703.8719    
    669000   298.0288      -3354.5929      19.261623     -3335.3313      18694.374      5703.8719    
    670000   296.53725     -3353.4466      19.165224     -3334.2814      22149.238      5703.8719    
    671000   292.59665     -3352.2975      18.910543     -3333.387       21558.991      5703.8719    
    672000   298.40751     -3353.5083      19.286099     -3334.2222      20479.238      5703.8719    
    673000   294.47923     -3353.4271      19.032214     -3334.3948      20779.309      5703.8719    
    674000   300.13494     -3352.4622      19.397743     -3333.0644      22037.541      5703.8719    
    675000   308.59097     -3354.0612      19.944257     -3334.1169      20785.346      5703.8719    
    676000   292.44068     -3354.0041      18.900462     -3335.1037      21861.112      5703.8719    
    677000   287.00039     -3353.9345      18.548856     -3335.3857      20649.678      5703.8719    
    678000   296.52833     -3353.1106      19.164648     -3333.9459      19116.58       5703.8719    
    679000   295.75811     -3352.4714      19.114868     -3333.3565      20580.892      5703.8719    
    680000   302.33092     -3353.5841      19.53967      -3334.0445      20549.201      5703.8719    
    681000   292.25764     -3353.5726      18.888632     -3334.6839      20968.458      5703.8719    
    682000   295.85945     -3353.8327      19.121418     -3334.7113      20924.017      5703.8719    
    683000   288.37156     -3352.9264      18.637475     -3334.289       22972.235      5703.8719    
    684000   300.26208     -3352.8983      19.40596      -3333.4923      20591.526      5703.8719    
    685000   301.99412     -3353.231       19.517902     -3333.7131      20246.2        5703.8719    
    686000   295.54323     -3353.9414      19.10098      -3334.8405      23801.021      5703.8719    
    687000   292.47785     -3353.9828      18.902864     -3335.0799      19341.746      5703.8719    
    688000   317.8757      -3354.0104      20.54433      -3333.4661      21344.771      5703.8719    
    689000   327.24492     -3353.0651      21.149863     -3331.9152      23010.316      5703.8719    
    690000   280.3648      -3353.9485      18.119998     -3335.8285      22002.546      5703.8719    
    691000   287.94926     -3353.1597      18.610181     -3334.5495      21775.48       5703.8719    
    692000   290.39086     -3352.6311      18.767983     -3333.8631      22653.988      5703.8719    
    693000   314.86423     -3351.2778      20.349698     -3330.9281      25043.009      5703.8719    
    694000   298.53281     -3354.0258      19.294197     -3334.7316      22051.428      5703.8719    
    695000   291.49174     -3354.3306      18.839132     -3335.4914      21852.004      5703.8719    
    696000   286.16406     -3354.0444      18.494804     -3335.5496      20766.125      5703.8719    
    697000   306.08229     -3353.559       19.78212      -3333.7769      20830.027      5703.8719    
    698000   320.87764     -3353.4355      20.738345     -3332.6972      20164.813      5703.8719    
    699000   310.76569     -3353.7739      20.084809     -3333.6891      19520.385      5703.8719    
    700000   286.68659     -3353.0628      18.528575     -3334.5342      21683.701      5703.8719    
    701000   302.24188     -3354.2018      19.533915     -3334.6678      20768.644      5703.8719    
    702000   315.20054     -3354.8285      20.371434     -3334.457       18259.88       5703.8719    
    703000   300.77389     -3352.6108      19.439038     -3333.1717      20851.404      5703.8719    
    704000   295.87074     -3352.2565      19.122147     -3333.1343      21378.549      5703.8719    
    705000   312.50152     -3354.4855      20.196996     -3334.2885      20597.807      5703.8719    
    706000   282.77036     -3352.5724      18.275469     -3334.297       20598.363      5703.8719    
    707000   310.75143     -3352.8677      20.083887     -3332.7838      21860.75       5703.8719    
    708000   301.25083     -3353.2005      19.469863     -3333.7306      21430.674      5703.8719    
    709000   296.29134     -3353.3265      19.149331     -3334.1772      20599.991      5703.8719    
    710000   292.82105     -3353.2893      18.925046     -3334.3642      22622.649      5703.8719    
    711000   303.33597     -3354.1111      19.604626     -3334.5065      21517.061      5703.8719    
    712000   298.90937     -3353.1409      19.318534     -3333.8224      22624.386      5703.8719    
    713000   321.3407      -3352.8592      20.768273     -3332.091       21378.378      5703.8719    
    714000   288.72643     -3353.3102      18.66041      -3334.6498      21991.008      5703.8719    
    715000   277.58318     -3353.36        17.940221     -3335.4198      20626.595      5703.8719    
    716000   297.15241     -3354.2687      19.204982     -3335.0637      22846.416      5703.8719    
    717000   298.22574     -3353.204       19.274351     -3333.9296      21106.72       5703.8719    
    718000   291.90879     -3352.6722      18.866086     -3333.8062      22695.279      5703.8719    
    719000   299.79727     -3354.0069      19.375919     -3334.631       20104.383      5703.8719    
    720000   291.55709     -3353.5639      18.843356     -3334.7206      22340.368      5703.8719    
    721000   284.8268      -3353.4667      18.408377     -3335.0583      17848.799      5703.8719    
    722000   302.61617     -3353.1941      19.558105     -3333.636       23569.044      5703.8719    
    723000   299.24624     -3353.2876      19.340306     -3333.9473      21405.898      5703.8719    
    724000   304.14908     -3354.4254      19.657177     -3334.7682      19413.785      5703.8719    
    725000   290.79459     -3353.7984      18.794076     -3335.0044      19778.851      5703.8719    
    726000   285.7744      -3353.2864      18.46962      -3334.8168      22345.209      5703.8719    
    727000   293.97506     -3352.8906      18.999629     -3333.891       21799.706      5703.8719    
    728000   312.37759     -3353.4945      20.188987     -3333.3056      22103.675      5703.8719    
    729000   305.25333     -3353.8429      19.728545     -3334.1144      19452.796      5703.8719    
    730000   309.43494     -3353.5315      19.998802     -3333.5327      21068.765      5703.8719    
    731000   305.76001     -3354.0917      19.761291     -3334.3304      20628.236      5703.8719    
    732000   290.38145     -3354.3714      18.767374     -3335.604       18097.185      5703.8719    
    733000   302.67872     -3354.4778      19.562148     -3334.9156      21652.62       5703.8719    
    734000   297.21428     -3353.0543      19.20898      -3333.8453      22513.485      5703.8719    
    735000   307.87737     -3354.7639      19.898137     -3334.8657      20526.235      5703.8719    
    736000   316.76626     -3354.0447      20.472626     -3333.5721      22780.66       5703.8719    
    737000   303.23153     -3353.269       19.597876     -3333.6711      23129.553      5703.8719    
    738000   285.51413     -3353.4352      18.452799     -3334.9824      20580.809      5703.8719    
    739000   292.1468      -3355.1536      18.881469     -3336.2721      19343.7        5703.8719    
    740000   320.21976     -3353.7437      20.695827     -3333.0478      20546.385      5703.8719    
    741000   327.33091     -3354.5466      21.155421     -3333.3912      19168.339      5703.8719    
    742000   298.52692     -3353.6279      19.293817     -3334.3341      20984.004      5703.8719    
    743000   295.08093     -3353.9077      19.071102     -3334.8366      20151.522      5703.8719    
    744000   309.3984      -3353.5143      19.996441     -3333.5179      21808.11       5703.8719    
    745000   311.10399     -3353.0135      20.106673     -3332.9068      22006.871      5703.8719    
    746000   313.10189     -3353.502       20.235798     -3333.2662      21231.709      5703.8719    
    747000   308.73612     -3354.0475      19.953638     -3334.0939      19920.188      5703.8719    
    748000   304.06406     -3353.9708      19.651683     -3334.3191      18169.402      5703.8719    
    749000   309.1302      -3353.8         19.979107     -3333.8209      20787.817      5703.8719    
    750000   318.06032     -3353.7085      20.556262     -3333.1522      19886.672      5703.8719    
    751000   330.29202     -3353.543       21.346797     -3332.1962      20600.825      5703.8719    
    752000   303.68468     -3354.4024      19.627163     -3334.7752      21205.931      5703.8719    
    753000   277.67325     -3353.0586      17.946042     -3335.1125      21792.654      5703.8719    
    754000   287.77233     -3353.9027      18.598747     -3335.304       21065.306      5703.8719    
    755000   301.3492      -3354.7949      19.476221     -3335.3187      17816.756      5703.8719    
    756000   289.89546     -3352.7121      18.735965     -3333.9761      20379.008      5703.8719    
    757000   324.27344     -3354.3358      20.957816     -3333.378       22088.345      5703.8719    
    758000   296.27289     -3353.9009      19.148138     -3334.7528      18228.235      5703.8719    
    759000   310.86057     -3352.1208      20.090941     -3332.0298      22092.59       5703.8719    
    760000   315.1145      -3353.1198      20.365873     -3332.754       20482.905      5703.8719    
    761000   306.42082     -3353.3632      19.804        -3333.5592      19524.192      5703.8719    
    762000   302.90153     -3355.5921      19.576548     -3336.0156      16171.538      5703.8719    
    763000   325.95203     -3355.6614      21.066303     -3334.5951      19416.7        5703.8719    
    764000   282.26757     -3353.0152      18.242973     -3334.7723      19218.975      5703.8719    
    765000   317.20138     -3354.4932      20.500748     -3333.9924      19344.84       5703.8719    
    766000   303.03768     -3355.3073      19.585347     -3335.722       17960.033      5703.8719    
    767000   282.84956     -3354.2563      18.280588     -3335.9757      19281.965      5703.8719    
    768000   296.99285     -3354.7078      19.194669     -3335.5131      16533.137      5703.8719    
    769000   299.0093      -3354.3039      19.324993     -3334.9789      19257.357      5703.8719    
    770000   299.14189     -3354.798       19.333562     -3335.4644      18549.947      5703.8719    
    771000   311.01933     -3353.7938      20.101202     -3333.6926      20286.408      5703.8719    
    772000   315.78077     -3353.7357      20.408934     -3333.3268      21345.115      5703.8719    
    773000   314.4263      -3354.5002      20.321394     -3334.1789      18001.422      5703.8719    
    774000   302.89878     -3354.6174      19.57637      -3335.041       18575.63       5703.8719    
    775000   288.8101      -3354.5968      18.665818     -3335.931       17848.288      5703.8719    
    776000   278.44873     -3355.4397      17.996162     -3337.4436      16697.197      5703.8719    
    777000   310.19783     -3354.5624      20.048108     -3334.5143      20438.151      5703.8719    
    778000   300.78401     -3353.1845      19.439692     -3333.7448      19120.863      5703.8719    
    779000   301.20291     -3352.217       19.466766     -3332.7502      22388.134      5703.8719    
    780000   289.17946     -3353.6179      18.689689     -3334.9282      18488.577      5703.8719    
    781000   303.83144     -3355.0225      19.636648     -3335.3859      18123.396      5703.8719    
    782000   297.85437     -3354.3464      19.25035      -3335.096       19178.304      5703.8719    
    783000   295.72035     -3355.1184      19.112428     -3336.006       19562.22       5703.8719    
    784000   295.84546     -3354.0005      19.120513     -3334.88        18672.082      5703.8719    
    785000   291.92936     -3353.2936      18.867416     -3334.4262      19500.857      5703.8719    
    786000   293.33927     -3353.6165      18.958538     -3334.658       19652.996      5703.8719    
    787000   285.58133     -3353.9959      18.457142     -3335.5388      16227.872      5703.8719    
    788000   279.50627     -3354.1271      18.064511     -3336.0626      19247.524      5703.8719    
    789000   298.16698     -3354.5592      19.270554     -3335.2886      17985.672      5703.8719    
    790000   312.38154     -3354.2823      20.189242     -3334.0931      22630.669      5703.8719    
    791000   301.77317     -3354.5027      19.503622     -3334.9991      16873.688      5703.8719    
    792000   296.48011     -3354.898       19.161531     -3335.7365      19456.06       5703.8719    
    793000   311.1672      -3354.8395      20.110759     -3334.7287      16908.737      5703.8719    
    794000   318.86658     -3354.3503      20.60837      -3333.7419      19846.277      5703.8719    
    795000   292.11235     -3354.4857      18.879242     -3335.6065      19309.599      5703.8719    
    796000   288.25121     -3353.9027      18.629697     -3335.273       19066.287      5703.8719    
    797000   297.3874      -3354.1795      19.220169     -3334.9593      18587.716      5703.8719    
    798000   317.92236     -3353.836       20.547345     -3333.2887      20857.849      5703.8719    
    799000   322.73755     -3354.443       20.858551     -3333.5844      18691.762      5703.8719    
    800000   306.92359     -3355.2438      19.836494     -3335.4073      19123.463      5703.8719    
    801000   301.59434     -3354.2836      19.492064     -3334.7915      19961.917      5703.8719    
    802000   320.96844     -3355.2292      20.744213     -3334.485       19040.522      5703.8719    
    803000   304.478       -3354.1683      19.678435     -3334.4898      19714.329      5703.8719    
    804000   302.18257     -3355.4245      19.530081     -3335.8944      20367.283      5703.8719    
    805000   303.01126     -3354.564       19.583639     -3334.9803      18283.486      5703.8719    
    806000   294.42887     -3357.5474      19.028959     -3338.5184      17029.415      5703.8719    
    807000   300.2396      -3355.7707      19.404507     -3336.3662      18896.964      5703.8719    
    808000   299.27466     -3354.7488      19.342143     -3335.4066      18112.356      5703.8719    
    809000   312.12626     -3355.962       20.172743     -3335.7892      17580.568      5703.8719    
    810000   285.2478      -3356.2482      18.435586     -3337.8127      16923.23       5703.8719    
    811000   308.21009     -3355.0105      19.919641     -3335.0908      19450.097      5703.8719    
    812000   305.56769     -3354.4696      19.748862     -3334.7208      19492.255      5703.8719    
    813000   316.0056      -3354.8291      20.423465     -3334.4056      17778.759      5703.8719    
    814000   320.71543     -3356.6084      20.727862     -3335.8805      17018.795      5703.8719    
    815000   294.93049     -3355.1219      19.061379     -3336.0605      17269.958      5703.8719    
    816000   296.73337     -3355.0903      19.177899     -3335.9124      18440.171      5703.8719    
    817000   309.87181     -3354.9362      20.027038     -3334.9092      21069.032      5703.8719    
    818000   293.02152     -3354.6852      18.938002     -3335.7472      19423.939      5703.8719    
    819000   295.96074     -3356.3696      19.127964     -3337.2417      16681.449      5703.8719    
    820000   286.86251     -3356.026       18.539944     -3337.4861      17621.515      5703.8719    
    821000   326.26637     -3355.357       21.086619     -3334.2704      19954.816      5703.8719    
    822000   299.49809     -3355.9031      19.356583     -3336.5466      19341.809      5703.8719    
    823000   297.92714     -3356.4032      19.255053     -3337.1481      20725.177      5703.8719    
    824000   304.6912      -3355.6495      19.692214     -3335.9573      18770.453      5703.8719    
    825000   309.96722     -3355.7487      20.033204     -3335.7155      19624.269      5703.8719    
    826000   305.44079     -3356.6476      19.74066      -3336.907       17472.316      5703.8719    
    827000   287.89099     -3354.8041      18.606416     -3336.1977      18048.411      5703.8719    
    828000   302.12291     -3355.1019      19.526226     -3335.5757      18488.962      5703.8719    
    829000   311.51053     -3354.964       20.132948     -3334.8311      20002.058      5703.8719    
    830000   294.51478     -3355.0513      19.034512     -3336.0168      19001.274      5703.8719    
    831000   313.11548     -3356.8002      20.236676     -3336.5635      18840.504      5703.8719    
    832000   299.80202     -3354.5557      19.376226     -3335.1795      19570.9        5703.8719    
    833000   290.4445      -3354.3542      18.771449     -3335.5827      18930.184      5703.8719    
    834000   294.07662     -3355.9675      19.006193     -3336.9613      19701.603      5703.8719    
    835000   301.27703     -3355.6589      19.471557     -3336.1874      18943.655      5703.8719    
    836000   308.07981     -3355.3375      19.911221     -3335.4263      19977.063      5703.8719    
    837000   309.87011     -3356.4059      20.026928     -3336.3789      19541.953      5703.8719    
    838000   307.51671     -3356.0846      19.874827     -3336.2098      16678.368      5703.8719    
    839000   313.7399      -3356.3149      20.277032     -3336.0379      18844.25       5703.8719    
    840000   311.13586     -3355.0359      20.108733     -3334.9272      17120.361      5703.8719    
    841000   319.0653      -3354.8492      20.621213     -3334.228       20313.731      5703.8719    
    842000   284.98063     -3354.7088      18.418319     -3336.2905      21013.214      5703.8719    
    843000   303.0503      -3356.3308      19.586163     -3336.7447      18013.059      5703.8719    
    844000   305.65356     -3354.8766      19.754412     -3335.1222      20614.26       5703.8719    
    845000   298.5802      -3355.4973      19.29726      -3336.2         19653.227      5703.8719    
    846000   298.78717     -3355.7077      19.310636     -3336.3971      18253.708      5703.8719    
    847000   282.45105     -3355.514       18.254832     -3337.2591      17559.232      5703.8719    
    848000   290.90936     -3355.0982      18.801493     -3336.2967      18262.638      5703.8719    
    849000   276.3105      -3356.5736      17.857967     -3338.7156      20161.382      5703.8719    
    850000   289.96861     -3355.1686      18.740692     -3336.4279      18731.878      5703.8719    
    851000   303.26788     -3355.4052      19.600225     -3335.805       16883.061      5703.8719    
    852000   297.91162     -3355.5394      19.25405      -3336.2853      19489.788      5703.8719    
    853000   297.81429     -3357.159       19.247759     -3337.9113      18443.182      5703.8719    
    854000   306.51736     -3355.5275      19.810239     -3335.7173      20056.058      5703.8719    
    855000   308.52535     -3355.291       19.940016     -3335.351       20301.738      5703.8719    
    856000   324.63276     -3355.7356      20.981039     -3334.7545      19105.907      5703.8719    
    857000   295.39456     -3355.6719      19.091372     -3336.5805      19741.44       5703.8719    
    858000   290.17581     -3355.5674      18.754084     -3336.8133      16771.872      5703.8719    
    859000   302.23907     -3355.2506      19.533733     -3335.7169      19593.412      5703.8719    
    860000   309.31005     -3354.7077      19.990731     -3334.717       19663.949      5703.8719    
    861000   299.55298     -3354.6438      19.360131     -3335.2836      19878.759      5703.8719    
    862000   303.6719      -3356.4694      19.626337     -3336.843       17227.527      5703.8719    
    863000   294.75763     -3356.1617      19.050207     -3337.1115      19235.143      5703.8719    
    864000   286.87683     -3355.1508      18.540871     -3336.6099      20043.848      5703.8719    
    865000   312.56365     -3355.46        20.201011     -3335.259       19198.331      5703.8719    
    866000   291.93342     -3357.6614      18.867678     -3338.7937      18140.601      5703.8719    
    867000   303.56045     -3355.8817      19.619134     -3336.2625      17101.333      5703.8719    
    868000   309.11137     -3355.429       19.97789      -3335.4511      17510.34       5703.8719    
    869000   299.59083     -3353.44        19.362577     -3334.0774      20671.776      5703.8719    
    870000   301.0763      -3355.0976      19.458583     -3335.639       18670.72       5703.8719    
    871000   303.33849     -3356.1858      19.604788     -3336.581       18921.86       5703.8719    
    872000   288.44805     -3355.2468      18.642419     -3336.6044      19906.13       5703.8719    
    873000   304.18603     -3356.1326      19.659565     -3336.4731      16681.702      5703.8719    
    874000   303.95385     -3355.8059      19.644559     -3336.1614      18227.613      5703.8719    
    875000   300.93323     -3355.3235      19.449337     -3335.8741      18565.763      5703.8719    
    876000   297.36687     -3356.1577      19.218842     -3336.9389      17403.077      5703.8719    
    877000   289.82223     -3355.0252      18.731231     -3336.294       17957.177      5703.8719    
    878000   304.78549     -3354.6187      19.698309     -3334.9204      18556.883      5703.8719    
    879000   304.87448     -3354.0614      19.70406      -3334.3574      18815.755      5703.8719    
    880000   299.65618     -3355.4251      19.366801     -3336.0583      18453.317      5703.8719    
    881000   299.42327     -3355.6446      19.351748     -3336.2929      19635.524      5703.8719    
    882000   301.91627     -3356.4499      19.512871     -3336.9371      18261.105      5703.8719    
    883000   296.90504     -3355.718       19.188994     -3336.529       20448.213      5703.8719    
    884000   290.64163     -3353.9156      18.78419      -3335.1314      20752.457      5703.8719    
    885000   297.11337     -3353.4063      19.202459     -3334.2038      20640.633      5703.8719    
    886000   303.0638      -3355.7608      19.587035     -3336.1738      18351.034      5703.8719    
    887000   296.89735     -3356.2659      19.188497     -3337.0774      19575.654      5703.8719    
    888000   315.98181     -3355.9112      20.421927     -3335.4893      18176.59       5703.8719    
    889000   320.70158     -3355.6067      20.726966     -3334.8797      20324.614      5703.8719    
    890000   302.91117     -3355.418       19.577171     -3335.8409      19347.189      5703.8719    
    891000   290.53803     -3356.2836      18.777494     -3337.5061      16322.262      5703.8719    
    892000   319.54583     -3356.9199      20.65227      -3336.2676      18065.182      5703.8719    
    893000   302.39008     -3355.0259      19.543493     -3335.4824      20508.406      5703.8719    
    894000   300.12771     -3355.852       19.397276     -3336.4547      19219.003      5703.8719    
    895000   289.22325     -3355.1968      18.69252      -3336.5043      18079.107      5703.8719    
    896000   297.24081     -3355.8249      19.210695     -3336.6142      18538.157      5703.8719    
    897000   310.74781     -3353.919       20.083654     -3333.8354      21270.362      5703.8719    
    898000   304.09725     -3354.9491      19.653827     -3335.2953      18146.077      5703.8719    
    899000   291.41184     -3354.8937      18.833969     -3336.0598      17685.188      5703.8719    
    900000   306.80583     -3356.3911      19.828883     -3336.5622      18999.897      5703.8719    
    901000   306.97274     -3355.6477      19.83967      -3335.808       19953.51       5703.8719    
    902000   309.44433     -3355.1427      19.999409     -3335.1433      19724.581      5703.8719    
    903000   295.64653     -3355.4951      19.107657     -3336.3874      20671.487      5703.8719    
    904000   286.96853     -3356.1595      18.546797     -3337.6127      17776.509      5703.8719    
    905000   278.80145     -3355.5905      18.018958     -3337.5716      18927.594      5703.8719    
    906000   288.42205     -3355.2018      18.640738     -3336.5611      20336.904      5703.8719    
    907000   306.79016     -3355.617       19.827871     -3335.7891      19148.433      5703.8719    
    908000   282.42028     -3355.798       18.252843     -3337.5452      19969.937      5703.8719    
    909000   275.34019     -3355.3406      17.795257     -3337.5454      18876.233      5703.8719    
    910000   290.24699     -3355.7746      18.758684     -3337.0159      16135.402      5703.8719    
    911000   308.9835      -3356.1014      19.969626     -3336.1318      18071.165      5703.8719    
    912000   319.69765     -3355.2848      20.662082     -3334.6228      17185.545      5703.8719    
    913000   308.08484     -3355.1944      19.911546     -3335.2829      18348.141      5703.8719    
    914000   295.7801      -3356.5023      19.116289     -3337.386       18300.518      5703.8719    
    915000   291.62669     -3355.6749      18.847854     -3336.827       18622.559      5703.8719    
    916000   303.35271     -3353.7689      19.605708     -3334.1632      21370.968      5703.8719    
    917000   301.04319     -3354.9114      19.456443     -3335.455       17609.424      5703.8719    
    918000   292.26962     -3355.5101      18.889407     -3336.6207      19404.502      5703.8719    
    919000   299.73324     -3355.5701      19.371781     -3336.1983      17695.486      5703.8719    
    920000   327.75267     -3356.2758      21.182679     -3335.0931      19126.392      5703.8719    
    921000   309.58615     -3354.8786      20.008575     -3334.87        19922.914      5703.8719    
    922000   285.26842     -3354.1732      18.436919     -3335.7362      18383.873      5703.8719    
    923000   291.56606     -3355.9626      18.843936     -3337.1187      17655.063      5703.8719    
    924000   288.69804     -3355.6966      18.658575     -3337.038       19325.774      5703.8719    
    925000   293.51234     -3354.6937      18.969724     -3335.724       17306.481      5703.8719    
    926000   319.0327      -3355.7831      20.619106     -3335.164       19048.371      5703.8719    
    927000   292.52509     -3354.5055      18.905918     -3335.5996      18763.763      5703.8719    
    928000   294.04206     -3355.6944      19.003959     -3336.6905      19527.187      5703.8719    
    929000   302.65592     -3356.8953      19.560674     -3337.3347      18583.707      5703.8719    
    930000   289.31539     -3356.6201      18.698475     -3337.9216      16560.411      5703.8719    
    931000   297.79971     -3355.8536      19.246817     -3336.6068      19878.589      5703.8719    
    932000   302.98703     -3355.3751      19.582074     -3335.7931      20572.153      5703.8719    
    933000   295.76423     -3355.0228      19.115264     -3335.9075      19716.786      5703.8719    
    934000   290.78415     -3355.9338      18.793401     -3337.1404      19307.738      5703.8719    
    935000   287.47808     -3355.8584      18.579729     -3337.2787      19963.415      5703.8719    
    936000   325.02047     -3354.105       21.006096     -3333.0989      20332.139      5703.8719    
    937000   315.32821     -3356.0704      20.379685     -3335.6907      18806.946      5703.8719    
    938000   270.41836     -3354.4489      17.477158     -3336.9718      19042.581      5703.8719    
    939000   288.8538      -3356.1506      18.668642     -3337.482       18785.039      5703.8719    
    940000   285.26583     -3356.6507      18.436751     -3338.214       18065.158      5703.8719    
    941000   308.71045     -3355.6575      19.951979     -3335.7055      20077.965      5703.8719    
    942000   324.21689     -3356.183       20.954161     -3335.2289      19004.532      5703.8719    
    943000   301.61008     -3355.3772      19.493081     -3335.8841      19835.76       5703.8719    
    944000   286.62456     -3355.4234      18.524566     -3336.8988      18569.568      5703.8719    
    945000   296.63499     -3355.44        19.171541     -3336.2684      18799.564      5703.8719    
    946000   298.75557     -3356.8648      19.308594     -3337.5562      16795.507      5703.8719    
    947000   283.65866     -3356.3877      18.332879     -3338.0548      18581.126      5703.8719    
    948000   294.00351     -3354.9878      19.001468     -3335.9863      19677.292      5703.8719    
    949000   289.14861     -3354.7826      18.687696     -3336.0949      20661.073      5703.8719    
    950000   296.52952     -3356.5552      19.164724     -3337.3905      19324.728      5703.8719    
    951000   303.02586     -3355.4061      19.584584     -3335.8215      20674.204      5703.8719    
    952000   312.52824     -3354.7798      20.198723     -3334.5811      20772.242      5703.8719    
    953000   309.136       -3354.7523      19.979482     -3334.7729      18236.575      5703.8719    
    954000   306.51095     -3355.8798      19.809825     -3336.07        17417.054      5703.8719    
    955000   302.01059     -3356.0494      19.518966     -3336.5305      18136.984      5703.8719    
    956000   304.3597      -3356.1307      19.670789     -3336.4599      20667.336      5703.8719    
    957000   324.03651     -3355.0987      20.942503     -3334.1562      20437.183      5703.8719    
    958000   318.73117     -3355.4764      20.599619     -3334.8767      20010.057      5703.8719    
    959000   328.31566     -3356.8521      21.219065     -3335.6331      19622.973      5703.8719    
    960000   311.37664     -3356.8069      20.124294     -3336.6826      19477.167      5703.8719    
    961000   287.99765     -3355.9396      18.613309     -3337.3263      18321.975      5703.8719    
    962000   306.90986     -3355.766       19.835606     -3335.9304      18165.226      5703.8719    
    963000   298.50285     -3354.9019      19.292261     -3335.6097      19779.986      5703.8719    
    964000   269.13536     -3354.5303      17.394238     -3337.1361      20789.636      5703.8719    
    965000   271.68593     -3355.4327      17.559081     -3337.8736      19994.833      5703.8719    
    966000   291.09621     -3355.1575      18.813569     -3336.344       18583.755      5703.8719    
    967000   302.56135     -3355.3302      19.554562     -3335.7757      18834.36       5703.8719    
    968000   312.83525     -3355.7581      20.218565     -3335.5396      18850.251      5703.8719    
    969000   284.33884     -3354.9895      18.37684      -3336.6127      18098.656      5703.8719    
    970000   290.23378     -3355.9353      18.75783      -3337.1775      19128.634      5703.8719    
    971000   289.80116     -3354.9831      18.72987      -3336.2532      20608.045      5703.8719    
    972000   318.83379     -3356.0316      20.606251     -3335.4253      20182.028      5703.8719    
    973000   313.3695      -3354.8731      20.253093     -3334.62        20519.011      5703.8719    
    974000   296.9193      -3354.952       19.189916     -3335.762       19544.751      5703.8719    
    975000   288.22494     -3355.307       18.627999     -3336.679       19453.814      5703.8719    
    976000   297.96401     -3355.6831      19.257436     -3336.4257      18023.947      5703.8719    
    977000   290.57975     -3355.927       18.780191     -3337.1468      19013.679      5703.8719    
    978000   288.21429     -3356.384       18.62731      -3337.7567      19390.611      5703.8719    
    979000   314.51054     -3356.0997      20.326839     -3335.7729      17782.636      5703.8719    
    980000   295.51958     -3355.8072      19.099452     -3336.7077      17575.02       5703.8719    
    981000   291.0855      -3356.2741      18.812877     -3337.4612      19631.627      5703.8719    
    982000   297.80017     -3356.366       19.246846     -3337.1192      16300.293      5703.8719    
    983000   289.18587     -3355.2864      18.690104     -3336.5963      19753.415      5703.8719    
    984000   305.94699     -3355.462       19.773376     -3335.6886      19985.628      5703.8719    
    985000   323.48538     -3355.1179      20.906884     -3334.211       20624.803      5703.8719    
    986000   302.10571     -3354.539       19.525114     -3335.0139      20376.625      5703.8719    
    987000   322.86343     -3356.5517      20.866687     -3335.685       17290.122      5703.8719    
    988000   288.30342     -3355.9182      18.633071     -3337.2851      18735.197      5703.8719    
    989000   308.12799     -3356.0164      19.914334     -3336.1021      18870.402      5703.8719    
    990000   327.1893      -3356.0974      21.146268     -3334.9511      16267.883      5703.8719    
    991000   323.49868     -3355.8537      20.907743     -3334.946       18855.888      5703.8719    
    992000   298.5153      -3355.492       19.293065     -3336.1989      19211.137      5703.8719    
    993000   291.8187      -3355.6007      18.860264     -3336.7405      19232.723      5703.8719    
    994000   290.5527      -3356.5257      18.778442     -3337.7473      16655.026      5703.8719    
    995000   306.38645     -3356.7529      19.801779     -3336.9511      17459.445      5703.8719    
    996000   295.52935     -3355.2717      19.100083     -3336.1717      17720.348      5703.8719    
    997000   322.05297     -3355.0584      20.814307     -3334.2441      18362.456      5703.8719    
    998000   306.09838     -3355.2373      19.78316      -3335.4541      19969.654      5703.8719    
    999000   289.37931     -3355.0038      18.702606     -3336.3012      19699.461      5703.8719    
   1000000   283.64931     -3356.3913      18.332276     -3338.059       18068.901      5703.8719    
   1001000   280.91178     -3355.5345      18.155349     -3337.3791      19905.174      5703.8719    
   1002000   291.89164     -3355.0872      18.864978     -3336.2222      18475.385      5703.8719    
   1003000   305.98414     -3355.7949      19.775777     -3336.0191      18984.769      5703.8719    
   1004000   298.29677     -3357.033       19.278942     -3337.754       19145.007      5703.8719    
   1005000   292.63949     -3356.5665      18.913311     -3337.6532      18849.083      5703.8719    
   1006000   306.36003     -3356.8383      19.800071     -3337.0382      17267.395      5703.8719    
   1007000   295.37605     -3356.0486      19.090176     -3336.9584      18239.83       5703.8719    
   1008000   292.95251     -3355.1891      18.933542     -3336.2556      18568.985      5703.8719    
   1009000   314.81588     -3355.3418      20.346573     -3334.9953      19085.956      5703.8719    
   1010000   312.71694     -3356.2689      20.210918     -3336.058       19540.318      5703.8719    
   1011000   307.047       -3356.2357      19.84447      -3336.3913      19042.094      5703.8719    
   1012000   301.96443     -3354.9932      19.515983     -3335.4772      19883.237      5703.8719    
   1013000   306.41619     -3355.1249      19.803701     -3335.3212      17779.467      5703.8719    
   1014000   308.51271     -3356.2354      19.939199     -3336.2962      17648.034      5703.8719    
   1015000   310.63188     -3356.3333      20.076161     -3336.2572      18393.232      5703.8719    
   1016000   302.85918     -3356.1324      19.573811     -3336.5586      19028.171      5703.8719    
   1017000   295.18129     -3356.4827      19.077588     -3337.4051      19046.794      5703.8719    
   1018000   271.64022     -3356.2816      17.556127     -3338.7255      19122.46       5703.8719    
   1019000   306.97124     -3355.4558      19.839574     -3335.6162      17735.915      5703.8719    
   1020000   297.23962     -3355.1209      19.210618     -3335.9102      19932.331      5703.8719    
   1021000   295.65024     -3355.6465      19.107897     -3336.5386      16892.918      5703.8719    
   1022000   284.18976     -3356.4651      18.367205     -3338.0979      18620.996      5703.8719    
   1023000   305.95857     -3356.5337      19.774124     -3336.7596      17726.518      5703.8719    
   1024000   288.95885     -3354.6951      18.675432     -3336.0197      18450.448      5703.8719    
   1025000   312.53611     -3355.3741      20.199231     -3335.1749      17294.373      5703.8719    
   1026000   282.70716     -3353.6043      18.271384     -3335.3329      21079.96       5703.8719    
   1027000   322.33415     -3357.2331      20.83248      -3336.4007      16946.255      5703.8719    
   1028000   301.31706     -3355.3596      19.474143     -3335.8854      20087.923      5703.8719    
   1029000   312.90058     -3354.8818      20.222787     -3334.659       19966.507      5703.8719    
   1030000   306.89904     -3355.4911      19.834907     -3335.6562      21151.173      5703.8719    
   1031000   296.3942      -3355.7722      19.155979     -3336.6162      18113.363      5703.8719    
   1032000   298.79516     -3356.81        19.311153     -3337.4989      17779.523      5703.8719    
   1033000   298.67996     -3355.4707      19.303707     -3336.167       18562.129      5703.8719    
   1034000   302.76985     -3354.9795      19.568038     -3335.4115      17962.144      5703.8719    
   1035000   300.94863     -3355.2272      19.450332     -3335.7768      17941.474      5703.8719    
   1036000   302.88545     -3356.6379      19.575509     -3337.0624      17981.418      5703.8719    
   1037000   281.21341     -3355.2265      18.174843     -3337.0517      19035.947      5703.8719    
   1038000   309.4794      -3355.6095      20.001676     -3335.6078      18380.877      5703.8719    
   1039000   299.77244     -3355.6489      19.374314     -3336.2746      19023.465      5703.8719    
   1040000   289.21793     -3355.2049      18.692176     -3336.5128      17396.256      5703.8719    
   1041000   293.11211     -3356.3764      18.943857     -3337.4325      18946.468      5703.8719    
   1042000   298.46629     -3356.0568      19.289898     -3336.7669      20026.723      5703.8719    
   1043000   295.28291     -3354.4654      19.084156     -3335.3813      19512.446      5703.8719    
   1044000   312.42832     -3354.9672      20.192265     -3334.7749      18942.843      5703.8719    
   1045000   299.58752     -3355.799       19.362363     -3336.4366      17869.34       5703.8719    
   1046000   292.70954     -3355.2656      18.917839     -3336.3478      19681.354      5703.8719    
   1047000   309.96355     -3355.1236      20.032967     -3335.0907      19148.427      5703.8719    
   1048000   301.1112      -3355.8255      19.460839     -3336.3647      18877.112      5703.8719    
   1049000   296.10179     -3356.5947      19.13708      -3337.4577      17495.61       5703.8719    
   1050000   284.98875     -3356.5422      18.418843     -3338.1233      18402.021      5703.8719    
   1051000   314.60124     -3356.4731      20.332701     -3336.1404      16840.902      5703.8719    
   1052000   303.08032     -3355.4828      19.588103     -3335.8947      18460.764      5703.8719    
   1053000   293.19839     -3355.4064      18.949433     -3336.457       21201.975      5703.8719    
   1054000   284.88758     -3356.3375      18.412305     -3337.9252      18114.543      5703.8719    
   1055000   296.043       -3356.1698      19.13328      -3337.0365      17496.034      5703.8719    
   1056000   280.6464      -3354.7634      18.138197     -3336.6252      19468.265      5703.8719    
   1057000   288.15404     -3354.2625      18.623417     -3335.6391      20022.645      5703.8719    
   1058000   280.5931      -3354.0939      18.134753     -3335.9591      20108.242      5703.8719    
   1059000   283.31942     -3354.7263      18.310954     -3336.4154      20854.546      5703.8719    
   1060000   304.45218     -3354.6531      19.676766     -3334.9763      19169.953      5703.8719    
   1061000   306.20347     -3355.6719      19.789952     -3335.8819      19835.236      5703.8719    
   1062000   288.00771     -3356.0989      18.613959     -3337.485       17247.228      5703.8719    
   1063000   315.56856     -3356.8954      20.395219     -3336.5002      19923.48       5703.8719    
   1064000   294.20711     -3355.2378      19.014627     -3336.2232      19337.905      5703.8719    
   1065000   315.18205     -3356.3295      20.370239     -3335.9593      21080.594      5703.8719    
   1066000   302.28803     -3355.0417      19.536897     -3335.5048      19800.803      5703.8719    
   1067000   281.21636     -3356.4647      18.175034     -3338.2897      17799.29       5703.8719    
   1068000   293.18056     -3356.5274      18.948281     -3337.5791      17846.735      5703.8719    
   1069000   298.59771     -3355.3498      19.298392     -3336.0514      17635.053      5703.8719    
   1070000   296.75947     -3354.8245      19.179586     -3335.645       20689.539      5703.8719    
   1071000   291.83151     -3355.5645      18.861091     -3336.7034      19001.794      5703.8719    
   1072000   295.81819     -3356.5263      19.118751     -3337.4075      16511.956      5703.8719    
   1073000   302.07633     -3356.7004      19.523215     -3337.1772      18207.263      5703.8719    
   1074000   282.6389      -3355.4171      18.266973     -3337.1501      20315.047      5703.8719    
   1075000   303.50076     -3355.6395      19.615276     -3336.0243      18671.677      5703.8719    
   1076000   302.26132     -3355.4554      19.535171     -3335.9202      18417.949      5703.8719    
   1077000   299.17465     -3356.1114      19.335679     -3336.7757      18966.912      5703.8719    
   1078000   302.65417     -3357.112       19.560561     -3337.5515      17669.515      5703.8719    
   1079000   312.58831     -3355.6302      20.202605     -3335.4276      21057.063      5703.8719    
   1080000   299.18455     -3355.3013      19.336319     -3335.965       19274.313      5703.8719    
   1081000   303.59256     -3356.2953      19.621209     -3336.6741      16739.971      5703.8719    
   1082000   279.55082     -3356.0545      18.06739      -3337.9871      18141.543      5703.8719    
   1083000   297.91622     -3355.8551      19.254347     -3336.6008      16057.901      5703.8719    
   1084000   301.06673     -3354.835       19.457964     -3335.3771      19037.527      5703.8719    
   1085000   288.45872     -3354.791       18.643108     -3336.1479      19327.267      5703.8719    
   1086000   273.29514     -3355.5751      17.663085     -3337.9121      19191.556      5703.8719    
   1087000   301.23043     -3357.3246      19.468545     -3337.8561      17521.083      5703.8719    
   1088000   289.03256     -3355.0043      18.680196     -3336.3241      17797.943      5703.8719    
   1089000   313.56413     -3355.4175      20.265673     -3335.1518      20056.909      5703.8719    
   1090000   278.88238     -3354.416       18.024188     -3336.3919      20928.784      5703.8719    
   1091000   285.24719     -3355.9279      18.435547     -3337.4924      18283.611      5703.8719    
   1092000   292.01737     -3355.6417      18.873104     -3336.7686      17054.085      5703.8719    
   1093000   299.24487     -3355.0404      19.340217     -3335.7002      18713.717      5703.8719    
   1094000   316.85741     -3355.7131      20.478518     -3335.2346      19933.562      5703.8719    
   1095000   315.18423     -3354.7248      20.37038      -3334.3544      19538.889      5703.8719    
   1096000   310.52948     -3354.5502      20.069543     -3334.4807      20786.181      5703.8719    
   1097000   303.41215     -3356.1506      19.609549     -3336.541       17771.319      5703.8719    
   1098000   305.26064     -3355.0563      19.729017     -3335.3273      19422.769      5703.8719    
   1099000   296.17951     -3355.0301      19.142103     -3335.8879      17985.438      5703.8719    
   1100000   303.492       -3357.0573      19.61471      -3337.4426      17491.921      5703.8719    
   1101000   316.0218      -3357.0235      20.424512     -3336.5989      18767.549      5703.8719    
   1102000   304.42091     -3355.3163      19.674745     -3335.6416      19338.315      5703.8719    
   1103000   312.22336     -3354.6146      20.179019     -3334.4356      19624.051      5703.8719    
   1104000   314.68276     -3355.0239      20.33797      -3334.6859      17837.005      5703.8719    
   1105000   285.86335     -3355.5822      18.475369     -3337.1068      18654.55       5703.8719    
   1106000   289.42955     -3355.3126      18.705853     -3336.6068      19733.797      5703.8719    
   1107000   302.4489      -3355.6278      19.547295     -3336.0805      18185.24       5703.8719    
   1108000   295.57729     -3356.146       19.103182     -3337.0429      17052.481      5703.8719    
   1109000   281.05024     -3355.912       18.164298     -3337.7477      21137.548      5703.8719    
   1110000   280.12439     -3354.578       18.104459     -3336.4736      20936.737      5703.8719    
   1111000   299.04124     -3357.2444      19.327057     -3337.9173      17124.452      5703.8719    
   1112000   308.94086     -3355.8105      19.96687      -3335.8436      18176.208      5703.8719    
   1113000   300.64047     -3355.4445      19.430416     -3336.0141      17139.678      5703.8719    
   1114000   289.67136     -3355.8164      18.721481     -3337.095       19512.262      5703.8719    
   1115000   313.15958     -3354.033       20.239526     -3333.7935      21498.873      5703.8719    
   1116000   297.73979     -3355.0038      19.242944     -3335.7609      17916.559      5703.8719    
   1117000   302.74956     -3355.9647      19.566726     -3336.3979      19816.174      5703.8719    
   1118000   283.89899     -3355.4174      18.348413     -3337.069       19219.586      5703.8719    
   1119000   297.8424      -3355.6735      19.249576     -3336.4239      21450.88       5703.8719    
   1120000   303.01391     -3355.1479      19.583811     -3335.5641      19587.281      5703.8719    
   1121000   292.82315     -3355.4595      18.925181     -3336.5344      20331.47       5703.8719    
   1122000   289.21018     -3355.4307      18.691675     -3336.7391      18269.613      5703.8719    
   1123000   287.81869     -3355.7795      18.601743     -3337.1778      20288.18       5703.8719    
   1124000   295.10267     -3356.2453      19.072507     -3337.1728      19452.802      5703.8719    
   1125000   301.27156     -3355.7163      19.471203     -3336.2451      18972.116      5703.8719    
   1126000   305.66504     -3355.1689      19.755154     -3335.4138      17970.717      5703.8719    
   1127000   285.22013     -3353.8106      18.433797     -3335.3768      20306.711      5703.8719    
   1128000   290.6685      -3355.3518      18.785926     -3336.5659      19368.136      5703.8719    
   1129000   287.35387     -3355.2788      18.571701     -3336.7071      20570.662      5703.8719    
   1130000   314.85453     -3355.6257      20.349071     -3335.2767      19124.308      5703.8719    
   1131000   295.77306     -3355.0964      19.115835     -3335.9806      21983.321      5703.8719    
   1132000   294.44155     -3356.0779      19.029779     -3337.0481      19173.958      5703.8719    
   1133000   316.24672     -3355.2166      20.439049     -3334.7776      20955.765      5703.8719    
   1134000   309.43761     -3354.9675      19.998975     -3334.9685      20441.945      5703.8719    
   1135000   302.06068     -3354.8586      19.522204     -3335.3363      17691.347      5703.8719    
   1136000   289.00039     -3357.1982      18.678116     -3338.5201      17370.393      5703.8719    
   1137000   292.55219     -3356.4844      18.907669     -3337.5767      17507.41       5703.8719    
   1138000   313.12326     -3356.1316      20.237179     -3335.8945      18556.708      5703.8719    
   1139000   300.19568     -3355.2084      19.401668     -3335.8067      18897.157      5703.8719    
   1140000   300.72422     -3356.7889      19.435828     -3337.353       18733.096      5703.8719    
   1141000   307.76516     -3355.8936      19.890885     -3336.0027      19944.68       5703.8719    
   1142000   307.75863     -3355.7406      19.890463     -3335.8501      16684.745      5703.8719    
   1143000   283.33136     -3355.8416      18.311726     -3337.5299      18556.047      5703.8719    
   1144000   285.93254     -3355.8613      18.479841     -3337.3814      18338.026      5703.8719    
   1145000   306.6658      -3355.8274      19.819833     -3336.0076      18540.014      5703.8719    
   1146000   313.18256     -3355.6379      20.241012     -3335.3969      19551.94       5703.8719    
   1147000   291.29115     -3355.2604      18.826168     -3336.4342      19019.199      5703.8719    
   1148000   302.19515     -3356.1875      19.530895     -3336.6566      20711.251      5703.8719    
   1149000   318.72778     -3355.1705      20.5994       -3334.5711      18415.116      5703.8719    
   1150000   293.92315     -3355.7767      18.996274     -3336.7805      16701.143      5703.8719    
   1151000   297.19957     -3355.91        19.20803      -3336.702       18560.228      5703.8719    
   1152000   274.24057     -3355.676       17.724188     -3337.9518      18771.701      5703.8719    
   1153000   300.81362     -3356.0198      19.441606     -3336.5782      18416.694      5703.8719    
   1154000   302.70094     -3355.5694      19.563583     -3336.0058      19241.58       5703.8719    
   1155000   286.48525     -3355.2693      18.515563     -3336.7537      20366.548      5703.8719    
   1156000   292.30258     -3356.2193      18.891537     -3337.3278      18370.333      5703.8719    
   1157000   292.06036     -3357.0198      18.875882     -3338.1439      17721.933      5703.8719    
   1158000   294.76673     -3355.7916      19.050795     -3336.7408      17043.215      5703.8719    
   1159000   311.17841     -3355.6952      20.111483     -3335.5838      17902.615      5703.8719    
   1160000   304.41467     -3355.0465      19.674342     -3335.3721      19654.337      5703.8719    
   1161000   315.37968     -3355.1747      20.383012     -3334.7917      20243.216      5703.8719    
   1162000   286.09093     -3355.1095      18.490078     -3336.6195      19181.236      5703.8719    
   1163000   300.98344     -3356.0419      19.452582     -3336.5893      18982.744      5703.8719    
   1164000   294.52997     -3355.0594      19.035493     -3336.0239      20669.451      5703.8719    
   1165000   300.79454     -3354.4169      19.440373     -3334.9765      21130.111      5703.8719    
   1166000   298.97744     -3354.5757      19.322934     -3335.2528      21174.245      5703.8719    
   1167000   297.34199     -3355.8747      19.217234     -3336.6574      18101.838      5703.8719    
   1168000   293.66084     -3356.1415      18.979321     -3337.1622      18700.086      5703.8719    
   1169000   302.77353     -3355.0972      19.568275     -3335.5289      17495.236      5703.8719    
   1170000   301.74746     -3357.308       19.50196      -3337.806       17170.39       5703.8719    
   1171000   297.24842     -3357.0419      19.211187     -3337.8307      18390.756      5703.8719    
   1172000   299.27381     -3354.8985      19.342088     -3335.5564      19903.174      5703.8719    
   1173000   290.75671     -3355.1812      18.791627     -3336.3896      17758.893      5703.8719    
   1174000   297.77225     -3356.2452      19.245042     -3337.0001      18874.46       5703.8719    
   1175000   319.82319     -3357.1361      20.670196     -3336.466       18232.698      5703.8719    
   1176000   313.99266     -3354.5357      20.293368     -3334.2423      19381.453      5703.8719    
   1177000   305.14977     -3355.7886      19.721851     -3336.0668      19427.682      5703.8719    
   1178000   299.58556     -3355.932       19.362236     -3336.5697      18588.609      5703.8719    
   1179000   305.84952     -3356.6022      19.767077     -3336.8352      17056.391      5703.8719    
   1180000   291.54601     -3356.0362      18.84264      -3337.1935      16496.247      5703.8719    
   1181000   309.97653     -3355.5567      20.033806     -3335.5229      19453.004      5703.8719    
   1182000   317.88379     -3355.6845      20.544852     -3335.1396      18425.713      5703.8719    
   1183000   302.08508     -3355.3919      19.52378      -3335.8681      18236.835      5703.8719    
   1184000   298.70475     -3355.4962      19.30531      -3336.1909      18605.323      5703.8719    
   1185000   289.93251     -3356.5628      18.738359     -3337.8245      18481.154      5703.8719    
   1186000   285.15491     -3355.8458      18.429582     -3337.4162      20837.438      5703.8719    
   1187000   301.97982     -3355.4624      19.516978     -3335.9454      20119.411      5703.8719    
   1188000   301.5253      -3355.5116      19.487602     -3336.024       20172.788      5703.8719    
   1189000   318.02173     -3356.8117      20.553768     -3336.2579      17292.468      5703.8719    
   1190000   290.30066     -3355.32        18.762153     -3336.5579      18092.364      5703.8719    
   1191000   299.08466     -3356.1478      19.329863     -3336.818       18220.674      5703.8719    
   1192000   293.92357     -3356.5176      18.996301     -3337.5212      17949.474      5703.8719    
   1193000   297.17677     -3355.1529      19.206557     -3335.9464      19479.685      5703.8719    
   1194000   303.18574     -3355.4706      19.594917     -3335.8756      16275.422      5703.8719    
   1195000   299.27301     -3356.4431      19.342036     -3337.1011      17081.361      5703.8719    
   1196000   308.50163     -3356.2987      19.938483     -3336.3603      17162.522      5703.8719    
   1197000   290.8406      -3356.2112      18.797049     -3337.4141      20647.311      5703.8719    
   1198000   299.74206     -3355.7855      19.372351     -3336.4131      19215.098      5703.8719    
   1199000   317.1219      -3356.2752      20.495611     -3335.7796      19700.282      5703.8719    
   1200000   313.14935     -3356.1041      20.238865     -3335.8653      16335.65       5703.8719    
   1201000   311.33871     -3355.9606      20.121843     -3335.8388      19206.396      5703.8719    
   1202000   289.0986      -3355.7521      18.684463     -3337.0677      19468.861      5703.8719    
   1203000   316.84405     -3355.0704      20.477654     -3334.5928      19668.045      5703.8719    
   1204000   308.09567     -3354.9955      19.912245     -3335.0833      19431.673      5703.8719    
   1205000   295.83059     -3356.2659      19.119553     -3337.1463      18591.435      5703.8719    
   1206000   295.62086     -3356.6612      19.105997     -3337.5552      17802.595      5703.8719    
   1207000   286.68111     -3356.1405      18.528221     -3337.6123      17710.042      5703.8719    
   1208000   300.0978      -3356.7499      19.395343     -3337.3546      16800.919      5703.8719    
   1209000   287.44326     -3354.3317      18.577479     -3335.7543      19500.952      5703.8719    
   1210000   279.07511     -3354.2024      18.036645     -3336.1658      20723.532      5703.8719    
   1211000   291.36123     -3356.1212      18.830697     -3337.2905      17381.129      5703.8719    
   1212000   297.47837     -3357.2882      19.226049     -3338.0622      17421.035      5703.8719    
   1213000   298.21471     -3355.675       19.273638     -3336.4014      19603.24       5703.8719    
   1214000   306.33916     -3355.59        19.798722     -3335.7913      17095.645      5703.8719    
   1215000   292.00206     -3354.2802      18.872114     -3335.4081      18495.459      5703.8719    
   1216000   293.79217     -3355.6177      18.987809     -3336.6299      18412.729      5703.8719    
   1217000   305.38271     -3356.133       19.736907     -3336.3961      19288.457      5703.8719    
   1218000   326.55065     -3356.3106      21.104992     -3335.2056      18632.14       5703.8719    
   1219000   314.32254     -3354.2258      20.314688     -3333.9111      19304.563      5703.8719    
   1220000   308.49586     -3355.1853      19.93811      -3335.2471      19117.494      5703.8719    
   1221000   290.01987     -3355.3887      18.744005     -3336.6447      17476.756      5703.8719    
   1222000   296.26776     -3355.8039      19.147807     -3336.6561      18615.415      5703.8719    
   1223000   297.64397     -3355.5303      19.236751     -3336.2936      18901.531      5703.8719    
   1224000   322.11812     -3354.6847      20.818518     -3333.8662      20891.027      5703.8719    
   1225000   299.85188     -3355.2493      19.379449     -3335.8698      20222.965      5703.8719    
   1226000   294.10026     -3356.3809      19.007721     -3337.3732      18938.567      5703.8719    
   1227000   286.67358     -3355.5729      18.527734     -3337.0452      17928.683      5703.8719    
   1228000   285.6481      -3355.156       18.461458     -3336.6945      17795.411      5703.8719    
   1229000   296.20017     -3355.0856      19.143438     -3335.9421      20619.341      5703.8719    
   1230000   305.89079     -3353.7868      19.769744     -3334.0171      20740.128      5703.8719    
   1231000   308.5529      -3355.4427      19.941796     -3335.5009      19670.628      5703.8719    
   1232000   305.48814     -3356.3291      19.74372      -3336.5854      18684.124      5703.8719    
   1233000   296.7603      -3356.1945      19.17964      -3337.0149      18933.015      5703.8719    
   1234000   275.7486      -3355.7581      17.821652     -3337.9364      16483.101      5703.8719    
   1235000   303.48206     -3356.2697      19.614067     -3336.6556      17715.917      5703.8719    
   1236000   293.75109     -3354.9802      18.985154     -3335.995       20096.259      5703.8719    
   1237000   301.50391     -3355.2384      19.48622      -3335.7522      17783.473      5703.8719    
   1238000   272.79117     -3356.6309      17.630513     -3339.0004      17219.895      5703.8719    
   1239000   292.60756     -3355.9164      18.911248     -3337.0051      18737.803      5703.8719    
   1240000   299.68512     -3355.0275      19.368671     -3335.6588      18359.206      5703.8719    
   1241000   304.6919      -3354.6819      19.69226      -3334.9897      19937.35       5703.8719    
   1242000   291.46546     -3355.385       18.837434     -3336.5476      18763.627      5703.8719    
   1243000   296.23281     -3355.9969      19.145548     -3336.8513      17934.724      5703.8719    
   1244000   302.78612     -3355.8007      19.569089     -3336.2316      20405.755      5703.8719    
   1245000   305.83525     -3354.7064      19.766154     -3334.9403      19802.489      5703.8719    
   1246000   289.30862     -3354.3719      18.698037     -3335.6739      20203          5703.8719    
   1247000   290.59677     -3354.3526      18.78129      -3335.5713      19771.64       5703.8719    
   1248000   305.61861     -3354.9159      19.752153     -3335.1637      19885.394      5703.8719    
   1249000   293.31188     -3355.9721      18.956768     -3337.0153      17853.834      5703.8719    
   1250000   308.85622     -3356.7028      19.9614       -3336.7414      17603.678      5703.8719    
   1251000   310.21114     -3354.3339      20.048969     -3334.2849      19588.916      5703.8719    
   1252000   321.75952     -3355.7496      20.795341     -3334.9542      17868.329      5703.8719    
   1253000   309.27209     -3355.5255      19.988277     -3335.5372      20861.074      5703.8719    
   1254000   308.49974     -3355.8981      19.938361     -3335.9597      19166.624      5703.8719    
   1255000   293.48678     -3356.2202      18.968072     -3337.2521      18993.297      5703.8719    
   1256000   295.42078     -3356.3334      19.093066     -3337.2403      17501.545      5703.8719    
   1257000   299.44436     -3355.1823      19.35311      -3335.8292      19758.748      5703.8719    
   1258000   314.14898     -3356.0575      20.303471     -3335.754       17855.556      5703.8719    
   1259000   281.39617     -3356.2527      18.186655     -3338.0661      18220.306      5703.8719    
   1260000   290.13587     -3356.8514      18.751502     -3338.0999      17651.963      5703.8719    
   1261000   294.46369     -3355.1848      19.03121      -3336.1535      19337.613      5703.8719    
   1262000   311.63219     -3355.346       20.140811     -3335.2051      18835.099      5703.8719    
   1263000   310.88033     -3355.4389      20.092218     -3335.3467      18360.375      5703.8719    
   1264000   285.95682     -3355.2382      18.48141      -3336.7568      18542.279      5703.8719    
   1265000   308.07564     -3356.1365      19.910951     -3336.2255      15431.633      5703.8719    
   1266000   305.78973     -3356.1885      19.763212     -3336.4253      18270.518      5703.8719    
   1267000   311.61333     -3355.6048      20.139592     -3335.4652      19118.991      5703.8719    
   1268000   288.22697     -3356.0514      18.62813      -3337.4233      16831.971      5703.8719    
   1269000   289.45832     -3355.5719      18.707712     -3336.8642      18203.345      5703.8719    
   1270000   299.21731     -3355.0247      19.338436     -3335.6863      17534.122      5703.8719    
   1271000   301.60206     -3355.2312      19.492563     -3335.7387      18268.517      5703.8719    
   1272000   305.95024     -3356.7924      19.773586     -3337.0188      18599.963      5703.8719    
   1273000   294.45052     -3355.3108      19.030358     -3336.2804      19401.872      5703.8719    
   1274000   310.24067     -3356.0513      20.050877     -3336.0004      17908.153      5703.8719    
   1275000   306.13277     -3355.1574      19.785383     -3335.372       21495.522      5703.8719    
   1276000   305.24129     -3354.9664      19.727767     -3335.2386      18029.508      5703.8719    
   1277000   288.59919     -3354.975       18.652187     -3336.3228      17645.206      5703.8719    
   1278000   299.83565     -3356.2741      19.3784       -3336.8957      18414.848      5703.8719    
   1279000   300.82535     -3355.1054      19.442364     -3335.6631      19204.585      5703.8719    
   1280000   287.44173     -3356.7442      18.57738      -3338.1668      16866.615      5703.8719    
   1281000   277.13494     -3355.6928      17.911251     -3337.7816      20440.149      5703.8719    
   1282000   313.00429     -3355.7104      20.22949      -3335.481       21780.721      5703.8719    
   1283000   307.53587     -3354.8512      19.876066     -3334.9752      19400.583      5703.8719    
   1284000   295.28691     -3353.3946      19.084414     -3334.3102      19782.3        5703.8719    
   1285000   290.50158     -3355.8638      18.775138     -3337.0886      18766.949      5703.8719    
   1286000   290.74262     -3356.2446      18.790717     -3337.4539      19104.476      5703.8719    
   1287000   295.3554      -3355.4409      19.088841     -3336.3521      20526.843      5703.8719    
   1288000   305.66525     -3354.9813      19.755168     -3335.2262      19280.848      5703.8719    
   1289000   310.87714     -3356.409       20.092012     -3336.3169      18625.563      5703.8719    
   1290000   286.22753     -3355.8167      18.498906     -3337.3178      20213.453      5703.8719    
   1291000   300.49538     -3355.8054      19.421038     -3336.3844      19013.615      5703.8719    
   1292000   303.15338     -3355.7737      19.592825     -3336.1808      18938.671      5703.8719    
   1293000   288.31016     -3355.8271      18.633507     -3337.1936      17271.43       5703.8719    
   1294000   313.94919     -3355.9791      20.290559     -3335.6885      17692.444      5703.8719    
   1295000   318.37731     -3355.2745      20.576749     -3334.6978      18155.474      5703.8719    
   1296000   294.57881     -3354.8725      19.03865      -3335.8338      20248.595      5703.8719    
   1297000   283.36005     -3355.515       18.313581     -3337.2014      19582.684      5703.8719    
   1298000   286.87526     -3356.256       18.540769     -3337.7152      18075.514      5703.8719    
   1299000   300.24637     -3354.762       19.404945     -3335.357       20937.679      5703.8719    
   1300000   301.51738     -3354.1423      19.48709      -3334.6552      21975.004      5703.8719    
   1301000   294.86357     -3354.7091      19.057054     -3335.6521      21063.836      5703.8719    
   1302000   289.4119      -3355.1724      18.704712     -3336.4677      17157.772      5703.8719    
   1303000   302.62131     -3355.6717      19.558437     -3336.1133      19318.381      5703.8719    
   1304000   298.81044     -3354.1098      19.31214      -3334.7976      19876.993      5703.8719    
   1305000   302.24918     -3355.4326      19.534386     -3335.8982      18712.535      5703.8719    
   1306000   300.59539     -3356.0405      19.427502     -3336.613       18976.453      5703.8719    
   1307000   303.83831     -3356.0533      19.637092     -3336.4162      19982.872      5703.8719    
   1308000   289.43262     -3354.9989      18.706051     -3336.2929      18389.804      5703.8719    
   1309000   301.38126     -3354.606       19.478293     -3335.1277      20084.357      5703.8719    
   1310000   303.69032     -3355.3271      19.627528     -3335.6996      20032.606      5703.8719    
   1311000   294.89245     -3356.2955      19.05892      -3337.2366      18911.221      5703.8719    
   1312000   287.92543     -3355.5971      18.608642     -3336.9884      18361.033      5703.8719    
   1313000   292.53125     -3355.5181      18.906316     -3336.6118      18041.566      5703.8719    
   1314000   312.48624     -3356.0394      20.196008     -3335.8433      16785.666      5703.8719    
   1315000   308.18069     -3353.9518      19.91774      -3334.034       20418.193      5703.8719    
   1316000   311.58046     -3355.7464      20.137468     -3335.609       21345.162      5703.8719    
   1317000   299.19951     -3356.5056      19.337286     -3337.1683      19907.436      5703.8719    
   1318000   284.16567     -3355.6475      18.365648     -3337.2819      18289.084      5703.8719    
   1319000   311.52867     -3356.0293      20.13412      -3335.8952      20052.262      5703.8719    
   1320000   312.83498     -3354.7324      20.218548     -3334.5138      19525.126      5703.8719    
   1321000   308.66342     -3355.0063      19.948939     -3335.0573      21346.326      5703.8719    
   1322000   284.82977     -3355.6231      18.408569     -3337.2145      20702.049      5703.8719    
   1323000   290.63603     -3356.1178      18.783828     -3337.334       20708.168      5703.8719    
   1324000   298.3353      -3356.5214      19.281432     -3337.2399      19480.306      5703.8719    
   1325000   291.03204     -3355.3196      18.809422     -3336.5101      20463.044      5703.8719    
   1326000   295.72376     -3355.0436      19.112648     -3335.931       19526.838      5703.8719    
   1327000   299.77335     -3355.332       19.374373     -3335.9576      19497.233      5703.8719    
   1328000   296.74593     -3355.9471      19.178711     -3336.7684      19414.303      5703.8719    
   1329000   287.76743     -3355.9621      18.59843      -3337.3637      19177.741      5703.8719    
   1330000   286.36676     -3355.2162      18.507905     -3336.7083      18659.553      5703.8719    
   1331000   299.07851     -3354.9208      19.329465     -3335.5913      19754.204      5703.8719    
   1332000   316.87539     -3355.512       20.479679     -3335.0323      19512.906      5703.8719    
   1333000   286.70386     -3355.0576      18.529691     -3336.5279      20226.142      5703.8719    
   1334000   303.84904     -3355.9318      19.637786     -3336.294       18776.902      5703.8719    
   1335000   301.85082     -3354.3496      19.50864      -3334.8409      21390.418      5703.8719    
   1336000   287.69236     -3354.1367      18.593578     -3335.5431      17710.509      5703.8719    
   1337000   290.41325     -3355.0094      18.769429     -3336.2399      18408.236      5703.8719    
   1338000   281.95065     -3356.7368      18.222491     -3338.5143      18304.44       5703.8719    
   1339000   297.06767     -3355.8594      19.199505     -3336.6599      18909.567      5703.8719    
   1340000   309.49434     -3355.5689      20.002642     -3335.5662      20278.596      5703.8719    
   1341000   304.80698     -3354.6582      19.699697     -3334.9585      18847.821      5703.8719    
   1342000   320.03795     -3356.6764      20.684076     -3335.9923      19530.844      5703.8719    
   1343000   285.77481     -3355.1282      18.469646     -3336.6585      17581.699      5703.8719    
   1344000   299.48887     -3355.4941      19.355987     -3336.1381      19914.385      5703.8719    
   1345000   317.36038     -3354.1098      20.511025     -3333.5987      21013.729      5703.8719    
   1346000   300.00561     -3355.3519      19.389384     -3335.9626      16979.929      5703.8719    
   1347000   296.59596     -3355.7713      19.169019     -3336.6023      19651.943      5703.8719    
   1348000   313.4292      -3355.6771      20.256952     -3335.4202      17815.975      5703.8719    
   1349000   297.34225     -3355.238       19.217251     -3336.0207      19980.607      5703.8719    
   1350000   300.68377     -3356.4555      19.433214     -3337.0223      18561.887      5703.8719    
   1351000   302.90963     -3355.6579      19.577072     -3336.0808      20063.152      5703.8719    
   1352000   298.09958     -3355.6427      19.266197     -3336.3765      18412.277      5703.8719    
   1353000   307.96348     -3354.8717      19.903702     -3334.968       20465.042      5703.8719    
   1354000   312.31638     -3356.0154      20.18503      -3335.8304      20228.78       5703.8719    
   1355000   301.98754     -3356.6626      19.517477     -3337.1451      18163.605      5703.8719    
   1356000   302.91267     -3355.2203      19.577268     -3335.643       19060.196      5703.8719    
   1357000   309.3234      -3355.4035      19.991594     -3335.4119      20679.445      5703.8719    
   1358000   293.51997     -3356.3164      18.970217     -3337.3462      16680.461      5703.8719    
   1359000   290.42712     -3356.1501      18.770326     -3337.3797      17411.649      5703.8719    
   1360000   287.868       -3354.6366      18.60493      -3336.0316      20615.908      5703.8719    
   1361000   309.95076     -3355.3417      20.03214      -3335.3095      18279.633      5703.8719    
   1362000   286.18964     -3355.0013      18.496457     -3336.5049      17518.705      5703.8719    
   1363000   287.70048     -3356.6211      18.594103     -3338.027       18025.595      5703.8719    
   1364000   305.40446     -3355.4005      19.738312     -3335.6622      17494.412      5703.8719    
   1365000   299.94891     -3355.4617      19.38572      -3336.076       20079.229      5703.8719    
   1366000   288.04916     -3356.3124      18.616638     -3337.6958      19298.113      5703.8719    
   1367000   295.39851     -3356.1123      19.091627     -3337.0206      20067.754      5703.8719    
   1368000   310.61668     -3356.7358      20.075178     -3336.6607      17756.174      5703.8719    
   1369000   290.97597     -3356.2887      18.805798     -3337.4829      17649.866      5703.8719    
   1370000   295.74132     -3355.98        19.113783     -3336.8662      17409.118      5703.8719    
   1371000   297.39367     -3355.3725      19.220575     -3336.1519      18396.257      5703.8719    
   1372000   320.75822     -3354.9713      20.730627     -3334.2407      20114.635      5703.8719    
   1373000   302.71205     -3355.9778      19.564302     -3336.4135      17051.823      5703.8719    
   1374000   298.12313     -3355.8154      19.267719     -3336.5477      18706.214      5703.8719    
   1375000   299.6421      -3354.8428      19.365891     -3335.4769      19991.582      5703.8719    
   1376000   304.57478     -3354.2784      19.68469      -3334.5937      18769.346      5703.8719    
   1377000   317.52315     -3355.7917      20.521544     -3335.2702      18277.166      5703.8719    
   1378000   307.75374     -3355.9911      19.890147     -3336.101       20145.903      5703.8719    
   1379000   281.26747     -3355.8678      18.178337     -3337.6894      18048.117      5703.8719    
   1380000   302.93123     -3356.9787      19.578468     -3337.4002      18589.984      5703.8719    
   1381000   277.85087     -3354.6624      17.957522     -3336.7049      19210.751      5703.8719    
   1382000   306.66733     -3355.4876      19.819932     -3335.6677      19463.383      5703.8719    
   1383000   315.93298     -3356.5467      20.418771     -3336.1279      19598.959      5703.8719    
   1384000   268.77368     -3355.9449      17.370863     -3338.5741      18181.936      5703.8719    
   1385000   295.2371      -3356.292       19.081195     -3337.2108      18373.56       5703.8719    
   1386000   295.09478     -3355.1134      19.071997     -3336.0414      19293.953      5703.8719    
   1387000   302.55407     -3354.7462      19.554091     -3335.1921      19416.744      5703.8719    
   1388000   308.85487     -3355.3052      19.961313     -3335.3439      18989.763      5703.8719    
   1389000   288.75635     -3355.5297      18.662344     -3336.8673      17725.7        5703.8719    
   1390000   283.97059     -3355.6192      18.35304      -3337.2662      19155.734      5703.8719    
   1391000   295.85497     -3355.8991      19.121128     -3336.7779      17673.116      5703.8719    
   1392000   313.09094     -3355.1867      20.23509      -3334.9516      19570.687      5703.8719    
   1393000   302.93766     -3354.6307      19.578883     -3335.0518      19737.036      5703.8719    
   1394000   310.24007     -3355.9569      20.050839     -3335.906       19164.982      5703.8719    
   1395000   294.02028     -3356.2774      19.002552     -3337.2749      16742.28       5703.8719    
   1396000   301.30724     -3355.4426      19.473509     -3335.9691      20983.691      5703.8719    
   1397000   315.76151     -3355.6943      20.407689     -3335.2867      18962.019      5703.8719    
   1398000   297.66592     -3354.8183      19.23817      -3335.5802      20878.729      5703.8719    
   1399000   292.40532     -3356.5827      18.898177     -3337.6845      17883.688      5703.8719    
   1400000   284.31375     -3355.4399      18.375218     -3337.0647      19875.512      5703.8719    
   1401000   308.53794     -3355.2393      19.940829     -3335.2985      19349.195      5703.8719    
   1402000   300.96731     -3355.4043      19.451539     -3335.9528      18824.893      5703.8719    
   1403000   291.84392     -3355.6716      18.861894     -3336.8097      18613.764      5703.8719    
   1404000   295.31966     -3355.8143      19.086531     -3336.7278      19174.518      5703.8719    
   1405000   299.6338      -3355.9382      19.365354     -3336.5729      18359.974      5703.8719    
   1406000   295.75433     -3355.1766      19.114624     -3336.0619      18684.121      5703.8719    
   1407000   290.83018     -3355.8174      18.796375     -3337.0211      18878.73       5703.8719    
   1408000   275.85338     -3355.8191      17.828424     -3337.9907      17935.962      5703.8719    
   1409000   312.04309     -3356.3766      20.167368     -3336.2092      17357.705      5703.8719    
   1410000   320.75286     -3356.1526      20.730281     -3335.4224      16451.399      5703.8719    
   1411000   308.10409     -3356.2007      19.91279      -3336.2879      18474.112      5703.8719    
   1412000   303.0246      -3356.5073      19.584502     -3336.9228      19414.774      5703.8719    
   1413000   291.54979     -3356.6416      18.842884     -3337.7988      17706.389      5703.8719    
   1414000   299.01717     -3355.191       19.325501     -3335.8655      19836.183      5703.8719    
   1415000   306.22126     -3355.4922      19.791102     -3335.7011      19370.254      5703.8719    
   1416000   301.85354     -3356.5325      19.508816     -3337.0237      19005.684      5703.8719    
   1417000   282.20114     -3355.9045      18.23868      -3337.6658      16998.049      5703.8719    
   1418000   296.64877     -3356.0661      19.172432     -3336.8936      18442.269      5703.8719    
   1419000   309.83286     -3356.1039      20.02452      -3336.0793      17809.259      5703.8719    
   1420000   312.68052     -3355.6144      20.208565     -3335.4058      19091.2        5703.8719    
   1421000   296.58758     -3355.7364      19.168477     -3336.568       20324.293      5703.8719    
   1422000   273.83645     -3355.9812      17.69807      -3338.2831      19712.315      5703.8719    
   1423000   314.29404     -3356.3509      20.312846     -3336.038       17541.141      5703.8719    
   1424000   289.40607     -3354.9435      18.704335     -3336.2392      17520.276      5703.8719    
   1425000   309.0353      -3356.8739      19.972974     -3336.9009      20079.272      5703.8719    
   1426000   301.86029     -3355.6919      19.509253     -3336.1827      20368.541      5703.8719    
   1427000   310.34324     -3354.2332      20.057506     -3334.1757      20158.747      5703.8719    
   1428000   306.42341     -3354.6149      19.804167     -3334.8108      18350.379      5703.8719    
   1429000   287.62737     -3354.9501      18.589378     -3336.3607      17280.478      5703.8719    
   1430000   301.42752     -3356.4177      19.481283     -3336.9364      18617.203      5703.8719    
   1431000   291.17672     -3355.9938      18.818772     -3337.175       18573.325      5703.8719    
   1432000   309.41381     -3356.0723      19.997437     -3336.0749      19653.994      5703.8719    
   1433000   305.76362     -3355.7451      19.761525     -3335.9836      19635.807      5703.8719    
   1434000   307.20246     -3356.0578      19.854517     -3336.2033      18622.441      5703.8719    
   1435000   300.27867     -3357.114       19.407033     -3337.707       18046.06       5703.8719    
   1436000   292.57611     -3356.7722      18.909215     -3337.863       17983.012      5703.8719    
   1437000   314.38009     -3355.3617      20.318408     -3335.0433      18035.104      5703.8719    
   1438000   303.19357     -3355.5155      19.595422     -3335.9201      18523.054      5703.8719    
   1439000   274.83848     -3354.9811      17.762831     -3337.2182      20645.546      5703.8719    
   1440000   299.81972     -3355.0965      19.37737      -3335.7191      16886.312      5703.8719    
   1441000   311.77631     -3355.8134      20.150126     -3335.6633      17790.266      5703.8719    
   1442000   300.34264     -3357.1957      19.411167     -3337.7845      18679.09       5703.8719    
   1443000   301.09655     -3356.4028      19.459892     -3336.9429      17939.637      5703.8719    
   1444000   309.71206     -3356.0811      20.016713     -3336.0643      16694.588      5703.8719    
   1445000   307.91143     -3355.7318      19.900338     -3335.8315      18618.946      5703.8719    
   1446000   284.06941     -3356.2788      18.359427     -3337.9194      18004.151      5703.8719    
   1447000   295.97135     -3356.7988      19.12865      -3337.6701      19389.665      5703.8719    
   1448000   299.46301     -3356.427       19.354316     -3337.0727      18739.013      5703.8719    
   1449000   304.87147     -3355.5079      19.703865     -3335.804       19091.788      5703.8719    
   1450000   299.50866     -3354.8561      19.357266     -3335.4988      20026.217      5703.8719    
   1451000   299.02955     -3356.0261      19.326301     -3336.6998      17529.598      5703.8719    
   1452000   300.35351     -3355.9815      19.411869     -3336.5696      20334.027      5703.8719    
   1453000   308.62723     -3355.4845      19.9466       -3335.5379      18873.739      5703.8719    
   1454000   316.8343      -3355.957       20.477024     -3335.48        19741.868      5703.8719    
   1455000   312.84249     -3355.868       20.219033     -3335.649       18125.53       5703.8719    
   1456000   293.50588     -3355.2154      18.969306     -3336.2461      19761.838      5703.8719    
   1457000   278.90687     -3355.7117      18.025771     -3337.6859      20020.414      5703.8719    
   1458000   291.12033     -3356.4907      18.815128     -3337.6755      15736.583      5703.8719    
   1459000   281.81533     -3355.3251      18.213745     -3337.1114      18509.804      5703.8719    
   1460000   291.25228     -3354.9508      18.823656     -3336.1271      17903.696      5703.8719    
   1461000   313.06036     -3354.7976      20.233114     -3334.5645      20716.565      5703.8719    
   1462000   311.77281     -3356.82        20.149899     -3336.6701      16902.035      5703.8719    
   1463000   302.73252     -3356.5148      19.565624     -3336.9492      18065.405      5703.8719    
   1464000   296.09485     -3355.4328      19.136632     -3336.2961      19092.192      5703.8719    
   1465000   291.0624      -3355.4165      18.811384     -3336.6051      20140.853      5703.8719    
   1466000   288.95783     -3354.5835      18.675366     -3335.9081      18502.15       5703.8719    
   1467000   301.92954     -3355.7341      19.513728     -3336.2204      19606.397      5703.8719    
   1468000   294.72605     -3355.8588      19.048166     -3336.8106      19403.338      5703.8719    
   1469000   287.90704     -3355.9317      18.607453     -3337.3242      20584.252      5703.8719    
   1470000   329.39192     -3356.7073      21.288624     -3335.4186      18877.633      5703.8719    
   1471000   315.8475      -3355.098       20.413247     -3334.6847      19392.028      5703.8719    
   1472000   310.16432     -3356.0242      20.045943     -3335.9783      18971.676      5703.8719    
   1473000   286.84374     -3355.4311      18.538732     -3336.8923      18289.327      5703.8719    
   1474000   288.43609     -3355.649       18.641645     -3337.0073      19733.698      5703.8719    
   1475000   310.91202     -3356.7194      20.094266     -3336.6251      18060.324      5703.8719    
   1476000   296.0051      -3355.162       19.130831     -3336.0312      19357.533      5703.8719    
   1477000   316.48683     -3356.1043      20.454567     -3335.6498      18183.678      5703.8719    
   1478000   292.05892     -3355.315       18.875789     -3336.4393      19385.556      5703.8719    
   1479000   282.80836     -3355.6372      18.277925     -3337.3593      18150.611      5703.8719    
   1480000   289.99116     -3355.7717      18.742149     -3337.0295      19773.23       5703.8719    
   1481000   296.63376     -3355.0797      19.171461     -3335.9082      19845.019      5703.8719    
   1482000   287.37876     -3355.4866      18.57331      -3336.9133      18864.352      5703.8719    
   1483000   304.41348     -3356.5102      19.674265     -3336.836       19523.584      5703.8719    
   1484000   303.16619     -3355.0887      19.593653     -3335.495       19587.568      5703.8719    
   1485000   300.72608     -3354.3583      19.435948     -3334.9224      20942.822      5703.8719    
   1486000   312.89317     -3355.5367      20.222308     -3335.3144      18013.349      5703.8719    
   1487000   292.90078     -3355.2414      18.930199     -3336.3112      19491.838      5703.8719    
   1488000   302.61321     -3355.8877      19.557913     -3336.3298      18431.445      5703.8719    
   1489000   321.03036     -3355.3068      20.748216     -3334.5585      19491.606      5703.8719    
   1490000   305.17488     -3355.1652      19.723474     -3335.4417      19438.785      5703.8719    
   1491000   308.79169     -3356.1802      19.95723      -3336.223       19265.917      5703.8719    
   1492000   293.81698     -3356.8236      18.989413     -3337.8342      18937.171      5703.8719    
   1493000   286.56712     -3356.0316      18.520854     -3337.5108      19663.786      5703.8719    
   1494000   296.99895     -3355.4858      19.195063     -3336.2908      19338.754      5703.8719    
   1495000   289.48725     -3355.3818      18.709582     -3336.6723      18483.762      5703.8719    
   1496000   296.82079     -3355.8997      19.183549     -3336.7162      18324.413      5703.8719    
   1497000   306.25063     -3355.4392      19.793001     -3335.6462      19337.948      5703.8719    
   1498000   321.36678     -3355.2021      20.769958     -3334.4322      18297.561      5703.8719    
   1499000   299.60453     -3355.8357      19.363462     -3336.4722      21153.543      5703.8719    
   1500000   302.38077     -3356.6351      19.542891     -3337.0922      19269.012      5703.8719    
   1501000   293.41144     -3355.3983      18.963202     -3336.4351      21233.568      5703.8719    
   1502000   315.32634     -3356.9481      20.379564     -3336.5685      16566.791      5703.8719    
   1503000   310.32055     -3355.0838      20.056039     -3335.0278      19281.898      5703.8719    
   1504000   316.99428     -3355.0686      20.487363     -3334.5812      18513.687      5703.8719    
   1505000   319.51466     -3356.797       20.650255     -3336.1468      17270.449      5703.8719    
   1506000   288.13206     -3356.3264      18.621996     -3337.7044      18491.415      5703.8719    
   1507000   287.03745     -3356.2969      18.551251     -3337.7457      19731.497      5703.8719    
   1508000   302.97765     -3354.9251      19.581468     -3335.3436      20261.55       5703.8719    
   1509000   305.35734     -3355.4853      19.735267     -3335.75        20905.65       5703.8719    
   1510000   290.65394     -3354.8093      18.784985     -3336.0243      19704.317      5703.8719    
   1511000   287.73003     -3355.5941      18.596013     -3336.9981      19893.372      5703.8719    
   1512000   289.23073     -3355.974       18.693003     -3337.281       19747.536      5703.8719    
   1513000   286.26233     -3354.914       18.501155     -3336.4129      17841.925      5703.8719    
   1514000   310.4921      -3354.4822      20.067127     -3334.4151      20870.362      5703.8719    
   1515000   329.4635      -3356.9703      21.29325      -3335.677       20228.224      5703.8719    
   1516000   305.9662      -3356.9246      19.774618     -3337.15        18819.19       5703.8719    
   1517000   297.79113     -3356.4905      19.246262     -3337.2442      18908.616      5703.8719    
   1518000   304.36896     -3355.9142      19.671388     -3336.2428      17835.006      5703.8719    
   1519000   287.76222     -3353.8634      18.598093     -3335.2653      20148.295      5703.8719    
   1520000   306.36834     -3355.879       19.800608     -3336.0784      18822.036      5703.8719    
   1521000   285.84355     -3355.7471      18.474089     -3337.273       18580.78       5703.8719    
   1522000   294.70382     -3357.0356      19.046729     -3337.9889      17710.624      5703.8719    
   1523000   290.66856     -3355.4165      18.78593      -3336.6306      19141.594      5703.8719    
   1524000   313.37319     -3355.7908      20.253332     -3335.5375      17597.547      5703.8719    
   1525000   312.4437      -3355.5408      20.193259     -3335.3475      18495.365      5703.8719    
   1526000   305.42789     -3355.3449      19.739827     -3335.6051      20404.902      5703.8719    
   1527000   290.50031     -3355.4586      18.775056     -3336.6835      20476.019      5703.8719    
   1528000   300.7992      -3355.5772      19.440674     -3336.1366      18916.257      5703.8719    
   1529000   320.61692     -3355.0967      20.721495     -3334.3752      17870.497      5703.8719    
   1530000   337.37342     -3356.6261      21.804469     -3334.8217      19465.909      5703.8719    
   1531000   288.76993     -3355.9319      18.663221     -3337.2686      19572.007      5703.8719    
   1532000   301.04069     -3356.1576      19.456282     -3336.7014      19124.836      5703.8719    
   1533000   311.56477     -3354.4321      20.136454     -3334.2957      19591.535      5703.8719    
   1534000   299.50872     -3355.002       19.35727      -3335.6447      20268.411      5703.8719    
   1535000   292.65606     -3355.5148      18.914382     -3336.6004      20608.272      5703.8719    
   1536000   285.90564     -3355.0723      18.478103     -3336.5942      18310.374      5703.8719    
   1537000   304.75807     -3355.6673      19.696536     -3335.9708      17827.728      5703.8719    
   1538000   315.90573     -3353.9356      20.41701      -3333.5185      20954.586      5703.8719    
   1539000   291.6846      -3355.9587      18.851597     -3337.1072      18910.165      5703.8719    
   1540000   294.95946     -3355.9997      19.063251     -3336.9364      19359.338      5703.8719    
   1541000   300.5363      -3354.3554      19.423683     -3334.9317      19583.973      5703.8719    
   1542000   303.54968     -3354.3127      19.618438     -3334.6943      21414.203      5703.8719    
   1543000   304.58074     -3354.7042      19.685075     -3335.0191      20741.72       5703.8719    
   1544000   313.7916      -3356.1952      20.280374     -3335.9148      19881.263      5703.8719    
   1545000   285.1598      -3356.1204      18.429898     -3337.6905      18303.416      5703.8719    
   1546000   284.7813      -3356.6696      18.405436     -3338.2641      19900.283      5703.8719    
   1547000   301.21181     -3354.8404      19.467341     -3335.3731      19771.458      5703.8719    
   1548000   313.43136     -3355.6845      20.257091     -3335.4274      20971.446      5703.8719    
   1549000   302.62024     -3355.9627      19.558368     -3336.4043      18444.221      5703.8719    
   1550000   303.24669     -3355.4133      19.598855     -3335.8145      19763.287      5703.8719    
   1551000   310.01761     -3354.7977      20.03646      -3334.7613      19702.507      5703.8719    
   1552000   303.3217      -3355.7167      19.603703     -3336.113       18245.083      5703.8719    
   1553000   305.92034     -3356.3245      19.771654     -3336.5528      18225.563      5703.8719    
   1554000   296.7733      -3355.6787      19.18048      -3336.4982      17751.06       5703.8719    
   1555000   303.61575     -3354.6284      19.622708     -3335.0057      20570.276      5703.8719    
   1556000   295.54197     -3354.9463      19.100899     -3335.8454      21050.754      5703.8719    
   1557000   287.45446     -3354.9922      18.578203     -3336.414       18644.001      5703.8719    
   1558000   293.31619     -3355.8929      18.957047     -3336.9358      16510.673      5703.8719    
   1559000   300.62793     -3355.321       19.429605     -3335.8914      17579.862      5703.8719    
   1560000   298.6537      -3355.5932      19.30201      -3336.2912      18674.927      5703.8719    
   1561000   277.87852     -3356.0905      17.959309     -3338.1312      17912.494      5703.8719    
   1562000   287.25392     -3355.8313      18.565242     -3337.2661      19415.912      5703.8719    
   1563000   299.75701     -3355.3179      19.373317     -3335.9446      19848.814      5703.8719    
   1564000   305.15251     -3354.9768      19.722029     -3335.2547      18758.509      5703.8719    
   1565000   292.36812     -3355.5953      18.895773     -3336.6996      18631.175      5703.8719    
   1566000   297.80782     -3356.6445      19.247341     -3337.3972      18842.532      5703.8719    
   1567000   310.63082     -3355.9629      20.076092     -3335.8868      19917.589      5703.8719    
   1568000   295.94971     -3355.2164      19.127251     -3336.0892      19796.997      5703.8719    
   1569000   310.48447     -3356.8728      20.066634     -3336.8062      20118.234      5703.8719    
   1570000   292.609       -3355.5711      18.911341     -3336.6598      19459.892      5703.8719    
   1571000   315.39795     -3356.1315      20.384192     -3335.7473      16507.777      5703.8719    
   1572000   312.23101     -3354.0698      20.179513     -3333.8902      20275.092      5703.8719    
   1573000   290.4698      -3355.8107      18.773085     -3337.0376      20605.404      5703.8719    
   1574000   299.78109     -3355.7304      19.374873     -3336.3555      20583.522      5703.8719    
   1575000   292.85038     -3355.8144      18.926942     -3336.8875      19609.769      5703.8719    
   1576000   284.07509     -3356.2284      18.359794     -3337.8687      18804.218      5703.8719    
   1577000   298.58983     -3355.9452      19.297882     -3336.6473      18027.461      5703.8719    
   1578000   301.10753     -3356.2895      19.460602     -3336.8289      17679.821      5703.8719    
   1579000   304.25396     -3354.9561      19.663955     -3335.2921      20565.455      5703.8719    
   1580000   313.91556     -3355.1092      20.288385     -3334.8208      20876.341      5703.8719    
   1581000   295.30266     -3355.5495      19.085432     -3336.4641      20180.905      5703.8719    
   1582000   309.59955     -3356.4326      20.009441     -3336.4231      19174.338      5703.8719    
   1583000   321.11413     -3355.8276      20.753629     -3335.074       19922.502      5703.8719    
   1584000   313.85866     -3355.4894      20.284708     -3335.2047      19660.16       5703.8719    
   1585000   302.87814     -3356.5287      19.575036     -3336.9537      19272.452      5703.8719    
   1586000   286.58594     -3355.7917      18.52207      -3337.2697      20048.459      5703.8719    
   1587000   304.1673      -3355.001       19.658355     -3335.3427      20147.351      5703.8719    
   1588000   304.04171     -3355.6545      19.650238     -3336.0043      19724.177      5703.8719    
   1589000   297.16293     -3355.9775      19.205661     -3336.7718      17529.075      5703.8719    
   1590000   290.55669     -3355.6851      18.7787       -3336.9064      19011.087      5703.8719    
   1591000   300.99633     -3355.2815      19.453415     -3335.8281      19984.425      5703.8719    
   1592000   323.30766     -3355.596       20.895397     -3334.7006      18217.667      5703.8719    
   1593000   320.53874     -3356.0364      20.716442     -3335.32        18395.55       5703.8719    
   1594000   323.43297     -3356.3333      20.903496     -3335.4298      19185.888      5703.8719    
   1595000   301.74139     -3356.04        19.501568     -3336.5384      19477.062      5703.8719    
   1596000   289.91365     -3355.6791      18.73714      -3336.942       19396.762      5703.8719    
   1597000   293.87646     -3354.6426      18.993257     -3335.6493      19753.863      5703.8719    
   1598000   313.29833     -3354.9502      20.248494     -3334.7017      17625.874      5703.8719    
   1599000   305.0466      -3354.9857      19.715184     -3335.2706      18990.534      5703.8719    
   1600000   289.70651     -3354.6713      18.723753     -3335.9475      18890.005      5703.8719    
   1601000   297.18623     -3356.4107      19.207168     -3337.2036      17509.851      5703.8719    
   1602000   299.50907     -3355.6153      19.357293     -3336.258       20174.144      5703.8719    
   1603000   310.69771     -3355.534       20.080415     -3335.4536      19423.646      5703.8719    
   1604000   289.9247      -3355.1908      18.737854     -3336.453       18923.716      5703.8719    
   1605000   304.15293     -3356.8831      19.657426     -3337.2257      16233.15       5703.8719    
   1606000   296.71614     -3355.8917      19.176785     -3336.7149      19439.523      5703.8719    
   1607000   287.04875     -3355.6312      18.551982     -3337.0792      18722.662      5703.8719    
   1608000   293.99098     -3355.2209      19.000658     -3336.2203      20491.464      5703.8719    
   1609000   323.19996     -3355.9811      20.888437     -3335.0927      17758.051      5703.8719    
   1610000   319.50033     -3354.3904      20.649329     -3333.7411      19186.024      5703.8719    
   1611000   284.24834     -3355.4826      18.370991     -3337.1116      21458.802      5703.8719    
   1612000   310.06833     -3356.7782      20.039739     -3336.7385      18650.583      5703.8719    
   1613000   296.57529     -3354.8664      19.167683     -3335.6987      18495.129      5703.8719    
   1614000   314.99205     -3354.283       20.357959     -3333.9251      21718.613      5703.8719    
   1615000   299.743       -3356.3127      19.372412     -3336.9403      18714.314      5703.8719    
   1616000   289.86812     -3355.4542      18.734198     -3336.72        20088.587      5703.8719    
   1617000   306.44429     -3355.942       19.805517     -3336.1365      17264.742      5703.8719    
   1618000   301.35548     -3354.4601      19.476626     -3334.9835      20564.403      5703.8719    
   1619000   288.48095     -3354.2783      18.644545     -3335.6338      22342.074      5703.8719    
   1620000   277.54727     -3356.6173      17.9379       -3338.6794      18558.839      5703.8719    
   1621000   290.2932      -3355.5141      18.761671     -3336.7525      18477.566      5703.8719    
   1622000   291.80031     -3354.4448      18.859075     -3335.5858      20656.305      5703.8719    
   1623000   307.00074     -3355.6256      19.84148      -3335.7841      19490.524      5703.8719    
   1624000   305.19008     -3355.6575      19.724457     -3335.933       18828.945      5703.8719    
   1625000   297.84421     -3356.4388      19.249693     -3337.1891      16773.684      5703.8719    
   1626000   294.46201     -3356.3503      19.031101     -3337.3192      19380.24       5703.8719    
   1627000   300.36277     -3355.4944      19.412468     -3336.0819      19242.373      5703.8719    
   1628000   298.6106      -3354.7293      19.299225     -3335.4301      19110.176      5703.8719    
   1629000   300.64577     -3355.6628      19.430758     -3336.2321      19359.33       5703.8719    
   1630000   302.56388     -3356.7103      19.554725     -3337.1556      19160.873      5703.8719    
   1631000   309.1395      -3356.0871      19.979709     -3336.1074      19860.126      5703.8719    
   1632000   321.65566     -3354.6387      20.788629     -3333.85        20931.329      5703.8719    
   1633000   301.73191     -3355.8402      19.500955     -3336.3392      20288.44       5703.8719    
   1634000   299.4555      -3356.4897      19.353831     -3337.1359      17804.966      5703.8719    
   1635000   299.45816     -3357.0274      19.354002     -3337.6734      17370.501      5703.8719    
   1636000   295.9069      -3356.8922      19.124484     -3337.7677      17976.095      5703.8719    
   1637000   296.49676     -3355.4438      19.162607     -3336.2811      21151.156      5703.8719    
   1638000   293.76642     -3355.6903      18.986145     -3336.7041      20587.748      5703.8719    
   1639000   279.99039     -3355.9621      18.095799     -3337.8663      19142.684      5703.8719    
   1640000   295.35543     -3355.4951      19.088843     -3336.4063      19268.83       5703.8719    
   1641000   298.40376     -3355.0804      19.285857     -3335.7946      19685.786      5703.8719    
   1642000   296.23299     -3355.5989      19.14556      -3336.4533      19289.362      5703.8719    
   1643000   296.03325     -3356.6446      19.13265      -3337.5119      16059.358      5703.8719    
   1644000   302.95694     -3356.3015      19.580129     -3336.7214      19579.339      5703.8719    
   1645000   311.64689     -3355.3171      20.141761     -3335.1753      21055.864      5703.8719    
   1646000   301.71345     -3356.0095      19.499762     -3336.5097      19581.243      5703.8719    
   1647000   285.8116      -3356.3253      18.472024     -3337.8533      18015.124      5703.8719    
   1648000   298.12045     -3355.6153      19.267546     -3336.3478      18024.273      5703.8719    
   1649000   311.48377     -3356.1322      20.131219     -3336.001       19061.384      5703.8719    
   1650000   294.57542     -3356.434       19.038431     -3337.3956      17651.671      5703.8719    
   1651000   296.2547      -3355.6963      19.146963     -3336.5493      19601.186      5703.8719    
   1652000   293.82375     -3354.3852      18.98985      -3335.3954      20010.211      5703.8719    
   1653000   301.28672     -3355.5351      19.472183     -3336.0629      17678.782      5703.8719    
   1654000   299.79985     -3355.9364      19.376086     -3336.5603      16733.448      5703.8719    
   1655000   298.87759     -3355.6201      19.31648      -3336.3036      18023.979      5703.8719    
   1656000   292.02124     -3355.0501      18.873354     -3336.1767      21093.558      5703.8719    
   1657000   301.67901     -3354.2797      19.497536     -3334.7822      18320.437      5703.8719    
   1658000   305.04826     -3354.8971      19.715291     -3335.1818      19436.939      5703.8719    
   1659000   300.5252      -3355.2146      19.422966     -3335.7916      19320.32       5703.8719    
   1660000   308.0685      -3356.5743      19.91049      -3336.6638      17874.816      5703.8719    
   1661000   298.91451     -3355.9329      19.318866     -3336.614       18207.325      5703.8719    
   1662000   296.12899     -3355.6286      19.138838     -3336.4898      19236.054      5703.8719    
   1663000   300.37154     -3355.8944      19.413035     -3336.4813      19139.304      5703.8719    
   1664000   326.7111      -3354.7089      21.115362     -3333.5935      19271.835      5703.8719    
   1665000   291.5676      -3355.8849      18.844035     -3337.0408      21209.804      5703.8719    
   1666000   298.23382     -3356.0324      19.274873     -3336.7575      17422.348      5703.8719    
   1667000   313.94218     -3356.7633      20.290106     -3336.4732      19970.194      5703.8719    
   1668000   304.81098     -3354.9573      19.699956     -3335.2573      19821.967      5703.8719    
   1669000   309.35157     -3355.5971      19.993414     -3335.6037      19312.305      5703.8719    
   1670000   301.29909     -3356.9865      19.472982     -3337.5135      16546.595      5703.8719    
   1671000   302.17936     -3356.8205      19.529874     -3337.2906      20010.39       5703.8719    
   1672000   295.83917     -3356.0478      19.120107     -3336.9277      19769.201      5703.8719    
   1673000   295.58221     -3354.0623      19.103499     -3334.9588      21433.931      5703.8719    
   1674000   303.19088     -3353.8107      19.595249     -3334.2154      21349.871      5703.8719    
   1675000   304.56004     -3355.9999      19.683737     -3336.3162      22390.457      5703.8719    
   1676000   293.28966     -3355.1405      18.955332     -3336.1852      20151.545      5703.8719    
   1677000   308.34875     -3354.6396      19.928602     -3334.711       21008.343      5703.8719    
   1678000   315.52552     -3356.2303      20.392437     -3335.8379      19760.687      5703.8719    
   1679000   293.60975     -3355.6453      18.976019     -3336.6693      19667.411      5703.8719    
   1680000   303.34985     -3356.5088      19.605523     -3336.9033      19262.44       5703.8719    
   1681000   293.31406     -3355.9209      18.956909     -3336.964       18997.138      5703.8719    
   1682000   294.42839     -3354.9302      19.028928     -3335.9013      19238.421      5703.8719    
   1683000   302.35754     -3356.1493      19.54139      -3336.6079      17530.746      5703.8719    
   1684000   281.05312     -3355.5064      18.164484     -3337.3419      19600.161      5703.8719    
   1685000   293.65825     -3356.0245      18.979154     -3337.0453      18171.419      5703.8719    
   1686000   314.12983     -3355.7126      20.302234     -3335.4103      19897.904      5703.8719    
   1687000   293.83958     -3355.4754      18.990873     -3336.4846      18829.568      5703.8719    
   1688000   295.24006     -3356.1765      19.081386     -3337.0951      19250.598      5703.8719    
   1689000   295.56858     -3356.2001      19.102619     -3337.0974      21711.113      5703.8719    
   1690000   299.58281     -3355.564       19.362058     -3336.2019      18890.876      5703.8719    
   1691000   299.07543     -3355.2217      19.329267     -3335.8924      16940.641      5703.8719    
   1692000   288.80527     -3355.8841      18.665506     -3337.2186      19790.361      5703.8719    
   1693000   296.00003     -3355.2544      19.130503     -3336.1239      22677.552      5703.8719    
   1694000   315.44175     -3355.3862      20.387023     -3334.9991      20288.621      5703.8719    
   1695000   277.42982     -3357.0174      17.930309     -3339.087       17543.914      5703.8719    
   1696000   286.31099     -3354.3625      18.5043       -3335.8582      19972.585      5703.8719    
   1697000   291.83791     -3354.0565      18.861505     -3335.195       20524.179      5703.8719    
   1698000   294.6355      -3355.1062      19.042314     -3336.0638      18776.33       5703.8719    
   1699000   297.31237     -3354.0234      19.21532      -3334.8081      21635.498      5703.8719    
   1700000   314.62514     -3354.8329      20.334245     -3334.4986      20604.595      5703.8719    
   1701000   298.32023     -3355.8624      19.280458     -3336.582       19608.699      5703.8719    
   1702000   285.05684     -3355.8171      18.423245     -3337.3938      20719.109      5703.8719    
   1703000   293.92024     -3355.3947      18.996087     -3336.3986      18218.463      5703.8719    
   1704000   295.35034     -3354.8508      19.088514     -3335.7623      20246.814      5703.8719    
   1705000   308.05875     -3356.1838      19.90986      -3336.2739      19005.265      5703.8719    
   1706000   313.02624     -3357.5765      20.230909     -3337.3456      18918.596      5703.8719    
   1707000   283.91282     -3355.9269      18.349306     -3337.5776      18929.287      5703.8719    
   1708000   307.86007     -3355.7291      19.897019     -3335.8321      19331.764      5703.8719    
   1709000   274.36361     -3355.9408      17.73214      -3338.2087      19460.665      5703.8719    
   1710000   299.81894     -3357.0968      19.37732      -3337.7195      19512.726      5703.8719    
   1711000   302.81324     -3355.4297      19.570842     -3335.8588      19748.208      5703.8719    
   1712000   304.49306     -3356.9446      19.679408     -3337.2652      17367.639      5703.8719    
   1713000   273.99364     -3355.2238      17.708229     -3337.5155      19973.373      5703.8719    
   1714000   293.23065     -3355.7661      18.951518     -3336.8146      19762.678      5703.8719    
   1715000   320.81993     -3355.4789      20.734615     -3334.7442      18471.853      5703.8719    
   1716000   294.93249     -3355.2429      19.061508     -3336.1814      21271.49       5703.8719    
   1717000   310.64223     -3356.7173      20.07683      -3336.6405      17268.89       5703.8719    
   1718000   312.68075     -3355.2047      20.20858      -3334.9962      21449.67       5703.8719    
   1719000   307.78911     -3355.5415      19.892432     -3335.649       18507.605      5703.8719    
   1720000   301.05131     -3357.25        19.456968     -3337.793       19276.814      5703.8719    
   1721000   282.29337     -3356.251       18.244641     -3338.0063      19969.374      5703.8719    
   1722000   297.18762     -3355.7348      19.207257     -3336.5275      20841.271      5703.8719    
   1723000   306.56045     -3355.6839      19.813024     -3335.8709      19228.374      5703.8719    
   1724000   301.0548      -3356.8257      19.457193     -3337.3685      18109.371      5703.8719    
   1725000   303.99824     -3356.707       19.647428     -3337.0596      17549.852      5703.8719    
   1726000   291.31108     -3356.0912      18.827456     -3337.2638      18992.681      5703.8719    
   1727000   297.27395     -3355.1896      19.212837     -3335.9767      18318.292      5703.8719    
   1728000   301.6907      -3355.9255      19.498292     -3336.4273      18622.13       5703.8719    
   1729000   281.06208     -3356.203       18.165063     -3338.0379      19295.506      5703.8719    
   1730000   304.59712     -3356.3871      19.686134     -3336.7009      17503.461      5703.8719    
   1731000   291.59369     -3355.1143      18.845721     -3336.2686      19670.531      5703.8719    
   1732000   315.26225     -3355.681       20.375422     -3335.3056      16229.19       5703.8719    
   1733000   299.98179     -3355.1213      19.387845     -3335.7334      20969.459      5703.8719    
   1734000   285.92888     -3355.6625      18.479604     -3337.1829      17995.707      5703.8719    
   1735000   296.28758     -3354.9827      19.149088     -3335.8336      20347.086      5703.8719    
   1736000   306.80374     -3354.7104      19.828748     -3334.8817      19774.333      5703.8719    
   1737000   299.53233     -3355.3546      19.358796     -3335.9958      18760.635      5703.8719    
   1738000   290.73057     -3355.2443      18.789938     -3336.4544      18516.866      5703.8719    
   1739000   265.25846     -3355.5631      17.143673     -3338.4194      18846.985      5703.8719    
   1740000   287.97665     -3355.4666      18.611952     -3336.8546      20909.629      5703.8719    
   1741000   306.15892     -3355.8239      19.787073     -3336.0368      18153.938      5703.8719    
   1742000   290.54157     -3355.8484      18.777723     -3337.0707      20575.888      5703.8719    
   1743000   303.29201     -3356.757       19.601784     -3337.1553      17421.664      5703.8719    
   1744000   293.83185     -3355.3211      18.990374     -3336.3308      20005.337      5703.8719    
   1745000   307.90275     -3355.1487      19.899777     -3335.249       18319.748      5703.8719    
   1746000   306.81575     -3356.0014      19.829524     -3336.1719      18242.641      5703.8719    
   1747000   300.4912      -3356.3281      19.420768     -3336.9073      18574.427      5703.8719    
   1748000   311.05106     -3356.0788      20.103253     -3335.9755      20610.3        5703.8719    
   1749000   313.95047     -3355.4486      20.290642     -3335.158       19023.168      5703.8719    
   1750000   308.3309      -3355.8265      19.927448     -3335.899       19982.982      5703.8719    
   1751000   304.0774      -3356.597       19.652545     -3336.9445      17824.702      5703.8719    
   1752000   297.22034     -3356.508       19.209372     -3337.2987      18043.842      5703.8719    
   1753000   285.84581     -3355.8513      18.474236     -3337.377       21111.573      5703.8719    
   1754000   299.64091     -3355.5276      19.365814     -3336.1618      18225.861      5703.8719    
   1755000   300.1722      -3356.4149      19.400151     -3337.0148      18643.649      5703.8719    
   1756000   296.61734     -3357.0707      19.1704       -3337.9003      18979.08       5703.8719    
   1757000   291.68262     -3356.015       18.851469     -3337.1635      19866.277      5703.8719    
   1758000   297.44109     -3355.763       19.223639     -3336.5393      19063.972      5703.8719    
   1759000   298.85679     -3354.3918      19.315136     -3335.0766      20887.609      5703.8719    
   1760000   301.04171     -3354.7429      19.456348     -3335.2866      19620.741      5703.8719    
   1761000   306.19312     -3356.2114      19.789283     -3336.4221      18311.496      5703.8719    
   1762000   295.85958     -3355.1732      19.121426     -3336.0518      20580.915      5703.8719    
   1763000   321.90465     -3355.6915      20.804721     -3334.8868      19794.775      5703.8719    
   1764000   300.8639      -3355.611       19.444855     -3336.1661      18708.302      5703.8719    
   1765000   287.88884     -3355.8244      18.606277     -3337.2182      20138.63       5703.8719    
   1766000   305.53854     -3355.617       19.746978     -3335.87        20129.512      5703.8719    
   1767000   312.36075     -3354.5341      20.187898     -3334.3462      19640.593      5703.8719    
   1768000   304.39998     -3354.9951      19.673393     -3335.3217      20501.993      5703.8719    
   1769000   309.2889      -3356.5531      19.989364     -3336.5638      17118.715      5703.8719    
   1770000   286.01526     -3355.6776      18.485187     -3337.1925      16481.537      5703.8719    
   1771000   337.79429     -3354.6971      21.831669     -3332.8655      20074.996      5703.8719    
   1772000   296.42608     -3355.1345      19.158039     -3335.9765      19345.329      5703.8719    
   1773000   301.54023     -3356.1655      19.488567     -3336.6769      17784.057      5703.8719    
   1774000   301.43617     -3357.3776      19.481841     -3337.8957      17010.774      5703.8719    
   1775000   297.1867      -3356.0648      19.207198     -3336.8576      18821.124      5703.8719    
   1776000   303.02744     -3355.366       19.584685     -3335.7813      18361.753      5703.8719    
   1777000   303.07601     -3355.9455      19.587825     -3336.3577      18816.361      5703.8719    
   1778000   303.38805     -3357.2035      19.607991     -3337.5955      18388.76       5703.8719    
   1779000   294.03964     -3356.0156      19.003803     -3337.0118      18721.212      5703.8719    
   1780000   281.9836      -3355.5989      18.22462      -3337.3743      20949.487      5703.8719    
   1781000   293.98997     -3355.4996      19.000593     -3336.499       18892.943      5703.8719    
   1782000   300.70893     -3355.1276      19.43484      -3335.6927      19638.499      5703.8719    
   1783000   299.13352     -3355.3226      19.333021     -3335.9896      20677.709      5703.8719    
   1784000   264.8861      -3356.1153      17.119608     -3338.9957      18989.316      5703.8719    
   1785000   300.30515     -3355.5136      19.408744     -3336.1049      20574.446      5703.8719    
   1786000   311.96721     -3355.8849      20.162463     -3335.7225      18793.591      5703.8719    
   1787000   303.87128     -3355.9985      19.639223     -3336.3593      17557.013      5703.8719    
   1788000   287.7185      -3356.528       18.595267     -3337.9328      17450.649      5703.8719    
   1789000   294.02119     -3356.1933      19.002611     -3337.1906      18480.068      5703.8719    
   1790000   303.50156     -3356.0856      19.615328     -3336.4703      17654.713      5703.8719    
   1791000   298.07243     -3354.5974      19.264443     -3335.333       20952.181      5703.8719    
   1792000   325.54753     -3355.156       21.040161     -3334.1158      18831.206      5703.8719    
   1793000   292.8206      -3355.5228      18.925016     -3336.5977      18192.849      5703.8719    
   1794000   286.3111      -3356.1528      18.504307     -3337.6485      16728.598      5703.8719    
   1795000   303.60909     -3355.4456      19.622278     -3335.8233      18414.193      5703.8719    
   1796000   294.77891     -3356.0455      19.051582     -3336.9939      19213.627      5703.8719    
   1797000   303.89398     -3355.8751      19.64069      -3336.2344      19251.917      5703.8719    
   1798000   301.78634     -3355.3895      19.504473     -3335.885       18714.335      5703.8719    
   1799000   294.77147     -3354.6557      19.051101     -3335.6046      18859.044      5703.8719    
   1800000   304.09576     -3356.1511      19.653731     -3336.4974      17979.895      5703.8719    
   1801000   293.62763     -3354.8146      18.977175     -3335.8375      18348.179      5703.8719    
   1802000   312.10128     -3354.6057      20.171129     -3334.4346      18782.016      5703.8719    
   1803000   305.53717     -3355.7295      19.746889     -3335.9826      19225.074      5703.8719    
   1804000   298.38938     -3356.3761      19.284927     -3337.0911      18981.131      5703.8719    
   1805000   295.44167     -3355.9507      19.094416     -3336.8563      17911.57       5703.8719    
   1806000   301.40165     -3356.0511      19.479611     -3336.5715      17833.336      5703.8719    
   1807000   297.90044     -3356.0272      19.253327     -3336.7739      18336.596      5703.8719    
   1808000   310.67186     -3355.9719      20.078745     -3335.8931      18221.751      5703.8719    
   1809000   291.27081     -3355.7195      18.824853     -3336.8946      20010.988      5703.8719    
   1810000   310.08698     -3354.0524      20.040944     -3334.0115      20457.549      5703.8719    
   1811000   312.42454     -3355.0449      20.192021     -3334.8529      20813.154      5703.8719    
   1812000   312.47651     -3355.988       20.19538      -3335.7926      17467.775      5703.8719    
   1813000   304.43016     -3356.9192      19.675344     -3337.2439      17042.368      5703.8719    
   1814000   299.13445     -3356.5359      19.333081     -3337.2028      17553.939      5703.8719    
   1815000   307.65622     -3354.1963      19.883844     -3334.3125      19905.309      5703.8719    
   1816000   316.45328     -3355.5257      20.452398     -3335.0733      20528.587      5703.8719    
   1817000   298.337       -3355.3405      19.281542     -3336.0589      18849.351      5703.8719    
   1818000   300.3071      -3355.1209      19.40887      -3335.712       18277.868      5703.8719    
   1819000   302.25344     -3355.9998      19.534662     -3336.4652      17936.761      5703.8719    
   1820000   304.78832     -3356.214       19.698491     -3336.5155      17884.806      5703.8719    
   1821000   303.10635     -3355.7569      19.589786     -3336.1671      18101.857      5703.8719    
   1822000   283.0397      -3354.1755      18.292876     -3335.8826      18750.851      5703.8719    
   1823000   294.61849     -3356.141       19.041214     -3337.0998      17896.559      5703.8719    
   1824000   291.32921     -3356.5521      18.828628     -3337.7235      18387.111      5703.8719    
   1825000   302.86444     -3356.3547      19.57415      -3336.7806      18285.541      5703.8719    
   1826000   316.00108     -3354.2695      20.423173     -3333.8463      20292.121      5703.8719    
   1827000   298.2534      -3355.4959      19.276139     -3336.2197      20605.848      5703.8719    
   1828000   303.20122     -3356.4533      19.595917     -3336.8574      15147.255      5703.8719    
   1829000   293.89107     -3355.7414      18.994201     -3336.7472      17993.465      5703.8719    
   1830000   308.47792     -3355.6228      19.93695      -3335.6859      17746.681      5703.8719    
   1831000   321.19048     -3355.1086      20.758564     -3334.35        18691.054      5703.8719    
   1832000   300.41976     -3356.6276      19.416151     -3337.2114      17415.249      5703.8719    
   1833000   292.40158     -3355.6578      18.897935     -3336.7598      18683.24       5703.8719    
   1834000   317.99063     -3355.1185      20.551757     -3334.5667      19152.654      5703.8719    
   1835000   318.04438     -3355.0773      20.555231     -3334.5221      18963.285      5703.8719    
   1836000   304.80667     -3354.9706      19.699677     -3335.2709      18969.461      5703.8719    
   1837000   289.608       -3355.1239      18.717386     -3336.4065      20791.582      5703.8719    
   1838000   287.44487     -3356.2387      18.577583     -3337.6611      20168.616      5703.8719    
   1839000   293.49319     -3355.6699      18.968486     -3336.7014      19485.533      5703.8719    
   1840000   304.63131     -3355.7774      19.688344     -3336.0891      20207.547      5703.8719    
   1841000   310.41023     -3354.8477      20.061835     -3334.7858      20606.634      5703.8719    
   1842000   315.98806     -3355.3921      20.422331     -3334.9698      19639.203      5703.8719    
   1843000   285.19942     -3355.0732      18.432459     -3336.6407      19910.412      5703.8719    
   1844000   306.61513     -3356.3346      19.816558     -3336.5181      19700.605      5703.8719    
   1845000   313.60461     -3355.9863      20.268289     -3335.718       19052.736      5703.8719    
   1846000   306.39708     -3355.0708      19.802466     -3335.2684      19897.145      5703.8719    
   1847000   312.1634      -3355.6646      20.175143     -3335.4895      16591.481      5703.8719    
   1848000   291.76471     -3355.2325      18.856774     -3336.3757      20027.577      5703.8719    
   1849000   278.62742     -3355.9073      18.00771      -3337.8996      18477.366      5703.8719    
   1850000   290.44132     -3355.9872      18.771244     -3337.216       17804.725      5703.8719    
   1851000   315.41975     -3354.2324      20.385602     -3333.8468      20848.294      5703.8719    
   1852000   300.99515     -3354.7869      19.453339     -3335.3335      20104.368      5703.8719    
   1853000   291.30542     -3355.4437      18.82709      -3336.6166      18097.643      5703.8719    
   1854000   318.20811     -3355.6656      20.565813     -3335.0998      17482.719      5703.8719    
   1855000   304.32055     -3355.4977      19.668259     -3335.8294      18535.384      5703.8719    
   1856000   298.7251      -3354.3227      19.306625     -3335.0161      19198.503      5703.8719    
   1857000   303.5341      -3355.756       19.617431     -3336.1385      19179.303      5703.8719    
   1858000   283.33704     -3356.7765      18.312093     -3338.4644      18556.097      5703.8719    
   1859000   295.428       -3355.542       19.093533     -3336.4484      20379.628      5703.8719    
   1860000   302.50283     -3355.734       19.55078      -3336.1832      18241.732      5703.8719    
   1861000   298.65744     -3355.8027      19.302252     -3336.5005      17818.998      5703.8719    
   1862000   294.76698     -3354.1382      19.050811     -3335.0874      21109.015      5703.8719    
   1863000   313.75096     -3355.5424      20.277747     -3335.2647      19827.511      5703.8719    
   1864000   299.84974     -3355.1836      19.379311     -3335.8043      17693.254      5703.8719    
   1865000   309.12226     -3356.4417      19.978594     -3336.4631      19096.236      5703.8719    
   1866000   304.38529     -3354.9964      19.672443     -3335.324       20017.851      5703.8719    
   1867000   305.04573     -3355.8574      19.715128     -3336.1423      18558.048      5703.8719    
   1868000   306.28933     -3356.4225      19.795501     -3336.627       18458.877      5703.8719    
   1869000   310.02613     -3356.7275      20.037011     -3336.6905      17953.775      5703.8719    
   1870000   288.63122     -3354.5088      18.654257     -3335.8545      19966.454      5703.8719    
   1871000   307.59496     -3354.6287      19.879885     -3334.7488      19465.06       5703.8719    
   1872000   311.28487     -3354.2948      20.118364     -3334.1764      20646.621      5703.8719    
   1873000   307.57406     -3356.2598      19.878534     -3336.3813      18134.079      5703.8719    
   1874000   303.66469     -3357.0633      19.625871     -3337.4374      18306.776      5703.8719    
   1875000   291.94839     -3355.6821      18.868646     -3336.8135      18728.778      5703.8719    
   1876000   307.52974     -3355.6512      19.875669     -3335.7755      18296.574      5703.8719    
   1877000   305.00557     -3355.144       19.712532     -3335.4315      19570.065      5703.8719    
   1878000   300.98299     -3356.3488      19.452552     -3336.8963      17941.222      5703.8719    
   1879000   303.80039     -3356.727       19.634641     -3337.0924      19425.301      5703.8719    
   1880000   300.12402     -3356.9356      19.397037     -3337.5386      18738.585      5703.8719    
   1881000   315.68448     -3356.2394      20.402711     -3335.8367      18766.047      5703.8719    
   1882000   311.65425     -3355.0662      20.142237     -3334.924       22673.62       5703.8719    
   1883000   307.21805     -3355.3028      19.855525     -3335.4473      19767.981      5703.8719    
   1884000   301.31403     -3356.5102      19.473948     -3337.0362      16845.519      5703.8719    
   1885000   287.4307      -3356.5343      18.576667     -3337.9576      19659.992      5703.8719    
   1886000   309.98871     -3356.538       20.034593     -3336.5034      17521.933      5703.8719    
   1887000   312.98035     -3355.4738      20.227943     -3335.2458      20014.722      5703.8719    
   1888000   301.6773      -3355.699       19.497426     -3336.2016      17593.905      5703.8719    
   1889000   305.97771     -3356.6533      19.775361     -3336.8779      18253.174      5703.8719    
   1890000   293.39163     -3357.1373      18.961922     -3338.1754      17695.116      5703.8719    
   1891000   311.50532     -3355.6961      20.132611     -3335.5635      21067.868      5703.8719    
   1892000   313.31649     -3356.3016      20.249667     -3336.052       19712.789      5703.8719    
   1893000   288.39399     -3356.7903      18.638924     -3338.1514      17175.276      5703.8719    
   1894000   278.69857     -3355.4989      18.012309     -3337.4866      19778.886      5703.8719    
   1895000   317.41178     -3356.6368      20.514346     -3336.1224      18523.474      5703.8719    
   1896000   311.88769     -3356.0178      20.157324     -3335.8605      16871.212      5703.8719    
   1897000   291.69219     -3356.3873      18.852087     -3337.5352      18377.3        5703.8719    
   1898000   295.55302     -3355.7346      19.101613     -3336.633       19562.573      5703.8719    
   1899000   312.24611     -3355.1297      20.180489     -3334.9492      20831.503      5703.8719    
   1900000   315.24645     -3354.5011      20.374401     -3334.1267      20778.781      5703.8719    
   1901000   311.56227     -3356.6015      20.136292     -3336.4652      20760.457      5703.8719    
   1902000   304.97602     -3356.9808      19.710623     -3337.2701      17438.053      5703.8719    
   1903000   308.36559     -3354.9         19.929691     -3334.9703      19619.743      5703.8719    
   1904000   311.04166     -3355.0578      20.102645     -3334.9551      18813.992      5703.8719    
   1905000   322.06923     -3355.1591      20.815358     -3334.3437      19087.165      5703.8719    
   1906000   305.81182     -3355.6485      19.76464      -3335.8839      18202.384      5703.8719    
   1907000   303.05237     -3356.0634      19.586297     -3336.4771      17614.507      5703.8719    
   1908000   308.73612     -3354.9519      19.953638     -3334.9983      20508.518      5703.8719    
   1909000   306.54176     -3355.3335      19.811816     -3335.5217      19632.436      5703.8719    
   1910000   314.35997     -3356.1985      20.317108     -3335.8814      19042.674      5703.8719    
   1911000   273.48136     -3355.2667      17.67512      -3337.5916      17315.478      5703.8719    
   1912000   301.06979     -3356.0524      19.458163     -3336.5943      20695.114      5703.8719    
   1913000   317.85417     -3355.4406      20.542938     -3334.8977      19154.772      5703.8719    
   1914000   308.71891     -3355.2301      19.952526     -3335.2776      19289.507      5703.8719    
   1915000   316.81434     -3356.4893      20.475734     -3336.0135      18499.755      5703.8719    
   1916000   300.22394     -3355.9844      19.403495     -3336.5809      20113.409      5703.8719    
   1917000   303.85543     -3355.035       19.638198     -3335.3968      17700.849      5703.8719    
   1918000   298.32064     -3354.6703      19.280484     -3335.3899      20559.213      5703.8719    
   1919000   301.17773     -3355.5543      19.465138     -3336.0892      17336.615      5703.8719    
   1920000   303.46424     -3356.8771      19.612916     -3337.2642      17110.243      5703.8719    
   1921000   290.18095     -3357.1162      18.754416     -3338.3618      17939.269      5703.8719    
   1922000   298.46577     -3355.4661      19.289864     -3336.1762      19213.972      5703.8719    
   1923000   300.68135     -3355.3518      19.433057     -3335.9187      19874.987      5703.8719    
   1924000   302.67161     -3356.1423      19.561688     -3336.5807      18617.349      5703.8719    
   1925000   299.54204     -3357.3359      19.359424     -3337.9765      17505.74       5703.8719    
   1926000   297.10647     -3356.6076      19.202013     -3337.4056      17872.684      5703.8719    
   1927000   302.87256     -3356.2618      19.574675     -3336.6871      17186.522      5703.8719    
   1928000   311.76474     -3355.2518      20.149378     -3335.1024      20698.606      5703.8719    
   1929000   299.28374     -3354.7502      19.34273      -3335.4074      18475.172      5703.8719    
   1930000   299.04999     -3355.458       19.327623     -3336.1304      19727.937      5703.8719    
   1931000   284.76955     -3357.0213      18.404676     -3338.6167      19170.04       5703.8719    
   1932000   292.54963     -3355.6778      18.907504     -3336.7702      20271.106      5703.8719    
   1933000   302.29163     -3355.6014      19.53713      -3336.0642      19361.365      5703.8719    
   1934000   286.91926     -3355.4734      18.543613     -3336.9298      17886.69       5703.8719    
   1935000   292.57246     -3357.2421      18.90898      -3338.3331      19294.748      5703.8719    
   1936000   305.31092     -3356.6603      19.732267     -3336.928       17546.097      5703.8719    
   1937000   294.39204     -3354.8229      19.026579     -3335.7963      22279.601      5703.8719    
   1938000   299.66151     -3355.8081      19.367145     -3336.441       19725.036      5703.8719    
   1939000   287.16054     -3356.2364      18.559207     -3337.6771      17570.774      5703.8719    
   1940000   293.09025     -3355.6834      18.942444     -3336.7409      19191.66       5703.8719    
   1941000   333.85728     -3354.6085      21.577221     -3333.0312      21001.992      5703.8719    
   1942000   294.22181     -3355.1326      19.015577     -3336.117       20605.132      5703.8719    
   1943000   281.05308     -3355.7161      18.164481     -3337.5516      20757.591      5703.8719    
   1944000   291.08457     -3355.4042      18.812817     -3336.5914      18847.537      5703.8719    
   1945000   302.54181     -3355.2044      19.553299     -3335.6511      20159.418      5703.8719    
   1946000   338.04209     -3355.3433      21.847685     -3333.4956      21258.849      5703.8719    
   1947000   299.22707     -3356.5595      19.339067     -3337.2204      18826.739      5703.8719    
   1948000   290.89158     -3355.9318      18.800344     -3337.1315      17971.146      5703.8719    
   1949000   314.22041     -3355.0429      20.308088     -3334.7348      18505.458      5703.8719    
   1950000   301.35988     -3355.746       19.476911     -3336.269       19302.112      5703.8719    
   1951000   300.74786     -3356.0529      19.437356     -3336.6156      18655.712      5703.8719    
   1952000   294.62677     -3354.2656      19.04175      -3335.2239      22238.423      5703.8719    
   1953000   311.66355     -3355.6968      20.142838     -3335.554       20606.134      5703.8719    
   1954000   298.66634     -3357.9895      19.302827     -3338.6867      17223.419      5703.8719    
   1955000   314.95091     -3356.3066      20.3553       -3335.9513      18371.482      5703.8719    
   1956000   320.73094     -3355.8748      20.728864     -3335.1459      17902.64       5703.8719    
   1957000   285.47338     -3357.8804      18.450165     -3339.4303      18618.266      5703.8719    
   1958000   306.5296      -3355.6191      19.81103      -3335.808       21259.193      5703.8719    
   1959000   302.35771     -3355.6381      19.541401     -3336.0967      19651.738      5703.8719    
   1960000   294.16883     -3356.8535      19.012153     -3337.8413      16774.724      5703.8719    
   1961000   278.90256     -3356.2288      18.025493     -3338.2033      17448.553      5703.8719    
   1962000   300.62105     -3355.9612      19.42916      -3336.532       18636.2        5703.8719    
   1963000   287.1045      -3355.5733      18.555585     -3337.0177      19826.966      5703.8719    
   1964000   297.644       -3354.9236      19.236754     -3335.6869      19183.129      5703.8719    
   1965000   304.7433      -3355.549       19.695581     -3335.8534      17839.268      5703.8719    
   1966000   292.73799     -3355.636       18.919678     -3336.7163      18490.653      5703.8719    
   1967000   300.90648     -3356.57        19.447608     -3337.1224      17410.008      5703.8719    
   1968000   306.86711     -3355.7805      19.832843     -3335.9477      18202.071      5703.8719    
   1969000   296.08704     -3354.7674      19.136127     -3335.6313      16961.405      5703.8719    
   1970000   292.86715     -3356.0021      18.928025     -3337.0741      20207.091      5703.8719    
   1971000   295.53485     -3355.4755      19.100438     -3336.375       18492.673      5703.8719    
   1972000   300.95501     -3354.5252      19.450744     -3335.0745      20650.604      5703.8719    
   1973000   302.89074     -3355.6264      19.575851     -3336.0506      20190.572      5703.8719    
   1974000   290.17951     -3355.2461      18.754323     -3336.4918      18316.009      5703.8719    
   1975000   286.36678     -3355.401       18.507906     -3336.8931      20843.003      5703.8719    
   1976000   295.06235     -3355.4943      19.069901     -3336.4244      19685.171      5703.8719    
   1977000   300.18345     -3353.7672      19.400878     -3334.3663      19897.914      5703.8719    
   1978000   313.87884     -3355.4225      20.286012     -3335.1364      18890.018      5703.8719    
   1979000   294.26377     -3356.07        19.018289     -3337.0517      17465.517      5703.8719    
   1980000   292.27124     -3355.1255      18.889511     -3336.236       20486.747      5703.8719    
   1981000   297.77828     -3355.3453      19.245432     -3336.0998      18462.307      5703.8719    
   1982000   297.33693     -3355.317       19.216907     -3336.1001      19395.575      5703.8719    
   1983000   282.49745     -3356.3253      18.257831     -3338.0675      19660.446      5703.8719    
   1984000   299.06049     -3356.408       19.328301     -3337.0797      18163.604      5703.8719    
   1985000   313.05673     -3356.0036      20.232879     -3335.7707      21409.217      5703.8719    
   1986000   305.71863     -3355.519       19.758617     -3335.7604      18295.801      5703.8719    
   1987000   303.32321     -3355.7768      19.603801     -3336.173       18957.829      5703.8719    
   1988000   285.78823     -3355.3894      18.470514     -3336.9189      20424.744      5703.8719    
   1989000   298.36021     -3355.3837      19.283042     -3336.1007      17523.386      5703.8719    
   1990000   307.1027      -3354.8884      19.84807      -3335.0404      16791.717      5703.8719    
   1991000   295.51445     -3355.5772      19.099121     -3336.4781      21380.994      5703.8719    
   1992000   295.12867     -3355.7165      19.074188     -3336.6423      19855.406      5703.8719    
   1993000   297.1694      -3354.3295      19.20608      -3335.1234      20626.818      5703.8719    
   1994000   316.95044     -3355.6103      20.48453      -3335.1258      19618.02       5703.8719    
   1995000   304.51974     -3355.0593      19.681133     -3335.3781      18753.338      5703.8719    
   1996000   273.74699     -3356.8305      17.692288     -3339.1382      18038.582      5703.8719    
   1997000   297.91705     -3355.6802      19.254401     -3336.4258      20440.704      5703.8719    
   1998000   290.96585     -3354.9686      18.805144     -3336.1634      20366.13       5703.8719    
   1999000   302.88665     -3356.315       19.575586     -3336.7394      18966.046      5703.8719    
   2000000   302.51118     -3356.0868      19.55132      -3336.5355      19447.269      5703.8719    
Loop time of 46790.3 on 1 procs for 1500000 steps with 501 atoms

Performance: 1.385 ns/day, 17.330 hours/ns, 32.058 timesteps/s, 16.061 katom-step/s
99.1% CPU use with 1 MPI tasks x 1 OpenMP threads

MPI task timing breakdown:
Section |  min time  |  avg time  |  max time  |%varavg| %total
---------------------------------------------------------------
Pair    | 45915      | 45915      | 45915      |   0.0 | 98.13
Neigh   | 0.32082    | 0.32082    | 0.32082    |   0.0 |  0.00
Comm    | 58.652     | 58.652     | 58.652     |   0.0 |  0.13
Output  | 4.6475     | 4.6475     | 4.6475     |   0.0 |  0.01
Modify  | 753.74     | 753.74     | 753.74     |   0.0 |  1.61
Other   |            | 58.12      |            |       |  0.12

Nlocal:            501 ave         501 max         501 min
Histogram: 1 0 0 0 0 0 0 0 0 0
Nghost:           2069 ave        2069 max        2069 min
Histogram: 1 0 0 0 0 0 0 0 0 0
Neighs:              0 ave           0 max           0 min
Histogram: 1 0 0 0 0 0 0 0 0 0
FullNghs:        66196 ave       66196 max       66196 min
Histogram: 1 0 0 0 0 0 0 0 0 0

Total # of neighbors = 66196
Ave neighs/atom = 132.12774
Neighbor list builds = 602
Dangerous builds = 0
EQUIL_RESULTS_START
  T_K          : 300
  pe_final_eV  : -3356.0868449088
  temp_final_K : 302.511182599128
  press_final  : 19447.2693285343
EQUIL_RESULTS_END
System init for write_restart ...
System init for write_data ...
Total wall time: 17:21:30
/home/akinyemi.az/miniforge3/envs/mace-lammps/lib/python3.11/tempfile.py:934: ResourceWarning: Implicitly cleaning up <TemporaryDirectory '/tmp/tmpgduqczq_'>
  _warnings.warn(warn_message, ResourceWarning)
T=300K End: Mon Apr 27 11:04:03 PM EDT 2026
