LAMMPS data file via write_data, version 11 Feb 2026, timestep = 184, units = metal

361 atoms
8 atom types

0 12.447907776 xlo xhi
0 12.9362452296 ylo yhi
0 52.3600831054 zlo zhi

Masses

1 26.9815
2 10.811
3 12.011
4 51.9961
5 55.845
6 95.95999999999999
7 58.6934
8 1.008

Atoms # atomic/kk

1 7 1.1447475034 1.4042530815 14.1767669076 0 0 0
2 7 3.6084602259 1.0698845996 14.6704381247 0 0 0
3 5 6.0765506298 0.9467816033 14.9127945674 0 0 0
9 7 7.3904254576 3.1552415677 14.921343358 0 0 0
5 7 11.0497419237 1.2529911546 14.6024861837 0 0 0
6 7 12.371824795299998 3.4559595715 14.8227813157 -1 0 0
10 7 9.9130540797 3.3904065996 14.7812471609 0 0 0
16 4 0.4694173902 7.8125304368 14.7997570607 0 0 0
20 7 10.4454755951 7.6697182118 14.1848688757 0 0 0
26 7 0.1281197666 12.2044764222 14.9105894271 0 0 0
27 7 2.482376412 11.8082341077 14.4640395444 0 0 0
23 7 6.9215809143 9.0056325864 14.7794199109 0 0 0
28 7 4.9597127568 11.7869866321 14.6074736033 0 0 0
29 6 7.487468691 11.492489151 14.9214469503 0 0 0
24 7 9.211267288 9.7383043985 14.542324574 0 0 0
25 7 11.7628351674 9.8745411843 14.7910184475 0 0 0
30 7 10.0617556164 11.945152431 14.7619795889 0 0 0
7 7 2.4276438825 3.274586701 14.9921379853 0 0 0
31 6 0.1320668178 1.5666912763 16.54569988 0 0 0
32 7 2.6047881521 1.6851371804 16.9156842324 0 0 0
36 7 1.2195215325 3.8560608354 17.0299024962 0 0 0
37 7 3.7103479774 3.8371572501 17.0572271382 0 0 0
56 2 1.9139638832 0.320698286899999 15.6094045829 0 1 0
8 7 4.9287232821 3.1271355871 15.0109940309 0 0 0
33 7 4.9854693445 1.6648399647 16.9552168616 0 0 0
34 7 7.410113639 1.7690174525 16.9802513671 0 0 0
38 5 6.1786870847 3.8598965293 16.9892925392 0 0 0
4 6 8.6405916037 0.9966073374 15.0011028893 0 0 0
35 7 9.9854439602 1.6623584179 16.9441720819 0 0 0
39 7 8.7306918901 3.8627101762 16.8623801969 0 0 0
40 7 11.1905275305 3.8067890199 17.0006893521 0 0 0
11 7 1.2348702966 5.4950064056 15.0806985502 0 0 0
12 7 3.723333195 5.3162088046 15.091556138 0 0 0
17 7 2.6528824888 7.4951525199 15.1538371669 0 0 0
42 7 2.4538170063 6.1274901805 17.1415379148 0 0 0
47 7 3.8866203033 8.1976953877 17.0635533141 0 0 0
13 7 6.1787690715 5.3054540189 15.034535629 0 0 0
18 7 5.0798141029 7.4787706901 15.0688046453 0 0 0
19 2 7.0597951203 7.0189274967 15.3897174295 0 0 0
43 7 4.9526824561 5.9628190941 17.0949149841 0 0 0
44 7 7.4770692341 5.9405064365 17.0881545432 0 0 0
48 7 6.3467693742 8.0549577382 17.0498728177 0 0 0
14 7 8.7041968087 5.6586120419 14.9658205562 0 0 0
15 6 11.1806031706 5.6044565055 15.1850152514 0 0 0
41 7 12.442168210099998 5.9982391836 17.2267436521 -1 0 0
45 7 9.923455112 6.0385351278 17.2532666192 0 0 0
49 7 8.7166078523 7.9219477302 16.0697967416 0 0 0
50 7 11.1854260308 7.9909608595 16.4539207548 0 0 0
85 6 9.7874825474 8.473382021 18.5408467256 0 0 0
21 2 1.1654244367 10.4783622607 15.2130316912 0 0 0
22 7 2.969847795 9.8650340587 15.6453950804 0 0 0
46 7 0.7946061559 9.3672820405 16.8749701293 0 0 0
52 7 1.3503573598 11.8646523864 16.9891542204 0 0 0
57 7 3.753873893 12.4366743176 16.6098759546 0 0 0
87 1 3.6650451701 10.7156807278 18.2659007397 0 0 0
53 7 5.3358928559 10.1219872041 16.3275402765 0 0 0
54 7 7.7336051436 10.0538114804 16.9470367537 0 0 0
58 6 6.3195663174 12.3667352783 16.9550847684 0 0 0
51 3 11.519673145099999 9.370279149 17.6624171524 -1 0 0
55 7 10.1852587848 10.2759719364 16.6816821896 0 0 0
59 7 8.8367077706 12.3810361477 16.9622360876 0 0 0
60 7 11.2428990064 12.4670428062 16.882988677 0 0 0
66 6 1.393007034 2.1659191631 19.0534804658 0 0 0
67 5 3.8310712323 2.169749835 19.077551421 0 0 0
91 4 1.3610097719 0.7490016766 21.3001474804 0 0 0
92 7 3.7532698079 0.7243006354 21.0553737996 0 0 0
96 7 0.082079932 2.7970216106 21.1874527472 0 0 0
97 7 2.5927240934 2.8497939446 21.1992924965 0 0 0
63 5 4.9567742477 0.0529982254 18.9618634931 0 0 0
64 7 7.4416746235 0.0821708056 19.1014191477 0 0 0
68 7 6.1949360288 2.1588642027 19.0801897325 0 0 0
74 6 7.5018096017 4.2853629911 19.0547359126 0 0 0
93 7 6.2598414465 0.7194660822 21.17367312 0 0 0
98 7 5.0257186556 2.8737258399 21.1536837203 0 0 0
99 5 7.4793105556 2.8150634673 21.1692986238 0 0 0
65 7 10.0018085899 0.0802466939 19.0961651875 0 0 0
69 7 8.7385472152 2.1539822136 18.9954608723 0 0 0
70 7 11.2870638013 2.2382207273 18.9541707741 0 0 0
75 5 9.908720947 4.3054275401 19.0335874063 0 0 0
94 7 8.7140507513 0.7135233683 21.2362014867 0 0 0
95 7 11.3045523296 0.6704651065 21.199536471 0 0 0
100 6 10.0309211856 2.7845552589 21.0550342549 0 0 0
72 7 2.4838430183 4.388962084 19.1070457725 0 0 0
76 7 1.200144222 6.4346976141 19.2600213636 0 0 0
77 7 3.7839563224 6.5073099035 19.1651823211 0 0 0
82 6 2.3588605673 8.4890673053 18.9154467805 0 0 0
101 7 1.204403147 4.986371594 21.2593935642 0 0 0
102 6 3.7298053141 5.0424743752 21.2297752978 0 0 0
107 7 2.4685484599 7.1728356576 21.2326094282 0 0 0
73 7 4.9759755061 4.316411451 19.087212733 0 0 0
78 7 6.1965388899 6.5190956683 19.1399785413 0 0 0
103 7 6.2751972116 5.0470676015 21.1760724515 0 0 0
108 7 5.0116983743 7.22861409 21.2268755354 0 0 0
109 7 7.4193353481 7.2485706051 21.2651304498 0 0 0
71 1 12.383629132 4.3782094725 19.1862342201 -1 0 0
79 7 8.6255974932 6.472044202 19.3232968982 0 0 0
80 7 11.1135754549 6.420590323 19.3581641471 0 0 0
81 4 12.342695017999999 8.4729562787 19.2006565517 -1 0 0
104 7 8.7408050898 5.0231569879 21.2437432022 0 0 0
105 3 10.08429156310781 4.371948475969943 22.288625754859925 0 0 0
106 7 12.435294388199999 7.0968971559 21.3158557077 -1 0 0
110 7 9.8903603607 7.1660305315 21.3021949042 0 0 0
61 6 0.0477387397 12.935022616100001 18.9949290075 0 -1 0
62 7 2.587482576 12.8543346047 19.0383469717 0 -1 0
86 7 1.2816847716 10.6903307998 19.1614661098 0 0 0
111 7 1.1796694452 9.2896516501 21.1960342799 0 0 0
112 6 3.7016357908 9.3557762036 21.1431867319 0 0 0
116 1 0.0369839214 11.486698451 21.2977096144 0 0 0
117 7 2.4704264091 11.5284142583 21.1452899236 0 0 0
83 7 4.9462384898 8.7330200409 19.0834474924 0 0 0
84 7 7.3974678157 8.6397297376 19.085743402 0 0 0
88 7 6.1625171869 10.8013148416 18.9301045672 0 0 0
113 7 6.2139769728 9.4092095126 21.0353192467 0 0 0
118 7 4.9639845145 11.5407295129 21.0425881559 0 0 0
119 4 7.3995383715 11.5362046003 21.0747824702 0 0 0
89 6 8.731338748 10.8500854071 19.0384744744 0 0 0
90 4 11.272219843 10.8209844576 18.9386324767 0 0 0
114 7 8.6997099562 9.3160354633 20.9928929717 0 0 0
115 6 11.109001975 9.2519683408 21.1755872983 0 0 0
120 7 9.9858618188 11.5164614705 21.1821863062 0 0 0
121 7 0.07745471515824971 1.3735703815691147 23.31374492527433 0 0 0
122 7 2.5688366102567803 1.3854542721725407 23.333237762479932 0 0 0
126 6 1.3483938538725058 3.56823840360933 23.269400502759606 0 0 0
127 7 3.843902595867905 3.571962013220492 23.365235071626326 0 0 0
156 1 1.4730191597405513 2.1119465951744707 25.518785374181974 0 0 0
157 7 3.9591310797741124 2.1185557366101575 25.4476945789649 0 0 0
162 7 2.591923941634144 4.244219614097204 25.43147037219942 0 0 0
123 7 4.985820086521494 1.4106439461191176 23.16603084864062 0 0 0
124 7 7.38725248143377 1.4816305606202798 23.49055491437938 0 0 0
128 7 6.2968220999255795 3.6454638453653416 23.187216744161514 0 0 0
153 7 5.190572891900446 0.053604431730532046 25.296903377993488 0 0 0
158 2 5.769019133047247 2.4386513310322613 24.632755135041986 0 0 0
163 7 5.111284548705142 4.225369659459745 25.424698760406343 0 0 0
164 5 7.470472464208522 4.042467345042779 25.363738716889166 0 0 0
125 7 10.036475950195511 1.4078588745437453 23.358693727643978 0 0 0
129 7 8.74456669909459 3.526469420569349 23.351322814801403 0 0 0
130 4 11.36010761392399 3.59664944777718 23.406269925156984 0 0 0
155 4 10.112704928532374 0.04202974670580564 25.562732166434483 0 0 0
159 7 8.862811434272105 2.0787930791150315 25.45174067811249 0 0 0
160 7 11.394119875361609 2.1343304605752405 25.425132181476695 0 0 0
165 7 10.05862164247187 4.1967730429990935 25.416162856730562 0 0 0
131 7 0.06368249163818188 5.750713720688318 23.407513796078646 0 0 0
132 7 2.5352991400158027 5.778877709997332 23.3638674494357 0 0 0
136 7 1.2955141175042908 7.89237496247555 23.308509368461767 0 0 0
137 7 3.769238941572373 7.960029902196067 23.281786063363178 0 0 0
161 4 0.10186657461785671 4.319434318494434 25.472782468459194 0 0 0
166 7 1.3301213844740043 6.3935402963087755 25.433942695282838 0 0 0
167 7 3.8005131735517614 6.417464596635855 25.44623357275891 0 0 0
171 6 0.10154909742509018 8.592185188944098 25.434143690555022 0 0 0
172 7 2.6148158001200406 8.587453402765687 25.37932506949209 0 0 0
133 6 5.057723114921408 5.838050330968636 23.390974248355406 0 0 0
134 7 7.55208463825413 5.757124294337431 23.3186205077896 0 0 0
138 7 6.302696987621714 7.975366841533347 23.344658143218453 0 0 0
168 7 6.3579354213440205 6.374354538262619 25.436623589572765 0 0 0
173 7 5.096917769531237 8.532869108942132 25.335762166025575 0 0 0
135 7 10.056864027638083 5.803571782335118 23.39202069104244 0 0 0
139 4 8.686415175311279 7.920727056729749 23.248618124370353 0 0 0
140 4 11.27423927478232 7.868186371122705 23.322134221194236 0 0 0
169 7 8.768327238898394 6.308937931207293 25.387786115586863 0 0 0
170 7 11.28165400685282 6.38593306677214 25.45291581050611 0 0 0
175 6 9.877074123843302 8.545038410304134 25.528718963488544 0 0 0
141 7 0.012037222216362185 10.045599297742633 23.34790117267569 0 0 0
142 7 2.4880726566173066 10.084155221627181 23.25853149152824 0 0 0
146 7 1.2943663355273491 12.2131442825765 23.35454993945638 0 0 0
147 7 3.798520734278303 12.222473073240138 23.183961288530526 0 0 0
151 4 0.08458630747357787 12.852832166531643 25.419775072501146 0 -1 0
152 7 2.6470338088280307 12.922441802286544 25.377637283336018 0 -1 0
176 7 1.3341890743293219 10.777059957287625 25.43570765504718 0 0 0
177 6 3.871601767023448 10.795022850034501 25.277378900741233 0 0 0
143 7 5.046862636573993 10.083424889120272 23.18512987558169 0 0 0
144 7 7.497245115451727 10.067321463261056 22.924021493236864 0 0 0
148 4 6.204554679576992 12.24865646549126 23.189488014880286 0 0 0
154 7 7.593211375816282 12.920991346223314 25.479884494175252 0 -1 0
178 6 6.609091836130018 10.521568561442995 25.224566034354897 0 0 0
145 7 9.987652134827291 10.052274754814418 23.32026175625388 0 0 0
149 6 8.699818107832133 12.250506794383991 23.33464300833013 0 0 0
150 7 11.238939484084726 12.195798609767593 23.41031190827586 0 0 0
174 3 8.405582370860344 9.487578521227096 24.428221808162455 0 0 0
179 5 8.990178342468507 10.900421854366753 25.588372719275373 0 0 0
180 5 11.327843560493175 10.84465687641859 25.51186813418297 0 0 0
181 7 1.3838185315037883 0.6438572827966236 27.50135628205722 0 0 0
182 7 3.8704859996662573 0.6813653497550883 27.441076753476615 0 0 0
186 7 0.16539254450883786 2.835961403816873 27.499453517693585 0 0 0
187 7 2.654191235634873 2.83122733072456 27.572614707083282 0 0 0
211 7 0.2046380964318804 1.423694734223231 29.597729006204897 0 0 0
212 7 2.7069116212261304 1.3390952978999093 29.587087142432495 0 0 0
216 7 1.4053862867439197 3.5329891066733716 29.59627364714917 0 0 0
217 4 3.8188439181269214 3.551223982705485 29.605401710223113 0 0 0
183 7 6.303898442317597 0.6937654787617132 27.578409800380616 0 0 0
188 7 5.077263592001581 2.852089715253774 27.58228764287124 0 0 0
189 7 7.589370029973231 2.7713602549491383 27.469538211036255 0 0 0
213 5 5.129593303600091 1.4052432877814647 29.608789164206453 0 0 0
214 7 7.607786424581083 1.3333502532727652 29.601221733354613 0 0 0
218 7 6.3582019974911 3.5150688594463575 29.550493029906324 0 0 0
184 7 8.880163768840337 0.6971741517198944 27.57566384977731 0 0 0
185 4 11.378133916039722 0.7005704209526469 27.548150949664294 0 0 0
190 7 10.139294836341536 2.809701129622407 27.49788542957629 0 0 0
215 7 10.119364022458575 1.381955073723769 29.642029081944973 0 0 0
219 7 8.833631199428075 3.489901318436509 29.538289062590824 0 0 0
220 7 11.364089902652058 3.5372833835525976 29.530236416699626 0 0 0
191 7 1.3850153793084814 4.984639934951886 27.478809075891746 0 0 0
192 7 3.8276549116307996 4.9684041342260885 27.488028399877333 0 0 0
196 7 0.13012945808996337 7.135459947520926 27.50574426329236 0 0 0
197 7 2.572888205019245 7.171600855074224 27.48044316546537 0 0 0
221 7 0.11432546038326633 5.7050230532125745 29.57981828952784 0 0 0
222 7 2.585137170799088 5.706888070635708 29.55691219121418 0 0 0
226 7 1.358265474297468 7.882117696607558 29.55786299325171 0 0 0
227 7 3.8553611839681667 7.892491220689856 29.472195581742707 0 0 0
193 7 6.364033865474382 4.953778523418163 27.419478588891298 0 0 0
198 7 5.096671146307255 7.152113633123697 27.416418068661052 0 0 0
199 7 7.6159344780414004 7.166882598475144 27.45425910517463 0 0 0
223 6 5.147239503627311 5.699452580448787 29.495409907406877 0 0 0
224 7 7.638613983321481 5.716326627781769 29.587967959812335 0 0 0
228 7 6.388930369154377 7.891569023453737 29.49687483294596 0 0 0
194 6 8.842183975155653 4.974713709288414 27.500376516899166 0 0 0
195 7 11.35486781918692 4.972010765524 27.515978142927676 0 0 0
200 7 10.11816214069741 7.1354174676252455 27.54818055111008 0 0 0
225 7 10.095989060682617 5.718983886276886 29.614171627395773 0 0 0
229 7 8.841119704753616 7.861215480127722 29.533710197517813 0 0 0
230 7 11.36322207504635 7.908838902860832 29.534526164295517 0 0 0
201 5 1.3729590881936184 9.30415653892863 27.520623274779243 0 0 0
202 7 3.8663840674086405 9.300128704372613 27.379824005635513 0 0 0
206 4 0.18147223517964678 11.455762237304329 27.532411640896274 0 0 0
207 7 2.6052393415134265 11.436575114798456 27.443103140893957 0 0 0
231 7 0.15976707837481313 10.057939663946895 29.577549011272517 0 0 0
232 7 2.628255688902168 10.00628219171801 29.431645959424348 0 0 0
236 7 1.4675132376146165 12.162566311819047 29.561319784057588 0 0 0
203 7 6.369244059573964 9.26443339206353 27.392781123754975 0 0 0
208 7 5.1323151092640185 11.479784742165691 27.324662508309206 0 0 0
209 6 7.5763866072821875 11.50345333378878 27.64665059273624 0 0 0
233 7 5.143899068412319 10.035044493325126 29.327480563949074 0 0 0
234 7 7.595668753365808 10.067007795893943 29.670744828208772 0 0 0
238 7 6.2067781190835 12.216145606771969 29.686959602721227 0 0 0
204 7 8.833336880662015 9.347174960732886 27.6315420712324 0 0 0
205 7 11.339500798304623 9.39431002597366 27.555353260062354 0 0 0
210 7 10.145437385767952 11.532202134906658 27.593520393936846 0 0 0
235 7 10.080083058664437 10.157964807589984 29.611082532601625 0 0 0
239 4 8.873453358341846 12.233129512727185 29.74175983931185 0 0 0
240 7 11.39080178213462 12.246003593404158 29.571561550415822 0 0 0
237 3 4.02866747839198 0.27348912161807304 30.56006480717264 0 1 0
241 7 0.19628203728563753 0.08338074191865034 31.64237285862673 0 0 0
242 7 2.5637162915932095 0.1264850433393952 31.746021100091536 0 0 0
246 4 1.3383359871787375 2.22771406599664 31.674153174188792 0 0 0
247 7 3.8744527459828206 2.137857322761396 31.649884782284577 0 0 0
251 7 0.14190592116276043 4.310420730549915 31.65844885139055 0 0 0
252 7 2.6274468218408225 4.305935323536947 31.673740638848983 0 0 0
248 7 6.401544092112059 2.1347920933023574 31.654782283252615 0 0 0
253 7 5.106582822138152 4.295899464719838 31.628543796119565 0 0 0
254 7 7.6156400713086105 4.296231757107054 31.598542934370535 0 0 0
249 7 8.845866034159048 2.0879048254292134 31.693646240901074 0 0 0
250 7 11.378125586314502 2.123731475471046 31.66991757819566 0 0 0
255 1 10.101104073477401 4.204422369338325 31.512436891891106 0 0 0
256 7 1.3232022730875856 6.489096252753391 31.640881357559156 0 0 0
257 6 3.786072947295957 6.488875123527713 31.665846113993748 0 0 0
286 7 0.08655876198475702 7.2660673580103055 33.631579000976956 0 0 0
258 7 6.345713569943062 6.480699863633851 31.62628122968403 0 0 0
264 7 7.583881876579066 8.56431491479785 31.62872790480156 0 0 0
259 4 8.814305828425892 6.446694079045804 31.635282973222395 0 0 0
260 7 11.308579294981623 6.474164193385085 31.604090136036127 0 0 0
284 5 8.88078706558048 5.102844481852891 33.58366279096205 0 0 0
285 4 11.344202551665619 5.138789962664106 33.64989276489308 0 0 0
290 7 10.076842725477709 7.243512365990464 33.60476724892607 0 0 0
261 7 0.17173826452668264 8.695096229706525 31.660516159893927 0 0 0
262 7 2.6588884811725895 8.707148971226054 31.533548160370408 0 0 0
266 7 1.5585380854444897 10.819561515899679 31.57752783928925 0 0 0
267 4 3.912948048723263 11.260701921864555 30.858778015924376 0 0 0
292 7 3.9555750320425567 9.363304605175701 33.502099441705454 0 0 0
243 7 5.16179938891494 12.89010848243134 32.10505778455863 0 -1 0
244 7 7.621590057147362 12.922864778102692 31.721065813276574 0 -1 0
263 1 5.089100552093808 8.747844293842931 31.42275954770221 0 0 0
268 7 6.2536753288793845 10.74882365254676 31.58572358003134 0 0 0
293 4 6.446343312135564 9.30367118491046 33.65466329434354 0 0 0
245 7 10.10574019451834 12.870539848747082 31.881555692413933 0 -1 0
265 6 10.096610009954643 8.667137904016487 31.553694267899413 0 0 0
269 7 8.767881403535844 10.785304181513085 31.759059789135627 0 0 0
270 7 11.423154723608237 10.89190822355275 31.625111780180575 0 0 0
296 3 11.069103318618659 11.819766371159071 33.34368933568161 -1 0 0
271 7 1.4738992291395407 0.8914671647760284 33.78377384124118 0 0 0
272 7 3.9190746848114753 0.9461651083490271 33.9306041324187 0 0 0
276 7 0.17532758533041162 2.9825377669545765 33.74315057067521 0 0 0
277 7 2.6405054480157886 3.069690797939962 33.80516247531948 0 0 0
301 7 0.19209782974002693 1.5465240893987686 35.765786382122755 0 0 0
302 7 2.616337937078312 1.6623341088582915 35.86670626341309 0 0 0
306 4 1.4017174817373754 3.83099419084731 35.96302911953354 0 0 0
307 7 3.995362838088467 3.721216673885864 35.83960577964376 0 0 0
273 7 6.460726440792964 0.958612056038698 33.907792318539144 0 0 0
278 1 5.2155620636103475 2.9844297767430645 33.72999846368744 0 0 0
279 7 7.722875810776414 3.0282984459801385 33.74085312557629 0 0 0
303 7 5.247923731109894 1.653971638650158 35.94515551087623 0 0 0
304 4 7.760955511690653 1.6193196422374292 35.93311443973311 0 0 0
308 7 6.523269322847988 3.6988829230438025 35.8113939608636 0 0 0
274 7 8.837374893106878 0.8876363332216196 33.85279483604682 0 0 0
275 4 11.441039618009619 0.7862877614841286 33.72364644148001 0 0 0
280 7 10.201053454027832 2.9874249563130633 33.7215824704234 0 0 0
305 7 10.229629550801418 1.5627337528639833 35.73190218051695 0 0 0
309 7 9.00837132211453 3.660121088603877 35.79580271739873 0 0 0
310 4 11.565173831282731 3.9210716390288556 35.88883119363667 0 0 0
281 7 1.3207129992042341 5.170019363199395 33.8599112351664 0 0 0
282 4 3.84489224792149 5.123863646724673 33.771194390787315 0 0 0
287 7 2.6264601226375155 7.276502711378341 33.74632897392494 0 0 0
312 7 2.723810868363232 5.776871541961786 35.784595093765695 0 0 0
316 7 1.2074668789893135 7.588637132983254 35.79235381620905 0 0 0
317 7 3.9227754219879425 8.05242112889391 35.73227634916152 0 0 0
283 7 6.371973716702082 5.086388742825868 33.671986348311634 0 0 0
288 7 5.177696309143201 7.259000372596647 33.66874832373919 0 0 0
289 7 7.625512205842288 7.17304510031361 33.71998797511656 0 0 0
313 7 5.255665143864704 5.906722991934139 35.718387731449994 0 0 0
314 7 7.705579714474017 5.806882673673 35.74739438399639 0 0 0
318 4 6.548255020786825 8.109209171472811 35.81428793659386 0 0 0
311 2 12.374942620055991 5.9780579280123955 35.33090995871476 -1 0 0
315 7 10.126085462928085 5.7925951143181065 35.586167702421534 0 0 0
319 7 8.948202915883776 7.944755784667548 35.849835032623915 0 0 0
320 7 11.341667166705234 7.9191524504350035 35.6006570921965 0 0 0
350 7 11.67652450721423 6.252396143723372 37.29810019767863 0 0 0
355 3 10.43165420808687 7.90169161929181 37.28407914496918 0 0 0
291 7 1.4641987155455585 9.4136282948353 33.73191842657231 0 0 0
297 6 3.0197953444889554 11.563858670101297 33.67598757008788 0 0 0
321 6 0.20956996623942653 10.051560801245602 35.90960869971286 0 0 0
322 7 2.6973367474156715 10.189469759221502 35.7634207944045 0 0 0
326 7 0.503394329368304 11.640504322818163 33.683040228364156 0 0 0
327 6 3.9165731879550987 12.497366841039094 36.11012539019014 0 0 0
356 4 1.3948906852704692 12.350360026438132 35.85178172672382 0 0 0
298 2 5.1968982435179525 12.27521189282883 34.210398748145536 0 0 0
299 7 6.985794295073478 11.561957715345926 33.68548341442925 0 0 0
323 6 5.2284924543190066 10.227722539220965 35.57635797357424 0 0 0
324 7 7.906078096700647 10.33868991244992 35.71640332426241 0 0 0
328 7 6.4646152010305284 12.50302692551685 35.92074647214743 0 0 0
294 7 8.764264241451517 9.26889725106216 33.70632743976722 0 0 0
295 6 11.263056467875579 9.684245353289297 33.7701679015312 0 0 0
300 7 9.371716417264292 11.530002212479078 34.167453994929154 0 0 0
325 7 10.253487177019858 9.84197498032356 37.02401251011612 0 0 0
329 3 9.522775416725862 11.397050118687007 36.19499314420238 0 0 0
330 4 11.255866562676886 12.06110417999725 35.57388674043699 0 0 0
335 5 9.903355285669358 12.906843430302139 37.384443893847724 0 -1 0
332 7 2.4816953741162395 0.09158902718150043 38.03974086708134 0 0 0
336 7 1.336451298951263 2.1773189380583013 37.841161006009926 0 0 0
337 7 3.878452152995731 2.1857642857418433 37.86971470478055 0 0 0
341 7 0.21726121761256084 4.237937312900112 38.08392556135748 0 0 0
342 7 2.716017874028062 4.282085283014161 37.92245961220266 0 0 0
333 7 5.215726105439155 0.1532929669256882 38.121152212699634 0 0 0
334 7 7.6440292565446635 0.06109641238065846 38.00934217896967 0 0 0
338 7 6.526823475358959 2.2646054784245093 37.907156867414976 0 0 0
339 7 8.987162202458428 2.1803480188165807 37.871277174249464 0 0 0
340 7 11.36470403183857 2.1834305528858606 37.73446749205359 0 0 0
346 7 1.5127108937026317 6.397755647717447 37.99926286910745 0 0 0
347 6 3.9567068579345546 6.467367484795861 37.767445753173114 0 0 0
343 7 5.311435265014356 4.429139454701015 37.83879561265007 0 0 0
344 7 7.825641258602124 4.421077653604769 37.88985240200563 0 0 0
348 6 6.647960329892967 6.675649250908657 37.81926941762791 0 0 0
345 4 10.224567343617103 4.326439501677998 37.83710559889664 0 0 0
349 7 9.259040978980892 6.644368354644068 37.941299492024626 0 0 0
351 7 12.238765863437962 8.553707688517056 37.844905827811445 -1 0 0
361 8 8.895854868174238 5.313159685090008 38.871938789465986 0 0 0
352 6 2.4808016999280396 8.654668224374882 37.68766444278866 0 0 0
357 7 3.8388249165021255 10.801227011806061 37.954801136109424 0 0 0
360 7 1.3828139649660014 10.895372877739995 37.893941758995865 1 0 0
353 7 5.114725172395737 8.693174218651 37.82439672497201 0 0 0
354 7 7.963903871970219 8.944820482148234 37.82553128701988 0 0 0
358 6 6.417092633357377 10.840775947032416 37.792844309458154 0 0 0
331 7 12.387035493654963 12.879527841067278 37.62944122486944 -1 -1 0
359 2 8.591604302282978 11.173266436025777 37.416505180382956 0 0 0

Velocities

1 0 0 0
2 0 0 0
3 0 0 0
9 0 0 0
5 0 0 0
6 0 0 0
10 0 0 0
16 0 0 0
20 0 0 0
26 0 0 0
27 0 0 0
23 0 0 0
28 0 0 0
29 0 0 0
24 0 0 0
25 0 0 0
30 0 0 0
7 0 0 0
31 0 0 0
32 0 0 0
36 0 0 0
37 0 0 0
56 0 0 0
8 0 0 0
33 0 0 0
34 0 0 0
38 0 0 0
4 0 0 0
35 0 0 0
39 0 0 0
40 0 0 0
11 0 0 0
12 0 0 0
17 0 0 0
42 0 0 0
47 0 0 0
13 0 0 0
18 0 0 0
19 0 0 0
43 0 0 0
44 0 0 0
48 0 0 0
14 0 0 0
15 0 0 0
41 0 0 0
45 0 0 0
49 0 0 0
50 0 0 0
85 0 0 0
21 0 0 0
22 0 0 0
46 0 0 0
52 0 0 0
57 0 0 0
87 0 0 0
53 0 0 0
54 0 0 0
58 0 0 0
51 0 0 0
55 0 0 0
59 0 0 0
60 0 0 0
66 0 0 0
67 0 0 0
91 0 0 0
92 0 0 0
96 0 0 0
97 0 0 0
63 0 0 0
64 0 0 0
68 0 0 0
74 0 0 0
93 0 0 0
98 0 0 0
99 0 0 0
65 0 0 0
69 0 0 0
70 0 0 0
75 0 0 0
94 0 0 0
95 0 0 0
100 0 0 0
72 0 0 0
76 0 0 0
77 0 0 0
82 0 0 0
101 0 0 0
102 0 0 0
107 0 0 0
73 0 0 0
78 0 0 0
103 0 0 0
108 0 0 0
109 0 0 0
71 0 0 0
79 0 0 0
80 0 0 0
81 0 0 0
104 0 0 0
105 0 0 0
106 0 0 0
110 0 0 0
61 0 0 0
62 0 0 0
86 0 0 0
111 0 0 0
112 0 0 0
116 0 0 0
117 0 0 0
83 0 0 0
84 0 0 0
88 0 0 0
113 0 0 0
118 0 0 0
119 0 0 0
89 0 0 0
90 0 0 0
114 0 0 0
115 0 0 0
120 0 0 0
121 0 0 0
122 0 0 0
126 0 0 0
127 0 0 0
156 0 0 0
157 0 0 0
162 0 0 0
123 0 0 0
124 0 0 0
128 0 0 0
153 0 0 0
158 0 0 0
163 0 0 0
164 0 0 0
125 0 0 0
129 0 0 0
130 0 0 0
155 0 0 0
159 0 0 0
160 0 0 0
165 0 0 0
131 0 0 0
132 0 0 0
136 0 0 0
137 0 0 0
161 0 0 0
166 0 0 0
167 0 0 0
171 0 0 0
172 0 0 0
133 0 0 0
134 0 0 0
138 0 0 0
168 0 0 0
173 0 0 0
135 0 0 0
139 0 0 0
140 0 0 0
169 0 0 0
170 0 0 0
175 0 0 0
141 0 0 0
142 0 0 0
146 0 0 0
147 0 0 0
151 0 0 0
152 0 0 0
176 0 0 0
177 0 0 0
143 0 0 0
144 0 0 0
148 0 0 0
154 0 0 0
178 0 0 0
145 0 0 0
149 0 0 0
150 0 0 0
174 0 0 0
179 0 0 0
180 0 0 0
181 0 0 0
182 0 0 0
186 0 0 0
187 0 0 0
211 0 0 0
212 0 0 0
216 0 0 0
217 0 0 0
183 0 0 0
188 0 0 0
189 0 0 0
213 0 0 0
214 0 0 0
218 0 0 0
184 0 0 0
185 0 0 0
190 0 0 0
215 0 0 0
219 0 0 0
220 0 0 0
191 0 0 0
192 0 0 0
196 0 0 0
197 0 0 0
221 0 0 0
222 0 0 0
226 0 0 0
227 0 0 0
193 0 0 0
198 0 0 0
199 0 0 0
223 0 0 0
224 0 0 0
228 0 0 0
194 0 0 0
195 0 0 0
200 0 0 0
225 0 0 0
229 0 0 0
230 0 0 0
201 0 0 0
202 0 0 0
206 0 0 0
207 0 0 0
231 0 0 0
232 0 0 0
236 0 0 0
203 0 0 0
208 0 0 0
209 0 0 0
233 0 0 0
234 0 0 0
238 0 0 0
204 0 0 0
205 0 0 0
210 0 0 0
235 0 0 0
239 0 0 0
240 0 0 0
237 0 0 0
241 0 0 0
242 0 0 0
246 0 0 0
247 0 0 0
251 0 0 0
252 0 0 0
248 0 0 0
253 0 0 0
254 0 0 0
249 0 0 0
250 0 0 0
255 0 0 0
256 0 0 0
257 0 0 0
286 0 0 0
258 0 0 0
264 0 0 0
259 0 0 0
260 0 0 0
284 0 0 0
285 0 0 0
290 0 0 0
261 0 0 0
262 0 0 0
266 0 0 0
267 0 0 0
292 0 0 0
243 0 0 0
244 0 0 0
263 0 0 0
268 0 0 0
293 0 0 0
245 0 0 0
265 0 0 0
269 0 0 0
270 0 0 0
296 0 0 0
271 0 0 0
272 0 0 0
276 0 0 0
277 0 0 0
301 0 0 0
302 0 0 0
306 0 0 0
307 0 0 0
273 0 0 0
278 0 0 0
279 0 0 0
303 0 0 0
304 0 0 0
308 0 0 0
274 0 0 0
275 0 0 0
280 0 0 0
305 0 0 0
309 0 0 0
310 0 0 0
281 0 0 0
282 0 0 0
287 0 0 0
312 0 0 0
316 0 0 0
317 0 0 0
283 0 0 0
288 0 0 0
289 0 0 0
313 0 0 0
314 0 0 0
318 0 0 0
311 0 0 0
315 0 0 0
319 0 0 0
320 0 0 0
350 0 0 0
355 0 0 0
291 0 0 0
297 0 0 0
321 0 0 0
322 0 0 0
326 0 0 0
327 0 0 0
356 0 0 0
298 0 0 0
299 0 0 0
323 0 0 0
324 0 0 0
328 0 0 0
294 0 0 0
295 0 0 0
300 0 0 0
325 0 0 0
329 0 0 0
330 0 0 0
335 0 0 0
332 0 0 0
336 0 0 0
337 0 0 0
341 0 0 0
342 0 0 0
333 0 0 0
334 0 0 0
338 0 0 0
339 0 0 0
340 0 0 0
346 0 0 0
347 0 0 0
343 0 0 0
344 0 0 0
348 0 0 0
345 0 0 0
349 0 0 0
351 0 0 0
361 0 0 0
352 0 0 0
357 0 0 0
360 0 0 0
353 0 0 0
354 0 0 0
358 0 0 0
331 0 0 0
359 0 0 0
