# ═══════════════════════════════════════════════════
# LAMMPS Minimization — top_cr
# Notebook 05 | H2 at Top-Cr
# ═══════════════════════════════════════════════════

units          metal
atom_style     atomic
newton         on
boundary       p p f

read_data      structures/notebook05-adsorption-energy/111/ads_top_cr.lammps

pair_style     mliap unified /projects/westgroup/akinyemi.az/mace_lammps/models/mace-mp-0b2-medium.model-mliap_lammps.pt 0
pair_coeff     * * Al B C Cr Fe Mo Ni H

neighbor       2.0 bin
neigh_modify   every 1 delay 0 check yes

thermo         50
thermo_style   custom step pe fmax fnorm press

minimize       0  1e-06  10000  100000

variable  pe_final  equal  pe
variable  fmax_f    equal  fmax
variable  natoms    equal  atoms

print "ENERGY_RESULTS_START"
print "  job_name         : top_cr"
print "  pe_final_eV      : ${pe_final}"
print "  fmax_eV_per_Ang  : ${fmax_f}"
print "  natoms           : ${natoms}"
print "ENERGY_RESULTS_END"

write_data     structures/notebook05-adsorption-energy/111/ads_top_cr_relaxed.lammps
print "Written: structures/notebook05-adsorption-energy/111/ads_top_cr_relaxed.lammps"
