LAMMPS data file via write_data, version 11 Feb 2026, timestep = 462, units = metal

362 atoms
8 atom types

0 12.447907776 xlo xhi
0 12.9362452296 ylo yhi
0 52.3600831054 zlo zhi

Masses

1 26.9815
2 10.811
3 12.011
4 51.9961
5 55.845
6 95.95999999999999
7 58.6934
8 1.008

Atoms # atomic/kk

1 7 1.117469796839361 0.8238546388644848 14.640108175853749 0 0 0
2 7 3.555960437062505 0.7395010534871527 14.8685595053277 0 0 0
6 7 12.26775247914616 3.4796326437254916 14.641056451687897 -1 0 0
7 7 2.2282247014916483 2.972825596501576 15.104922235643768 0 0 0
31 6 12.395066350167362 1.8908951593331091 16.483763144952558 -1 0 0
32 7 2.3095882812461057 1.2558868525912692 16.92879140407082 0 0 0
36 7 1.1390650724105746 3.970765287692653 17.06081564894317 0 0 0
37 7 3.5720808746142394 3.6482324456772024 17.09123834078445 0 0 0
3 5 6.01670606863784 0.8686334934658357 14.935216863682792 0 0 0
8 7 4.781809090310745 2.9870642727654255 15.018574145252236 0 0 0
9 7 7.287696839802022 3.064013654603454 14.890679075992578 0 0 0
33 7 4.831141208796146 1.5376188154463657 16.980597321791652 0 0 0
34 7 7.358921285700949 1.7133580737095941 16.944363788339306 0 0 0
38 5 6.0779570406174575 3.7439312575987658 16.96822921386433 0 0 0
4 6 8.637671240694447 0.9726452498169524 14.943872702974062 0 0 0
5 7 11.025520059876383 1.2545542928904612 14.459595932555429 0 0 0
10 7 9.809887451884727 3.3811347215391807 14.72063515794632 0 0 0
35 7 9.922868011773161 1.7154332634878862 16.902608553868706 0 0 0
39 7 8.637233013827975 3.8661726955081512 16.81227360946913 0 0 0
40 7 11.073558682553928 3.954949297732811 16.96291820360086 0 0 0
11 7 1.136252408087239 5.43478412436145 15.024020304451087 0 0 0
12 7 3.5542995416784313 5.1484269360250865 15.11977436196275 0 0 0
16 4 0.21761883153562103 7.675444484738997 14.60989472342026 0 0 0
17 7 2.430199229906764 7.507355894246757 15.089311607953638 0 0 0
41 7 12.318279860323141 6.1120624059675075 17.126197420191513 -1 0 0
42 7 2.374629841619545 6.077600201309432 17.110057671196092 0 0 0
46 7 0.8203070051661638 8.415783862758397 16.858177746680933 0 0 0
47 7 3.817824918850337 8.011770423462165 17.02493423142611 0 0 0
13 7 6.048159148124584 5.188019721592029 15.006356597590974 0 0 0
18 7 4.897414560300995 7.304228533681721 14.97488202797267 0 0 0
19 2 6.845249134040992 6.977234935080594 15.314242644473849 0 0 0
43 7 4.856467780694819 5.813133319587429 17.075090241499776 0 0 0
44 7 7.344688494246859 5.882535175292927 17.021348369391564 0 0 0
48 7 6.227598321284533 7.994895770566648 17.01601225810563 0 0 0
14 7 8.576267489404358 5.640728905780795 14.89146732983017 0 0 0
15 6 11.04949984663668 5.640908978590314 15.083573112879916 0 0 0
20 7 10.229904662745748 7.659527294100576 13.987301549451457 0 0 0
45 7 9.809687049860493 6.113020234273757 17.17778204309539 0 0 0
49 7 8.472214321636624 7.860280507757324 16.02020115525668 0 0 0
50 7 10.908114081073396 8.118933312818537 16.212595719725485 0 0 0
21 2 1.550662881734826 9.475297931273742 15.208379877226422 0 0 0
22 7 3.6191612110933846 9.514450993312419 14.916882622465232 0 0 0
26 7 0.31670608477488893 10.804727856995662 16.82736739369467 0 0 0
27 7 2.034396759378389 11.479244467778063 15.149081540368286 0 0 0
51 3 11.622979554108278 9.37290536306277 17.49733110472513 -1 0 0
52 7 2.6162487329994524 10.083307615682395 17.041162414606646 0 0 0
56 2 0.9293297296579435 12.707302699905766 16.352529480970755 0 0 0
57 7 3.705901323018967 12.228192629504122 16.9274996357947 0 0 0
23 7 6.58697103124503 9.088676298662802 14.849223125661151 0 0 0
28 7 4.819730679870686 11.612115013250024 14.816785611147514 0 0 0
29 6 7.376099623974449 11.50082050681071 14.915068542235764 0 0 0
53 7 5.13051049362768 10.112985509238815 16.77724265918516 0 0 0
54 7 7.696331232515964 10.046334364898314 16.919642847886518 0 0 0
58 6 6.29686207845865 12.341123419308367 17.01019363361452 0 0 0
24 7 9.05419322238062 9.669750347109783 14.653991711887759 0 0 0
25 7 11.94718829667218 9.881029309789776 14.709188852978503 0 0 0
30 7 9.925773325526347 11.859026122844158 14.576709028323839 0 0 0
55 7 10.245946016059525 10.410812567989334 16.644192230215886 0 0 0
59 7 8.845193088454305 12.37346686817488 16.88864118705053 0 0 0
60 7 11.30107068581339 12.62521845526206 16.348661575854447 0 0 0
61 6 0.10743421016343183 12.916581956447532 18.57429535789749 0 -1 0
62 7 2.565272105748158 0.03873215159640787 19.141698558955486 0 0 0
66 6 1.355856751551927 2.2343709417372106 19.06484369580643 0 0 0
67 5 3.8002903396924115 2.1870723124243407 19.102891426549878 0 0 0
91 4 1.3671482018672536 0.7898797187179455 21.251174702129692 0 0 0
92 7 3.798021516179356 0.7457595906857534 21.131406082372518 0 0 0
96 7 0.08557534047819111 2.8689750699768495 21.17556236445714 0 0 0
97 7 2.6074977016095153 2.8670089094372595 21.207878499621824 0 0 0
63 5 5.016818554556849 0.12269852048313179 19.062194958363655 0 0 0
64 7 7.4993914562495805 0.11280360065522518 19.091434109172035 0 0 0
68 7 6.194955419794099 2.1801121712778366 19.048254063448674 0 0 0
93 7 6.3253161195257155 0.7447715177786846 21.205450325629176 0 0 0
98 7 5.050262733912599 2.8814238677974062 21.15068669198502 0 0 0
99 5 7.505005733551026 2.848163633836897 21.140890246430004 0 0 0
65 7 10.083848131589123 0.10899375147778208 18.963095711882662 0 0 0
69 7 8.73484668254053 2.1914235889580436 18.961436638010465 0 0 0
70 7 11.29410271034533 2.2951906949035563 18.906373485826947 0 0 0
94 7 8.78106777003098 0.7577949718378526 21.176776228166638 0 0 0
95 7 11.366585384365013 0.7287263658174469 21.02958969794971 0 0 0
100 6 10.048449404839127 2.8455588093170485 21.018134840951298 0 0 0
71 1 12.331762542235765 4.459344231284218 19.194135337219574 -1 0 0
72 7 2.452175110994573 4.425701229986323 19.114957625587337 0 0 0
76 7 1.1696383164434223 6.5019955531187295 19.18869490709893 0 0 0
77 7 3.762655890369214 6.5031244401585155 19.142778966304185 0 0 0
101 7 1.2123870291065675 5.035266542385087 21.230851398214288 0 0 0
102 6 3.7419007149562566 5.051327056049685 21.224936369224412 0 0 0
106 7 12.445743531516424 7.141866507708307 21.27221413285398 -1 0 0
107 7 2.4762648223738486 7.175960126829012 21.236085398132033 0 0 0
73 7 4.943784963856127 4.314141479629095 19.074896198523614 0 0 0
74 6 7.472825749751017 4.3206226453651135 19.02468498284868 0 0 0
78 7 6.174067507954792 6.528555020557577 19.103544924737896 0 0 0
103 7 6.2822727799599924 5.061931056792881 21.154901840968776 0 0 0
108 7 5.02313293730651 7.226066361547011 21.205749686682303 0 0 0
109 7 7.430403696762562 7.2703567393393405 21.238125464946545 0 0 0
75 5 9.864949799197976 4.3693926111497605 19.00894027016457 0 0 0
79 7 8.617186646703331 6.521978540764854 19.28413070139664 0 0 0
80 7 11.096335543086308 6.514796105740323 19.28182801131066 0 0 0
104 7 8.742741455977642 5.066139671116689 21.214386138336902 0 0 0
105 3 10.092856066594381 4.427747802260716 22.261087974935652 0 0 0
110 7 9.905547608320221 7.198486297005164 21.270176660416166 0 0 0
81 4 12.37383392829605 8.58784160338512 19.186400804517863 -1 0 0
82 6 2.4369216205766513 8.541521465118766 19.022400137452344 0 0 0
86 7 1.3078022998814 10.76203292808932 19.168712561035225 0 0 0
87 1 3.8497662382021844 10.885117520348834 19.007579257555204 0 0 0
111 7 1.2050807121858318 9.338926553308042 21.21481697455604 0 0 0
112 6 3.7516995574558076 9.343989639557979 21.23675207298036 0 0 0
116 1 0.062453594302412006 11.553284801186802 21.174803336107313 0 0 0
117 7 2.5258282162951304 11.544614956590042 21.173180122063997 0 0 0
83 7 4.972456333300348 8.733169749303332 19.031259514228935 0 0 0
84 7 7.42648097552821 8.643427406930055 19.009343713848295 0 0 0
88 7 6.278948764861968 10.826812103456113 19.019806048977028 0 0 0
113 7 6.2446459021429925 9.40181237727995 21.032189163327327 0 0 0
118 7 5.0453459615849825 11.564410544397582 21.141163228971525 0 0 0
119 4 7.476079529951011 11.580504874075798 21.07518251159449 0 0 0
85 6 9.832979961413574 8.519871721299248 18.44785758514933 0 0 0
89 6 8.786709570033585 10.8752969632709 18.97795438928208 0 0 0
90 4 11.288989905433302 10.813421019909548 18.88974628658435 0 0 0
114 7 8.711078637683231 9.348205580821876 20.932256599691275 0 0 0
115 6 11.124099906995665 9.295441047291128 21.16612198039058 0 0 0
120 7 10.022908513928288 11.562714843933302 21.121008329238208 0 0 0
121 7 0.08742386003045771 1.413345204989967 23.25525143548806 0 0 0
122 7 2.5758318078727798 1.4103020277391738 23.315469834716833 0 0 0
126 6 1.3588289762014658 3.60977218182585 23.258960617579874 0 0 0
127 7 3.860006304149582 3.594551605396665 23.36387852183412 0 0 0
152 7 2.6607676368521607 0.01661343080365517 25.373332060021813 0 0 0
156 1 1.4931615033958083 2.146013888947411 25.50034283687913 0 0 0
157 7 3.9815657540961684 2.143893311984919 25.442112393881526 0 0 0
162 7 2.610461246164605 4.2736661048418645 25.426047810051763 0 0 0
123 7 5.016794605554243 1.4362239634203484 23.19812773366705 0 0 0
124 7 7.422174001676869 1.5270427064834202 23.4773691930476 0 0 0
128 7 6.314668765319714 3.672794106859754 23.169034768861657 0 0 0
153 7 5.206527684012529 0.07076981491371638 25.328385820762833 0 0 0
154 7 7.618050360264679 0.016879668865336407 25.45648428591399 0 0 0
158 2 5.8068709534879455 2.4883095846198584 24.641590037309825 0 0 0
163 7 5.1270227806219 4.2568714378179715 25.420728330484287 0 0 0
164 5 7.486609811782969 4.069481913126495 25.341933000839518 0 0 0
125 7 10.070961795314531 1.4516117944546 23.299465794565265 0 0 0
129 7 8.76634491984755 3.5691583092922343 23.327327820309016 0 0 0
130 4 11.369254962372937 3.6483256032299076 23.38117605737229 0 0 0
155 4 10.142296995413057 0.07934392446068506 25.51713794310472 0 0 0
159 7 8.896085123546293 2.1128897201380683 25.421109348107496 0 0 0
160 7 11.419742010613323 2.1745550029926357 25.39041904942398 0 0 0
165 7 10.076718360574555 4.237163946033028 25.39567208653882 0 0 0
131 7 0.08241279958320924 5.799545128180584 23.38383384343348 0 0 0
132 7 2.5555853048137513 5.801990353633104 23.363055721918638 0 0 0
136 7 1.3197110784945205 7.927720543457069 23.294067760690673 0 0 0
137 7 3.795685078607016 7.969408582569922 23.319610491655947 0 0 0
161 4 0.12191104849113683 4.358371422567228 25.452188583663624 0 0 0
166 7 1.3497212138468622 6.4293571259257325 25.422112036183876 0 0 0
167 7 3.821562340574759 6.441708926897961 25.446686434582496 0 0 0
133 6 5.079975439296139 5.855815046664762 23.3827300041967 0 0 0
134 7 7.569995435054325 5.792066549378077 23.29958994892738 0 0 0
138 7 6.323503091394921 8.000909312541655 23.337136533938732 0 0 0
168 7 6.3771628240982965 6.399892181152776 25.427997748099344 0 0 0
173 7 5.12472276768958 8.557647921674723 25.35137096170338 0 0 0
135 7 10.074759777449076 5.852467865060289 23.37140065694948 0 0 0
139 4 8.7104097078436 7.961164913603354 23.209961765947217 0 0 0
140 4 11.298957417879594 7.913696817864242 23.29287237154367 0 0 0
169 7 8.78562143917197 6.3484977723660325 25.3690164571498 0 0 0
170 7 11.302575331831607 6.424916497816509 25.43259465308208 0 0 0
175 6 9.905172186313626 8.581527034871044 25.49901091009846 0 0 0
141 7 0.03244395147787365 10.098264627995533 23.326345871526005 0 0 0
142 7 2.5141162728871103 10.112603531934496 23.296892409922304 0 0 0
146 7 1.3120074595526137 12.246917802072653 23.312124919278904 0 0 0
147 7 3.826162897780002 12.246521488304474 23.22823705979885 0 0 0
151 4 0.10593405609975139 12.891513421364994 25.369130609139955 0 -1 0
171 6 0.12461726193360448 8.634247332175963 25.408736352955927 0 0 0
172 7 2.6348499351767836 8.61581655737975 25.393490545173307 0 0 0
176 7 1.3557010029849366 10.81757456940628 25.430149026300352 0 0 0
177 6 3.8972270906232764 10.820385402322007 25.312960571006137 0 0 0
143 7 5.085616284597879 10.115130072392628 23.232336881036822 0 0 0
144 7 7.521069511002735 10.101892483700485 22.901935690965058 0 0 0
148 4 6.2415554859681155 12.286277690350598 23.259069567008712 0 0 0
178 6 6.6557221548096335 10.530066168084284 25.236017930842664 0 0 0
145 7 10.008131590600563 10.102763781906674 23.297625958085906 0 0 0
149 6 8.732851389746523 12.302520437580316 23.288806841187338 0 0 0
150 7 11.27005109955449 12.24144124943112 23.33136581608375 0 0 0
174 3 8.430641591279974 9.51839752081225 24.40360195429489 0 0 0
179 5 9.023587221209821 10.942514267252303 25.55723079809645 0 0 0
180 5 11.355570725260437 10.89074977603045 25.47949176659665 0 0 0
181 7 1.3982695457962315 0.6751646217615058 27.483548575205198 0 0 0
182 7 3.8871301043528006 0.7096534703833699 27.442368879225977 0 0 0
186 7 0.18347980031201058 2.8716635489202007 27.477948966430805 0 0 0
187 7 2.6713880248302404 2.859702197686101 27.56159989491088 0 0 0
211 7 0.21967967370406521 1.4565571662263261 29.578584547273937 0 0 0
212 7 2.719892996850637 1.3707899244597594 29.576753935206483 0 0 0
216 7 1.4218481914926475 3.5643071557224024 29.582737612923157 0 0 0
217 4 3.8359865616520032 3.5790928349689475 29.59713199009815 0 0 0
183 7 6.326039096051804 0.7247039944673374 27.566388530764623 0 0 0
188 7 5.096246838774531 2.879741431174568 27.572983307390267 0 0 0
189 7 7.611935593394548 2.802338194462407 27.44584717836186 0 0 0
213 5 5.147980052218997 1.4313290711113285 29.597323092368384 0 0 0
214 7 7.630135774153968 1.3647313276472355 29.58040658256299 0 0 0
218 7 6.378175104102978 3.5421827704118583 29.537642937112505 0 0 0
184 7 8.906559662842314 0.7326700744261038 27.54782256718508 0 0 0
185 4 11.399131400408182 0.7360179816788589 27.51667288184279 0 0 0
190 7 10.161270061815294 2.8470642205686407 27.472978872130227 0 0 0
215 7 10.13943266588316 1.4175659407016759 29.617189416705884 0 0 0
219 7 8.85234143128686 3.5237711084057537 29.51614919254494 0 0 0
220 7 11.381857345757671 3.5726003311308028 29.510095976590524 0 0 0
191 7 1.4025184649923472 5.018162383989469 27.467557226294062 0 0 0
192 7 3.845310835689626 4.994889871608803 27.4852516114683 0 0 0
197 7 2.591526529070253 7.198272479850708 27.47937976603978 0 0 0
221 7 0.13230402201833008 5.738724268514144 29.563221949243367 0 0 0
222 7 2.6029328802452456 5.734484896251362 29.55166040409617 0 0 0
226 7 1.3739674942376803 7.911668804871389 29.548735788716783 0 0 0
227 7 3.8725662372780043 7.91672737490325 29.47475662910344 0 0 0
193 7 6.383810182402436 4.980995749568113 27.411350009138378 0 0 0
198 7 5.115869861753457 7.176206567087735 27.41684856918478 0 0 0
199 7 7.6293029299199455 7.197921556266256 27.44328915024332 0 0 0
223 6 5.166676088278022 5.724365786215556 29.491151476649982 0 0 0
224 7 7.658307055298169 5.74740317954162 29.57493010163605 0 0 0
228 7 6.4055164478136435 7.917930461524706 29.49516053580778 0 0 0
194 6 8.8602328994016 5.011137324310626 27.480003120674684 0 0 0
195 7 11.373573376034406 5.0102543297793565 27.496259049195533 0 0 0
196 7 0.14807590332025367 7.173823797973571 27.486039039719476 0 0 0
200 7 10.134150652142091 7.173226033132567 27.525142016517187 0 0 0
225 7 10.114191092516714 5.754365287247983 29.593442062101644 0 0 0
229 7 8.858479149756 7.896263728495603 29.513129941706968 0 0 0
230 7 11.379639789690815 7.944184943937076 29.51247116637033 0 0 0
201 5 1.3891758532272607 9.338077694200594 27.51264142773981 0 0 0
202 7 3.884557786528575 9.323810010750607 27.39394434052449 0 0 0
206 4 0.1989545809327873 11.493238258550315 27.515853733096673 0 0 0
207 7 2.622355928856811 11.468730292842073 27.45018871604234 0 0 0
231 7 0.17403736081554755 10.091209482252076 29.559640758995993 0 0 0
232 7 2.641829281581571 10.03265729417977 29.43200256628517 0 0 0
236 7 1.481033647701151 12.194889235103707 29.553608043702884 0 0 0
203 7 6.384390403621841 9.29581329277164 27.4049616066616 0 0 0
208 7 5.153940754622143 11.50453867742738 27.350351830270736 0 0 0
209 6 7.603317551187194 11.540581501990667 27.628480120165165 0 0 0
233 7 5.15872086929595 10.058525696634153 29.339044030508404 0 0 0
234 7 7.614738740434437 10.097838189092032 29.653590970408718 0 0 0
238 7 6.2334828521471835 12.244697919569804 29.676373477997284 0 0 0
204 7 8.849583045325023 9.381370245313764 27.60193191472346 0 0 0
205 7 11.35796232364152 9.432092257695 27.528799351583558 0 0 0
210 7 10.16819188731806 11.569985042214933 27.56430014718732 0 0 0
235 7 10.097005015586257 10.191088513346543 29.584404319544756 0 0 0
239 4 8.895841614868601 12.267316087619813 29.72026347286779 0 0 0
240 7 11.406106286081519 12.280590840720977 29.550197713128103 0 0 0
237 3 4.041841291132992 0.3118874283403002 30.554883799957462 0 1 0
241 7 0.21016711553206888 0.11470572306853519 31.627854230687973 0 0 0
242 7 2.576282144432345 0.15709142990317612 31.737356800156824 0 0 0
246 4 1.3531575978997026 2.2577263688676705 31.659288758387206 0 0 0
247 7 3.892607102467055 2.1645469543178573 31.638176231530117 0 0 0
276 7 0.18842335228920462 3.011900277024538 33.7319199131844 0 0 0
243 7 5.182110572743616 12.918729754955917 32.09253191623879 0 -1 0
244 7 7.6403644595527815 0.01845649002092741 31.70311793623223 0 0 0
248 7 6.4206506689445115 2.1635965757472992 31.63958904381666 0 0 0
279 7 7.741119002341834 3.059654257635406 33.72279667033776 0 0 0
249 7 8.8640156797285 2.119673487515495 31.670546909271067 0 0 0
250 7 11.395090380790714 2.156153055556863 31.65061081831697 0 0 0
255 1 10.116280210451277 4.237690574510444 31.49254558865483 0 0 0
275 4 11.45502723041728 0.8158746662709323 33.70923937975932 0 0 0
251 7 0.15811576563546156 4.341444371358971 31.642993981141768 0 0 0
252 7 2.6440655531002566 4.33264029717275 31.665253385500243 0 0 0
256 7 1.3409408410126618 6.517076136501912 31.63114167530159 0 0 0
257 6 3.8037043061665816 6.51477987040921 31.663149106227678 0 0 0
253 7 5.124905140991614 4.323286847464191 31.620561786744496 0 0 0
254 7 7.6341483438431155 4.32768410559117 31.58458711790893 0 0 0
258 7 6.36496167996529 6.508700449214097 31.619511362697505 0 0 0
264 7 7.602492337163534 8.595164358457348 31.61351005911335 0 0 0
283 7 6.392430411662455 5.117673880296891 33.66534197590671 0 0 0
289 7 7.646177749463651 7.204784164248834 33.7083230901406 0 0 0
259 4 8.83449906545407 6.479974179495674 31.619766070173355 0 0 0
260 7 11.326751567612101 6.5090408680501834 31.583930708503324 0 0 0
284 5 8.898746834614723 5.135958413089727 33.574705183767726 0 0 0
290 7 10.096624775296311 7.279759702798066 33.58704727436668 0 0 0
261 7 0.18782685411764924 8.727227483678373 31.64597853179244 0 0 0
262 7 2.6736757166084852 8.733963034399029 31.531893175201553 0 0 0
266 7 1.5730033052047177 10.848899969412086 31.567517075048997 0 0 0
267 4 3.927132817072029 11.297211131036121 30.848158604254994 0 0 0
292 7 3.9685285277051188 9.385310904359471 33.503600464603494 0 0 0
326 7 0.5175563421879577 11.67184971392197 33.671249322380206 0 0 0
263 1 5.104364419031892 8.774793915639338 31.425494190090635 0 0 0
268 7 6.272987930545817 10.777530402671625 31.574660545130268 0 0 0
245 7 10.12313128292582 12.904274266884295 31.862144634458218 0 -1 0
265 6 10.113819716033545 8.702436164188603 31.532144330193493 0 0 0
269 7 8.787243149827184 10.820032546021915 31.738375990279266 0 0 0
270 7 11.437804823258295 10.923848762823775 31.605522681459 0 0 0
294 7 8.781655938268838 9.308624950618022 33.68449773693081 0 0 0
296 3 11.085830822448731 11.850513445153824 33.32305813699285 -1 0 0
271 7 1.4892816310702695 0.9213250410734556 33.77354991341915 0 0 0
272 7 3.934988165235115 0.9753328832248979 33.915157534426804 0 0 0
277 7 2.6551600787913126 3.0971360542802278 33.79469742834747 0 0 0
301 7 0.20521622533605952 1.5697977345202434 35.75593321395009 0 0 0
302 7 2.6317011263106362 1.6863206778417994 35.85833166476296 0 0 0
306 4 1.4296583769104678 3.85139709926784 35.95457242456843 0 0 0
307 7 4.0106237384611685 3.750055105382867 35.829885005647725 0 0 0
273 7 6.474312935841591 0.9911252187882467 33.89698994183922 0 0 0
278 1 5.230793835011482 3.0141938210125043 33.716473803661955 0 0 0
303 7 5.260535339315341 1.6858466384147428 35.93700590363767 0 0 0
304 4 7.774199974601459 1.6542129743450011 35.91502862315983 0 0 0
308 7 6.542819170970879 3.7245796733121086 35.7938060425628 0 0 0
274 7 8.849487215584997 0.9171557373908229 33.83122006096193 0 0 0
280 7 10.21532650508442 3.0130011970097357 33.69931975465765 0 0 0
305 7 10.238000378853382 1.582205595981615 35.7189766135742 0 0 0
309 7 9.033506337546932 3.6926126327441366 35.77100733303241 0 0 0
310 4 11.602428142783456 3.9630742780394326 35.85583025385544 0 0 0
335 5 9.9144784283147 12.930218156624926 37.383664575201614 0 -1 0
281 7 1.3347234561160204 5.1998102525578105 33.85621519018951 0 0 0
282 4 3.859932111290915 5.1509242489250235 33.76542943967556 0 0 0
286 7 0.10482901545775895 7.298635225911924 33.61680222853752 0 0 0
287 7 2.643229377013717 7.303311412446912 33.74207093096929 0 0 0
312 7 2.7421476734501944 5.807824883334911 35.78030323027457 0 0 0
316 7 1.22435908917552 7.620817874187094 35.78159224794853 0 0 0
317 7 3.943188316489733 8.079909955587897 35.73006043146885 0 0 0
288 7 5.196792970471112 7.285985662974323 33.66355566447683 0 0 0
313 7 5.277483810786323 5.933943692993586 35.71168441357344 0 0 0
314 7 7.734869959683983 5.839412231614839 35.73832520547235 0 0 0
318 4 6.567506057911567 8.138274694173427 35.800533772118946 0 0 0
285 4 11.357447242038939 5.17321856533159 33.624859720692186 0 0 0
311 2 12.382601097601698 6.0192533976298765 35.31485713757958 -1 0 0
315 7 10.147366410386047 5.8296625354034735 35.570707683069436 0 0 0
319 7 8.968291367743715 7.996272101244267 35.81327358588944 0 0 0
320 7 11.360914618534784 7.9546557418389385 35.58576126993561 0 0 0
355 3 10.45038334554292 7.922547867001712 37.269526902554155 0 0 0
291 7 1.4767272149157866 9.442755747031432 33.72609899082994 0 0 0
297 6 3.0359484473320992 11.590165769403136 33.66342277838532 0 0 0
321 6 0.22264522408090512 10.088709373306576 35.91011853226176 0 0 0
322 7 2.7104193722540395 10.212993534071169 35.75066440400404 0 0 0
327 6 3.933517166751516 12.52495186866662 36.08522126726671 0 0 0
356 4 1.4078947981625212 12.375186048922478 35.83800656902526 0 0 0
293 4 6.464903798127252 9.336680006730393 33.642709440518395 0 0 0
298 2 5.216231294910901 12.300071223711905 34.19062803825785 0 0 0
299 7 7.010079706628328 11.597126761244812 33.671443436602566 0 0 0
323 6 5.246254796937057 10.25569489730467 35.56463527423971 0 0 0
324 7 7.923664358947559 10.375705141402584 35.704259198557295 0 0 0
328 7 6.4771103171135165 12.538000333461689 35.90824629420657 0 0 0
295 6 11.28375706984067 9.717842660940923 33.75557574430936 0 0 0
300 7 9.393536910389313 11.564943604009114 34.157755953499695 0 0 0
325 7 10.265212788049787 9.865471891960734 37.0243119087445 0 0 0
329 3 9.538911260000539 11.422626016559093 36.19432578577268 0 0 0
330 4 11.268872760503806 12.093999167007398 35.56747322174787 0 0 0
332 7 2.4959808923090043 0.12632950084024708 38.00665951491222 0 0 0
336 7 1.3448575449602571 2.2092509385939154 37.83215737194012 0 0 0
337 7 3.8917732878325895 2.2204373166067084 37.86443356384287 0 0 0
333 7 5.217328328997988 0.1754326559249007 38.11179410399692 0 0 0
334 7 7.656319524915753 0.09084759453780705 37.99775046888838 0 0 0
338 7 6.538702255408704 2.2814125477248175 37.897865084945444 0 0 0
339 7 9.001221913053804 2.2129458095684957 37.847727208748736 0 0 0
340 7 11.378890896830184 2.217330961953867 37.72145937390561 0 0 0
342 7 2.7255066165305926 4.3142239690548285 37.91962904249031 0 0 0
346 7 1.5287181762296989 6.428233817321386 37.993079679821335 0 0 0
347 6 3.9769787127395886 6.495651830273973 37.761701709900706 0 0 0
343 7 5.317600931731589 4.451317300158239 37.83062637690841 0 0 0
344 7 7.845483809620887 4.461725513053442 37.84033791902126 0 0 0
348 6 6.672711350562722 6.6891216250110235 37.812809120989655 0 0 0
341 7 0.22428936610750122 4.2743793160683525 38.06504693450815 0 0 0
345 4 10.23414556136478 4.358995440490197 37.80285472309403 0 0 0
349 7 9.252032071318766 6.650390735595196 37.856514814303914 0 0 0
350 7 11.693256412695316 6.295528276187793 37.2923952689822 0 0 0
352 6 2.501836416436107 8.68277646231617 37.68197537635812 0 0 0
357 7 3.8607398556309245 10.827152063399561 37.921993516540745 0 0 0
360 7 1.4092981720389812 10.92695239178333 37.89979750950374 1 0 0
361 8 3.1049660659490015 12.264646922120882 41.87424749141825 0 0 0
353 7 5.141290752469458 8.7178540694542 37.82295659443483 0 0 0
354 7 7.968028899177555 8.978632305571379 37.80906917570665 0 0 0
358 6 6.42747006734327 10.874770612282234 37.78299600665353 0 0 0
362 8 3.479201732435008 11.602607918958062 41.866753440988 0 0 0
331 7 12.401870802972565 12.901676418032046 37.61974351126072 -1 -1 0
351 7 12.2565167868959 8.583855343125958 37.83609402598505 -1 0 0
359 2 8.611018330930023 11.185602147939875 37.41982252786949 0 0 0

Velocities

1 0 0 0
2 0 0 0
6 0 0 0
7 0 0 0
31 0 0 0
32 0 0 0
36 0 0 0
37 0 0 0
3 0 0 0
8 0 0 0
9 0 0 0
33 0 0 0
34 0 0 0
38 0 0 0
4 0 0 0
5 0 0 0
10 0 0 0
35 0 0 0
39 0 0 0
40 0 0 0
11 0 0 0
12 0 0 0
16 0 0 0
17 0 0 0
41 0 0 0
42 0 0 0
46 0 0 0
47 0 0 0
13 0 0 0
18 0 0 0
19 0 0 0
43 0 0 0
44 0 0 0
48 0 0 0
14 0 0 0
15 0 0 0
20 0 0 0
45 0 0 0
49 0 0 0
50 0 0 0
21 0 0 0
22 0 0 0
26 0 0 0
27 0 0 0
51 0 0 0
52 0 0 0
56 0 0 0
57 0 0 0
23 0 0 0
28 0 0 0
29 0 0 0
53 0 0 0
54 0 0 0
58 0 0 0
24 0 0 0
25 0 0 0
30 0 0 0
55 0 0 0
59 0 0 0
60 0 0 0
61 0 0 0
62 0 0 0
66 0 0 0
67 0 0 0
91 0 0 0
92 0 0 0
96 0 0 0
97 0 0 0
63 0 0 0
64 0 0 0
68 0 0 0
93 0 0 0
98 0 0 0
99 0 0 0
65 0 0 0
69 0 0 0
70 0 0 0
94 0 0 0
95 0 0 0
100 0 0 0
71 0 0 0
72 0 0 0
76 0 0 0
77 0 0 0
101 0 0 0
102 0 0 0
106 0 0 0
107 0 0 0
73 0 0 0
74 0 0 0
78 0 0 0
103 0 0 0
108 0 0 0
109 0 0 0
75 0 0 0
79 0 0 0
80 0 0 0
104 0 0 0
105 0 0 0
110 0 0 0
81 0 0 0
82 0 0 0
86 0 0 0
87 0 0 0
111 0 0 0
112 0 0 0
116 0 0 0
117 0 0 0
83 0 0 0
84 0 0 0
88 0 0 0
113 0 0 0
118 0 0 0
119 0 0 0
85 0 0 0
89 0 0 0
90 0 0 0
114 0 0 0
115 0 0 0
120 0 0 0
121 0 0 0
122 0 0 0
126 0 0 0
127 0 0 0
152 0 0 0
156 0 0 0
157 0 0 0
162 0 0 0
123 0 0 0
124 0 0 0
128 0 0 0
153 0 0 0
154 0 0 0
158 0 0 0
163 0 0 0
164 0 0 0
125 0 0 0
129 0 0 0
130 0 0 0
155 0 0 0
159 0 0 0
160 0 0 0
165 0 0 0
131 0 0 0
132 0 0 0
136 0 0 0
137 0 0 0
161 0 0 0
166 0 0 0
167 0 0 0
133 0 0 0
134 0 0 0
138 0 0 0
168 0 0 0
173 0 0 0
135 0 0 0
139 0 0 0
140 0 0 0
169 0 0 0
170 0 0 0
175 0 0 0
141 0 0 0
142 0 0 0
146 0 0 0
147 0 0 0
151 0 0 0
171 0 0 0
172 0 0 0
176 0 0 0
177 0 0 0
143 0 0 0
144 0 0 0
148 0 0 0
178 0 0 0
145 0 0 0
149 0 0 0
150 0 0 0
174 0 0 0
179 0 0 0
180 0 0 0
181 0 0 0
182 0 0 0
186 0 0 0
187 0 0 0
211 0 0 0
212 0 0 0
216 0 0 0
217 0 0 0
183 0 0 0
188 0 0 0
189 0 0 0
213 0 0 0
214 0 0 0
218 0 0 0
184 0 0 0
185 0 0 0
190 0 0 0
215 0 0 0
219 0 0 0
220 0 0 0
191 0 0 0
192 0 0 0
197 0 0 0
221 0 0 0
222 0 0 0
226 0 0 0
227 0 0 0
193 0 0 0
198 0 0 0
199 0 0 0
223 0 0 0
224 0 0 0
228 0 0 0
194 0 0 0
195 0 0 0
196 0 0 0
200 0 0 0
225 0 0 0
229 0 0 0
230 0 0 0
201 0 0 0
202 0 0 0
206 0 0 0
207 0 0 0
231 0 0 0
232 0 0 0
236 0 0 0
203 0 0 0
208 0 0 0
209 0 0 0
233 0 0 0
234 0 0 0
238 0 0 0
204 0 0 0
205 0 0 0
210 0 0 0
235 0 0 0
239 0 0 0
240 0 0 0
237 0 0 0
241 0 0 0
242 0 0 0
246 0 0 0
247 0 0 0
276 0 0 0
243 0 0 0
244 0 0 0
248 0 0 0
279 0 0 0
249 0 0 0
250 0 0 0
255 0 0 0
275 0 0 0
251 0 0 0
252 0 0 0
256 0 0 0
257 0 0 0
253 0 0 0
254 0 0 0
258 0 0 0
264 0 0 0
283 0 0 0
289 0 0 0
259 0 0 0
260 0 0 0
284 0 0 0
290 0 0 0
261 0 0 0
262 0 0 0
266 0 0 0
267 0 0 0
292 0 0 0
326 0 0 0
263 0 0 0
268 0 0 0
245 0 0 0
265 0 0 0
269 0 0 0
270 0 0 0
294 0 0 0
296 0 0 0
271 0 0 0
272 0 0 0
277 0 0 0
301 0 0 0
302 0 0 0
306 0 0 0
307 0 0 0
273 0 0 0
278 0 0 0
303 0 0 0
304 0 0 0
308 0 0 0
274 0 0 0
280 0 0 0
305 0 0 0
309 0 0 0
310 0 0 0
335 0 0 0
281 0 0 0
282 0 0 0
286 0 0 0
287 0 0 0
312 0 0 0
316 0 0 0
317 0 0 0
288 0 0 0
313 0 0 0
314 0 0 0
318 0 0 0
285 0 0 0
311 0 0 0
315 0 0 0
319 0 0 0
320 0 0 0
355 0 0 0
291 0 0 0
297 0 0 0
321 0 0 0
322 0 0 0
327 0 0 0
356 0 0 0
293 0 0 0
298 0 0 0
299 0 0 0
323 0 0 0
324 0 0 0
328 0 0 0
295 0 0 0
300 0 0 0
325 0 0 0
329 0 0 0
330 0 0 0
332 0 0 0
336 0 0 0
337 0 0 0
333 0 0 0
334 0 0 0
338 0 0 0
339 0 0 0
340 0 0 0
342 0 0 0
346 0 0 0
347 0 0 0
343 0 0 0
344 0 0 0
348 0 0 0
341 0 0 0
345 0 0 0
349 0 0 0
350 0 0 0
352 0 0 0
357 0 0 0
360 0 0 0
361 0 0 0
353 0 0 0
354 0 0 0
358 0 0 0
362 0 0 0
331 0 0 0
351 0 0 0
359 0 0 0
