LAMMPS data file via write_data, version 11 Feb 2026, timestep = 636, units = metal

362 atoms
8 atom types

0 12.447907776 xlo xhi
0 12.9362452296 ylo yhi
0 52.3600831054 zlo zhi

Masses

1 26.9815
2 10.811
3 12.011
4 51.9961
5 55.845
6 95.95999999999999
7 58.6934
8 1.008

Atoms # atomic/kk

1 7 1.1217130426608721 0.8204327950570441 14.6421988476378 0 0 0
2 7 3.5601813667336053 0.7361167194077735 14.870737143169562 0 0 0
6 7 12.27198094912225 3.4762688584345565 14.643105171157817 -1 0 0
7 7 2.2324354618751783 2.9694330753285714 15.107068397735148 0 0 0
31 6 12.399325247964644 1.8875292444670038 16.485807050949532 -1 0 0
32 7 2.313812384950107 1.2525173735609902 16.930956118062138 0 0 0
36 7 1.143290227333613 3.9673740127506867 17.062968488276493 0 0 0
37 7 3.576285873480108 3.6448611181959896 17.093397788877244 0 0 0
3 5 6.0208993999467415 0.865282181019914 14.937334793319634 0 0 0
8 7 4.786001198892737 2.9836995770569894 15.020701588909445 0 0 0
9 7 7.291881863457907 3.0606732436005615 14.892720160443977 0 0 0
33 7 4.8353468025418715 1.5342606073695395 16.982751148269084 0 0 0
34 7 7.363124070425325 1.7100247085781721 16.946405568807638 0 0 0
38 5 6.082153255414333 3.740583329535391 16.970301027368798 0 0 0
4 6 8.641874466829856 0.9693231870992564 14.945898596484968 0 0 0
5 7 11.029743386052173 1.2511878850722666 14.461675300655475 0 0 0
10 7 9.814100509264932 3.377798047275139 14.72264076620768 0 0 0
35 7 9.92710990768183 1.7120999006533002 16.904603408392244 0 0 0
39 7 8.641459000134686 3.8628429280523475 16.814272294010127 0 0 0
40 7 11.077802846179646 3.951593178562258 16.964922829533723 0 0 0
11 7 1.1404864932621974 5.431405519756556 15.026153027126592 0 0 0
12 7 3.558525084719285 5.145055270105368 15.121931425886611 0 0 0
16 4 0.22184447408721855 7.672113084705858 14.612126025977444 0 0 0
17 7 2.4344133560209165 7.503987046811469 15.091536135305367 0 0 0
41 7 12.322538097334599 6.10867257576249 17.128277561091945 -1 0 0
42 7 2.378859592468742 6.074192091018047 17.112230269743517 0 0 0
46 7 0.8245503105837994 8.412403295176953 16.860440909019392 0 0 0
47 7 3.822028090174923 8.008404103578195 17.02716790263348 0 0 0
13 7 6.05237355019333 5.184697369105139 15.008456252254891 0 0 0
18 7 4.901611838018454 7.3008895181611555 14.977081012620443 0 0 0
19 2 6.8494579246465275 6.973931085514132 15.316365808610655 0 0 0
43 7 4.860687293245896 5.809775205293791 17.077232312333958 0 0 0
44 7 7.348906264874497 5.879195953238354 17.023414998679023 0 0 0
48 7 6.231817560284053 7.991567140823977 17.018185993421486 0 0 0
14 7 8.580498982242727 5.637448738612414 14.893539794243726 0 0 0
15 6 11.05374023673264 5.637567193489949 15.085629052386754 0 0 0
20 7 10.234148723166488 7.656254665733135 13.98949142172341 0 0 0
45 7 9.813928188948497 6.109690060753649 17.179820229014712 0 0 0
49 7 8.47642445315918 7.856969654503088 16.022366412785914 0 0 0
50 7 10.912344751882683 8.115589811934074 16.21482572307035 0 0 0
21 2 1.5548700122458532 9.471927062252602 15.210622773565065 0 0 0
22 7 3.6233800063186146 9.511073315631027 14.919110411638282 0 0 0
26 7 0.3209477316348377 10.80135205445823 16.82953297777473 0 0 0
27 7 2.0386501632767615 11.475841961682308 15.151262847605063 0 0 0
51 3 11.62721901447999 9.36955778842266 17.499545433278332 -1 0 0
52 7 2.620475811795342 10.079945148294364 17.04340253483792 0 0 0
56 2 0.9335902141603822 12.703929895265862 16.354654654824813 0 0 0
57 7 3.7101106983028025 12.224824047028868 16.929707563343115 0 0 0
23 7 6.591156254874814 9.085352161439655 14.85138620984465 0 0 0
28 7 4.82392915619222 11.608733137250365 14.818968297134905 0 0 0
29 6 7.380304956157893 11.49750808731667 14.917182872138554 0 0 0
53 7 5.13470184616166 10.109635745471676 16.77947057228415 0 0 0
54 7 7.700520046899756 10.0430303583735 16.92177062278282 0 0 0
58 6 6.301054479099821 12.337782004324252 17.012329135753173 0 0 0
24 7 9.058391542431417 9.666436695351354 14.656167265907689 0 0 0
25 7 11.951379379370511 9.877686667904973 14.711361258261883 0 0 0
30 7 9.929995160165618 11.855690945442038 14.578835382526544 0 0 0
55 7 10.250167983775501 10.40745548208393 16.64636876913699 0 0 0
59 7 8.849406116952226 12.370140945605867 16.890688275868353 0 0 0
60 7 11.305323873610188 12.621851414203526 16.350777840002877 0 0 0
61 6 0.111718320179405 12.913243823553383 18.576391837673096 0 -1 0
62 7 2.569523621596024 0.03537833596722469 19.14392166777499 0 0 0
66 6 1.3601208446162718 2.2310138169616542 19.067006583884698 0 0 0
67 5 3.804522647025576 2.1837159080714414 19.105094100324813 0 0 0
91 4 1.3714332021294255 0.7865447960203955 21.25337040976677 0 0 0
92 7 3.8022633230679177 0.7424083619502295 21.13366685522816 0 0 0
96 7 0.08986763935235893 2.8656474873777262 21.17767783789328 0 0 0
97 7 2.6117350691926555 2.8636559846525325 21.21011998718494 0 0 0
63 5 5.021053370508873 0.11935865263149285 19.06441386309701 0 0 0
64 7 7.503614884803642 0.1094986675105216 19.09349821602587 0 0 0
68 7 6.199176977630732 2.1767695359854264 19.050342516475478 0 0 0
93 7 6.329583319702233 0.7414555271774684 21.207624889102824 0 0 0
98 7 5.054497818345083 2.8780711643645085 21.152804353277652 0 0 0
99 5 7.509260309739808 2.8448948141875836 21.1428451912596 0 0 0
65 7 10.088105368356292 0.10569538916829367 18.965074279853255 0 0 0
69 7 8.739080695199112 2.1881157364301993 18.96338914993865 0 0 0
70 7 11.298385584196541 2.2918575451358234 18.908346393187546 0 0 0
94 7 8.785347875867183 0.7545695428651839 21.178647134555245 0 0 0
95 7 11.370861263569955 0.7254599676785652 21.031561327998126 0 0 0
100 6 10.052743443960445 2.842344122066373 21.020014783873567 0 0 0
71 1 12.33600292257325 4.455975347404381 19.196290764905246 -1 0 0
72 7 2.456389676724008 4.422348256238436 19.117136904758166 0 0 0
76 7 1.1738621267258824 6.498654284325248 19.190870856168587 0 0 0
77 7 3.7668704453429775 6.499773905209233 19.144945257435683 0 0 0
101 7 1.2166177464016525 5.031933931800744 21.233078183383135 0 0 0
102 6 3.7461267610941777 5.047976725139092 21.227088133615638 0 0 0
106 7 0.002035415691939985 7.138536636923713 21.274402334289576 0 0 0
107 7 2.4804947716237478 7.172615837388594 21.23831553426402 0 0 0
73 7 4.947996630846938 4.310794570435193 19.07701436445514 0 0 0
74 6 7.477032401389446 4.3172879129199 19.02668631077749 0 0 0
78 7 6.178276551997137 6.525253063614778 19.105623913237558 0 0 0
103 7 6.286505449153582 5.058646484829711 21.156905443858946 0 0 0
108 7 5.027356598279876 7.222764133144511 21.207871200839236 0 0 0
109 7 7.434635776918556 7.2671227638973805 21.240141186886905 0 0 0
75 5 9.869180272533251 4.366082158140144 19.010866583848316 0 0 0
79 7 8.621360984854793 6.51866579023042 19.28606575346192 0 0 0
80 7 11.100600325221846 6.511408342576327 19.28385067960032 0 0 0
104 7 8.746999806650514 5.062921797651929 21.216284415396142 0 0 0
105 3 10.097162255973583 4.424552513973346 22.262937003845046 0 0 0
110 7 9.909750097347825 7.1953493508462705 21.272001010004214 0 0 0
81 4 12.378072237271239 8.584528240096676 19.18865467836611 -1 0 0
82 6 2.441162904261726 8.538193126361946 19.024682133992965 0 0 0
86 7 1.312040418138543 10.758695806207939 19.17093535098111 0 0 0
87 1 3.853998768629327 10.881779275691839 19.009841126571672 0 0 0
111 7 1.2093209252637402 9.335599363898039 21.217084692313193 0 0 0
112 6 3.7559442897718816 9.340673580232327 21.23906145730638 0 0 0
116 1 0.0667202861675994 11.550011362006197 21.17695178744928 0 0 0
117 7 2.53008258737087 11.541266636951287 21.175439735186174 0 0 0
83 7 4.976681316862776 8.729854984267016 19.03347924206853 0 0 0
84 7 7.430710531377061 8.640168823774816 19.011524634359642 0 0 0
88 7 6.283167064059339 10.823511567969573 19.02199016475419 0 0 0
113 7 6.248852637747355 9.398553505563633 21.034425093793654 0 0 0
118 7 5.049579718211038 11.56110386925913 21.143463684284136 0 0 0
119 4 7.48031559395331 11.577242952291755 21.077276032862542 0 0 0
85 6 9.83727401280762 8.516569844937376 18.45016752356023 0 0 0
89 6 8.790941919004451 10.872023222634121 18.9800319094157 0 0 0
90 4 11.293236368807216 10.810122849532378 18.89190072810342 0 0 0
114 7 8.715276090135964 9.345064179344464 20.934446060567307 0 0 0
115 6 11.128343908707029 9.292232676256907 21.168346313710444 0 0 0
120 7 10.027160347635133 11.559488710571216 21.123045358683072 0 0 0
121 7 0.09168789276282777 1.4100211357842158 23.257318628356607 0 0 0
122 7 2.580040353175497 1.406939634723392 23.317806683073595 0 0 0
126 6 1.3630707815855128 3.6064062459607547 23.261232027901105 0 0 0
127 7 3.8642314643873643 3.5912025805067778 23.366039503194823 0 0 0
152 7 2.664861768788918 0.013244520030977293 25.375745772031134 0 0 0
156 1 1.4974088286586853 2.1426444073436377 25.502832135748978 0 0 0
157 7 3.985775697672614 2.1404913944804225 25.44425946569295 0 0 0
162 7 2.6147044243966744 4.270233540252047 25.428326773082738 0 0 0
123 7 5.020991804879756 1.4328638601298158 23.200347337996238 0 0 0
124 7 7.4263786080681395 1.523838750409682 23.479286229512788 0 0 0
128 7 6.318885302126539 3.6695175350273037 23.170992366369383 0 0 0
153 7 5.210585658358416 0.0672809066578485 25.330709752197887 0 0 0
154 7 7.62215209808388 0.01375305669010751 25.458439450324768 0 0 0
158 2 5.811103729455034 2.4850945869190526 24.643637300714648 0 0 0
163 7 5.1312945511132035 4.253552565849126 25.4226810154514 0 0 0
164 5 7.49099272010857 4.066509787697304 25.343630230216476 0 0 0
125 7 10.075291451710173 1.4484066437773386 23.301224302136657 0 0 0
129 7 8.770602601544295 3.5659250509668357 23.329083180342877 0 0 0
130 4 11.373544736347807 3.6451328053162615 23.383030963858705 0 0 0
155 4 10.146567483225612 0.07620993694641078 25.518811058573817 0 0 0
159 7 8.900447538850514 2.1097306144987877 25.422691714220715 0 0 0
160 7 11.424101786745062 2.1714333724824124 25.39228284727391 0 0 0
165 7 10.081019553238958 4.234071103738688 25.397378231415743 0 0 0
131 7 0.08671948639734928 5.796271154000387 23.386077890325225 0 0 0
132 7 2.5598485962570177 5.798629681977876 23.36529903919521 0 0 0
136 7 1.3239809083666736 7.924397159873683 23.296326766457494 0 0 0
137 7 3.7999347308840794 7.966080435929614 23.32187792341913 0 0 0
161 4 0.12620528723802274 4.355116836882648 25.454421219016876 0 0 0
166 7 1.354040848616385 6.426018469920335 25.424428032476403 0 0 0
167 7 3.8258659304859015 6.438302019001961 25.448884800560922 0 0 0
133 6 5.084224280640348 5.852504541334598 23.384777728097568 0 0 0
134 7 7.57426431392716 5.788849177125756 23.301451976014288 0 0 0
138 7 6.327737617206643 7.997669131739861 23.339244038419054 0 0 0
168 7 6.381444453893634 6.3967144566876 25.429873467718302 0 0 0
173 7 5.128985120957022 8.554417917623072 25.353630473962333 0 0 0
135 7 10.079079229828224 5.849283962769338 23.373227552949388 0 0 0
139 4 8.714690311814463 7.958023258626945 23.211964344115806 0 0 0
140 4 11.303191523145054 7.910481726932299 23.29501390067116 0 0 0
169 7 8.789922177850503 6.345555232330309 25.370702053396712 0 0 0
170 7 11.306820703888771 6.421745774760522 25.43466360680245 0 0 0
175 6 9.90946979120735 8.578537815312524 25.501152871192346 0 0 0
141 7 0.036704880862112266 10.094985166249344 23.32857947430717 0 0 0
142 7 2.5183788064701744 10.109256313574097 23.29922202083006 0 0 0
146 7 1.3162457371260228 12.243575393694432 23.314344447821167 0 0 0
147 7 3.830334782314812 12.243171044412748 23.230603439190293 0 0 0
151 4 0.11019244747461197 12.888220964190268 25.371244592186066 0 -1 0
171 6 0.1289163620049564 8.630963216503579 25.41094460257324 0 0 0
172 7 2.6391799370203914 8.612400556073041 25.39589142122143 0 0 0
176 7 1.359994066223304 10.814217586396063 25.43241835271152 0 0 0
177 6 3.9013876689747153 10.817026854981682 25.315454055950827 0 0 0
143 7 5.089799627305931 10.111874735822273 23.23471325455054 0 0 0
144 7 7.525231580613978 10.09874856675513 22.904162972151298 0 0 0
148 4 6.24571382134144 12.283018731151277 23.26136944669463 0 0 0
178 6 6.659974558106742 10.526759657374178 25.23840239001974 0 0 0
145 7 10.01233764769504 10.099629613825392 23.299751019852245 0 0 0
149 6 8.737024607295089 12.299412606628813 23.290704629996604 0 0 0
150 7 11.274301563737058 12.238186962541448 23.333357722939457 0 0 0
174 3 8.434836393330041 9.515157438270666 24.40573774998087 0 0 0
179 5 9.027770256348369 10.939522887711492 25.55910418397404 0 0 0
180 5 11.359892366623857 10.887565240125488 25.481598311932242 0 0 0
181 7 1.4023112632245538 0.6716826339844364 27.486352304477474 0 0 0
182 7 3.891054654599419 0.7063173383315099 27.444760248470164 0 0 0
186 7 0.1876746628656177 2.8683688947679347 27.480270414097777 0 0 0
187 7 2.6754787760801952 2.85606561687967 27.564170652533395 0 0 0
211 7 0.2237848871501046 1.4533495762137707 29.58119458963983 0 0 0
212 7 2.723689630977261 1.3665818057006713 29.580050422877132 0 0 0
216 7 1.426157923083905 3.560849464927137 29.585263419896908 0 0 0
217 4 3.840068201508172 3.5750524304602984 29.59938151526978 0 0 0
183 7 6.329932906546758 0.7214090142812264 27.568389306852612 0 0 0
188 7 5.100300799459278 2.876269948458927 27.574797416742538 0 0 0
189 7 7.616102708700318 2.799076903966944 27.44709041997491 0 0 0
213 5 5.151171207380586 1.427107307320416 29.59944205328107 0 0 0
214 7 7.634275233958099 1.3612142670047425 29.58146406719144 0 0 0
218 7 6.382235041421426 3.538806269365841 29.53852995672923 0 0 0
184 7 8.910809323848252 0.7294994535598949 27.549241061408132 0 0 0
185 4 11.403368652628252 0.7329078383182864 27.518180615191422 0 0 0
190 7 10.165503440715103 2.8440300810773884 27.474578260007643 0 0 0
215 7 10.143920256002668 1.4145312469307858 29.61818726235808 0 0 0
219 7 8.856527220921354 3.5208480448776944 29.517285942282765 0 0 0
220 7 11.386073350549557 3.569484713428003 29.512208850404974 0 0 0
191 7 1.4068029328217098 5.014741175532394 27.469907300550336 0 0 0
192 7 3.8495147106237506 4.991286275512635 27.487402752767572 0 0 0
197 7 2.596027658947158 7.194732576925371 27.4818266299699 0 0 0
221 7 0.1366163185224899 5.735566560046657 29.56539857448097 0 0 0
222 7 2.6073552072602 5.730749840343417 29.55417071119146 0 0 0
226 7 1.3786960998198616 7.90818783815854 29.551074522541033 0 0 0
227 7 3.8770982577122908 7.91348983416359 29.477268050095276 0 0 0
193 7 6.388062826658266 4.977771957357568 27.41300180874526 0 0 0
198 7 5.120164589276795 7.173022307819462 27.41883311043452 0 0 0
199 7 7.633477133258475 7.195031216101895 27.444966717826656 0 0 0
223 6 5.170930694617679 5.721224770908717 29.49265343817648 0 0 0
224 7 7.662439822016913 5.744517707449645 29.576181314718745 0 0 0
228 7 6.4098082612222065 7.915069176977461 29.497316989805217 0 0 0
194 6 8.864483423990874 5.008184967506691 27.481500086267463 0 0 0
195 7 11.37783707386357 5.007103630950147 27.49835424262315 0 0 0
196 7 0.1524977601521137 7.1705646871928 27.48823411304993 0 0 0
200 7 10.138421173394478 7.17017181250754 27.52713857746196 0 0 0
225 7 10.118378744912857 5.751359827780595 29.595371928548747 0 0 0
229 7 8.86246609454438 7.893329864747361 29.514877350871323 0 0 0
230 7 11.384035186590836 7.941098366223439 29.51439646609532 0 0 0
201 5 1.3937731741137187 9.33459903251456 27.514884783557644 0 0 0
202 7 3.888818190178041 9.320555354907102 27.396536980650254 0 0 0
206 4 0.2034177943144337 11.489836543180875 27.518055390829385 0 0 0
207 7 2.626464587902978 11.465389432337473 27.45280684311558 0 0 0
231 7 0.1790031418539715 10.087816292530972 29.561650978383224 0 0 0
232 7 2.6461309528082846 10.029356246228243 29.434807779478813 0 0 0
236 7 1.4853969640112061 12.19117324981015 29.557073370270217 0 0 0
203 7 6.388403208152963 9.292885674478935 27.40752827509231 0 0 0
208 7 5.157943282920003 11.501278902224842 27.352938792659586 0 0 0
209 6 7.607388454174943 11.537525221186332 27.63069468406869 0 0 0
233 7 5.162849115444222 10.055492046717154 29.342027844231342 0 0 0
234 7 7.619178654923287 10.094974137413802 29.656345493288683 0 0 0
238 7 6.237560099665784 12.241306481392357 29.678988054493654 0 0 0
204 7 8.853685808725881 9.378453867537234 27.60397090628829 0 0 0
205 7 11.362374746232563 9.428942205748944 27.530904994546407 0 0 0
210 7 10.172443939941752 11.566874140723835 27.566026508455117 0 0 0
235 7 10.101492050439424 10.188115293164666 29.58617762839222 0 0 0
239 4 8.900051270361782 12.264124534105255 29.721814855176294 0 0 0
240 7 11.410764073762422 12.277589978747038 29.551486072278006 0 0 0
237 3 4.04544193061372 0.3078874611039886 30.558716168330857 0 1 0
241 7 0.21436866884283154 0.11168374755235166 31.631128285451904 0 0 0
242 7 2.5802716687398624 0.15306754008382947 31.7420037803288 0 0 0
246 4 1.3568484649807129 2.25450605633321 31.6617280815615 0 0 0
247 7 3.8960911507698537 2.1602025159242313 31.640906564982604 0 0 0
276 7 0.19159137448266136 3.0096527952848957 33.73383949083576 0 0 0
243 7 5.184265395510061 12.913761963994283 32.09715412646527 0 -1 0
244 7 7.644019554213689 0.014588457098884932 31.70505237383441 0 0 0
248 7 6.424460781269646 2.159883846065426 31.63892261903941 0 0 0
279 7 7.7452772329114365 3.0571994727288248 33.722439293716455 0 0 0
249 7 8.868101036288465 2.1170040194516977 31.670202977781468 0 0 0
250 7 11.398855411049965 2.153308264557932 31.653288212158717 0 0 0
255 1 10.120481721668629 4.234639112874205 31.49448206126586 0 0 0
275 4 11.456741599802498 0.81220410240865 33.71133761529571 0 0 0
251 7 0.16244911748663216 4.3385323509165366 31.645074273423095 0 0 0
252 7 2.648423591734482 4.328943825634025 31.668430553994583 0 0 0
256 7 1.3453671581548232 6.513986813186044 31.63358770939002 0 0 0
257 6 3.8079951084967534 6.511203689667104 31.6652293339586 0 0 0
253 7 5.1289145737398005 4.320150926507314 31.620762532791144 0 0 0
254 7 7.63797893344244 4.324799256069955 31.58518517858801 0 0 0
258 7 6.369174745370079 6.505932720346808 31.620849509412846 0 0 0
264 7 7.606617815171467 8.592591552558703 31.61638137235084 0 0 0
283 7 6.395117712815557 5.115013328377626 33.665730559779504 0 0 0
289 7 7.649925268566625 7.20194813436289 33.70974560461666 0 0 0
259 4 8.838444844110416 6.476872154798485 31.621359806970545 0 0 0
260 7 11.330970280807081 6.506139561006682 31.58587006959475 0 0 0
284 5 8.902579526366187 5.1339893830757575 33.57505641162183 0 0 0
290 7 10.10039515956999 7.27711967328354 33.5886752567114 0 0 0
261 7 0.19248083682528008 8.723857718520938 31.647647903775685 0 0 0
262 7 2.6791213363263897 8.730905023987845 31.53469406997631 0 0 0
266 7 1.578053204100928 10.845660504622845 31.57190139167725 0 0 0
267 4 3.9308547755515266 11.29280769105859 30.852504834710683 0 0 0
292 7 3.974286388796264 9.385026470351708 33.506674891812736 0 0 0
326 7 0.5237320381421572 11.670139078350712 33.67669322520535 0 0 0
263 1 5.109272984937954 8.771329887325889 31.42853735979285 0 0 0
268 7 6.277717703688499 10.774405915224168 31.577997774992763 0 0 0
245 7 10.128693064224011 12.900761151287226 31.86041993336788 0 -1 0
265 6 10.117666304643684 8.699272505621767 31.533654856518137 0 0 0
269 7 8.79233891975741 10.817328993409305 31.741568297823218 0 0 0
270 7 11.443481152497833 10.920759748768678 31.60585667445312 0 0 0
294 7 8.785201924351993 9.306466535407562 33.68741947945732 0 0 0
296 3 11.091897505811032 11.8472330438954 33.323498394997756 -1 0 0
271 7 1.4918112500252607 0.9197237523557977 33.776784185632664 0 0 0
272 7 3.935492859626649 0.9681104976491487 33.920205972449615 0 0 0
277 7 2.6588598433059736 3.093788664779758 33.798207448206206 0 0 0
301 7 0.2100527788916734 1.5690796483508778 35.75745286191803 0 0 0
302 7 2.6388951261139257 1.6852715596239625 35.86297796870288 0 0 0
306 4 1.433201206058547 3.8495899230320085 35.95747544777557 0 0 0
307 7 4.014631018452887 3.7494662019941063 35.83347047059196 0 0 0
273 7 6.47999848285893 0.9878713519000506 33.8928969823576 0 0 0
278 1 5.232012385953241 3.010030593495446 33.711709718923856 0 0 0
303 7 5.258877893220257 1.6824910754348668 35.9214633517685 0 0 0
304 4 7.784680692730973 1.6518306942540766 35.90058027566715 0 0 0
308 7 6.544514659096369 3.7240510475319972 35.788498275088465 0 0 0
274 7 8.856549640378308 0.9136933554772259 33.82546539986905 0 0 0
280 7 10.21857340749594 3.0110295990233182 33.70321534642764 0 0 0
305 7 10.241580366189476 1.5773929872021766 35.721324546865176 0 0 0
309 7 9.036911933741157 3.689737781160197 35.77649449512169 0 0 0
310 4 11.605186483069605 3.959880548156979 35.85893651485646 0 0 0
335 5 9.925734677763945 12.924647789672669 37.39097807848383 0 -1 0
281 7 1.3387049883101472 5.197354334597255 33.859105278591244 0 0 0
282 4 3.8640242491025703 5.14801448535787 33.76849217287701 0 0 0
286 7 0.10895999401863138 7.296069264543707 33.618613077327666 0 0 0
287 7 2.647972190765069 7.300829414780962 33.744132083346756 0 0 0
312 7 2.7466612239004133 5.805522566385253 35.782693861847385 0 0 0
316 7 1.2274497561812783 7.616782178759598 35.783800229338986 0 0 0
317 7 3.947825143544765 8.076960832374006 35.73133978654368 0 0 0
288 7 5.200726161897169 7.283497550479286 33.66536387652991 0 0 0
313 7 5.281538547136481 5.9315396646766985 35.714491252203416 0 0 0
314 7 7.73910700355116 5.835439059667273 35.73948852397311 0 0 0
318 4 6.571920107411091 8.136949514618005 35.80156635028634 0 0 0
285 4 11.361481613483203 5.170515219073049 33.6267947938703 0 0 0
311 2 12.384619699237893 6.01626666443218 35.317407027726546 -1 0 0
315 7 10.15107333942149 5.825818573231091 35.57188643180968 0 0 0
319 7 8.972182862166969 7.992666288480147 35.815441975745856 0 0 0
320 7 11.363738863937227 7.950504749240612 35.587618707494606 0 0 0
355 3 10.452672989661412 7.919079602441822 37.271783103184184 0 0 0
291 7 1.4834693212395245 9.440223222366594 33.72848211142832 0 0 0
297 6 3.041373450784038 11.587960315175032 33.66953497863665 0 0 0
321 6 0.2272491102862626 10.081980488598118 35.90439326741372 0 0 0
322 7 2.7192920002810292 10.214613739023012 35.758681359133305 0 0 0
327 6 3.9419459849157783 12.521572854255073 36.10722882272514 0 0 0
356 4 1.420197274604157 12.377565844896754 35.84437288291014 0 0 0
293 4 6.4682200236563565 9.335034399433477 33.64716508650474 0 0 0
298 2 5.219725588110247 12.302097712473566 34.204077187835324 0 0 0
299 7 7.012683556923262 11.594360648136695 33.675903394765385 0 0 0
323 6 5.2510298513420715 10.254102072707196 35.572866158071 0 0 0
324 7 7.929938534479062 10.373662309571582 35.707444793727234 0 0 0
328 7 6.486782808092466 12.53810464640751 35.9106102533476 0 0 0
295 6 11.286476731180207 9.715288185363466 33.75432348120983 0 0 0
300 7 9.400068994685288 11.563505045264643 34.16173619069932 0 0 0
325 7 10.271198839842924 9.863026144420546 37.02692179991886 0 0 0
329 3 9.5463941599727 11.420352613606623 36.19638790321617 0 0 0
330 4 11.277149385368514 12.092930304751594 35.573448560217926 0 0 0
332 7 2.5050810666350705 0.12415397495300609 38.03386475000463 0 0 0
336 7 1.3505744460727438 2.20536588962405 37.83342899761219 0 0 0
337 7 3.904620189517505 2.2178490893790244 37.868170655073904 0 0 0
333 7 5.237718080431389 0.18762766658242486 38.122743065800954 0 0 0
334 7 7.668961873746501 0.08934162006519461 37.999382700925736 0 0 0
338 7 6.549762057563836 2.274972469566845 37.85756858110094 0 0 0
361 8 6.132473012527651 2.1481379496405255 41.48394472192989 0 0 0
362 8 6.686472655513336 2.66738082074215 41.48626762858106 0 0 0
339 7 8.999038360991046 2.204695202185319 37.85269089833353 0 0 0
340 7 11.380352704073367 2.213328140290613 37.723196846171604 0 0 0
342 7 2.7302412452687808 4.308260456313911 37.92379895469079 0 0 0
346 7 1.5325289921586005 6.423807359260063 37.99361760328231 0 0 0
347 6 3.981324261576771 6.491372430636506 37.765353480513454 0 0 0
343 7 5.322193940844011 4.449989270756547 37.83074942742042 0 0 0
344 7 7.8449271978364905 4.455643772624159 37.84547749357136 0 0 0
348 6 6.677841475021025 6.686285718092041 37.81285036749766 0 0 0
341 7 0.22668976752563155 4.2697522873987435 38.06734319735773 0 0 0
345 4 10.234384306515835 4.352526565770625 37.80570234656425 0 0 0
349 7 9.254769732642819 6.645292849645468 37.85812069699533 0 0 0
350 7 11.694930965474141 6.290789712828845 37.295445836492114 0 0 0
352 6 2.508040491062645 8.677984982602174 37.68188025144304 0 0 0
357 7 3.8656104772369897 10.825514400382469 37.95197877175136 0 0 0
360 7 1.4112543152366772 10.922978066991197 37.88419368492436 1 0 0
353 7 5.146710165213378 8.714104196520742 37.82339368412772 0 0 0
354 7 7.973322102140999 8.974485312640756 37.811082351447695 0 0 0
358 6 6.4361356785926835 10.875337216346036 37.7863016211054 0 0 0
331 7 12.41167826303293 12.904620363322378 37.62336604973928 -1 -1 0
351 7 12.261842669018009 8.579854502010395 37.83505479332487 -1 0 0
359 2 8.616737367157986 11.187076133891779 37.421401626068125 0 0 0

Velocities

1 0 0 0
2 0 0 0
6 0 0 0
7 0 0 0
31 0 0 0
32 0 0 0
36 0 0 0
37 0 0 0
3 0 0 0
8 0 0 0
9 0 0 0
33 0 0 0
34 0 0 0
38 0 0 0
4 0 0 0
5 0 0 0
10 0 0 0
35 0 0 0
39 0 0 0
40 0 0 0
11 0 0 0
12 0 0 0
16 0 0 0
17 0 0 0
41 0 0 0
42 0 0 0
46 0 0 0
47 0 0 0
13 0 0 0
18 0 0 0
19 0 0 0
43 0 0 0
44 0 0 0
48 0 0 0
14 0 0 0
15 0 0 0
20 0 0 0
45 0 0 0
49 0 0 0
50 0 0 0
21 0 0 0
22 0 0 0
26 0 0 0
27 0 0 0
51 0 0 0
52 0 0 0
56 0 0 0
57 0 0 0
23 0 0 0
28 0 0 0
29 0 0 0
53 0 0 0
54 0 0 0
58 0 0 0
24 0 0 0
25 0 0 0
30 0 0 0
55 0 0 0
59 0 0 0
60 0 0 0
61 0 0 0
62 0 0 0
66 0 0 0
67 0 0 0
91 0 0 0
92 0 0 0
96 0 0 0
97 0 0 0
63 0 0 0
64 0 0 0
68 0 0 0
93 0 0 0
98 0 0 0
99 0 0 0
65 0 0 0
69 0 0 0
70 0 0 0
94 0 0 0
95 0 0 0
100 0 0 0
71 0 0 0
72 0 0 0
76 0 0 0
77 0 0 0
101 0 0 0
102 0 0 0
106 0 0 0
107 0 0 0
73 0 0 0
74 0 0 0
78 0 0 0
103 0 0 0
108 0 0 0
109 0 0 0
75 0 0 0
79 0 0 0
80 0 0 0
104 0 0 0
105 0 0 0
110 0 0 0
81 0 0 0
82 0 0 0
86 0 0 0
87 0 0 0
111 0 0 0
112 0 0 0
116 0 0 0
117 0 0 0
83 0 0 0
84 0 0 0
88 0 0 0
113 0 0 0
118 0 0 0
119 0 0 0
85 0 0 0
89 0 0 0
90 0 0 0
114 0 0 0
115 0 0 0
120 0 0 0
121 0 0 0
122 0 0 0
126 0 0 0
127 0 0 0
152 0 0 0
156 0 0 0
157 0 0 0
162 0 0 0
123 0 0 0
124 0 0 0
128 0 0 0
153 0 0 0
154 0 0 0
158 0 0 0
163 0 0 0
164 0 0 0
125 0 0 0
129 0 0 0
130 0 0 0
155 0 0 0
159 0 0 0
160 0 0 0
165 0 0 0
131 0 0 0
132 0 0 0
136 0 0 0
137 0 0 0
161 0 0 0
166 0 0 0
167 0 0 0
133 0 0 0
134 0 0 0
138 0 0 0
168 0 0 0
173 0 0 0
135 0 0 0
139 0 0 0
140 0 0 0
169 0 0 0
170 0 0 0
175 0 0 0
141 0 0 0
142 0 0 0
146 0 0 0
147 0 0 0
151 0 0 0
171 0 0 0
172 0 0 0
176 0 0 0
177 0 0 0
143 0 0 0
144 0 0 0
148 0 0 0
178 0 0 0
145 0 0 0
149 0 0 0
150 0 0 0
174 0 0 0
179 0 0 0
180 0 0 0
181 0 0 0
182 0 0 0
186 0 0 0
187 0 0 0
211 0 0 0
212 0 0 0
216 0 0 0
217 0 0 0
183 0 0 0
188 0 0 0
189 0 0 0
213 0 0 0
214 0 0 0
218 0 0 0
184 0 0 0
185 0 0 0
190 0 0 0
215 0 0 0
219 0 0 0
220 0 0 0
191 0 0 0
192 0 0 0
197 0 0 0
221 0 0 0
222 0 0 0
226 0 0 0
227 0 0 0
193 0 0 0
198 0 0 0
199 0 0 0
223 0 0 0
224 0 0 0
228 0 0 0
194 0 0 0
195 0 0 0
196 0 0 0
200 0 0 0
225 0 0 0
229 0 0 0
230 0 0 0
201 0 0 0
202 0 0 0
206 0 0 0
207 0 0 0
231 0 0 0
232 0 0 0
236 0 0 0
203 0 0 0
208 0 0 0
209 0 0 0
233 0 0 0
234 0 0 0
238 0 0 0
204 0 0 0
205 0 0 0
210 0 0 0
235 0 0 0
239 0 0 0
240 0 0 0
237 0 0 0
241 0 0 0
242 0 0 0
246 0 0 0
247 0 0 0
276 0 0 0
243 0 0 0
244 0 0 0
248 0 0 0
279 0 0 0
249 0 0 0
250 0 0 0
255 0 0 0
275 0 0 0
251 0 0 0
252 0 0 0
256 0 0 0
257 0 0 0
253 0 0 0
254 0 0 0
258 0 0 0
264 0 0 0
283 0 0 0
289 0 0 0
259 0 0 0
260 0 0 0
284 0 0 0
290 0 0 0
261 0 0 0
262 0 0 0
266 0 0 0
267 0 0 0
292 0 0 0
326 0 0 0
263 0 0 0
268 0 0 0
245 0 0 0
265 0 0 0
269 0 0 0
270 0 0 0
294 0 0 0
296 0 0 0
271 0 0 0
272 0 0 0
277 0 0 0
301 0 0 0
302 0 0 0
306 0 0 0
307 0 0 0
273 0 0 0
278 0 0 0
303 0 0 0
304 0 0 0
308 0 0 0
274 0 0 0
280 0 0 0
305 0 0 0
309 0 0 0
310 0 0 0
335 0 0 0
281 0 0 0
282 0 0 0
286 0 0 0
287 0 0 0
312 0 0 0
316 0 0 0
317 0 0 0
288 0 0 0
313 0 0 0
314 0 0 0
318 0 0 0
285 0 0 0
311 0 0 0
315 0 0 0
319 0 0 0
320 0 0 0
355 0 0 0
291 0 0 0
297 0 0 0
321 0 0 0
322 0 0 0
327 0 0 0
356 0 0 0
293 0 0 0
298 0 0 0
299 0 0 0
323 0 0 0
324 0 0 0
328 0 0 0
295 0 0 0
300 0 0 0
325 0 0 0
329 0 0 0
330 0 0 0
332 0 0 0
336 0 0 0
337 0 0 0
333 0 0 0
334 0 0 0
338 0 0 0
361 0 0 0
362 0 0 0
339 0 0 0
340 0 0 0
342 0 0 0
346 0 0 0
347 0 0 0
343 0 0 0
344 0 0 0
348 0 0 0
341 0 0 0
345 0 0 0
349 0 0 0
350 0 0 0
352 0 0 0
357 0 0 0
360 0 0 0
353 0 0 0
354 0 0 0
358 0 0 0
331 0 0 0
351 0 0 0
359 0 0 0
