LAMMPS data file via write_data, version 11 Feb 2026, timestep = 526, units = metal

362 atoms
8 atom types

0 12.447907776 xlo xhi
0 12.9362452296 ylo yhi
0 52.3600831054 zlo zhi

Masses

1 26.9815
2 10.811
3 12.011
4 51.9961
5 55.845
6 95.95999999999999
7 58.6934
8 1.008

Atoms # atomic/kk

1 7 1.111198495734103 0.8379416149577351 14.64242649965978 0 0 0
2 7 3.549692049585443 0.7535603710294455 14.8709857177272 0 0 0
6 7 12.261484081970016 3.4937383700302753 14.64334864809783 -1 0 0
7 7 2.221948605145863 2.986898715356192 15.10734531251045 0 0 0
31 6 12.388791272442608 1.90501415488649 16.486062690950185 -1 0 0
32 7 2.303293480939874 1.2699040113988647 16.931155489253804 0 0 0
36 7 1.1327765522690525 3.9848892342032602 17.063191148261016 0 0 0
37 7 3.565773234446788 3.6622828440895527 17.093732743792994 0 0 0
3 5 6.010396428036228 0.88270557264396 14.937664253532185 0 0 0
8 7 4.775511287517699 3.0011304214797376 15.021058138350455 0 0 0
9 7 7.281376931911297 3.078111058904266 14.89309037379737 0 0 0
33 7 4.8248480095389334 1.5516793973950818 16.98308305779261 0 0 0
34 7 7.352601193867192 1.7274391019578026 16.946740619530328 0 0 0
38 5 6.07164336865559 3.758008887703489 16.970700565008325 0 0 0
4 6 8.63135138767908 0.9867525082758872 14.94620118473177 0 0 0
5 7 11.01921162399431 1.2686447946515658 14.461926421330546 0 0 0
10 7 9.803591173895986 3.3952362299022742 14.72304152446911 0 0 0
35 7 9.916577251122412 1.7295636089660928 16.904890936348853 0 0 0
39 7 8.630917019559535 3.8802871576488744 16.814667861570033 0 0 0
40 7 11.067270297587223 3.9690793194123875 16.965214645841716 0 0 0
11 7 1.1300046789600686 5.448877296990249 15.026372659430383 0 0 0
12 7 3.5480419512860233 5.1624810896933875 15.122258802943406 0 0 0
16 4 0.21137924270086866 7.689568299702876 14.612293848364114 0 0 0
17 7 2.4239367719854377 7.521443384370818 15.091781715892004 0 0 0
41 7 12.312028937588812 6.126170103862443 17.12848535075447 -1 0 0
42 7 2.3683817561449154 6.091667464599785 17.112485608724384 0 0 0
46 7 0.814056410094209 8.429875475872075 16.8606077770843 0 0 0
47 7 3.8115466446571618 8.025856830380967 17.027455419756002 0 0 0
13 7 6.041876652260625 5.202112245673886 15.008847600404852 0 0 0
18 7 4.891120453044629 7.318294280215315 14.977402091008543 0 0 0
19 2 6.838954929154454 6.991343639602835 15.31672035153774 0 0 0
43 7 4.850188170494037 5.827204208699597 17.077607475425257 0 0 0
44 7 7.338408425225104 5.896649354785939 17.023805040347067 0 0 0
48 7 6.221321004110196 8.008998083950503 17.018524984762703 0 0 0
14 7 8.569987165020375 5.65486733765038 14.893896242920983 0 0 0
15 6 11.043241442778793 5.655017851083257 15.085868514110006 0 0 0
20 7 10.223662577902681 7.673676760290369 13.989672774747227 0 0 0
45 7 9.803419482678269 6.127150800744964 17.180079078706918 0 0 0
49 7 8.46591967266697 7.874416993255696 16.022621461085787 0 0 0
50 7 10.901844774872327 8.133034108486488 16.214984344743918 0 0 0
21 2 1.5443908654531446 9.489407544727102 15.210834901578664 0 0 0
22 7 3.6129031273045937 9.528517842490135 14.919365116506249 0 0 0
26 7 0.31044143859501844 10.818822385123243 16.829691586767957 0 0 0
27 7 2.0281757033493717 11.493335376827783 15.151494415133953 0 0 0
51 3 11.616677552149058 9.387037471261326 17.49966384233638 -1 0 0
52 7 2.60998172536517 10.097411125931782 17.043626309924733 0 0 0
56 2 0.92303211491981 12.721403457841541 16.354837852088206 0 0 0
57 7 3.6996467691208723 12.242259627974157 16.92998548443031 0 0 0
23 7 6.580623486825007 9.102770078257185 14.851695058245873 0 0 0
28 7 4.813434598959536 11.626169499804496 14.819254434244312 0 0 0
29 6 7.369792195306084 11.514914754312695 14.917485381419771 0 0 0
53 7 5.124208369761956 10.127062740267052 16.77976208863289 0 0 0
54 7 7.690023250671856 10.060430422277912 16.922074347711224 0 0 0
58 6 6.290556933336363 12.35518945384813 17.01264470252227 0 0 0
24 7 9.04784945244002 9.683847948866362 14.656332690635493 0 0 0
25 7 11.940889540936965 9.895133646408457 14.711529005858852 0 0 0
30 7 9.919451703021755 11.873129909820662 14.579051481853217 0 0 0
55 7 10.239631802245809 10.42490446694131 16.646502716447795 0 0 0
59 7 8.838888413886947 12.387563935278745 16.890963482726058 0 0 0
60 7 11.294775422048893 12.639319079180636 16.351012389116672 0 0 0
61 6 0.10121296346818352 12.930753929596326 18.576594414260086 0 -1 0
62 7 2.5590390251780226 0.052858413294498634 19.144155212081703 0 0 0
66 6 1.349617980179718 2.2485373887773585 19.06711806544098 0 0 0
67 5 3.7940344204844303 2.2011387379687175 19.105395996604628 0 0 0
91 4 1.3609248612701157 0.8040264129386852 21.253472981890575 0 0 0
92 7 3.7917892543725267 0.7598035031018949 21.133981681345034 0 0 0
96 7 0.07933631365140262 2.8831486370996853 21.177759391842038 0 0 0
97 7 2.6012606314017384 2.881093298671703 21.21025700149667 0 0 0
63 5 5.010568854747113 0.13677933834673947 19.064764000254865 0 0 0
64 7 7.493098236635507 0.12693972517869356 19.093796537407087 0 0 0
68 7 6.188674615287035 2.194198778500711 19.050737316532267 0 0 0
93 7 6.319099524804459 0.7588271119052336 21.208072893998676 0 0 0
98 7 5.043992823432807 2.8954579501211213 21.153250319420337 0 0 0
99 5 7.498704692187936 2.8623451362196377 21.143248156553412 0 0 0
65 7 10.077588942528317 0.12316461784087515 18.965272193889245 0 0 0
69 7 8.728557726532953 2.205604212568748 18.96369559219847 0 0 0
70 7 11.287832246929323 2.3093671323396237 18.90862175054218 0 0 0
94 7 8.77485541124243 0.7720550992700694 21.178811559002867 0 0 0
95 7 11.360313579424043 0.7429751237114653 21.031729532055188 0 0 0
100 6 10.042175120567302 2.8598976017945756 21.02034286473442 0 0 0
71 1 12.325460882368398 4.4735011613511695 19.196461317823385 -1 0 0
72 7 2.4458928698282043 4.439847498924543 19.11741887353833 0 0 0
76 7 1.1633498133604019 6.516156333574329 19.191030444786797 0 0 0
77 7 3.7563654316441806 6.517235146453049 19.14531386197613 0 0 0
101 7 1.2060732863939363 5.049455042336442 21.233189263068695 0 0 0
102 6 3.735612131644402 5.065411205359478 21.227507986863866 0 0 0
106 7 12.439450888968887 7.156092360955115 21.27446323844249 -1 0 0
107 7 2.469980610731051 7.190067150541682 21.238543526249455 0 0 0
73 7 4.937473145865143 4.328221059157012 19.077426018677958 0 0 0
74 6 7.466486956993901 4.334761203691686 19.027131152008327 0 0 0
78 7 6.1677479842175345 6.542685980253053 19.10604908688445 0 0 0
103 7 6.275905570696212 5.076079856605841 21.157410617338606 0 0 0
108 7 5.016830789366497 7.24016636922737 21.208393069043527 0 0 0
109 7 7.424073972591657 7.284535866069173 21.240530946740662 0 0 0
75 5 9.858634663696614 4.383606495605295 19.011205623718055 0 0 0
79 7 8.610850392089178 6.536150892099567 19.28638811472734 0 0 0
80 7 11.090059868294427 6.528958179376783 19.284067455470883 0 0 0
104 7 8.736315666073383 5.08044576097469 21.216702172808453 0 0 0
105 3 10.086447525707113 4.442108124145259 22.263317567076804 0 0 0
110 7 9.899254105641155 7.212767922425003 21.272317716346766 0 0 0
81 4 12.367555429487586 8.602033831928953 19.18873559417551 -1 0 0
82 6 2.4306501750342404 8.555665893546578 19.0248981414261 0 0 0
86 7 1.3015229822199328 10.776193130256006 19.171081796913562 0 0 0
87 1 3.8434844812277498 10.899221940297645 19.010139073780238 0 0 0
111 7 1.1988015222575736 9.353106870014384 21.21720256769198 0 0 0
112 6 3.7453993339376095 9.358073191528874 21.239385217098985 0 0 0
116 1 0.05617434415667034 11.5675154479937 21.177061851047394 0 0 0
117 7 2.519561526167596 11.558708378555304 21.17564669960962 0 0 0
83 7 4.966157673655418 8.747272478151677 19.033829800068833 0 0 0
84 7 7.420174777332717 8.657611882649318 19.011884216389337 0 0 0
88 7 6.272647213615107 10.840924994021746 19.022310744081466 0 0 0
113 7 6.238306800794636 9.415954101691222 21.03477605467731 0 0 0
118 7 5.039080352100175 11.57849200911833 21.14382225610313 0 0 0
119 4 7.469790739716536 11.594663661226356 21.077551020922265 0 0 0
85 6 9.826666153476769 8.534046604448928 18.450249661056016 0 0 0
89 6 8.780429104513086 10.889452368436602 18.980318819839553 0 0 0
90 4 11.282710740825307 10.827617678396145 18.892007933628147 0 0 0
114 7 8.70471614053777 9.362501777957949 20.934808191986054 0 0 0
115 6 11.117791904077945 9.309718672179217 21.16838981292389 0 0 0
120 7 10.016620390637712 11.576978611350516 21.1232263203134 0 0 0
121 7 0.08114004335356788 1.4275190729865888 23.257338048071155 0 0 0
122 7 2.569556541038685 1.4243591274379441 23.317927290375223 0 0 0
126 6 1.35255636313777 3.6239218800911663 23.261197959970662 0 0 0
127 7 3.8537292759412334 3.6085630354872635 23.366467005706845 0 0 0
152 7 2.6545126391544147 0.03059403058641189 25.375868388041393 0 0 0
156 1 1.486950424487971 2.160082783126379 25.502453963475105 0 0 0
157 7 3.9754258591217906 2.1577622585272738 25.44485018537167 0 0 0
162 7 2.6041654857734455 4.28764377439207 25.428492857619407 0 0 0
123 7 5.010453323663828 1.4501889678471445 23.200846024380255 0 0 0
124 7 7.41579773643824 1.541251760399733 23.479601676911987 0 0 0
128 7 6.308319229241281 3.686968672687786 23.17147214832058 0 0 0
153 7 5.200003074081366 0.0844032365122193 25.331326658316062 0 0 0
154 7 7.61142663695465 0.03096867967495593 25.458762164282497 0 0 0
158 2 5.800562130631856 2.5025461518373473 24.644013542956383 0 0 0
163 7 5.120680044193175 4.270803827926566 25.423446380352544 0 0 0
164 5 7.480310417371936 4.083778408676993 25.34434833682386 0 0 0
125 7 10.064643942940416 1.4659089513252277 23.301459556443586 0 0 0
129 7 8.75997570721219 3.5834025907468825 23.329518039765723 0 0 0
130 4 11.362959629566436 3.662644540892476 23.383176857714822 0 0 0
155 4 10.135693532163886 0.09359487530219904 25.51892211726913 0 0 0
159 7 8.889552969195362 2.127085913701379 25.423138603792 0 0 0
160 7 11.413270924634762 2.188816652558413 25.392095007091843 0 0 0
165 7 10.070297270204966 4.251508064992587 25.39767783815978 0 0 0
131 7 0.07610242483110902 5.813832594479588 23.386001245322415 0 0 0
132 7 2.549292025481592 5.816093507221074 23.365566515209444 0 0 0
136 7 1.313437244825076 7.9419133181043104 23.296425431556482 0 0 0
137 7 3.7893735879646724 7.983466641810873 23.32225499793048 0 0 0
161 4 0.11557629836111814 4.372596764580201 25.454066934177625 0 0 0
166 7 1.3433878984758232 6.443578345726352 25.424427652409758 0 0 0
167 7 3.815166342802235 6.455563466163477 25.44951425541134 0 0 0
133 6 5.073637693117324 5.869906083207894 23.385457378738895 0 0 0
134 7 7.563620536506785 5.806249879376292 23.30209869379013 0 0 0
138 7 6.31723571504806 8.015036491983984 23.33985981578937 0 0 0
168 7 6.370771107151279 6.413795036397859 25.430794273932527 0 0 0
173 7 5.118292814244187 8.571371624525645 25.354186740493233 0 0 0
135 7 10.068388568955172 5.866806676319734 23.373657451125446 0 0 0
139 4 8.704071679534916 7.975310411330217 23.21217364019509 0 0 0
140 4 11.292689248909864 7.927996023074324 23.295038662501767 0 0 0
169 7 8.779254692613497 6.3628743488066135 25.37145362997976 0 0 0
170 7 11.29628250010651 6.4393309048062 25.434715064790325 0 0 0
175 6 9.899061521948648 8.595847354010713 25.501156431471117 0 0 0
141 7 0.02610140146734878 10.112531352202318 23.328590860762166 0 0 0
142 7 2.5078147379632583 10.126707673854188 23.299480072541357 0 0 0
146 7 1.305680821000642 12.261061971269209 23.31447705069091 0 0 0
147 7 3.819795471923873 12.260497528428344 23.230901374684773 0 0 0
151 4 0.09957559160484265 12.905731175320382 25.371279414183793 0 -1 0
171 6 0.11840706240200369 8.648624136607399 25.410961704092035 0 0 0
172 7 2.6285401336161685 8.62981205067176 25.396159623418395 0 0 0
176 7 1.349414310037837 10.831766952843159 25.43254448873941 0 0 0
177 6 3.8909423343396656 10.834236449440112 25.315788397170557 0 0 0
143 7 5.07924849065176 10.129160183092408 23.235047237660137 0 0 0
144 7 7.514619979689727 10.1162325657861 22.904523284690143 0 0 0
148 4 6.23507106980383 12.300346862856019 23.261938514508937 0 0 0
178 6 6.6492647146338095 10.54366570461399 25.23889617064186 0 0 0
145 7 10.00164742639133 10.117008087518514 23.299809874454656 0 0 0
149 6 8.72639888356488 12.316914613719176 23.29086948832876 0 0 0
150 7 11.263658695573296 12.255686377023064 23.33343955715842 0 0 0
174 3 8.424120599889077 9.532165225129528 24.405966378144782 0 0 0
179 5 9.017028394616062 10.956794184612802 25.558990294093096 0 0 0
180 5 11.349179242841812 10.905006874996456 25.481452278264342 0 0 0
181 7 1.392036709337845 0.6891025480282339 27.485644693287462 0 0 0
182 7 3.880791171892889 0.7234943489342305 27.445332739115 0 0 0
186 7 0.17698148023372687 2.885984705673874 27.479165027448026 0 0 0
187 7 2.6650847087933833 2.8733246412249427 27.56413819159969 0 0 0
211 7 0.21320479499426298 1.4710090240502496 29.578410979184838 0 0 0
212 7 2.7139652220359767 1.3839455624224537 29.58022106276881 0 0 0
216 7 1.4154250927934897 3.5787575832331284 29.5835434568023 0 0 0
217 4 3.829577796397283 3.592223536493174 29.600712458273758 0 0 0
183 7 6.31946142445535 0.7385530619704015 27.56926562787773 0 0 0
188 7 5.089790057859272 2.8936490771955934 27.576060199023022 0 0 0
189 7 7.605427509033456 2.8162914812707007 27.44821158524867 0 0 0
213 5 5.141961484901121 1.4454665981867365 29.600590075947128 0 0 0
214 7 7.623820644670713 1.3784811085082818 29.583081782370282 0 0 0
218 7 6.372079275251501 3.5559010278925807 29.5405497856942 0 0 0
184 7 8.899863107506238 0.7467268122766412 27.549673338922933 0 0 0
185 4 11.392463982131726 0.7500699912086262 27.517822683028495 0 0 0
190 7 10.154736752017456 2.8612240065192873 27.47462468292192 0 0 0
215 7 10.132914297339008 1.4316448266785662 29.618290180938743 0 0 0
219 7 8.845998816502355 3.5378404390869416 29.518301906773775 0 0 0
220 7 11.375192249983913 3.5872464113151343 29.511055400586795 0 0 0
191 7 1.3961317196342902 5.032435571977553 27.46949206221004 0 0 0
192 7 3.838806910593859 5.0085006340287 27.488140533748766 0 0 0
197 7 2.585218241317408 7.212240290592679 27.482228049925403 0 0 0
221 7 0.1259529386765932 5.753633163052687 29.56462463091424 0 0 0
222 7 2.5964951982659756 5.748233919901896 29.55425727686413 0 0 0
226 7 1.367914510361935 7.925892097774184 29.551671156571793 0 0 0
227 7 3.866254114996649 7.930367162244324 29.47817707792497 0 0 0
193 7 6.377386199960418 4.994784201798139 27.414097742428982 0 0 0
198 7 5.109329793267887 7.189870057210743 27.419889479894504 0 0 0
199 7 7.622582357130088 7.211713310573708 27.446166385463744 0 0 0
223 6 5.1602528235688565 5.737593702588716 29.49403216700363 0 0 0
224 7 7.651997614859872 5.761239915552539 29.57768075230483 0 0 0
228 7 6.398716749932727 7.93140608140816 29.498508150922824 0 0 0
194 6 8.853844067151705 5.025289875647687 27.48232418543624 0 0 0
195 7 11.367146673765792 5.024754429121888 27.497976174438257 0 0 0
196 7 0.1418109682299209 7.188397055019932 27.488182081319994 0 0 0
200 7 10.12763167081331 7.187559890184801 27.527365283671532 0 0 0
225 7 10.107849053977422 5.768839751964309 29.59562304966709 0 0 0
229 7 8.851582763772768 7.910408735623244 29.515458618415604 0 0 0
230 7 11.373302435924211 7.958741265271211 29.514436907501487 0 0 0
201 5 1.382996739749539 9.352230605621335 27.515271666891216 0 0 0
202 7 3.878153842752286 9.337524201162644 27.396853157498914 0 0 0
206 4 0.19250734614705084 11.50738206370282 27.517849834201442 0 0 0
207 7 2.616017623610088 11.482528345347118 27.45285804034268 0 0 0
231 7 0.16784013579028062 10.1053813844444 29.561745356370384 0 0 0
232 7 2.635912555721358 10.04639991326533 29.435067662677245 0 0 0
236 7 1.4746665677878756 12.208483085864849 29.555474726001012 0 0 0
203 7 6.377752457175999 9.30948171980947 27.407897453002715 0 0 0
208 7 5.1472947521157 11.518199518363572 27.353595964578556 0 0 0
209 6 7.596606085437424 11.554559697851817 27.630864815552048 0 0 0
233 7 5.152226921726279 10.07169612773059 29.342286432060053 0 0 0
234 7 7.607763730962314 10.111366630404852 29.65579699017647 0 0 0
238 7 6.226573920475111 12.258439767934311 29.679701802323336 0 0 0
204 7 8.842850116177585 9.395340494809638 27.60386983297708 0 0 0
205 7 11.3515950274991 9.446417872297662 27.53088462304465 0 0 0
210 7 10.161462588692784 11.584047635231498 27.565911923296877 0 0 0
235 7 10.090339804553999 10.205186673206882 29.58608817132647 0 0 0
239 4 8.888815066941362 12.281223537279676 29.72164095841269 0 0 0
240 7 11.39940975333186 12.294665092493547 29.551272028567496 0 0 0
237 3 4.037236821146841 0.3267959179422151 30.560189658249495 0 1 0
241 7 0.2041860157711906 0.12948396904346918 31.62636412069339 0 0 0
242 7 2.5707934170552207 0.16882954810757725 31.740630187901804 0 0 0
246 4 1.3474038298759383 2.2719009826517325 31.657354481519967 0 0 0
247 7 3.886481584703913 2.1765725949697443 31.642915173263397 0 0 0
276 7 0.18356653335070164 3.0284739950378414 33.72813901930553 0 0 0
243 7 5.174998469200392 12.931014941209027 32.099620625885024 0 -1 0
244 7 7.633362516805245 0.03191904669626013 31.706675174818713 0 0 0
248 7 6.414626608742015 2.176995502350196 31.642632927810673 0 0 0
279 7 7.735913193259338 3.0740910272252955 33.72541159581775 0 0 0
249 7 8.858040387395187 2.133632283217745 31.67245995110334 0 0 0
250 7 11.38873742319373 2.171085599405155 31.650276526017997 0 0 0
255 1 10.110035784332181 4.252159722958047 31.49464124010747 0 0 0
275 4 11.4485539860233 0.8336536787739465 33.70500995912603 0 0 0
251 7 0.15191239773796855 4.3566127706171 31.64234443081993 0 0 0
252 7 2.637630273795302 4.3460434610277225 31.66786918199026 0 0 0
256 7 1.3349508153434602 6.531284804091982 31.633821325352617 0 0 0
257 6 3.7975100791714773 6.527800603867328 31.665742617648224 0 0 0
253 7 5.1184190647700545 4.335989088344633 31.623731898445666 0 0 0
254 7 7.628006538892592 4.341415912668627 31.587233144600365 0 0 0
258 7 6.358501529221933 6.521880925074153 31.622445336531772 0 0 0
264 7 7.59511989710761 8.608955786825225 31.617012612239243 0 0 0
283 7 6.386297572614182 5.131091091171697 33.667876552595374 0 0 0
289 7 7.639831570570529 7.218195980391701 33.71065909508695 0 0 0
259 4 8.828211598719374 6.494153183259848 31.62235632867419 0 0 0
260 7 11.320832947080191 6.523971840485176 31.585766955467314 0 0 0
284 5 8.89334475201755 5.150473044873428 33.57712485739817 0 0 0
290 7 10.091148443947214 7.294069708273567 33.58955140815805 0 0 0
261 7 0.18194651850932653 8.742034732938054 31.648448199004903 0 0 0
262 7 2.6682668417919744 8.747607818443303 31.536223778497586 0 0 0
266 7 1.5682304785406602 10.862158868546269 31.569632085473103 0 0 0
267 4 3.9217214376652105 11.311148362521157 30.851155570909203 0 0 0
292 7 3.9632370189649526 9.400682101483213 33.509020133839705 0 0 0
326 7 0.5104882709466596 11.687028601927725 33.667691657829366 0 0 0
263 1 5.098020489048664 8.788045210452811 31.43008195681382 0 0 0
268 7 6.26600920861738 10.790742945486436 31.577508088809896 0 0 0
245 7 10.115806270991731 12.918069514518196 31.862263234846797 0 -1 0
265 6 10.106859139337917 8.71657115400299 31.53378171763125 0 0 0
269 7 8.779585856942276 10.833350105873391 31.73927818247716 0 0 0
270 7 11.43089516673253 10.937978074335804 31.606724086273843 0 0 0
294 7 8.774569938286737 9.321674546160116 33.68608802335529 0 0 0
296 3 11.077198449496116 11.866189672515965 33.322432062578606 -1 0 0
271 7 1.4832198108853274 0.9367018651944653 33.770614283282306 0 0 0
272 7 3.9288377328782973 0.9859514280778958 33.92456351511168 0 0 0
277 7 2.6506283999932383 3.111116771114419 33.79700105824094 0 0 0
301 7 0.20106667758187927 1.5879336311297547 35.74852941521001 0 0 0
302 7 2.627324680965093 1.7001764420777117 35.858816816348856 0 0 0
306 4 1.4260786182136396 3.8625858509480087 35.959956811218895 0 0 0
307 7 4.006430054511837 3.764190022936685 35.834174506182094 0 0 0
273 7 6.469924866570941 1.0051406660843119 33.90010521063886 0 0 0
278 1 5.224541270968527 3.0268627231208085 33.71986655885026 0 0 0
303 7 5.256614623947602 1.700193679373792 35.940637012109484 0 0 0
304 4 7.770692855360664 1.669747186161206 35.91755845597258 0 0 0
308 7 6.538723395379313 3.7395283213226684 35.79625024727387 0 0 0
274 7 8.845427694494488 0.9325083340062222 33.83314308203432 0 0 0
280 7 10.210104691014676 3.0279294479907293 33.70171966933063 0 0 0
305 7 10.233213390030862 1.5928256876910212 35.72154388813122 0 0 0
309 7 9.030891140266782 3.705746589995296 35.774471617571145 0 0 0
310 4 11.600213975002672 3.976806537704593 35.85780525105034 0 0 0
335 5 9.92141142275591 0.0008349506244343809 37.39523760475649 0 0 0
281 7 1.3289181599228324 5.213776496696855 33.85999658411793 0 0 0
282 4 3.854141146587626 5.16454358855922 33.768691834672225 0 0 0
286 7 0.09970385438146184 7.313757921579534 33.61895318639771 0 0 0
287 7 2.6379811547138408 7.317327901587314 33.744879063959004 0 0 0
312 7 2.7354650496618804 5.820651111287358 35.78373958650561 0 0 0
316 7 1.220088763393698 7.637338702386969 35.783920992471344 0 0 0
317 7 3.9371587962397254 8.091686822623801 35.733508342945576 0 0 0
288 7 5.190283785447381 7.299716845466644 33.666408052180564 0 0 0
313 7 5.272622317986693 5.9475526929533915 35.71454491227617 0 0 0
314 7 7.7310065238467836 5.853135520317612 35.740534211585356 0 0 0
318 4 6.561662931692207 8.152012815881152 35.80368677036932 0 0 0
285 4 11.352276865563914 5.188316529536188 33.62573793000494 0 0 0
311 2 12.377634558149301 6.035202008003198 35.31500008124115 -1 0 0
315 7 10.143708294584952 5.843069765718786 35.57277433541451 0 0 0
319 7 8.963902839091096 8.009621918601853 35.814909886065024 0 0 0
320 7 11.356606390652903 7.969625964512023 35.58843918226562 0 0 0
355 3 10.445228978345252 7.937208523076939 37.271271576666734 0 0 0
291 7 1.471392603331798 9.457954529152579 33.73146693359166 0 0 0
297 6 3.0303400725538836 11.604515226503104 33.67015176672044 0 0 0
321 6 0.21540381567270492 10.108307260116982 35.911488573110944 0 0 0
322 7 2.7062750042589836 10.226550585046605 35.760613140103594 0 0 0
327 6 3.9320718211790755 12.53780088015569 36.10541710288172 0 0 0
356 4 1.4158441690002603 12.388747248384147 35.827871948226665 0 0 0
293 4 6.457091015823975 9.350576363400604 33.649710476238646 0 0 0
298 2 5.208860223715201 12.316376211525943 34.203012977832 0 0 0
299 7 6.998480879728179 11.61019220454743 33.674476495988316 0 0 0
323 6 5.238181019424171 10.26974074888523 35.576409231614925 0 0 0
324 7 7.918871189971191 10.389747163090485 35.706870578063956 0 0 0
328 7 6.476078581671543 12.551861594169797 35.91168653938183 0 0 0
295 6 11.27673484869979 9.732062611734861 33.75659417691599 0 0 0
300 7 9.38208188482103 11.578337268082487 34.1545360919128 0 0 0
325 7 10.26109423954844 9.88172742133153 37.02756375014876 0 0 0
329 3 9.535911487201064 11.436719876388192 36.19283625806895 0 0 0
330 4 11.257868849000381 12.10676326792495 35.555599344396846 0 0 0
332 7 2.4920212301953546 0.1326059947349017 38.02727332219284 0 0 0
336 7 1.3391548241614075 2.2160130403181353 37.83171800069522 0 0 0
337 7 3.8843110183348823 2.229017997297004 37.86580453603054 0 0 0
333 7 5.227460816654333 0.19972834442107643 38.11686036489083 0 0 0
334 7 7.660832315194986 0.10390284432165588 37.99748159745995 0 0 0
338 7 6.5402165692283285 2.299214278853639 37.899336103779184 0 0 0
339 7 8.999460938556652 2.2237133062412995 37.85256329075286 0 0 0
340 7 11.375899221707638 2.225262613829172 37.72305244530587 0 0 0
361 8 12.17618541342206 0.18411055615012092 41.340649784195236 0 0 0
362 8 0.40404506719434274 0.48389655015705124 41.521057601685776 1 0 0
342 7 2.720768311373678 4.3238708769153975 37.92520082841338 0 0 0
346 7 1.5251470773439837 6.4405636614842345 37.99719828999198 0 0 0
347 6 3.972060611518137 6.507065387100247 37.76467983401641 0 0 0
343 7 5.313772072464378 4.464563025999489 37.834242553487 0 0 0
344 7 7.843215451215332 4.475522840099521 37.84290440313776 0 0 0
348 6 6.668979336122931 6.701835245835601 37.815174328243245 0 0 0
341 7 0.21960134851023783 4.283216905049369 38.07112880981659 0 0 0
345 4 10.23259306601052 4.3698926115241505 37.80649902652451 0 0 0
349 7 9.249617691145556 6.662491826395568 37.85737791788305 0 0 0
350 7 11.691508130332865 6.306427350129104 37.29274571385483 0 0 0
352 6 2.497571096234729 8.69526939483929 37.68660776362719 0 0 0
357 7 3.8513232170612777 10.841555481987731 37.953865735761404 0 0 0
360 7 1.3927679451025792 10.941632192549262 37.89635291248496 1 0 0
353 7 5.135220196987715 8.729497240359585 37.825801052425284 0 0 0
354 7 7.965149720807051 8.989429954269363 37.81051942355935 0 0 0
358 6 6.426683815167843 10.88861552528818 37.785932235616464 0 0 0
331 7 12.403457967005517 12.912428731928609 37.5896640118435 -1 -1 0
351 7 12.250886610663857 8.597306160830986 37.83694548254664 -1 0 0
359 2 8.609531839714041 11.201502098816611 37.41915432358746 0 0 0

Velocities

1 0 0 0
2 0 0 0
6 0 0 0
7 0 0 0
31 0 0 0
32 0 0 0
36 0 0 0
37 0 0 0
3 0 0 0
8 0 0 0
9 0 0 0
33 0 0 0
34 0 0 0
38 0 0 0
4 0 0 0
5 0 0 0
10 0 0 0
35 0 0 0
39 0 0 0
40 0 0 0
11 0 0 0
12 0 0 0
16 0 0 0
17 0 0 0
41 0 0 0
42 0 0 0
46 0 0 0
47 0 0 0
13 0 0 0
18 0 0 0
19 0 0 0
43 0 0 0
44 0 0 0
48 0 0 0
14 0 0 0
15 0 0 0
20 0 0 0
45 0 0 0
49 0 0 0
50 0 0 0
21 0 0 0
22 0 0 0
26 0 0 0
27 0 0 0
51 0 0 0
52 0 0 0
56 0 0 0
57 0 0 0
23 0 0 0
28 0 0 0
29 0 0 0
53 0 0 0
54 0 0 0
58 0 0 0
24 0 0 0
25 0 0 0
30 0 0 0
55 0 0 0
59 0 0 0
60 0 0 0
61 0 0 0
62 0 0 0
66 0 0 0
67 0 0 0
91 0 0 0
92 0 0 0
96 0 0 0
97 0 0 0
63 0 0 0
64 0 0 0
68 0 0 0
93 0 0 0
98 0 0 0
99 0 0 0
65 0 0 0
69 0 0 0
70 0 0 0
94 0 0 0
95 0 0 0
100 0 0 0
71 0 0 0
72 0 0 0
76 0 0 0
77 0 0 0
101 0 0 0
102 0 0 0
106 0 0 0
107 0 0 0
73 0 0 0
74 0 0 0
78 0 0 0
103 0 0 0
108 0 0 0
109 0 0 0
75 0 0 0
79 0 0 0
80 0 0 0
104 0 0 0
105 0 0 0
110 0 0 0
81 0 0 0
82 0 0 0
86 0 0 0
87 0 0 0
111 0 0 0
112 0 0 0
116 0 0 0
117 0 0 0
83 0 0 0
84 0 0 0
88 0 0 0
113 0 0 0
118 0 0 0
119 0 0 0
85 0 0 0
89 0 0 0
90 0 0 0
114 0 0 0
115 0 0 0
120 0 0 0
121 0 0 0
122 0 0 0
126 0 0 0
127 0 0 0
152 0 0 0
156 0 0 0
157 0 0 0
162 0 0 0
123 0 0 0
124 0 0 0
128 0 0 0
153 0 0 0
154 0 0 0
158 0 0 0
163 0 0 0
164 0 0 0
125 0 0 0
129 0 0 0
130 0 0 0
155 0 0 0
159 0 0 0
160 0 0 0
165 0 0 0
131 0 0 0
132 0 0 0
136 0 0 0
137 0 0 0
161 0 0 0
166 0 0 0
167 0 0 0
133 0 0 0
134 0 0 0
138 0 0 0
168 0 0 0
173 0 0 0
135 0 0 0
139 0 0 0
140 0 0 0
169 0 0 0
170 0 0 0
175 0 0 0
141 0 0 0
142 0 0 0
146 0 0 0
147 0 0 0
151 0 0 0
171 0 0 0
172 0 0 0
176 0 0 0
177 0 0 0
143 0 0 0
144 0 0 0
148 0 0 0
178 0 0 0
145 0 0 0
149 0 0 0
150 0 0 0
174 0 0 0
179 0 0 0
180 0 0 0
181 0 0 0
182 0 0 0
186 0 0 0
187 0 0 0
211 0 0 0
212 0 0 0
216 0 0 0
217 0 0 0
183 0 0 0
188 0 0 0
189 0 0 0
213 0 0 0
214 0 0 0
218 0 0 0
184 0 0 0
185 0 0 0
190 0 0 0
215 0 0 0
219 0 0 0
220 0 0 0
191 0 0 0
192 0 0 0
197 0 0 0
221 0 0 0
222 0 0 0
226 0 0 0
227 0 0 0
193 0 0 0
198 0 0 0
199 0 0 0
223 0 0 0
224 0 0 0
228 0 0 0
194 0 0 0
195 0 0 0
196 0 0 0
200 0 0 0
225 0 0 0
229 0 0 0
230 0 0 0
201 0 0 0
202 0 0 0
206 0 0 0
207 0 0 0
231 0 0 0
232 0 0 0
236 0 0 0
203 0 0 0
208 0 0 0
209 0 0 0
233 0 0 0
234 0 0 0
238 0 0 0
204 0 0 0
205 0 0 0
210 0 0 0
235 0 0 0
239 0 0 0
240 0 0 0
237 0 0 0
241 0 0 0
242 0 0 0
246 0 0 0
247 0 0 0
276 0 0 0
243 0 0 0
244 0 0 0
248 0 0 0
279 0 0 0
249 0 0 0
250 0 0 0
255 0 0 0
275 0 0 0
251 0 0 0
252 0 0 0
256 0 0 0
257 0 0 0
253 0 0 0
254 0 0 0
258 0 0 0
264 0 0 0
283 0 0 0
289 0 0 0
259 0 0 0
260 0 0 0
284 0 0 0
290 0 0 0
261 0 0 0
262 0 0 0
266 0 0 0
267 0 0 0
292 0 0 0
326 0 0 0
263 0 0 0
268 0 0 0
245 0 0 0
265 0 0 0
269 0 0 0
270 0 0 0
294 0 0 0
296 0 0 0
271 0 0 0
272 0 0 0
277 0 0 0
301 0 0 0
302 0 0 0
306 0 0 0
307 0 0 0
273 0 0 0
278 0 0 0
303 0 0 0
304 0 0 0
308 0 0 0
274 0 0 0
280 0 0 0
305 0 0 0
309 0 0 0
310 0 0 0
335 0 0 0
281 0 0 0
282 0 0 0
286 0 0 0
287 0 0 0
312 0 0 0
316 0 0 0
317 0 0 0
288 0 0 0
313 0 0 0
314 0 0 0
318 0 0 0
285 0 0 0
311 0 0 0
315 0 0 0
319 0 0 0
320 0 0 0
355 0 0 0
291 0 0 0
297 0 0 0
321 0 0 0
322 0 0 0
327 0 0 0
356 0 0 0
293 0 0 0
298 0 0 0
299 0 0 0
323 0 0 0
324 0 0 0
328 0 0 0
295 0 0 0
300 0 0 0
325 0 0 0
329 0 0 0
330 0 0 0
332 0 0 0
336 0 0 0
337 0 0 0
333 0 0 0
334 0 0 0
338 0 0 0
339 0 0 0
340 0 0 0
361 0 0 0
362 0 0 0
342 0 0 0
346 0 0 0
347 0 0 0
343 0 0 0
344 0 0 0
348 0 0 0
341 0 0 0
345 0 0 0
349 0 0 0
350 0 0 0
352 0 0 0
357 0 0 0
360 0 0 0
353 0 0 0
354 0 0 0
358 0 0 0
331 0 0 0
351 0 0 0
359 0 0 0
