LAMMPS data file via write_data, version 11 Feb 2026, timestep = 365, units = metal

362 atoms
8 atom types

0 12.447907776 xlo xhi
0 12.9362452296 ylo yhi
0 52.3600831054 zlo zhi

Masses

1 26.9815
2 10.811
3 12.011
4 51.9961
5 55.845
6 95.95999999999999
7 58.6934
8 1.008

Atoms # atomic/kk

1 7 1.109107027734991 0.8230168710123497 14.642692269792194 0 0 0
2 7 3.547601750338368 0.7386551398076889 14.871234385067654 0 0 0
6 7 12.259394341054657 3.478791448934687 14.643617413835813 -1 0 0
7 7 2.219862832292636 2.971971652517201 15.107525403856762 0 0 0
31 6 12.386686512821383 1.890061424115168 16.486335987326903 -1 0 0
32 7 2.301202124980552 1.255030789921835 16.931416150102184 0 0 0
36 7 1.130685053438901 3.9699376314836505 17.063380900398027 0 0 0
37 7 3.563698060312945 3.647360969325954 17.093871006282566 0 0 0
3 5 6.008335045095177 0.867762445036809 14.937962939083048 0 0 0
8 7 4.773444305624169 2.986183687213605 15.021245050462134 0 0 0
9 7 7.279320970276564 3.063143645791833 14.893325553671641 0 0 0
33 7 4.822772303621698 1.5367625326227374 16.983323239410584 0 0 0
34 7 7.350545284970063 1.712509394835201 16.947040542391253 0 0 0
38 5 6.069584708856587 3.743065969629296 16.970873607221762 0 0 0
4 6 8.629298063315263 0.9717993642683037 14.94652925030655 0 0 0
5 7 11.0171332049283 1.2537076345359017 14.462185906429394 0 0 0
10 7 9.801516523003762 3.3802968951503933 14.723241875375406 0 0 0
35 7 9.914497262685792 1.714600468437263 16.905229829198195 0 0 0
39 7 8.628865860436898 3.865332483866253 16.814878375291062 0 0 0
40 7 11.065189207492452 3.954124785592721 16.96547905550495 0 0 0
11 7 1.12791038481362 5.433946511420347 15.02657258249207 0 0 0
12 7 3.5459567749199845 5.147551772063625 15.122388845628901 0 0 0
16 4 0.2092884306483075 7.674622652589834 14.612493286525304 0 0 0
17 7 2.4218612214199426 7.506525172384516 15.091931322484863 0 0 0
41 7 12.309930721673787 6.11123550621508 17.12873062970586 -1 0 0
42 7 2.366285346152904 6.0767452354304385 17.112627959712057 0 0 0
46 7 0.8119729996503295 8.414951971865166 16.860780698326796 0 0 0
47 7 3.8094877751146012 8.010934209035776 17.027588196890694 0 0 0
13 7 6.039815169750384 5.187159858249457 15.00899488322862 0 0 0
18 7 4.889062206458226 7.30336125037271 14.977551853986727 0 0 0
19 2 6.836880572622936 6.976391924751207 15.316916259638191 0 0 0
43 7 4.848114824366445 5.812266582474648 17.077717449665702 0 0 0
44 7 7.336337666517871 5.881682125692609 17.023979739823567 0 0 0
48 7 6.219266024816555 7.9940509157959605 17.018729688099214 0 0 0
14 7 8.567916397621078 5.639911313736146 14.89408441325466 0 0 0
15 6 11.041152441517896 5.640071813760636 15.08611991343277 0 0 0
20 7 10.221571933511072 7.658724377930782 13.989899132318172 0 0 0
45 7 9.801338690453242 6.112191966419029 17.180335889770333 0 0 0
49 7 8.463851138761177 7.8594546733636355 16.022825128072483 0 0 0
50 7 10.899759733896003 8.11809179619094 16.21520093959549 0 0 0
21 2 1.5423257458174398 9.474484457427778 15.21102382492152 0 0 0
22 7 3.6108405083984723 9.51360527912987 14.919555127935066 0 0 0
26 7 0.3083505431492991 10.803889440350812 16.82992907909126 0 0 0
27 7 2.026084907418562 11.478423963378495 15.151720194791219 0 0 0
51 3 11.614583954150977 9.372094154963042 17.499884626109775 -1 0 0
52 7 2.607917123324019 10.082493282660145 17.043809629258888 0 0 0
56 2 0.9209538611300516 12.706471920852488 16.35510429204899 0 0 0
57 7 3.6975512652283924 12.227365895034158 16.930234289378465 0 0 0
23 7 6.578564695496944 9.08784011882775 14.851931556753838 0 0 0
28 7 4.8113483655446245 11.611273295156986 14.819526996303562 0 0 0
29 6 7.367698649713564 11.499970423280175 14.917820381921496 0 0 0
53 7 5.122164886519047 10.112148402098038 16.77997499887448 0 0 0
54 7 7.687966238501131 10.045462231907335 16.922373159221674 0 0 0
58 6 6.288494048619642 12.340270916855554 17.012974936027224 0 0 0
24 7 9.045767564120881 9.668909243237266 14.656574323313158 0 0 0
25 7 11.938815865720239 9.880190735803222 14.711767875066602 0 0 0
30 7 9.917354804346706 11.858181337846002 14.579321604061946 0 0 0
55 7 10.237540498672253 10.409966807551188 16.64675404045128 0 0 0
59 7 8.83681314990536 12.37261982064872 16.89131300739773 0 0 0
60 7 11.292684870936345 12.624375529637726 16.35125420555364 0 0 0
61 6 0.09908184195651072 12.915803758874857 18.576852361346845 0 -1 0
62 7 2.5569085506207054 0.03794817844231524 19.144397578436262 0 0 0
66 6 1.3474738317148416 2.2335846568113333 19.067423259834037 0 0 0
67 5 3.7919114173997643 2.1862360908984537 19.105596974883053 0 0 0
91 4 1.358765781814793 0.7891010113273166 21.253802015763327 0 0 0
92 7 3.789646200331896 0.744913535537337 21.134190553678792 0 0 0
96 7 0.07718590667446833 2.868217833493958 21.178103097820568 0 0 0
97 7 2.599092075190766 2.8661682403527395 21.210511821581587 0 0 0
63 5 5.008452747075309 0.12186849384581433 19.065028137731776 0 0 0
64 7 7.4910147298966585 0.1119687432663869 19.09419066740231 0 0 0
68 7 6.186591090875236 2.179233712885043 19.050995171898712 0 0 0
93 7 6.317002235536785 0.7438993486403475 21.208421989817566 0 0 0
98 7 5.041874826494331 2.8805235279197388 21.153394323320022 0 0 0
99 5 7.49663015813207 2.847327499327533 21.14358119058263 0 0 0
65 7 10.075487001971698 0.10818354744367323 18.965676038339875 0 0 0
69 7 8.726476586525738 2.190595279262449 18.964058788128593 0 0 0
70 7 11.285722935617931 2.294407005999918 18.908950624954315 0 0 0
94 7 8.772737356537549 0.7570393587102776 21.179351869278836 0 0 0
95 7 11.358206603028984 0.7279938219362463 21.03212042492521 0 0 0
100 6 10.040065382669669 2.844852061110485 21.020697673366147 0 0 0
71 1 12.323373642317298 4.458565338587361 19.196683574888343 -1 0 0
72 7 2.4437837721438633 4.424892931183368 19.117534739943817 0 0 0
76 7 1.16126738440404 6.501209336177122 19.191219821143534 0 0 0
77 7 3.7542834231865436 6.502288928113564 19.145364741606205 0 0 0
101 7 1.2039940662263806 5.03448623387518 21.23338740536818 0 0 0
102 6 3.7335134897822293 5.050448222650775 21.227495176985776 0 0 0
106 7 12.437368261995735 7.14112603399245 21.27468493133333 -1 0 0
107 7 2.4679187615274594 7.17513339750219 21.238606362835995 0 0 0
73 7 4.935408393748127 4.313266619578336 19.077523112575363 0 0 0
74 6 7.464443595546644 4.31975633272213 19.027307185696344 0 0 0
78 7 6.165687111311548 6.527701276772166 19.106175159234812 0 0 0
103 7 6.273869030042164 5.06104943105471 21.157520709074916 0 0 0
108 7 5.0147405575914545 7.225213047775549 21.208368428447688 0 0 0
109 7 7.421990136403546 7.269517529921714 21.24072193589827 0 0 0
75 5 9.856563042067027 4.368608029482093 19.011488429975245 0 0 0
79 7 8.608788585966145 6.521155885324977 19.286652888651638 0 0 0
80 7 11.087951303687575 6.51402240303566 19.284359086224793 0 0 0
104 7 8.734293678894565 5.065391463191612 21.216940403095485 0 0 0
105 3 10.084359759182833 4.427056209053636 22.26366859567031 0 0 0
110 7 9.897130345680742 7.197753831612416 21.272686311978717 0 0 0
81 4 12.36547244431607 8.587068392876406 19.188925318462907 -1 0 0
82 6 2.4285793862634124 8.540728068876415 19.025029845223404 0 0 0
86 7 1.2994458836868996 10.761257607282824 19.17126442747361 0 0 0
87 1 3.841403454527928 10.884310278689448 19.01034009104118 0 0 0
111 7 1.1967349791392183 9.338164399137733 21.217328819186783 0 0 0
112 6 3.7433381576734015 9.3431752367289 21.239523962025075 0 0 0
116 1 0.054069087614116974 11.552539972394316 21.177259787816908 0 0 0
117 7 2.517461223657324 11.543798246072242 21.17584309794593 0 0 0
83 7 4.964087538034808 8.73234569807432 19.033983029009253 0 0 0
84 7 7.418094059741824 8.642635756583188 19.012166229219165 0 0 0
88 7 6.270567992804162 10.82598600359024 19.02260418091943 0 0 0
113 7 6.236224435051243 9.400997388203576 21.03502875271006 0 0 0
118 7 5.036994279729931 11.563588860094523 21.144085554890545 0 0 0
119 4 7.467700372256692 11.57969514834096 21.07792880560803 0 0 0
85 6 9.824545096200374 8.519081512056681 18.450433861221278 0 0 0
89 6 8.778336971014534 10.874466893142404 18.980659328054173 0 0 0
90 4 11.28060941558805 10.81264713632558 18.892261561156317 0 0 0
114 7 8.702608946165986 9.3475149555743 20.935144476547606 0 0 0
115 6 11.115684766638278 9.294711739498089 21.168596563486485 0 0 0
120 7 10.014503325356108 11.561987341559766 21.123596253833643 0 0 0
121 7 0.0789670469060737 1.4126119669676431 23.257781353250053 0 0 0
122 7 2.5673496837853205 1.4095105005412336 23.318231423184365 0 0 0
126 6 1.3503750059781103 3.60898907751203 23.26152995516837 0 0 0
127 7 3.8515473939494846 3.593677277906951 23.366488891014463 0 0 0
152 7 2.6523018830858356 0.015930806859330127 25.376150153790935 0 0 0
156 1 1.484680137277575 2.1453090387627456 25.503086288915235 0 0 0
157 7 3.973106807978935 2.1430632690689513 25.444983841822797 0 0 0
162 7 2.6020463957056794 4.272782641788788 25.42855388316647 0 0 0
123 7 5.008300574989265 1.4353591222760158 23.201005699439005 0 0 0
124 7 7.413677272966612 1.5262693958991185 23.480395509828508 0 0 0
128 7 6.306202901230369 3.671888073729129 23.17169723099989 0 0 0
153 7 5.198060245575841 0.07001720270169585 25.33161452427868 0 0 0
154 7 7.60954167088798 0.016015493954925897 25.459587037896984 0 0 0
158 2 5.798554787928392 2.4873356180563073 24.64442024134521 0 0 0
163 7 5.118624673022369 4.255886145533673 25.423308041222928 0 0 0
164 5 7.4782032072595355 4.068490607631489 25.344562785978805 0 0 0
125 7 10.062513687278148 1.450907756311304 23.3019826885683 0 0 0
129 7 8.757907271714823 3.568356789012137 23.329912868885266 0 0 0
130 4 11.360812671299472 3.647655273618373 23.383658437490375 0 0 0
155 4 10.133789593316374 0.07867176685027324 25.51946216117794 0 0 0
159 7 8.887698713907193 2.112096982829784 25.423822186645015 0 0 0
160 7 11.411266828202333 2.17397724561294 25.39283174383439 0 0 0
165 7 10.068257154657694 4.236465241437944 25.398264269106335 0 0 0
131 7 0.0739784537525596 5.798827278314362 23.386245629151734 0 0 0
132 7 2.5471909242503736 5.801156661954164 23.365534087100656 0 0 0
136 7 1.3114005230393226 7.926966486717673 23.296478770865154 0 0 0
137 7 3.7873389541706612 7.968536475922504 23.322272731886912 0 0 0
161 4 0.11343732251980206 4.3576934655006 25.45463647459737 0 0 0
166 7 1.3414033751158931 6.428637014168539 25.424396291952586 0 0 0
167 7 3.813227529256054 6.4407415253527365 25.449216411481572 0 0 0
133 6 5.071559391670882 5.854888460846107 23.38526621588505 0 0 0
134 7 7.561566332503055 5.791191824024711 23.30219680422407 0 0 0
138 7 6.315069484353469 8.0000358491712 23.33983615218251 0 0 0
168 7 6.368700379422234 6.398896367376156 25.43054042458593 0 0 0
173 7 5.116373019068696 8.556744977390574 25.354209302315265 0 0 0
135 7 10.066284823990857 5.851779819529159 23.37397337056255 0 0 0
139 4 8.701890158545595 7.960376735627177 23.212505496091183 0 0 0
140 4 11.290557216156923 7.912990624822266 23.29528418307746 0 0 0
169 7 8.777147287053001 6.347685370968435 25.371665267664397 0 0 0
170 7 11.29420483497407 6.424245759007238 25.435017736795956 0 0 0
175 6 9.896823666018163 8.580739026459336 25.501398462511354 0 0 0
141 7 0.02402391675874263 10.097564355285355 23.328662320060086 0 0 0
142 7 2.505797060936392 10.1118366859063 23.299591286463457 0 0 0
146 7 1.3035594490449505 12.246167979189602 23.314687007447723 0 0 0
147 7 3.8176762230204946 12.24572719170982 23.23110516885428 0 0 0
151 4 0.0975067598465344 12.890857526723469 25.371610440504195 0 -1 0
171 6 0.11640677917102633 8.6335971482019 25.410948006195394 0 0 0
172 7 2.6266464210670915 8.615077586916026 25.39610169282281 0 0 0
176 7 1.3473539932709568 10.816897443785491 25.432522337684034 0 0 0
177 6 3.88891496026675 10.819701371629444 25.315932868001166 0 0 0
143 7 5.077153874260719 10.114285012005956 23.23527226566476 0 0 0
144 7 7.512451459972591 10.101240067986614 22.904868340755215 0 0 0
148 4 6.232976260882385 12.285459985661527 23.262303174134757 0 0 0
178 6 6.647219285110386 10.529128772402935 25.239284019329222 0 0 0
145 7 9.999561095795531 10.102005413131257 23.300102548699698 0 0 0
149 6 8.72428759738195 12.301870592304558 23.291458674740504 0 0 0
150 7 11.261563305284625 12.240739011783901 23.333740858803026 0 0 0
174 3 8.422038418170098 9.517408022339826 24.406301028025688 0 0 0
179 5 9.014998114788837 10.941742642388494 25.55957219562783 0 0 0
180 5 11.34710759013996 10.890036981939737 25.48150451030973 0 0 0
181 7 1.389676086547241 0.6745637745034189 27.486500486068298 0 0 0
182 7 3.87859598382244 0.7088638450571698 27.445555686601864 0 0 0
186 7 0.17481848379232473 2.8710851914191284 27.480463476889902 0 0 0
187 7 2.662892558491062 2.8586023842372863 27.564533916807463 0 0 0
211 7 0.211027848693184 1.456199237656114 29.580972688417567 0 0 0
212 7 2.711810876175862 1.3689999148151117 29.580581424370358 0 0 0
216 7 1.4133111320963552 3.5635902558383354 29.584764669697883 0 0 0
217 4 3.8275483151360383 3.5774181757401133 29.600122546946867 0 0 0
183 7 6.317499655079799 0.7236439691938423 27.5699109837529 0 0 0
188 7 5.087834744451906 2.8785992634657442 27.575943812848063 0 0 0
189 7 7.60353311973538 2.801353636295991 27.448671487270374 0 0 0
213 5 5.1392834026341205 1.4296488651458226 29.601007728713594 0 0 0
214 7 7.621739683143115 1.3636937166231955 29.583493024402788 0 0 0
218 7 6.369725148916394 3.5408142832061986 29.540428935946675 0 0 0
184 7 8.898047938933335 0.7318609881182966 27.550558470933467 0 0 0
185 4 11.390433514550013 0.7356121225325687 27.518535925333733 0 0 0
190 7 10.152709524497414 2.8464477499256176 27.475684921947497 0 0 0
215 7 10.130920169895035 1.4170914064562905 29.61982982356056 0 0 0
219 7 8.843875159832635 3.523049195593797 29.519172523461446 0 0 0
220 7 11.373150398697724 3.57218978918992 29.512918740915406 0 0 0
191 7 1.3940806064074935 5.017393227043996 27.469694037450836 0 0 0
192 7 3.8369192339461384 4.993603020440982 27.487697966863298 0 0 0
197 7 2.5834364415013327 7.197396366648978 27.481602948559615 0 0 0
221 7 0.12394923105303098 5.738309681431241 29.56525107013053 0 0 0
222 7 2.5946310627110623 5.73351510127106 29.553402994535823 0 0 0
226 7 1.3663842528428065 7.911192888116095 29.55036000642105 0 0 0
227 7 3.864733592056972 7.916091970409372 29.47715940748832 0 0 0
193 7 6.375409396155204 4.979863456607543 27.41382143051729 0 0 0
198 7 5.107463554161446 7.1751713720797206 27.419415559202474 0 0 0
199 7 7.620485895186988 7.196930870365298 27.44588469103995 0 0 0
223 6 5.158315636558262 5.7229980088350425 29.493353879427712 0 0 0
224 7 7.6497113357455575 5.746216624227373 29.577619044159835 0 0 0
228 7 6.397013359175553 7.916935433257804 29.49831290268499 0 0 0
194 6 8.851762947934159 5.0103256880191 27.482718766165863 0 0 0
195 7 11.365071547064977 5.0096437649903285 27.498799461214535 0 0 0
196 7 0.13987959223579105 7.173186267619791 27.48809359054119 0 0 0
200 7 10.125595128783385 7.172437400686712 27.52748208029641 0 0 0
225 7 10.10558295342025 5.753673184346929 29.596228114716613 0 0 0
229 7 8.84936268280534 7.895232907823773 29.515286365234054 0 0 0
230 7 11.371415186544484 7.943532529581764 29.513950375973472 0 0 0
201 5 1.381273274567025 9.337442607763165 27.514883480937847 0 0 0
202 7 3.8762807871990694 9.323221561533515 27.396862655849347 0 0 0
206 4 0.19047173835255632 11.492713085939195 27.517780007422747 0 0 0
207 7 2.613712647013602 11.468251842131684 27.45284137997397 0 0 0
231 7 0.16629253042026962 10.090643421964494 29.561005130771996 0 0 0
232 7 2.6340908407153547 10.03287307898272 29.434925693518696 0 0 0
236 7 1.4719409331002924 12.194234543910198 29.556563197681754 0 0 0
203 7 6.375619565368008 9.295012006562521 27.408360014953587 0 0 0
208 7 5.145319377063275 11.50374681101791 27.353821697280427 0 0 0
209 6 7.5947378399957115 11.539628412753075 27.6318676404232 0 0 0
233 7 5.1503675071660995 10.057816314369608 29.342958820829345 0 0 0
234 7 7.606350674928038 10.096895251201499 29.65726752928142 0 0 0
238 7 6.225014226104314 12.243551486730006 29.680553251531478 0 0 0
204 7 8.840719302755382 9.380451028681582 27.604256357029843 0 0 0
205 7 11.349624424401153 9.431475203346952 27.530666204497706 0 0 0
210 7 10.15957566652915 11.56931456327574 27.56613960643001 0 0 0
235 7 10.08858220026155 10.190464851133179 29.58570778906932 0 0 0
239 4 8.88718296899328 12.266538695690512 29.722803932653417 0 0 0
240 7 11.397538513711726 12.280435332164057 29.551274802103375 0 0 0
237 3 4.0340922645326565 0.3106385020036726 30.560644939335685 0 1 0
241 7 0.20110318105951833 0.11459609412511872 31.63037064253639 0 0 0
242 7 2.567383667058649 0.15552985514972706 31.741431851684712 0 0 0
246 4 1.3444088255789746 2.257144753553824 31.66065344692077 0 0 0
247 7 3.8841347459364832 2.162498981442379 31.642394693330512 0 0 0
276 7 0.1790627951122511 3.0122016780482053 33.733389775959196 0 0 0
243 7 5.172566896083333 12.916790196516754 32.099642133137245 0 -1 0
244 7 7.631224596138016 0.017466151186224816 31.706739651798905 0 0 0
248 7 6.412037391682205 2.1621927517571273 31.642351207761063 0 0 0
279 7 7.732174070217471 3.0592233076866187 33.72573265684458 0 0 0
249 7 8.855501086135929 2.1189185279435403 31.67368126104234 0 0 0
250 7 11.386218004996737 2.1559226637333375 31.653648588393448 0 0 0
255 1 10.10758325580844 4.237186523406624 31.496198264619082 0 0 0
275 4 11.443447773225566 0.8141435785331526 33.71135012585505 0 0 0
251 7 0.14955851672792012 4.341199277290761 31.644885890103467 0 0 0
252 7 2.6356130675014255 4.3316751387626455 31.66690530285001 0 0 0
256 7 1.3329003805121573 6.5168275660268575 31.63261709677767 0 0 0
257 6 3.795529144598827 6.513483563548394 31.66445017949738 0 0 0
253 7 5.116421664081024 4.3218280567030565 31.622943293553583 0 0 0
254 7 7.625492972498695 4.326602066121604 31.587558844644093 0 0 0
258 7 6.356612372031499 6.507388589526061 31.622145169061003 0 0 0
264 7 7.593218707330061 8.594584498002261 31.617698615135378 0 0 0
283 7 6.38350116201318 5.117681771733908 33.668175416435076 0 0 0
289 7 7.637120394934482 7.204966018194091 33.71135957376661 0 0 0
259 4 8.82540568789524 6.479052185536887 31.622432134214677 0 0 0
260 7 11.318435317920798 6.508751496495403 31.586063774299333 0 0 0
284 5 8.889285110002175 5.135618586154321 33.57831527073815 0 0 0
290 7 10.08782974847614 7.2794463634134505 33.588581580034806 0 0 0
261 7 0.1800110250620842 8.726354324295169 31.646149312606703 0 0 0
262 7 2.667060855276548 8.733635866522238 31.533768698553143 0 0 0
266 7 1.5653040991844889 10.848295877952848 31.5708885423945 0 0 0
267 4 3.919522228550312 11.295106206889221 30.85449498221427 0 0 0
292 7 3.9614288908905517 9.38873615879484 33.506055968382945 0 0 0
326 7 0.509984930732165 11.673054138689988 33.67445957377767 0 0 0
263 1 5.0971914633725435 8.773460996086225 31.429536791385647 0 0 0
268 7 6.265423568112854 10.776626451132806 31.57974583998004 0 0 0
245 7 10.114297405961128 12.903815574545407 31.863364468477087 0 -1 0
265 6 10.104484516817935 8.701398042650059 31.53283804278313 0 0 0
269 7 8.779790415110742 10.820039437634033 31.741329214158636 0 0 0
270 7 11.430137563100779 10.924033642500245 31.60470387060457 0 0 0
294 7 8.772200240087626 9.309615598531133 33.685618030808385 0 0 0
296 3 11.078456271481278 11.848760503691016 33.323148804771826 -1 0 0
271 7 1.4791510752495551 0.9223247710772927 33.77529409759593 0 0 0
272 7 3.9256360873492437 0.9729672360711997 33.92375965462978 0 0 0
277 7 2.6465980767810886 3.096838069214816 33.79574346920338 0 0 0
301 7 0.19463652009228688 1.571229093328759 35.75613653476383 0 0 0
302 7 2.621887121397047 1.6885422871763458 35.858259232111266 0 0 0
306 4 1.4198970464843528 3.852223457050345 35.955239587269794 0 0 0
307 7 4.001655782892721 3.7508768204498915 35.83221696109263 0 0 0
273 7 6.465409597343951 0.9909995378119429 33.900512507372866 0 0 0
278 1 5.22174346845581 3.013384043190734 33.71857879086521 0 0 0
303 7 5.2518350080355845 1.6869435548300977 35.939265657994625 0 0 0
304 4 7.765668185289286 1.655042881922845 35.91689783213103 0 0 0
308 7 6.533705866307004 3.726308122386521 35.79604904992389 0 0 0
274 7 8.840256557467669 0.9159135746355347 33.83367480236224 0 0 0
280 7 10.206232135276197 3.012435411705467 33.70420255254373 0 0 0
305 7 10.227440661222813 1.5795892983230726 35.72415029529442 0 0 0
309 7 9.024378809555886 3.6927996167383235 35.775228292761376 0 0 0
310 4 11.593307639407149 3.963883321604161 35.85811876532453 0 0 0
335 5 9.912044451826446 12.922846462587408 37.390042992432434 0 -1 0
281 7 1.3260835903801895 5.19996661260237 33.85671961642697 0 0 0
282 4 3.8514274684045566 5.150370270675126 33.767187162730494 0 0 0
286 7 0.09731258856856417 7.298782862896911 33.617967369626484 0 0 0
287 7 2.63547402932583 7.303780975448723 33.74284576689238 0 0 0
312 7 2.7320223893637383 5.808059180731963 35.78033297586564 0 0 0
316 7 1.21722347753183 7.624322496122734 35.78272838642024 0 0 0
317 7 3.934014947214495 8.079313929110423 35.730848501246136 0 0 0
288 7 5.187316976187381 7.286515092696041 33.66483451301322 0 0 0
313 7 5.267841468715986 5.93479100588451 35.71376956402137 0 0 0
314 7 7.725088591907222 5.840902520040446 35.741707898977594 0 0 0
318 4 6.557544197289636 8.139010333605295 35.80313325846652 0 0 0
285 4 11.349275903988447 5.1734791118942045 33.627826964280246 0 0 0
311 2 12.37332956290746 6.021438859653348 35.31839531978522 -1 0 0
315 7 10.137758806566005 5.828844249371967 35.572074240028996 0 0 0
319 7 8.961081035713613 7.997618384166367 35.814051735676095 0 0 0
320 7 11.351883309327633 7.953268774387326 35.58734269711853 0 0 0
355 3 10.434719106122461 7.926956725678081 37.26740497278397 0 0 0
291 7 1.4712651546933464 9.443552219992663 33.725263526230016 0 0 0
297 6 3.0276772724538055 11.591854362898658 33.66984638844488 0 0 0
321 6 0.21370772234907626 10.084870236535812 35.90043841700296 0 0 0
322 7 2.70355513479733 10.21682766148079 35.75728097874746 0 0 0
327 6 3.9240245270573504 12.526600110747237 36.1057036288147 0 0 0
356 4 1.4032413845823466 12.379967881429263 35.843156020151504 0 0 0
293 4 6.455275859403754 9.338053643431643 33.650419396799464 0 0 0
298 2 5.206049876848314 12.301677445588592 34.20319245854908 0 0 0
299 7 7.000611706375269 11.5982496242461 33.6768364431953 0 0 0
323 6 5.23420913210272 10.256910592725689 35.573911991915 0 0 0
324 7 7.9143446316079205 10.377430804923153 35.7069609944205 0 0 0
328 7 6.4685903953585395 12.5374051255096 35.913430900277625 0 0 0
295 6 11.274889588035865 9.715914499769298 33.75072231188548 0 0 0
300 7 9.388068348943502 11.564623479747956 34.16307473597766 0 0 0
325 7 10.26359355837222 9.872572166490107 37.04478960759486 0 0 0
329 3 9.532763713721172 11.419869406719018 36.19759361930946 0 0 0
330 4 11.26379055314714 12.096334707120162 35.57323108606759 0 0 0
332 7 2.4863742688607586 0.12267302423074297 38.032458375118196 0 0 0
336 7 1.3361471273593208 2.2073857877687058 37.83125278641674 0 0 0
337 7 3.879202428427184 2.2154025925953764 37.862831596666396 0 0 0
333 7 5.222428566773674 0.18596752389438206 38.116312936784304 0 0 0
334 7 7.655941754464207 0.08913141914987427 37.99797977898805 0 0 0
338 7 6.535094046018483 2.285065798687298 37.898698782043816 0 0 0
339 7 8.994139860191394 2.210640611661048 37.851250962077394 0 0 0
340 7 11.371042878188993 2.2190196086684164 37.72368537498551 0 0 0
342 7 2.7157493039502154 4.311522739216126 37.92138837248843 0 0 0
346 7 1.5185732478752676 6.42831652141118 37.992496070768176 0 0 0
347 6 3.965413411234752 6.493397898018257 37.76311209653146 0 0 0
343 7 5.307056258347344 4.449044829971911 37.83349222851 0 0 0
344 7 7.838143502876346 4.462262477210568 37.84368664122309 0 0 0
348 6 6.6603812461659935 6.685381869754542 37.81696261889993 0 0 0
341 7 0.21630930568426426 4.274722558215827 38.067111190562535 0 0 0
345 4 10.224509296645714 4.359267413422068 37.80670833269797 0 0 0
349 7 9.239459980620067 6.652334624488369 37.85984056102206 0 0 0
350 7 11.678752078212252 6.295724464718923 37.29744963771769 0 0 0
352 6 2.49472788651793 8.683261165538944 37.68345623600365 0 0 0
357 7 3.849161662499308 10.828936359120489 37.95064662109712 0 0 0
360 7 1.3924243943754495 10.924285791609952 37.88552532728207 1 0 0
353 7 5.130989192541993 8.715814373409453 37.82572067883303 0 0 0
354 7 7.959126832418823 8.97266567884582 37.80115430976619 0 0 0
358 6 6.422036131027237 10.872226856899992 37.788386842680914 0 0 0
331 7 12.395990302598152 12.90821884305514 37.6236913136843 -1 -1 0
351 7 12.255443735627768 8.579362527221079 37.827536812098266 -1 0 0
359 2 8.604254677139481 11.184158394120107 37.42369952511027 0 0 0
361 8 9.867813371811126 9.439552503920646 41.32110266130403 0 0 0
362 8 10.271474841710797 8.803099702077331 41.42513706028376 0 0 0

Velocities

1 0 0 0
2 0 0 0
6 0 0 0
7 0 0 0
31 0 0 0
32 0 0 0
36 0 0 0
37 0 0 0
3 0 0 0
8 0 0 0
9 0 0 0
33 0 0 0
34 0 0 0
38 0 0 0
4 0 0 0
5 0 0 0
10 0 0 0
35 0 0 0
39 0 0 0
40 0 0 0
11 0 0 0
12 0 0 0
16 0 0 0
17 0 0 0
41 0 0 0
42 0 0 0
46 0 0 0
47 0 0 0
13 0 0 0
18 0 0 0
19 0 0 0
43 0 0 0
44 0 0 0
48 0 0 0
14 0 0 0
15 0 0 0
20 0 0 0
45 0 0 0
49 0 0 0
50 0 0 0
21 0 0 0
22 0 0 0
26 0 0 0
27 0 0 0
51 0 0 0
52 0 0 0
56 0 0 0
57 0 0 0
23 0 0 0
28 0 0 0
29 0 0 0
53 0 0 0
54 0 0 0
58 0 0 0
24 0 0 0
25 0 0 0
30 0 0 0
55 0 0 0
59 0 0 0
60 0 0 0
61 0 0 0
62 0 0 0
66 0 0 0
67 0 0 0
91 0 0 0
92 0 0 0
96 0 0 0
97 0 0 0
63 0 0 0
64 0 0 0
68 0 0 0
93 0 0 0
98 0 0 0
99 0 0 0
65 0 0 0
69 0 0 0
70 0 0 0
94 0 0 0
95 0 0 0
100 0 0 0
71 0 0 0
72 0 0 0
76 0 0 0
77 0 0 0
101 0 0 0
102 0 0 0
106 0 0 0
107 0 0 0
73 0 0 0
74 0 0 0
78 0 0 0
103 0 0 0
108 0 0 0
109 0 0 0
75 0 0 0
79 0 0 0
80 0 0 0
104 0 0 0
105 0 0 0
110 0 0 0
81 0 0 0
82 0 0 0
86 0 0 0
87 0 0 0
111 0 0 0
112 0 0 0
116 0 0 0
117 0 0 0
83 0 0 0
84 0 0 0
88 0 0 0
113 0 0 0
118 0 0 0
119 0 0 0
85 0 0 0
89 0 0 0
90 0 0 0
114 0 0 0
115 0 0 0
120 0 0 0
121 0 0 0
122 0 0 0
126 0 0 0
127 0 0 0
152 0 0 0
156 0 0 0
157 0 0 0
162 0 0 0
123 0 0 0
124 0 0 0
128 0 0 0
153 0 0 0
154 0 0 0
158 0 0 0
163 0 0 0
164 0 0 0
125 0 0 0
129 0 0 0
130 0 0 0
155 0 0 0
159 0 0 0
160 0 0 0
165 0 0 0
131 0 0 0
132 0 0 0
136 0 0 0
137 0 0 0
161 0 0 0
166 0 0 0
167 0 0 0
133 0 0 0
134 0 0 0
138 0 0 0
168 0 0 0
173 0 0 0
135 0 0 0
139 0 0 0
140 0 0 0
169 0 0 0
170 0 0 0
175 0 0 0
141 0 0 0
142 0 0 0
146 0 0 0
147 0 0 0
151 0 0 0
171 0 0 0
172 0 0 0
176 0 0 0
177 0 0 0
143 0 0 0
144 0 0 0
148 0 0 0
178 0 0 0
145 0 0 0
149 0 0 0
150 0 0 0
174 0 0 0
179 0 0 0
180 0 0 0
181 0 0 0
182 0 0 0
186 0 0 0
187 0 0 0
211 0 0 0
212 0 0 0
216 0 0 0
217 0 0 0
183 0 0 0
188 0 0 0
189 0 0 0
213 0 0 0
214 0 0 0
218 0 0 0
184 0 0 0
185 0 0 0
190 0 0 0
215 0 0 0
219 0 0 0
220 0 0 0
191 0 0 0
192 0 0 0
197 0 0 0
221 0 0 0
222 0 0 0
226 0 0 0
227 0 0 0
193 0 0 0
198 0 0 0
199 0 0 0
223 0 0 0
224 0 0 0
228 0 0 0
194 0 0 0
195 0 0 0
196 0 0 0
200 0 0 0
225 0 0 0
229 0 0 0
230 0 0 0
201 0 0 0
202 0 0 0
206 0 0 0
207 0 0 0
231 0 0 0
232 0 0 0
236 0 0 0
203 0 0 0
208 0 0 0
209 0 0 0
233 0 0 0
234 0 0 0
238 0 0 0
204 0 0 0
205 0 0 0
210 0 0 0
235 0 0 0
239 0 0 0
240 0 0 0
237 0 0 0
241 0 0 0
242 0 0 0
246 0 0 0
247 0 0 0
276 0 0 0
243 0 0 0
244 0 0 0
248 0 0 0
279 0 0 0
249 0 0 0
250 0 0 0
255 0 0 0
275 0 0 0
251 0 0 0
252 0 0 0
256 0 0 0
257 0 0 0
253 0 0 0
254 0 0 0
258 0 0 0
264 0 0 0
283 0 0 0
289 0 0 0
259 0 0 0
260 0 0 0
284 0 0 0
290 0 0 0
261 0 0 0
262 0 0 0
266 0 0 0
267 0 0 0
292 0 0 0
326 0 0 0
263 0 0 0
268 0 0 0
245 0 0 0
265 0 0 0
269 0 0 0
270 0 0 0
294 0 0 0
296 0 0 0
271 0 0 0
272 0 0 0
277 0 0 0
301 0 0 0
302 0 0 0
306 0 0 0
307 0 0 0
273 0 0 0
278 0 0 0
303 0 0 0
304 0 0 0
308 0 0 0
274 0 0 0
280 0 0 0
305 0 0 0
309 0 0 0
310 0 0 0
335 0 0 0
281 0 0 0
282 0 0 0
286 0 0 0
287 0 0 0
312 0 0 0
316 0 0 0
317 0 0 0
288 0 0 0
313 0 0 0
314 0 0 0
318 0 0 0
285 0 0 0
311 0 0 0
315 0 0 0
319 0 0 0
320 0 0 0
355 0 0 0
291 0 0 0
297 0 0 0
321 0 0 0
322 0 0 0
327 0 0 0
356 0 0 0
293 0 0 0
298 0 0 0
299 0 0 0
323 0 0 0
324 0 0 0
328 0 0 0
295 0 0 0
300 0 0 0
325 0 0 0
329 0 0 0
330 0 0 0
332 0 0 0
336 0 0 0
337 0 0 0
333 0 0 0
334 0 0 0
338 0 0 0
339 0 0 0
340 0 0 0
342 0 0 0
346 0 0 0
347 0 0 0
343 0 0 0
344 0 0 0
348 0 0 0
341 0 0 0
345 0 0 0
349 0 0 0
350 0 0 0
352 0 0 0
357 0 0 0
360 0 0 0
353 0 0 0
354 0 0 0
358 0 0 0
331 0 0 0
351 0 0 0
359 0 0 0
361 0 0 0
362 0 0 0
