LAMMPS data file via write_data, version 11 Feb 2026, timestep = 597, units = metal

362 atoms
8 atom types

0 12.447907776 xlo xhi
0 12.9362452296 ylo yhi
0 52.3600831054 zlo zhi

Masses

1 26.9815
2 10.811
3 12.011
4 51.9961
5 55.845
6 95.95999999999999
7 58.6934
8 1.008

Atoms # atomic/kk

1 7 1.1032495127094293 0.8155733993250672 14.642293831906716 0 0 0
2 7 3.5417688478080604 0.7312158578761823 14.870734412235633 0 0 0
6 7 12.253543371030933 3.4713890446348437 14.643206672669837 -1 0 0
7 7 2.214030374885742 2.96453908689489 15.107019988796234 0 0 0
31 6 12.380845845918776 1.8826537351918153 16.48592383798059 -1 0 0
32 7 2.2953765144459743 1.2475893414869814 16.930916786420497 0 0 0
36 7 1.124860222948956 3.9625491957918464 17.06283704057229 0 0 0
37 7 3.5578629706994387 3.6399558769767806 17.093366621054603 0 0 0
3 5 6.002511334340281 0.8603583325748692 14.937499502754008 0 0 0
8 7 4.767611696042961 2.9787896215036778 15.020745720529423 0 0 0
9 7 7.273486973264381 3.0557463158209015 14.892883988620383 0 0 0
33 7 4.816940063960206 1.5293683294945286 16.982811861759764 0 0 0
34 7 7.344714155588645 1.705128340953864 16.946609576086 0 0 0
38 5 6.063735697523452 3.7356798504128235 16.970404546936123 0 0 0
4 6 8.62346758347904 0.9643847634005134 14.946135980253521 0 0 0
5 7 11.011299431678761 1.2462897470067178 14.461785260833176 0 0 0
10 7 9.7956686832919 3.372882774104514 14.722807842570667 0 0 0
35 7 9.908648231274416 1.7072107123059002 16.904841261640883 0 0 0
39 7 8.623025811164958 3.857939871210253 16.814445630593895 0 0 0
40 7 11.059343860189065 3.946714132083888 16.965056296931667 0 0 0
11 7 1.1220497684293171 5.426565469148733 15.026069478523157 0 0 0
12 7 3.5400929202341493 5.1401641565241585 15.121920648023892 0 0 0
16 4 0.20338430507899724 7.667231864745199 14.612202796294431 0 0 0
17 7 2.4159798951268074 7.49916224758523 15.091546683745806 0 0 0
41 7 12.304100227536821 6.10383637670294 17.128259165677445 -1 0 0
42 7 2.360429115101979 6.069341256672616 17.112169367531514 0 0 0
46 7 0.8060887786758921 8.407582581839561 16.860480754573477 0 0 0
47 7 3.8035983912130655 8.003561752994035 17.027199606209255 0 0 0
13 7 6.0339544409717885 5.1797806696740025 15.008544170368822 0 0 0
18 7 4.883195331522818 7.296001651255903 14.977148857285755 0 0 0
19 2 6.831021476042745 6.9690060305407595 15.316506156121017 0 0 0
43 7 4.842244877024639 5.804886714546252 17.07726330244908 0 0 0
44 7 7.330467869688107 5.874271327694612 17.02356156861778 0 0 0
48 7 6.213388848473915 7.9866537102369 17.018317951182155 0 0 0
14 7 8.562043225059737 5.63251754149067 14.893675041635671 0 0 0
15 6 11.035267849240876 5.632661194548247 15.08570995850741 0 0 0
20 7 10.215691439526484 7.651342689157019 13.98957854999662 0 0 0
45 7 9.795499084300523 6.104781465412066 17.179946984701015 0 0 0
49 7 8.457985180288972 7.852040459131983 16.022504983973217 0 0 0
50 7 10.893883009556061 8.110732145907969 16.214916541135302 0 0 0
21 2 1.5364554533485637 9.467078256331856 15.210670519231224 0 0 0
22 7 3.604970094847927 9.506232713631348 14.919197671295112 0 0 0
26 7 0.3024737474149839 10.796519351534284 16.829685922803307 0 0 0
27 7 2.02018142032895 11.471007970091964 15.151363904786283 0 0 0
51 3 11.608735346536292 9.364711015156205 17.49965168424036 -1 0 0
52 7 2.602036414674866 10.075122186544634 17.04346120940287 0 0 0
56 2 0.9150523334892261 12.699060564153775 16.35474462967351 0 0 0
57 7 3.6917468612087574 12.219957576854165 16.929767426984938 0 0 0
23 7 6.57275757608964 9.0804499625232 14.851542934722996 0 0 0
28 7 4.8055553606314305 11.603851556741331 14.819086150157423 0 0 0
29 6 7.361899416304823 11.49256970753629 14.917413444069213 0 0 0
53 7 5.116321110262963 10.104760663366354 16.7795785341541 0 0 0
54 7 7.682125460850821 10.038096354339048 16.92199802982594 0 0 0
58 6 6.282682230744818 12.332891578272195 17.01254648013821 0 0 0
24 7 9.039986922017254 9.661507421805121 14.656331074125658 0 0 0
25 7 11.932972066390796 9.872816934017361 14.711502905518223 0 0 0
30 7 9.911556332775756 11.850765277577155 14.57899209342546 0 0 0
55 7 10.231709659534468 10.402598767963518 16.646532262836114 0 0 0
59 7 8.830974588663404 12.365252592163557 16.890968422570406 0 0 0
60 7 11.286827251329811 12.616993995531182 16.350913911870045 0 0 0
61 6 0.09319250294684471 12.908376038277556 18.57655112499085 0 -1 0
62 7 2.5510674032461687 0.030537820593864857 19.1439181167004 0 0 0
66 6 1.341652200999013 2.226178005134811 19.0668712152801 0 0 0
67 5 3.786085577310239 2.1788363311396055 19.105059659217734 0 0 0
91 4 1.3529466771411887 0.7817077511625844 21.25330628175678 0 0 0
92 7 3.783839721906881 0.7375413569129025 21.13366653060718 0 0 0
96 7 0.07134867308212761 2.8607742918239807 21.17757422947469 0 0 0
97 7 2.593289231366181 2.8587784382451162 21.20989954517458 0 0 0
63 5 5.002605600113278 0.11447769421097966 19.064502306875248 0 0 0
64 7 7.485170690982937 0.10456211937768237 19.093836828285003 0 0 0
68 7 6.1807412001724895 2.1718463507413026 19.050507849121647 0 0 0
93 7 6.311111623390291 0.7365517050495083 21.20788248721203 0 0 0
98 7 5.036049416055555 2.873186380003095 21.15289066042854 0 0 0
99 5 7.490788427542777 2.8399022381521504 21.14318109461174 0 0 0
65 7 10.069612068785098 0.1007699451705258 18.965418736466454 0 0 0
69 7 8.720616394992403 2.1831457657304165 18.96367776886656 0 0 0
70 7 11.279870940331207 2.286967061402274 18.908548404013438 0 0 0
94 7 8.766812225477377 0.749552186825757 21.179224896396804 0 0 0
95 7 11.35234345241938 0.7205201275061007 21.031831587367762 0 0 0
100 6 10.034192353821439 2.837279478343627 21.02029294834511 0 0 0
71 1 12.317575270839866 4.451130344456572 19.196146821755285 -1 0 0
72 7 2.4379451005470174 4.417509503896662 19.117005591469535 0 0 0
76 7 1.1554196011835869 6.493845054826291 19.1907840613009 0 0 0
77 7 3.7484139134044345 6.4949283922909 19.144901067400312 0 0 0
101 7 1.198156695962236 5.02708758253792 21.232831129735747 0 0 0
102 6 3.7276651712235545 5.043096598873217 21.226980616878997 0 0 0
106 7 12.43151937830192 7.133742586359334 21.27431476530556 -1 0 0
107 7 2.4620392606050348 7.167783261591142 21.23822101364007 0 0 0
73 7 4.9295631814369285 4.305890621359769 19.077036829146877 0 0 0
74 6 7.458603870843124 4.31232442126557 19.026868436025538 0 0 0
78 7 6.159834770906525 6.520301601424928 19.10574080668427 0 0 0
103 7 6.268057639389266 5.053656932415364 21.157066923220842 0 0 0
108 7 5.008893667998226 7.21784607986621 21.207882906915856 0 0 0
109 7 7.416197632531609 7.2621044991026285 21.24030103472282 0 0 0
75 5 9.850726401011972 4.361140007041959 19.011081476135725 0 0 0
79 7 8.602942805786403 6.5137108659312615 19.2862314007227 0 0 0
80 7 11.082147483301165 6.5065410717563 19.28393437016637 0 0 0
104 7 8.728514552465477 5.0579340580037755 21.216481391388328 0 0 0
105 3 10.078573262260115 4.419515354747574 22.263175086272746 0 0 0
110 7 9.891304516645478 7.190378510268233 21.2721960328463 0 0 0
81 4 12.359617989458062 8.579701615639308 19.18871059077218 -1 0 0
82 6 2.4227160963908947 8.533384325238885 19.024693108298774 0 0 0
86 7 1.2935905298702084 10.753889934074472 19.171019451692885 0 0 0
87 1 3.835566014729256 10.876929318133742 19.009909236517068 0 0 0
111 7 1.1908780210718246 9.330812585586271 21.217110396974075 0 0 0
112 6 3.7374881476397315 9.335826558915885 21.23909590843297 0 0 0
116 1 0.04823988912029291 11.545148885648224 21.177119256538816 0 0 0
117 7 2.511643219301245 11.536458582606954 21.175499222813194 0 0 0
83 7 4.958240572182189 8.7249693415447 19.03355709237185 0 0 0
84 7 7.412263127492422 8.635213199285934 19.011710458134964 0 0 0
88 7 6.264743098196338 10.818603022274749 19.022187042322535 0 0 0
113 7 6.230416518552611 9.393593558100253 21.034566236312294 0 0 0
118 7 5.031170565668863 11.556203739603905 21.143568115166083 0 0 0
119 4 7.4618643360253065 11.57230040610158 21.07761147543781 0 0 0
85 6 9.818774826266754 8.511669163045374 18.450239890688167 0 0 0
89 6 8.772489404031688 10.867084672584488 18.980322525335147 0 0 0
90 4 11.274758670127621 10.805235667563352 18.892094042049212 0 0 0
114 7 8.69680170882564 9.34008216336965 20.93468550320495 0 0 0
115 6 11.109857608933138 9.28734549252618 21.16846804873296 0 0 0
120 7 10.00864131612489 11.55456160994446 21.123425367029927 0 0 0
121 7 0.07322315387201045 1.4051628150225692 23.25732917455487 0 0 0
122 7 2.561652342971883 1.4021060065306392 23.31764554275583 0 0 0
126 6 1.3446245588916574 3.601556293987308 23.260893900005286 0 0 0
127 7 3.845774235642685 3.5863127597095334 23.365913579741854 0 0 0
152 7 2.646703952413289 0.008549011362678305 25.37565514386935 0 0 0
156 1 1.479011286268182 2.1378542542043655 25.502335103828738 0 0 0
157 7 3.9674020635246383 2.135751822651347 25.444435657981852 0 0 0
162 7 2.5963027543563895 4.265418196240458 25.427912302633626 0 0 0
123 7 5.002577812032941 1.4280406947419262 23.200474613767028 0 0 0
124 7 7.407942626033675 1.5188248970524545 23.48004700363502 0 0 0
128 7 6.300433566997729 3.664483970445859 23.17128697096129 0 0 0
153 7 5.192469647096875 0.06284481674452323 25.33109333475913 0 0 0
154 7 7.603826376802716 0.008749867998634381 25.459446252789903 0 0 0
158 2 5.792940682733258 2.4798227902019243 24.644030113396667 0 0 0
163 7 5.112905596991585 4.248538710963693 25.422774560164797 0 0 0
164 5 7.472450170166494 4.060904170536782 25.34423326230961 0 0 0
125 7 10.056711651947776 1.4434255246827388 23.301744275952466 0 0 0
129 7 8.752122504446058 3.560911063808922 23.32951046084214 0 0 0
130 4 11.355043793760661 3.6401183309820424 23.383161766331835 0 0 0
155 4 10.127966424661064 0.07120096737063604 25.519595552816032 0 0 0
159 7 8.881939291476638 2.1046277604523054 25.42360153463923 0 0 0
160 7 11.405510104476921 2.166367249040448 25.39238203392848 0 0 0
165 7 10.062582700495662 4.22894014358101 25.397682747637848 0 0 0
131 7 0.06817584845933185 5.791353712858851 23.38565056005101 0 0 0
132 7 2.541362589884045 5.793775640746538 23.36500834293912 0 0 0
136 7 1.3055030452345036 7.91959427920878 23.29620558198163 0 0 0
137 7 3.781477245951294 7.9611775725548934 23.321807244154062 0 0 0
161 4 0.107718107652479 4.350197321565776 25.453878702590288 0 0 0
166 7 1.3355523174415407 6.421277763642094 25.423826394716635 0 0 0
167 7 3.8074012150529177 6.433430072710558 25.448639225621008 0 0 0
133 6 5.065744193187554 5.847510602386294 23.38473123097373 0 0 0
134 7 7.555808946871879 5.783785972484909 23.301694051815215 0 0 0
138 7 6.309256940944748 7.992608421252558 23.339251288868997 0 0 0
168 7 6.363005225206184 6.391526683250202 25.42992191770377 0 0 0
173 7 5.110606192729108 8.549452341361429 25.353559469171895 0 0 0
135 7 10.060544592689284 5.844313541870145 23.373358876952143 0 0 0
139 4 8.696167892367704 7.9530501446904625 23.212197443470416 0 0 0
140 4 11.284764302658468 7.90558172460811 23.295038935904376 0 0 0
169 7 8.771519328870587 6.340135919899856 25.371080902530633 0 0 0
170 7 11.288488268342238 6.416842969631948 25.434396500982146 0 0 0
175 6 9.890937910215204 8.573351113089657 25.501210584497766 0 0 0
141 7 0.01824768185131342 10.090216726051754 23.32861880347043 0 0 0
142 7 2.4999807120783015 10.104488601558213 23.299275884844963 0 0 0
146 7 1.2978247102684495 12.238798951137563 23.314416609925118 0 0 0
147 7 3.8119934526193306 12.238370492380394 23.230615383581682 0 0 0
151 4 0.0917585803523974 12.883409329809858 25.371438661433388 0 -1 0
171 6 0.11052009121072051 8.626310819079931 25.410900166857015 0 0 0
172 7 2.6207519275105438 8.607788187384044 25.395679164459573 0 0 0
176 7 1.3415622379865508 10.809571151974414 25.43246123304562 0 0 0
177 6 3.8832226041685454 10.812379953168573 25.315414698405405 0 0 0
143 7 5.071399718509232 10.106903345129226 23.234744108222188 0 0 0
144 7 7.506725421460235 10.093733830180897 22.904403673087085 0 0 0
148 4 6.22727519052554 12.27811619365447 23.261659639639355 0 0 0
178 6 6.6414500816648445 10.522109453652359 25.238628393520944 0 0 0
145 7 9.993886229318981 10.094667764154195 23.3000090184274 0 0 0
149 6 8.718556619538465 12.29434716901256 23.291442580147915 0 0 0
150 7 11.255806736170701 12.233336432884203 23.333726554054586 0 0 0
174 3 8.416384503330221 9.510325366636506 24.405969229166708 0 0 0
179 5 9.009203048840414 10.934304921735446 25.55979746579699 0 0 0
180 5 11.341258762062841 10.882665662908261 25.481797523328613 0 0 0
181 7 1.3841902474206245 0.6670529563089036 27.48581760144538 0 0 0
182 7 3.8731100608367184 0.7015254387151589 27.444985162174433 0 0 0
186 7 0.16924412168125416 2.8635017621070395 27.479550283876247 0 0 0
187 7 2.6572783938950657 2.8511749874743026 27.563804440741695 0 0 0
211 7 0.20560491092537278 1.4484469000353588 29.579868806913566 0 0 0
212 7 2.7066300201063633 1.3614083272344883 29.579789793626553 0 0 0
216 7 1.4076183018644906 3.5560589560164764 29.583820928932756 0 0 0
217 4 3.8217822599081233 3.5700147561698974 29.599540077533092 0 0 0
183 7 6.31196306083655 0.7164272197140301 27.569983914222714 0 0 0
188 7 5.0822171562448695 2.871344225922494 27.575449307618626 0 0 0
189 7 7.597869855681535 2.793919230966017 27.448545264841698 0 0 0
213 5 5.133853493371251 1.422616386752693 29.600693873680544 0 0 0
214 7 7.616151140586729 1.3559135423789859 29.584359598551917 0 0 0
218 7 6.364177403879866 3.5334583579453143 29.540092763051504 0 0 0
184 7 8.892253536972348 0.7244716045344334 27.55078097415905 0 0 0
185 4 11.38477000597746 0.7279256008686588 27.518609063430556 0 0 0
190 7 10.147069122949624 2.838863734080453 27.475101131487563 0 0 0
215 7 10.125246886738886 1.4094562472217922 29.619614681786363 0 0 0
219 7 8.838335953099646 3.515267426237602 29.518707589445942 0 0 0
220 7 11.36773544059063 3.5645809661326893 29.511730413003693 0 0 0
191 7 1.3883401065892342 5.0099392044748985 27.46894920390132 0 0 0
192 7 3.831163920977141 4.986277446716897 27.487077489916253 0 0 0
197 7 2.5774804407211627 7.19008277923303 27.48097895099845 0 0 0
221 7 0.11829496440808143 5.730861994372491 29.56469010777809 0 0 0
222 7 2.588652890016357 5.726108710085494 29.552664893661014 0 0 0
226 7 1.3602717730429699 7.903832705738212 29.550283131920136 0 0 0
227 7 3.8586746189298227 7.908506263309915 29.4762604602824 0 0 0
193 7 6.36979352256611 4.972585017291232 27.413293472172544 0 0 0
198 7 5.101742877327032 7.167789474416924 27.418657443113776 0 0 0
199 7 7.615204989535725 7.189667942045402 27.444912676917284 0 0 0
223 6 5.152540588622654 5.715549517667791 29.492779111199173 0 0 0
224 7 7.644336567619464 5.7387751016447694 29.57687177092674 0 0 0
228 7 6.391506681699693 7.909319896213077 29.496545179183823 0 0 0
194 6 8.84622678165607 5.00280386712118 27.4822010788491 0 0 0
195 7 11.35951016458239 5.002118157152181 27.497959777890546 0 0 0
196 7 0.13413989151865638 7.165757862636582 27.48773663265394 0 0 0
200 7 10.120213388780781 7.164934807733735 27.527008784614914 0 0 0
225 7 10.100397988281662 5.746032610857113 29.595513778226064 0 0 0
229 7 8.844511042019194 7.88771346803901 29.514574960708632 0 0 0
230 7 11.366014088695083 7.936071807126553 29.514070461639488 0 0 0
201 5 1.3752738637258548 9.330212269218762 27.515029813391727 0 0 0
202 7 3.8704508954872385 9.315855079893408 27.396196094828152 0 0 0
206 4 0.18463469283591638 11.485246229937227 27.51806455642956 0 0 0
207 7 2.608109040255013 11.460845194299011 27.45249741609874 0 0 0
231 7 0.1601254601478483 10.083303220538198 29.562060328577406 0 0 0
232 7 2.6282980286203905 10.025426192072686 29.43463814828338 0 0 0
236 7 1.4660624721232316 12.18662868892 29.55601197691033 0 0 0
203 7 6.369996248011899 9.287746038587926 27.407316521308555 0 0 0
208 7 5.139721349908641 11.496575808699765 27.353153673465997 0 0 0
209 6 7.58895779022245 11.53247794442417 27.63166721430211 0 0 0
233 7 5.14443242649428 10.050579701542365 29.341901463316972 0 0 0
234 7 7.600156485899169 10.089418467019508 29.65599848107029 0 0 0
238 7 6.219112971894663 12.236507832224772 29.680689337473144 0 0 0
204 7 8.835244480638126 9.373226970515843 27.604072323450794 0 0 0
205 7 11.343861751112989 9.424130633181475 27.53096447104998 0 0 0
210 7 10.153674788993966 11.561903037587618 27.566685613391126 0 0 0
235 7 10.082805586593418 10.18292961015116 29.58640802943128 0 0 0
239 4 8.881271447188134 12.259191328934834 29.72377338353489 0 0 0
240 7 11.391454629674673 12.272667005412838 29.552077990005802 0 0 0
237 3 4.0293794780577725 0.30275787006995386 30.55996208005377 0 1 0
241 7 0.19576799090216598 0.10712832829704337 31.628975634727233 0 0 0
242 7 2.561899814912627 0.14847565978195323 31.74003876483103 0 0 0
246 4 1.3390920780329307 2.2498217251093884 31.659501951393015 0 0 0
247 7 3.8786332495911897 2.1552287827735803 31.64199429431013 0 0 0
276 7 0.17498601016786275 3.006454714820001 33.732227338409615 0 0 0
243 7 5.1662477708492025 12.90973557791114 32.100643699452405 0 -1 0
244 7 7.625229428543464 0.008919172954197382 31.71003466362861 0 0 0
248 7 6.406622639001564 2.154783457008535 31.642575055055296 0 0 0
279 7 7.7279120379681485 3.052709682766087 33.72603020835944 0 0 0
249 7 8.849923183103465 2.1109235641236284 31.673992976948405 0 0 0
250 7 11.380964176784195 2.148531480611818 31.651876464667648 0 0 0
255 1 10.102697019583049 4.2293799264619825 31.49496922416693 0 0 0
275 4 11.441130421642693 0.8107750792309891 33.70930808210003 0 0 0
251 7 0.14404919340188455 4.334059249374073 31.643969909309902 0 0 0
252 7 2.629758475059324 4.324280180798993 31.665997742101542 0 0 0
256 7 1.3268098872654943 6.509767258654123 31.63259972697584 0 0 0
257 6 3.789103010612272 6.505842798342195 31.66366076769076 0 0 0
253 7 5.110678469622193 4.314367764648154 31.62245426055624 0 0 0
254 7 7.620378926596035 4.318879010767573 31.586828415405304 0 0 0
258 7 6.350985334386825 6.499821262087275 31.620846208469274 0 0 0
264 7 7.588998501866049 8.585871211237293 31.614911978780476 0 0 0
283 7 6.378542235786794 5.10914127170153 33.66632287581163 0 0 0
289 7 7.633221470966494 7.1943055257027915 33.709334986715646 0 0 0
259 4 8.82104924174434 6.471147709015376 31.62133716072119 0 0 0
260 7 11.313281406672287 6.50134132993697 31.58596580660176 0 0 0
284 5 8.886276101038307 5.127605851893321 33.57655779320521 0 0 0
290 7 10.083158089061971 7.271487364549394 33.58944351999786 0 0 0
261 7 0.1743138285965915 8.71990482900186 31.64792529672917 0 0 0
262 7 2.660092945583913 8.725455688722297 31.533089519810854 0 0 0
266 7 1.5598898940295105 10.8406738558593 31.570898474514102 0 0 0
267 4 3.9139333784934807 11.287454759389362 30.854551288436785 0 0 0
292 7 3.955749267824119 9.381885358126615 33.502413353962034 0 0 0
326 7 0.5048896259919248 11.666112324130676 33.67296919306008 0 0 0
263 1 5.091211715429808 8.765369395468818 31.427312790048887 0 0 0
268 7 6.2591129576837705 10.768674576780013 31.578432740660052 0 0 0
245 7 10.107871522127114 12.896047939324525 31.865606093938094 0 -1 0
265 6 10.100259300953724 8.69374814341855 31.53330862524186 0 0 0
269 7 8.77264493668219 10.810696336312699 31.74016942427092 0 0 0
270 7 11.42362561329035 10.916923873528141 31.607075429634175 0 0 0
294 7 8.768607892626466 9.298208811971064 33.68646495490815 0 0 0
296 3 11.071467908671435 11.844159621344225 33.3260658080495 -1 0 0
271 7 1.474136632182804 0.9157956787176129 33.77376706203041 0 0 0
272 7 3.919211333676858 0.9677573525371458 33.923965280972645 0 0 0
277 7 2.6413019834529603 3.090103565288684 33.7952382276971 0 0 0
301 7 0.19165584585406945 1.5649913166165335 35.75512298413432 0 0 0
302 7 2.6176422953521596 1.680844400111233 35.85790959705079 0 0 0
306 4 1.4176692197055363 3.8461456135071654 35.95466323711409 0 0 0
307 7 3.9969582992778308 3.742894113325681 35.83144154512154 0 0 0
273 7 6.462512494394696 0.985344958998627 33.899261213133066 0 0 0
278 1 5.2165196062150905 3.006306699925773 33.718829183235414 0 0 0
303 7 5.246295354290448 1.677740643120054 35.938643807817634 0 0 0
304 4 7.763699567644996 1.6458270872472647 35.92240985926492 0 0 0
308 7 6.529772984438533 3.716048024991664 35.796219548157 0 0 0
274 7 8.83713283103136 0.9112371772017068 33.83672577847245 0 0 0
280 7 10.202261591979081 3.006101995825257 33.70254296174046 0 0 0
305 7 10.226428382769702 1.5745560035875539 35.72274451993716 0 0 0
309 7 9.02125004446745 3.6844268171517007 35.77490879023392 0 0 0
310 4 11.589844769969377 3.956820529409121 35.85717340118831 0 0 0
335 5 9.900459983390746 12.919370615634994 37.385751734548876 0 -1 0
281 7 1.3216074550026005 5.193695739520968 33.856474357589065 0 0 0
282 4 3.8452514315534154 5.143226882235153 33.76671565007453 0 0 0
286 7 0.09183023678055577 7.292403786891504 33.61911749946809 0 0 0
287 7 2.6299429620920867 7.29730883881109 33.74318340716159 0 0 0
312 7 2.7283558515626707 5.803048520684539 35.78124868087599 0 0 0
316 7 1.2111538052192679 7.617775744097255 35.78492773868434 0 0 0
317 7 3.93297546477644 8.074202273518457 35.72761266445825 0 0 0
288 7 5.181878944502973 7.27782868991358 33.663267882553704 0 0 0
313 7 5.264560592964693 5.9248918327062015 35.71107317735948 0 0 0
314 7 7.721698161016287 5.830230933846971 35.73909163859844 0 0 0
318 4 6.55120250931598 8.127744894301157 35.79603829442122 0 0 0
285 4 11.344223662060385 5.166840848322292 33.627523480821466 0 0 0
311 2 12.370692735388799 6.013675073988278 35.31672145065409 -1 0 0
315 7 10.133407900097794 5.8227772770876625 35.57471176544015 0 0 0
319 7 8.950759283970388 7.988337349929929 35.819712738182744 0 0 0
320 7 11.345820533586256 7.947283600655029 35.587148960054755 0 0 0
355 3 10.439261436769032 7.915048360857082 37.27211663746788 0 0 0
291 7 1.4646815742358925 9.436624701657259 33.72950319361793 0 0 0
297 6 3.0224255760735095 11.58551023888739 33.668393912091744 0 0 0
321 6 0.20612418393553655 10.081729056684752 35.90653312745112 0 0 0
322 7 2.7008608300535846 10.210847668590905 35.757733349204926 0 0 0
327 6 3.9183504959641127 12.517909843899956 36.108454347216735 0 0 0
356 4 1.4001040075401439 12.372207443547603 35.84074306686938 0 0 0
293 4 6.453033678661923 9.324044332601957 33.64416038851797 0 0 0
298 2 5.197528502662341 12.303449966518404 34.20714465949094 0 0 0
299 7 6.984090751655338 11.586747079963207 33.67896881146894 0 0 0
323 6 5.232522211910402 10.252037624728928 35.5594765402877 0 0 0
324 7 7.908338629196371 10.365457614814884 35.703699919314914 0 0 0
328 7 6.470829120815894 12.532931111062377 35.91250201206552 0 0 0
295 6 11.26845868782112 9.710917197419207 33.754703556085616 0 0 0
300 7 9.37410400786947 11.557158440735591 34.15463356937536 0 0 0
325 7 10.248221392018825 9.858085597038055 37.02396048045177 0 0 0
329 3 9.526001833986388 11.41597216551389 36.19136362466585 0 0 0
330 4 11.252804698896725 12.085766943070153 35.563161400427305 0 0 0
332 7 2.4821561827837284 0.11883996490442354 38.034453040069245 0 0 0
336 7 1.332279306814359 2.202023086256057 37.8297793189597 0 0 0
337 7 3.8750573375464756 2.2111585455514136 37.86156035872853 0 0 0
333 7 5.215660950749577 0.18106501807182127 38.11738465600507 0 0 0
334 7 7.647572890389247 0.08132902500955916 38.010120608206385 0 0 0
338 7 6.530549369684915 2.276551912313852 37.90056000517553 0 0 0
339 7 8.991586914548117 2.204179066686456 37.85359464398199 0 0 0
340 7 11.368677384837133 2.211661715404592 37.723171512009 0 0 0
342 7 2.7134506486414476 4.309567815725929 37.92033590731835 0 0 0
346 7 1.5185693176007153 6.4280008971177045 37.99606455147793 0 0 0
347 6 3.966801065342644 6.4911152000374095 37.76041791687914 0 0 0
343 7 5.304550757593001 4.443977334897385 37.83194434116905 0 0 0
344 7 7.834275389670583 4.45424322043099 37.84267924552521 0 0 0
348 6 6.660408380066996 6.678619928890086 37.81291807735694 0 0 0
341 7 0.21378184930339883 4.2692385487967615 38.06608052584716 0 0 0
345 4 10.222582608878724 4.352847169019632 37.80518536720538 0 0 0
349 7 9.239557732179064 6.645796243269737 37.862075152439395 0 0 0
350 7 11.682449175854819 6.289532987583755 37.29394492494862 0 0 0
352 6 2.4982698191495953 8.679515658174644 37.68313703770974 0 0 0
357 7 3.857535304553544 10.827047270469018 37.96026139564828 0 0 0
360 7 1.400469530275863 10.918324380735632 37.883431641464206 1 0 0
361 8 6.0495923517888555 10.735811030441015 41.50797667849799 0 0 0
353 7 5.136887246767227 8.713251674236371 37.81985647032568 0 0 0
354 7 7.9387735118428715 8.977504539877273 37.81275398263487 0 0 0
358 6 6.4057376097294245 10.871529745968589 37.77423593137551 0 0 0
362 8 6.800496260371025 10.807065904894284 41.41675754511495 0 0 0
331 7 12.38834635791439 12.895170446326008 37.61525672178872 -1 -1 0
351 7 12.245848560039583 8.578462460356375 37.83532097066072 -1 0 0
359 2 8.598580455734362 11.177122374570242 37.4159938459213 0 0 0

Velocities

1 0 0 0
2 0 0 0
6 0 0 0
7 0 0 0
31 0 0 0
32 0 0 0
36 0 0 0
37 0 0 0
3 0 0 0
8 0 0 0
9 0 0 0
33 0 0 0
34 0 0 0
38 0 0 0
4 0 0 0
5 0 0 0
10 0 0 0
35 0 0 0
39 0 0 0
40 0 0 0
11 0 0 0
12 0 0 0
16 0 0 0
17 0 0 0
41 0 0 0
42 0 0 0
46 0 0 0
47 0 0 0
13 0 0 0
18 0 0 0
19 0 0 0
43 0 0 0
44 0 0 0
48 0 0 0
14 0 0 0
15 0 0 0
20 0 0 0
45 0 0 0
49 0 0 0
50 0 0 0
21 0 0 0
22 0 0 0
26 0 0 0
27 0 0 0
51 0 0 0
52 0 0 0
56 0 0 0
57 0 0 0
23 0 0 0
28 0 0 0
29 0 0 0
53 0 0 0
54 0 0 0
58 0 0 0
24 0 0 0
25 0 0 0
30 0 0 0
55 0 0 0
59 0 0 0
60 0 0 0
61 0 0 0
62 0 0 0
66 0 0 0
67 0 0 0
91 0 0 0
92 0 0 0
96 0 0 0
97 0 0 0
63 0 0 0
64 0 0 0
68 0 0 0
93 0 0 0
98 0 0 0
99 0 0 0
65 0 0 0
69 0 0 0
70 0 0 0
94 0 0 0
95 0 0 0
100 0 0 0
71 0 0 0
72 0 0 0
76 0 0 0
77 0 0 0
101 0 0 0
102 0 0 0
106 0 0 0
107 0 0 0
73 0 0 0
74 0 0 0
78 0 0 0
103 0 0 0
108 0 0 0
109 0 0 0
75 0 0 0
79 0 0 0
80 0 0 0
104 0 0 0
105 0 0 0
110 0 0 0
81 0 0 0
82 0 0 0
86 0 0 0
87 0 0 0
111 0 0 0
112 0 0 0
116 0 0 0
117 0 0 0
83 0 0 0
84 0 0 0
88 0 0 0
113 0 0 0
118 0 0 0
119 0 0 0
85 0 0 0
89 0 0 0
90 0 0 0
114 0 0 0
115 0 0 0
120 0 0 0
121 0 0 0
122 0 0 0
126 0 0 0
127 0 0 0
152 0 0 0
156 0 0 0
157 0 0 0
162 0 0 0
123 0 0 0
124 0 0 0
128 0 0 0
153 0 0 0
154 0 0 0
158 0 0 0
163 0 0 0
164 0 0 0
125 0 0 0
129 0 0 0
130 0 0 0
155 0 0 0
159 0 0 0
160 0 0 0
165 0 0 0
131 0 0 0
132 0 0 0
136 0 0 0
137 0 0 0
161 0 0 0
166 0 0 0
167 0 0 0
133 0 0 0
134 0 0 0
138 0 0 0
168 0 0 0
173 0 0 0
135 0 0 0
139 0 0 0
140 0 0 0
169 0 0 0
170 0 0 0
175 0 0 0
141 0 0 0
142 0 0 0
146 0 0 0
147 0 0 0
151 0 0 0
171 0 0 0
172 0 0 0
176 0 0 0
177 0 0 0
143 0 0 0
144 0 0 0
148 0 0 0
178 0 0 0
145 0 0 0
149 0 0 0
150 0 0 0
174 0 0 0
179 0 0 0
180 0 0 0
181 0 0 0
182 0 0 0
186 0 0 0
187 0 0 0
211 0 0 0
212 0 0 0
216 0 0 0
217 0 0 0
183 0 0 0
188 0 0 0
189 0 0 0
213 0 0 0
214 0 0 0
218 0 0 0
184 0 0 0
185 0 0 0
190 0 0 0
215 0 0 0
219 0 0 0
220 0 0 0
191 0 0 0
192 0 0 0
197 0 0 0
221 0 0 0
222 0 0 0
226 0 0 0
227 0 0 0
193 0 0 0
198 0 0 0
199 0 0 0
223 0 0 0
224 0 0 0
228 0 0 0
194 0 0 0
195 0 0 0
196 0 0 0
200 0 0 0
225 0 0 0
229 0 0 0
230 0 0 0
201 0 0 0
202 0 0 0
206 0 0 0
207 0 0 0
231 0 0 0
232 0 0 0
236 0 0 0
203 0 0 0
208 0 0 0
209 0 0 0
233 0 0 0
234 0 0 0
238 0 0 0
204 0 0 0
205 0 0 0
210 0 0 0
235 0 0 0
239 0 0 0
240 0 0 0
237 0 0 0
241 0 0 0
242 0 0 0
246 0 0 0
247 0 0 0
276 0 0 0
243 0 0 0
244 0 0 0
248 0 0 0
279 0 0 0
249 0 0 0
250 0 0 0
255 0 0 0
275 0 0 0
251 0 0 0
252 0 0 0
256 0 0 0
257 0 0 0
253 0 0 0
254 0 0 0
258 0 0 0
264 0 0 0
283 0 0 0
289 0 0 0
259 0 0 0
260 0 0 0
284 0 0 0
290 0 0 0
261 0 0 0
262 0 0 0
266 0 0 0
267 0 0 0
292 0 0 0
326 0 0 0
263 0 0 0
268 0 0 0
245 0 0 0
265 0 0 0
269 0 0 0
270 0 0 0
294 0 0 0
296 0 0 0
271 0 0 0
272 0 0 0
277 0 0 0
301 0 0 0
302 0 0 0
306 0 0 0
307 0 0 0
273 0 0 0
278 0 0 0
303 0 0 0
304 0 0 0
308 0 0 0
274 0 0 0
280 0 0 0
305 0 0 0
309 0 0 0
310 0 0 0
335 0 0 0
281 0 0 0
282 0 0 0
286 0 0 0
287 0 0 0
312 0 0 0
316 0 0 0
317 0 0 0
288 0 0 0
313 0 0 0
314 0 0 0
318 0 0 0
285 0 0 0
311 0 0 0
315 0 0 0
319 0 0 0
320 0 0 0
355 0 0 0
291 0 0 0
297 0 0 0
321 0 0 0
322 0 0 0
327 0 0 0
356 0 0 0
293 0 0 0
298 0 0 0
299 0 0 0
323 0 0 0
324 0 0 0
328 0 0 0
295 0 0 0
300 0 0 0
325 0 0 0
329 0 0 0
330 0 0 0
332 0 0 0
336 0 0 0
337 0 0 0
333 0 0 0
334 0 0 0
338 0 0 0
339 0 0 0
340 0 0 0
342 0 0 0
346 0 0 0
347 0 0 0
343 0 0 0
344 0 0 0
348 0 0 0
341 0 0 0
345 0 0 0
349 0 0 0
350 0 0 0
352 0 0 0
357 0 0 0
360 0 0 0
361 0 0 0
353 0 0 0
354 0 0 0
358 0 0 0
362 0 0 0
331 0 0 0
351 0 0 0
359 0 0 0
