LAMMPS data file via write_data, version 11 Feb 2026, timestep = 553, units = metal

362 atoms
8 atom types

0 12.447907776 xlo xhi
0 12.9362452296 ylo yhi
0 52.3600831054 zlo zhi

Masses

1 26.9815
2 10.811
3 12.011
4 51.9961
5 55.845
6 95.95999999999999
7 58.6934
8 1.008

Atoms # atomic/kk

1 7 1.137904786292129 1.401215128952479 14.172502533441289 0 0 0
2 7 3.6016518144118295 1.0668377237150188 14.666131597951399 0 0 0
6 7 12.365013798824666 3.4528576123664365 14.818595819864571 -1 0 0
7 7 2.4208421063595518 3.2715242299123073 14.987804918198652 0 0 0
31 6 0.1252581659190418 1.563558315591335 16.541503860152726 0 0 0
32 7 2.597974056748833 1.6820331557911314 16.911385366522715 0 0 0
36 7 1.212724292758227 3.8529661179249777 17.0255984906644 0 0 0
37 7 3.7035766965540913 3.8340743696583597 17.052816342793736 0 0 0
3 5 6.069820740326713 0.9437422509139459 14.908334590814547 0 0 0
8 7 4.92197018804517 3.1240869576545838 15.006580068337895 0 0 0
9 7 7.383705138683553 3.152136472645113 14.917080233387177 0 0 0
33 7 4.978685880899036 1.6617501889769455 16.950725666862898 0 0 0
34 7 7.403380313365686 1.765900944105574 16.975982541770517 0 0 0
38 5 6.171954771230464 3.8567881614214365 16.98498458162014 0 0 0
4 6 8.633826341530616 0.9934700244382622 14.996861800069432 0 0 0
5 7 11.042959453411278 1.2498990684049494 14.598275705427687 0 0 0
10 7 9.906280131723848 3.3872819214810845 14.77704212377869 0 0 0
35 7 9.97864970761747 1.659206520531055 16.94000218390277 0 0 0
39 7 8.723926845087767 3.85957799544446 16.858193436732222 0 0 0
40 7 11.183729406724014 3.8036511999388445 16.99654034428749 0 0 0
11 7 1.2280542435882258 5.491928062782858 15.076378085804032 0 0 0
12 7 3.7165282936692354 5.313146239170289 15.087138842524043 0 0 0
16 4 0.46261378411579174 7.809416501790851 14.795333457137298 0 0 0
17 7 2.6460947164671555 7.492113403895635 15.149312087785754 0 0 0
41 7 12.435347291325447 5.995143670573879 17.22251322144174 -1 0 0
42 7 2.446997924724676 6.124464167532293 17.13711059920389 0 0 0
46 7 0.7877001460169337 9.364214793312028 16.870486345881332 0 0 0
47 7 3.8799160661264454 8.19450048858196 17.058921169316864 0 0 0
13 7 6.172031552557596 5.302280391542312 15.030185481736952 0 0 0
18 7 5.073098514790996 7.475519939404497 15.064230488891903 0 0 0
19 2 7.053069700852614 7.015748204511008 15.385286239110576 0 0 0
43 7 4.9459331378942535 5.959695894635038 17.090492678035773 0 0 0
44 7 7.47032962216902 5.937414666248527 17.083855716759775 0 0 0
48 7 6.339998342795227 8.051833922319947 17.04531365868742 0 0 0
14 7 8.69742196892614 5.65540713212378 14.961518645024517 0 0 0
15 6 11.173789800517206 5.60133018544323 15.180813185178305 0 0 0
20 7 10.438713237994651 7.666517618707538 14.18044969105787 0 0 0
45 7 9.916670187798461 6.035373282654185 17.249103568275196 0 0 0
49 7 8.709860894256765 7.918786085049874 16.065337264137717 0 0 0
50 7 11.178642897115749 7.987814412613925 16.449483643674444 0 0 0
21 2 1.158594309431103 10.47530106277377 15.208593470398641 0 0 0
22 7 2.9629810789828466 9.862086655874005 15.641210287994038 0 0 0
26 7 0.1212850040258818 12.201390716346937 14.90618762110449 0 0 0
27 7 2.4755630335207006 11.805187560103894 14.459614082373712 0 0 0
51 3 11.512835877828595 9.367131158670706 17.658029613535852 -1 0 0
52 7 1.3434727631552783 11.861599294085796 16.98473607849843 0 0 0
56 2 1.9071659415938782 0.31761880593896585 15.605045907494805 0 1 0
57 7 3.747051286142924 12.433500459178356 16.605475830540843 0 0 0
23 7 6.914821070309919 9.002492824200472 14.774972861957021 0 0 0
28 7 4.952949428078424 11.783987744378482 14.603023336786165 0 0 0
29 6 7.480709661980105 11.489339366893535 14.916992062939109 0 0 0
53 7 5.329126442805726 10.118922313300832 16.32308563247557 0 0 0
54 7 7.726856071854191 10.050669613007317 16.942582008657208 0 0 0
58 6 6.312833569489014 12.363672504700869 16.95057504276776 0 0 0
24 7 9.204520406069573 9.735158138320688 14.5378866450143 0 0 0
25 7 11.756035608601497 9.87142344501977 14.786523373850226 0 0 0
30 7 10.054974177930214 11.942032120894032 14.757613102283635 0 0 0
55 7 10.17849943831997 10.272851299642618 16.67725417938158 0 0 0
59 7 8.829947189166596 12.37788133288242 16.957927117621452 0 0 0
60 7 11.23610725240341 12.463892720834378 16.87866854133648 0 0 0
61 6 0.04084842366929379 12.931865413677958 18.990664188265132 0 -1 0
62 7 2.580602646287431 12.851330117338586 19.033735815627672 0 -1 0
66 6 1.3861201519214101 2.1628241457341257 19.04923591045448 0 0 0
67 5 3.8242506799088907 2.1667694057002627 19.07305368545421 0 0 0
91 4 1.3540544693254641 0.7459115253821919 21.29578254036028 0 0 0
92 7 3.7463537333731143 0.7213124736404098 21.050677443283664 0 0 0
96 7 0.07515365839218115 2.793912773545919 21.183345908035005 0 0 0
97 7 2.5858409668077442 2.8467884817810853 21.19490812899678 0 0 0
63 5 4.949951899919197 0.04997716433039928 18.95719057171224 0 0 0
64 7 7.434877709401392 0.07903992885717126 19.09701743983283 0 0 0
68 7 6.188133788023887 2.1558400820873267 19.075726704160626 0 0 0
93 7 6.252898481885409 0.7164182923663016 21.1689173298309 0 0 0
98 7 5.018885392594765 2.870759078682831 21.149183811288115 0 0 0
99 5 7.472470375989261 2.8118632642267154 21.16514906729276 0 0 0
65 7 9.994952928265258 0.07705939149906173 19.092035028014074 0 0 0
69 7 8.731741183467125 2.1508284909797664 18.991356125720284 0 0 0
70 7 11.280192330304924 2.2350823389059653 18.950090038115338 0 0 0
94 7 8.707128420690635 0.7102146443761476 21.232258973138418 0 0 0
95 7 11.297697021625343 0.6672041896537297 21.195479369081884 0 0 0
100 6 10.024034101996257 2.781209956157814 21.051089524041764 0 0 0
71 1 12.376805357370303 4.375119881200024 19.181986214664654 -1 0 0
72 7 2.4770371890527527 4.385877318660654 19.1026295142073 0 0 0
76 7 1.1933372415718855 6.4315718655173 19.25570791689271 0 0 0
77 7 3.7771652529082123 6.504243171655089 19.160695659840272 0 0 0
101 7 1.1975936174587223 4.983254750951997 21.255092531159825 0 0 0
102 6 3.7229806712830067 5.039475914385794 21.22530414547431 0 0 0
106 7 12.428490347467674 7.093712876123421 21.31162589874436 -1 0 0
107 7 2.4617233440877033 7.169794547802344 21.22809900409888 0 0 0
73 7 4.9691976615057225 4.313382997806147 19.082803971026447 0 0 0
74 6 7.495058711374276 4.2822622748004795 19.050516439047207 0 0 0
78 7 6.189788505197065 6.515932837703966 19.135605438650536 0 0 0
103 7 6.268434343997835 5.043922804542323 21.171801688695112 0 0 0
108 7 5.004902622207871 7.225543592622201 21.22231060371084 0 0 0
109 7 7.412552879856567 7.245344741344573 21.26088326678164 0 0 0
75 5 9.901927891863545 4.3022407790695105 19.029553290115427 0 0 0
79 7 8.61889186589818 6.468864673105218 19.31926873306213 0 0 0
80 7 11.106718676311289 6.4175140075746056 19.35405685087794 0 0 0
104 7 8.734060911615249 5.019801902463619 21.239740208223438 0 0 0
105 3 10.077591067338725 4.36862053284388 22.284656569863674 0 0 0
110 7 9.883567516762094 7.162584697797177 21.298403464084913 0 0 0
81 4 12.335853330889622 8.469763160044987 19.196229893178966 -1 0 0
82 6 2.351996432499666 8.485900205125656 18.91064307630737 0 0 0
86 7 1.2748339471912933 10.68717780735918 19.15691198838651 0 0 0
87 1 3.658280225396188 10.712653143818095 18.26171478212714 0 0 0
111 7 1.1728191935850416 9.286482885704853 21.191429505667806 0 0 0
112 6 3.694787547411419 9.352699684188515 21.13826999964101 0 0 0
116 1 0.030113206820386207 11.483429096177035 21.293317148683915 0 0 0
117 7 2.4635333451341808 11.525377626194363 21.140568919484398 0 0 0
83 7 4.939498973301493 8.72985260289077 19.078747726709473 0 0 0
84 7 7.390682809704383 8.6364690396079 19.081170154290295 0 0 0
88 7 6.155773148548589 10.798175745290402 18.925498791115487 0 0 0
113 7 6.207224922922026 9.406040666314944 21.03061125062618 0 0 0
118 7 4.9570967542903 11.537640986466478 21.03764236853549 0 0 0
119 4 7.392700887957778 11.53301751299089 21.070356458944403 0 0 0
85 6 9.780605299110771 8.470166115890363 18.536263483438358 0 0 0
89 6 8.724515122041817 10.84688282101682 19.034114026186025 0 0 0
90 4 11.265355396569229 10.817774639710425 18.93431035635839 0 0 0
114 7 8.69299469555962 9.3125926393152 20.988280363273088 0 0 0
115 6 11.102172007283185 9.248589938765347 21.171220754847752 0 0 0
120 7 9.979030759461148 11.513124051593625 21.177967251532113 0 0 0
121 7 0.07061752505151198 1.37039657705255 23.309654171038964 0 0 0
122 7 2.561983029908337 1.3823663854126762 23.328690964871477 0 0 0
126 6 1.3415777653279695 3.565128916059775 23.26526328299387 0 0 0
127 7 3.837106571013574 3.5689642092451224 23.36080633024851 0 0 0
152 7 2.6400218139848977 12.919159443602023 25.372857320127146 0 -1 0
156 1 1.4660848210850292 2.108769083739779 25.514662670148464 0 0 0
157 7 3.9522260228626447 2.1154820735699067 25.44281769855923 0 0 0
162 7 2.5850983377117145 4.241224918830653 25.427313963798568 0 0 0
123 7 4.979026082375395 1.4075814405426257 23.161255204642337 0 0 0
124 7 7.380489433717586 1.4783565100582348 23.485770325426287 0 0 0
128 7 6.290076657443004 3.6423996252893533 23.182954762949716 0 0 0
153 7 5.183732843112077 0.05032094016567035 25.29158804173339 0 0 0
154 7 7.586548587360927 12.917677366315111 25.474682911884564 0 -1 0
158 2 5.761989854106423 2.4356133084802605 24.628146403656245 0 0 0
163 7 5.104427008070531 4.222482625327858 25.420374598421887 0 0 0
164 5 7.463575477595547 4.039644261568022 25.35964189525526 0 0 0
125 7 10.029682011769706 1.4045419953442733 23.354671139462024 0 0 0
129 7 8.737782494923087 3.5233001118694656 23.34736084258762 0 0 0
130 4 11.353311537693918 3.593402127003862 23.402501641055924 0 0 0
155 4 10.106143224635517 0.038667327982663494 25.5583165939806 0 0 0
159 7 8.855928430058814 2.075699417380531 25.447333894928832 0 0 0
160 7 11.387369948531543 2.1310822528692777 25.421380528817828 0 0 0
165 7 10.051780928140388 4.193556092692579 25.412479051910154 0 0 0
131 7 0.05688616789150924 5.747455771098706 23.40358731109746 0 0 0
132 7 2.528463780617338 5.7758000754773695 23.35953861797842 0 0 0
136 7 1.2886716468273003 7.8891478088662685 23.304147189986946 0 0 0
137 7 3.7623735854113383 7.956975631590131 23.277183240843858 0 0 0
161 4 0.09507045332391963 4.316192272392046 25.469260400920696 0 0 0
166 7 1.3232880179587057 6.390247294315599 25.430027766367488 0 0 0
167 7 3.793619763181501 6.414555327421041 25.441847060603138 0 0 0
133 6 5.050886029971651 5.8350551774085995 23.38661861036798 0 0 0
134 7 7.5452148908806125 5.753987746815018 23.314499633141693 0 0 0
138 7 6.295807647392055 7.97228785120938 23.340247285187196 0 0 0
168 7 6.3509883545680115 6.371461284724791 25.432513368384697 0 0 0
173 7 5.0899224182419465 8.529896747582438 25.33119783550745 0 0 0
135 7 10.050027040451928 5.800182492242105 23.38818125306173 0 0 0
139 4 8.679568384954838 7.917356135839488 23.244452431476347 0 0 0
140 4 11.267380501579492 7.864771892069825 23.318018841472682 0 0 0
169 7 8.761362674588536 6.3056506824736696 25.38380579173225 0 0 0
170 7 11.274747779797 6.382462377182561 25.449124938121685 0 0 0
175 6 9.870020238345758 8.541598311881208 25.524638648487368 0 0 0
141 7 0.005237905048878657 10.042199896204247 23.34347728013552 0 0 0
142 7 2.4811837911117602 10.08096365730785 23.25374646383194 0 0 0
146 7 1.2875570989832967 12.209899890654897 23.34997420954444 0 0 0
147 7 3.7917261726177967 12.219338563172247 23.179144230417926 0 0 0
151 4 0.07776483766359411 12.849486420995866 25.41520189161023 0 -1 0
171 6 0.0945096548407092 8.588662194961536 25.429856277163722 0 0 0
172 7 2.607824722060624 8.58421151488265 25.374827797763917 0 0 0
176 7 1.327257189771431 10.77365377794299 25.43121231431777 0 0 0
177 6 3.864519036994169 10.791774417358075 25.272533625834697 0 0 0
143 7 5.040018677401711 10.080337342730138 23.18027436660466 0 0 0
144 7 7.490615467100121 10.063876833252312 22.919303874169206 0 0 0
148 4 6.197908866450045 12.24543120333064 23.184283508572335 0 0 0
178 6 6.6022993936381384 10.518418698171265 25.219454008397573 0 0 0
145 7 9.98095578861572 10.048783612026073 23.315969029814617 0 0 0
149 6 8.693218264587165 12.24696653066631 23.330219650137074 0 0 0
150 7 11.23220741717105 12.192409180353788 23.40591106015547 0 0 0
174 3 8.39883440688051 9.484382819149914 24.423784295260738 0 0 0
179 5 8.983538719537183 10.896991516120954 25.584126394135748 0 0 0
180 5 11.321092145254868 10.841302696802234 25.507565128026517 0 0 0
181 7 1.3768558645697802 0.6404698552146025 27.496779316629052 0 0 0
182 7 3.8635730328953093 0.6781523188625173 27.43542523589136 0 0 0
186 7 0.15873511124394807 2.832527369059244 27.49630172114615 0 0 0
187 7 2.6475054262447357 2.8287136915554703 27.567837553789676 0 0 0
211 7 0.19824614505805901 1.4195700827549096 29.595323064431742 0 0 0
212 7 2.699316958551351 1.337579197839992 29.58027530317744 0 0 0
216 7 1.398840055815131 3.529713979889285 29.593379743590276 0 0 0
217 4 3.8124252308939526 3.5500046054678265 29.59997440242337 0 0 0
183 7 6.297100870783398 0.6907019314530474 27.57204161963617 0 0 0
188 7 5.0705985045440105 2.849410164505237 27.577183585306837 0 0 0
189 7 7.582523935826367 2.768557497982622 27.465056321610625 0 0 0
213 5 5.122735601319906 1.4030749320960325 29.601707646901055 0 0 0
214 7 7.6006034822059405 1.3304688807702436 29.594873642258026 0 0 0
218 7 6.35156672893046 3.51316428446251 29.54613018601442 0 0 0
184 7 8.873498828148566 0.6940239590703278 27.570313510281853 0 0 0
185 4 11.371680514415766 0.6970917835664902 27.544207769923805 0 0 0
190 7 10.132587723993359 2.8065672409569227 27.494009489609756 0 0 0
215 7 10.112931882350932 1.3784769554168521 29.63673767163973 0 0 0
219 7 8.82673783406162 3.487045595494821 29.534133731445568 0 0 0
220 7 11.357348773416229 3.533584341936574 29.52739851206976 0 0 0
191 7 1.3783798312578122 4.981440709907086 27.475405337504117 0 0 0
192 7 3.8210082780844803 4.966101001344316 27.483856402581054 0 0 0
197 7 2.565890476919632 7.168578260646412 27.47657503240819 0 0 0
221 7 0.10769045671208476 5.70108041689469 29.576774307033734 0 0 0
222 7 2.5786733507838466 5.704546105463308 29.55372933737722 0 0 0
226 7 1.350629035778793 7.878252116581146 29.554262084008617 0 0 0
227 7 3.8479235185196603 7.8897726896957066 29.468577869911993 0 0 0
193 7 6.35706824784271 4.951179973482677 27.41569083867992 0 0 0
198 7 5.089641211397739 7.1494396176634005 27.41223073992994 0 0 0
199 7 7.609132999502377 7.163789102640525 27.45041364497846 0 0 0
223 6 5.140445121909785 5.697844825358351 29.491935234931272 0 0 0
224 7 7.631904905274009 5.713768327843976 29.584745343802485 0 0 0
228 7 6.38192893347532 7.889188284788957 29.492502380739474 0 0 0
194 6 8.835200820664129 4.971667898377139 27.49666386689595 0 0 0
195 7 11.348087189175361 4.968556693379154 27.512671822085004 0 0 0
196 7 0.12309842254432703 7.13187103022708 27.501912360879544 0 0 0
200 7 10.111274854128542 7.1319815666916755 27.54430136896512 0 0 0
225 7 10.089103067029267 5.715044260265205 29.610739659749 0 0 0
229 7 8.83467163812252 7.85763642554069 29.530010600455807 0 0 0
230 7 11.355936169829814 7.905412525456196 29.530528780222706 0 0 0
201 5 1.365650080237059 9.300475558429957 27.51604771886687 0 0 0
202 7 3.859296907050049 9.296914907710912 27.37535815278036 0 0 0
206 4 0.1748057269381576 11.452265385951423 27.528220931844594 0 0 0
207 7 2.5983749969680896 11.43307625200976 27.43867143861717 0 0 0
231 7 0.15251053871229706 10.054358812609486 29.572971507621645 0 0 0
232 7 2.6199803754807185 10.002120958168115 29.42697338453665 0 0 0
236 7 1.4614961754683289 12.159394389130412 29.557322862015425 0 0 0
203 7 6.36259017469952 9.26128830043835 27.387758509541573 0 0 0
208 7 5.125567909374744 11.476475540785676 27.319300848818443 0 0 0
209 6 7.569711795795001 11.50020069427139 27.641318664038852 0 0 0
233 7 5.137192940064548 10.031892069525513 29.322126211369167 0 0 0
234 7 7.588739453923739 10.064699308936978 29.666191808703953 0 0 0
238 7 6.199404283328914 12.21312462897295 29.68072799813742 0 0 0
204 7 8.826574173117605 9.343713619273508 27.627690669862183 0 0 0
205 7 11.332394481401268 9.390799086831024 27.551042702769315 0 0 0
210 7 10.138935795129301 11.528914408000695 27.58934763558601 0 0 0
235 7 10.073103330152588 10.154597631870084 29.606995716273996 0 0 0
239 4 8.866588084315728 12.230341727669394 29.735973444040027 0 0 0
240 7 11.384577605544381 12.242363291064525 29.568085791168247 0 0 0
237 3 4.020122722692314 0.27005820825161936 30.549275904408145 0 1 0
241 7 0.1896891861894271 0.07808189732714016 31.641997482465932 0 0 0
242 7 2.5570784263227875 0.12561571243207686 31.739059642806534 0 0 0
246 4 1.331840420746102 2.22385314248614 31.67209568233224 0 0 0
247 7 3.867433342947007 2.137920719505223 31.641213630933855 0 0 0
276 7 0.1643196234487302 2.9760483201118744 33.74480784915676 0 0 0
243 7 5.155091503691609 12.888856554473913 32.09298159514383 0 -1 0
244 7 7.614275436338597 12.919835159017737 31.71398791522001 0 -1 0
248 7 6.3945890869892885 2.132574226673483 31.64805663941396 0 0 0
279 7 7.716612299413334 3.023969272883421 33.73345879788213 0 0 0
249 7 8.838713772598679 2.083610547485532 31.68588469368331 0 0 0
250 7 11.372136734371121 2.1185918967314303 31.66611782906934 0 0 0
255 1 10.092728357421747 4.2001595671246825 31.509863121301347 0 0 0
275 4 11.431381805199992 0.7778955306439087 33.72206264190112 0 0 0
251 7 0.13492794077195774 4.305483957215485 31.656307059702435 0 0 0
252 7 2.620702881610526 4.304314852037504 31.669461144902247 0 0 0
256 7 1.3164208259169767 6.484503600958672 31.63853353482426 0 0 0
257 6 3.7791760887873562 6.488031701367323 31.664227695946423 0 0 0
253 7 5.100584262286693 4.295756749818634 31.624739795903846 0 0 0
254 7 7.609518177023398 4.2946933223345285 31.595793563779473 0 0 0
258 7 6.339215497937868 6.478826060702488 31.623490045016233 0 0 0
264 7 7.577716176292993 8.560848625025843 31.622246890290352 0 0 0
283 7 6.369027134826713 5.084206308995517 33.671478490854774 0 0 0
289 7 7.620463749644726 7.169287564962958 33.7188010952633 0 0 0
259 4 8.808648890938562 6.442763609718132 31.633937509460946 0 0 0
260 7 11.301656260880618 6.470722205514309 31.599654127792817 0 0 0
284 5 8.874254986966694 5.098971643347534 33.589709225103576 0 0 0
290 7 10.070558580534167 7.241160919442283 33.6026796382253 0 0 0
261 7 0.16420834167883178 8.690864175234124 31.656199469370414 0 0 0
262 7 2.6495651176121235 8.704466928101327 31.52979251811967 0 0 0
266 7 1.5492323404408945 10.817307848158505 31.574098054220343 0 0 0
267 4 3.9044204571984857 11.259391457861959 30.848972424005872 0 0 0
292 7 3.944114941850975 9.348686322803184 33.5013191004562 0 0 0
326 7 0.49531593701793464 11.634682266875275 33.68680929268926 0 0 0
263 1 5.080380298182512 8.747161122716541 31.417839383469524 0 0 0
268 7 6.247004740657122 10.747089576086394 31.58151932083339 0 0 0
245 7 10.09957667227728 12.866727477619785 31.875177376594976 0 -1 0
265 6 10.089688843715805 8.664016785018358 31.550329393340586 0 0 0
269 7 8.761905363728433 10.783776388536001 31.754061456929993 0 0 0
270 7 11.416449551137635 10.886986226303721 31.621710336863792 0 0 0
294 7 8.755917385825983 9.27125827220074 33.69908961853176 0 0 0
296 3 11.06292986104483 11.812791686753336 33.33804140674307 -1 0 0
271 7 1.465887424160118 0.8843169696155962 33.78226828915185 0 0 0
272 7 3.9100410739004343 0.9470582431402619 33.91346412176939 0 0 0
277 7 2.629776426087163 3.0660017960552928 33.797473049495615 0 0 0
301 7 0.17853725309947524 1.5336976674398897 35.766228498609074 0 0 0
302 7 2.604140004688104 1.659387972351379 35.85882009996495 0 0 0
306 4 1.4000712690800956 3.822991406804706 35.96355681427664 0 0 0
307 7 3.98551461488646 3.7183484519730445 35.833776018343315 0 0 0
273 7 6.448543892981261 0.9560885867935046 33.90184459006072 0 0 0
278 1 5.206937038964277 2.9826512237241363 33.72145366123287 0 0 0
303 7 5.233363999787887 1.6544818670010755 35.93933596169777 0 0 0
304 4 7.747058152570924 1.6171795179655197 35.9228716911757 0 0 0
308 7 6.5178496188556565 3.6903142850250092 35.80166079326024 0 0 0
274 7 8.824151584312437 0.8798251804202193 33.843057893675365 0 0 0
280 7 10.191057238483136 2.9753083489469625 33.71443136643924 0 0 0
305 7 10.21124692072195 1.5434852888974935 35.73233038954016 0 0 0
309 7 9.006605664277922 3.6552035901990716 35.783966758354 0 0 0
310 4 11.574616157181884 3.9242830169211134 35.86986597787729 0 0 0
335 5 9.890519694372685 12.890456284495619 37.39697223476273 0 -1 0
281 7 1.3120046049201004 5.166497155333018 33.86137665904044 0 0 0
282 4 3.836436274909772 5.119960386789788 33.767450914766094 0 0 0
286 7 0.07927662693315903 7.2626920011960365 33.62773599597243 0 0 0
287 7 2.6192199848695257 7.270111389073452 33.747155867247535 0 0 0
312 7 2.720178950190448 5.775847858363668 35.784383249029005 0 0 0
316 7 1.201803067617163 7.586225862404752 35.788862735220455 0 0 0
317 7 3.922345111811315 8.048915044601522 35.736795696256316 0 0 0
288 7 5.172267425751006 7.2518915531892025 33.66833623647438 0 0 0
313 7 5.253950172630104 5.900757469000799 35.71650773577872 0 0 0
314 7 7.709707606297391 5.804987304239012 35.74930987088084 0 0 0
318 4 6.53984546016596 8.106940230130116 35.81083321403399 0 0 0
285 4 11.334362155409778 5.135869803942461 33.642186898954684 0 0 0
311 2 12.363331318558329 5.9811275496597265 35.32960785653629 -1 0 0
315 7 10.121732166100518 5.791669769176475 35.58665956280237 0 0 0
319 7 8.942268350741424 7.959847757887424 35.82745838752046 0 0 0
320 7 11.336805098769785 7.914408366214172 35.59928957217574 0 0 0
355 3 10.426647385624372 7.883985872521359 37.282484243933304 0 0 0
291 7 1.452347382078408 9.407161923478109 33.72927171395922 0 0 0
297 6 3.014983911277946 11.5556170265507 33.66390448263859 0 0 0
321 6 0.19801482570851392 10.049563820113228 35.91951937181101 0 0 0
322 7 2.6819582736771546 10.177783333980143 35.74874269508668 0 0 0
327 6 3.896783956682785 12.501587683557585 36.07960655516171 0 0 0
356 4 1.3798191542827496 12.341029226065778 35.85450083695623 0 0 0
293 4 6.439834186377422 9.299443491298788 33.644538383831424 0 0 0
298 2 5.189799447123316 12.268346867714907 34.19289488465221 0 0 0
299 7 6.984545882860802 11.560613577221522 33.68249188178609 0 0 0
323 6 5.222430471200689 10.226205376163046 35.558350975406306 0 0 0
324 7 7.897026329242426 10.342312723640752 35.71581637761821 0 0 0
328 7 6.443177887012314 12.503725252443212 35.91739063249455 0 0 0
295 6 11.258259028763412 9.679854710866856 33.76934988991162 0 0 0
300 7 9.369503242005733 11.528310240243151 34.17042002668975 0 0 0
325 7 10.240764474166939 9.827117424374695 37.035534657301255 0 0 0
329 3 9.513166771108663 11.38430818012144 36.207276651838924 0 0 0
330 4 11.244544053481015 12.056993453190382 35.58184180949978 0 0 0
332 7 2.482347472219668 0.0795381566419463 38.038862189838056 0 0 0
336 7 1.3238595269131357 2.1658629308190323 37.836913559835196 0 0 0
337 7 3.864799368906546 2.180046699121776 37.86484250251884 0 0 0
333 7 5.1895852760474055 0.13346378621278687 38.11219445336794 0 0 0
334 7 7.629855267222646 0.048797773976450416 38.004040474261394 0 0 0
338 7 6.511437869087203 2.242418863375441 37.903223962031845 0 0 0
339 7 8.974530046011791 2.174104616796239 37.857548617941816 0 0 0
340 7 11.354467486591954 2.1783773723488578 37.734131501928886 0 0 0
342 7 2.703341980615717 4.2776399519684025 37.92492941033076 0 0 0
346 7 1.505662356895185 6.391105420774646 37.99652712105045 0 0 0
347 6 3.955137450638976 6.4613702802174915 37.766315917837 0 0 0
343 7 5.2926172546206995 4.415156253976635 37.83599704053053 0 0 0
344 7 7.818884021157715 4.427114731557005 37.851259981337314 0 0 0
348 6 6.645173876524756 6.656936802357669 37.821792489153935 0 0 0
341 7 0.20188760607383027 4.2335213886242204 38.07747362584791 0 0 0
345 4 10.20809834299448 4.319941413282591 37.81779927613034 0 0 0
349 7 9.226431606720361 6.613329554800846 37.869508661112704 0 0 0
350 7 11.668263529766147 6.2563086888690504 37.307506528646606 0 0 0
352 6 2.4776714159844095 8.648203929239175 37.6893959706572 0 0 0
357 7 3.8298860920822935 10.79707528446051 37.893153521861684 0 0 0
360 7 1.3834720608235935 10.88477776790385 37.908139253581744 1 0 0
361 8 3.5283913900828874 10.531914567737552 41.50194067994527 0 0 0
362 8 4.150255602686902 10.956496744956764 41.56931589731255 0 0 0
353 7 5.110718111145348 8.686795765311679 37.84184531889501 0 0 0
354 7 7.942914031826854 8.94531859735058 37.821750521681196 0 0 0
358 6 6.396498075154782 10.833493311092944 37.78692383342505 0 0 0
331 7 12.380939305809623 12.866428678770339 37.635279656962375 -1 -1 0
351 7 12.233785098599576 8.54602260216379 37.84729623609287 -1 0 0
359 2 8.587123327896748 11.143172372616268 37.43478729961482 0 0 0

Velocities

1 0 0 0
2 0 0 0
6 0 0 0
7 0 0 0
31 0 0 0
32 0 0 0
36 0 0 0
37 0 0 0
3 0 0 0
8 0 0 0
9 0 0 0
33 0 0 0
34 0 0 0
38 0 0 0
4 0 0 0
5 0 0 0
10 0 0 0
35 0 0 0
39 0 0 0
40 0 0 0
11 0 0 0
12 0 0 0
16 0 0 0
17 0 0 0
41 0 0 0
42 0 0 0
46 0 0 0
47 0 0 0
13 0 0 0
18 0 0 0
19 0 0 0
43 0 0 0
44 0 0 0
48 0 0 0
14 0 0 0
15 0 0 0
20 0 0 0
45 0 0 0
49 0 0 0
50 0 0 0
21 0 0 0
22 0 0 0
26 0 0 0
27 0 0 0
51 0 0 0
52 0 0 0
56 0 0 0
57 0 0 0
23 0 0 0
28 0 0 0
29 0 0 0
53 0 0 0
54 0 0 0
58 0 0 0
24 0 0 0
25 0 0 0
30 0 0 0
55 0 0 0
59 0 0 0
60 0 0 0
61 0 0 0
62 0 0 0
66 0 0 0
67 0 0 0
91 0 0 0
92 0 0 0
96 0 0 0
97 0 0 0
63 0 0 0
64 0 0 0
68 0 0 0
93 0 0 0
98 0 0 0
99 0 0 0
65 0 0 0
69 0 0 0
70 0 0 0
94 0 0 0
95 0 0 0
100 0 0 0
71 0 0 0
72 0 0 0
76 0 0 0
77 0 0 0
101 0 0 0
102 0 0 0
106 0 0 0
107 0 0 0
73 0 0 0
74 0 0 0
78 0 0 0
103 0 0 0
108 0 0 0
109 0 0 0
75 0 0 0
79 0 0 0
80 0 0 0
104 0 0 0
105 0 0 0
110 0 0 0
81 0 0 0
82 0 0 0
86 0 0 0
87 0 0 0
111 0 0 0
112 0 0 0
116 0 0 0
117 0 0 0
83 0 0 0
84 0 0 0
88 0 0 0
113 0 0 0
118 0 0 0
119 0 0 0
85 0 0 0
89 0 0 0
90 0 0 0
114 0 0 0
115 0 0 0
120 0 0 0
121 0 0 0
122 0 0 0
126 0 0 0
127 0 0 0
152 0 0 0
156 0 0 0
157 0 0 0
162 0 0 0
123 0 0 0
124 0 0 0
128 0 0 0
153 0 0 0
154 0 0 0
158 0 0 0
163 0 0 0
164 0 0 0
125 0 0 0
129 0 0 0
130 0 0 0
155 0 0 0
159 0 0 0
160 0 0 0
165 0 0 0
131 0 0 0
132 0 0 0
136 0 0 0
137 0 0 0
161 0 0 0
166 0 0 0
167 0 0 0
133 0 0 0
134 0 0 0
138 0 0 0
168 0 0 0
173 0 0 0
135 0 0 0
139 0 0 0
140 0 0 0
169 0 0 0
170 0 0 0
175 0 0 0
141 0 0 0
142 0 0 0
146 0 0 0
147 0 0 0
151 0 0 0
171 0 0 0
172 0 0 0
176 0 0 0
177 0 0 0
143 0 0 0
144 0 0 0
148 0 0 0
178 0 0 0
145 0 0 0
149 0 0 0
150 0 0 0
174 0 0 0
179 0 0 0
180 0 0 0
181 0 0 0
182 0 0 0
186 0 0 0
187 0 0 0
211 0 0 0
212 0 0 0
216 0 0 0
217 0 0 0
183 0 0 0
188 0 0 0
189 0 0 0
213 0 0 0
214 0 0 0
218 0 0 0
184 0 0 0
185 0 0 0
190 0 0 0
215 0 0 0
219 0 0 0
220 0 0 0
191 0 0 0
192 0 0 0
197 0 0 0
221 0 0 0
222 0 0 0
226 0 0 0
227 0 0 0
193 0 0 0
198 0 0 0
199 0 0 0
223 0 0 0
224 0 0 0
228 0 0 0
194 0 0 0
195 0 0 0
196 0 0 0
200 0 0 0
225 0 0 0
229 0 0 0
230 0 0 0
201 0 0 0
202 0 0 0
206 0 0 0
207 0 0 0
231 0 0 0
232 0 0 0
236 0 0 0
203 0 0 0
208 0 0 0
209 0 0 0
233 0 0 0
234 0 0 0
238 0 0 0
204 0 0 0
205 0 0 0
210 0 0 0
235 0 0 0
239 0 0 0
240 0 0 0
237 0 0 0
241 0 0 0
242 0 0 0
246 0 0 0
247 0 0 0
276 0 0 0
243 0 0 0
244 0 0 0
248 0 0 0
279 0 0 0
249 0 0 0
250 0 0 0
255 0 0 0
275 0 0 0
251 0 0 0
252 0 0 0
256 0 0 0
257 0 0 0
253 0 0 0
254 0 0 0
258 0 0 0
264 0 0 0
283 0 0 0
289 0 0 0
259 0 0 0
260 0 0 0
284 0 0 0
290 0 0 0
261 0 0 0
262 0 0 0
266 0 0 0
267 0 0 0
292 0 0 0
326 0 0 0
263 0 0 0
268 0 0 0
245 0 0 0
265 0 0 0
269 0 0 0
270 0 0 0
294 0 0 0
296 0 0 0
271 0 0 0
272 0 0 0
277 0 0 0
301 0 0 0
302 0 0 0
306 0 0 0
307 0 0 0
273 0 0 0
278 0 0 0
303 0 0 0
304 0 0 0
308 0 0 0
274 0 0 0
280 0 0 0
305 0 0 0
309 0 0 0
310 0 0 0
335 0 0 0
281 0 0 0
282 0 0 0
286 0 0 0
287 0 0 0
312 0 0 0
316 0 0 0
317 0 0 0
288 0 0 0
313 0 0 0
314 0 0 0
318 0 0 0
285 0 0 0
311 0 0 0
315 0 0 0
319 0 0 0
320 0 0 0
355 0 0 0
291 0 0 0
297 0 0 0
321 0 0 0
322 0 0 0
327 0 0 0
356 0 0 0
293 0 0 0
298 0 0 0
299 0 0 0
323 0 0 0
324 0 0 0
328 0 0 0
295 0 0 0
300 0 0 0
325 0 0 0
329 0 0 0
330 0 0 0
332 0 0 0
336 0 0 0
337 0 0 0
333 0 0 0
334 0 0 0
338 0 0 0
339 0 0 0
340 0 0 0
342 0 0 0
346 0 0 0
347 0 0 0
343 0 0 0
344 0 0 0
348 0 0 0
341 0 0 0
345 0 0 0
349 0 0 0
350 0 0 0
352 0 0 0
357 0 0 0
360 0 0 0
361 0 0 0
362 0 0 0
353 0 0 0
354 0 0 0
358 0 0 0
331 0 0 0
351 0 0 0
359 0 0 0
