LAMMPS data file via write_data, version 11 Feb 2026, timestep = 415, units = metal

362 atoms
8 atom types

0 12.447907776 xlo xhi
0 12.9362452296 ylo yhi
0 52.3600831054 zlo zhi

Masses

1 26.9815
2 10.811
3 12.011
4 51.9961
5 55.845
6 95.95999999999999
7 58.6934
8 1.008

Atoms # atomic/kk

1 7 1.1478353490829218 1.3972463814736817 14.172846774100417 0 0 0
2 7 3.611549938404312 1.0628771711761815 14.666505688641541 0 0 0
6 7 12.37491753682038 3.4489362754623825 14.818905672377438 -1 0 0
7 7 2.4307383519972654 3.2675568658888254 14.988296772740215 0 0 0
31 6 0.1351794599538176 1.5596727069972143 16.541795897420315 0 0 0
32 7 2.60790316720812 1.6781015387143532 16.91178134247832 0 0 0
36 7 1.22262464503414 3.8490553278741837 17.02605367543281 0 0 0
37 7 3.713449676119432 3.8301211106822755 17.053426676414293 0 0 0
3 5 6.079630592035406 0.93974209286166 14.908924061207582 0 0 0
8 7 4.931806237455138 3.1200936959396985 15.00719328547704 0 0 0
9 7 7.393507937945349 3.1482040750969564 14.917519814177883 0 0 0
33 7 4.988577685957293 1.6577827329011068 16.9513856361882 0 0 0
34 7 7.413201516062539 1.7619381197258914 16.976378152704292 0 0 0
38 5 6.1817837711321895 3.852844700596642 16.985503903073806 0 0 0
4 6 8.643666691984507 0.9895581460618735 14.997193501628418 0 0 0
5 7 11.052830673888396 1.2459308050141482 14.598602500014255 0 0 0
10 7 9.91614197634181 3.3833393714950395 14.777433811044268 0 0 0
35 7 9.988533203534807 1.6553180758728077 16.940264859783788 0 0 0
39 7 8.733764573109225 3.8556631155886514 16.858571075213664 0 0 0
40 7 11.19361818274863 3.7997716080197086 16.99682162160446 0 0 0
11 7 1.2379707695300988 5.487971694346817 15.07684616418616 0 0 0
12 7 3.726416505313758 5.309174710577973 15.087758327449617 0 0 0
16 4 0.47250432621683364 7.8054622039810955 14.795756295326054 0 0 0
17 7 2.6559487943985056 7.488123124516803 15.150008203686385 0 0 0
41 7 12.445260304977737 5.991236454720332 17.222855257093496 -1 0 0
42 7 2.4569322489956087 6.120487250924338 17.137717600989088 0 0 0
46 7 0.7977542692839441 9.360179255495883 16.870967946442715 0 0 0
47 7 3.8897357103110455 8.190715963794078 17.05968991884188 0 0 0
13 7 6.181832334605219 5.298394167002106 15.030735379489919 0 0 0
18 7 5.0828867328492064 7.471724509504784 15.064948674196053 0 0 0
19 2 7.062875356554238 7.011852039610089 15.38585089106324 0 0 0
43 7 4.955776639546681 5.955792822455925 17.09111965838907 0 0 0
44 7 7.4801632938246145 5.933476002653385 17.084329364370912 0 0 0
48 7 6.349863080546891 8.047912420332477 17.045986466852444 0 0 0
14 7 8.707270437700283 5.6515186585729955 14.961973199314691 0 0 0
15 6 11.183687693813939 5.597413670326149 15.181122421242225 0 0 0
20 7 10.448556318156522 7.662634458230413 14.180884075137827 0 0 0
45 7 9.926543423915945 6.0315060935755955 17.249378110850248 0 0 0
49 7 8.7197098349974 7.914879410654766 16.065833565567136 0 0 0
50 7 11.18852350974339 7.983915700722046 16.449906438544325 0 0 0
21 2 1.1685467146608768 10.471317966378418 15.209057449820245 0 0 0
22 7 2.97299341026686 9.858006277527469 15.641405622964152 0 0 0
26 7 0.13123027103748877 12.197434938821178 14.906607002136978 0 0 0
27 7 2.48547844460534 11.801223808977445 14.460097281597225 0 0 0
51 3 11.522791735393731 9.363236605316567 17.65838100971541 -1 0 0
52 7 1.3534765142230247 11.857574514943368 16.985171152184755 0 0 0
56 2 1.9170599352425661 0.3136839561053058 15.605474711273006 0 1 0
57 7 3.756978257761705 12.429661369805897 16.605930504851447 0 0 0
23 7 6.924698366552723 8.99852273692197 14.775465426682585 0 0 0
28 7 4.962795843293102 11.779969268802894 14.603527293772341 0 0 0
29 6 7.490551085694128 11.485401496787157 14.917497067694566 0 0 0
53 7 5.339032042976592 10.114918555801815 16.323506598610546 0 0 0
54 7 7.736719809624461 10.04672430274461 16.94308815213159 0 0 0
58 6 6.322646915767268 12.359645580615227 16.95115072285941 0 0 0
24 7 9.214364683467679 9.731233352775144 14.538321410145615 0 0 0
25 7 11.765958049957352 9.867500700001267 14.787020785315285 0 0 0
30 7 10.064827090402687 11.938101805287387 14.757960268277662 0 0 0
55 7 10.188364601700705 10.268928601832492 16.677657046751975 0 0 0
59 7 8.839797286072802 12.373952579537315 16.958250303408438 0 0 0
60 7 11.245986182197852 12.460011813068407 16.878954070022637 0 0 0
61 6 0.050851140222910325 12.927993838697889 18.990887192560937 0 -1 0
62 7 2.5906050627578563 12.847260153389948 19.0344231397978 0 -1 0
66 6 1.3961081932164647 2.158891591422527 19.049554323388705 0 0 0
67 5 3.8341786642537667 2.1626685731433577 19.073706924055035 0 0 0
91 4 1.364133301203392 0.7419292750476334 21.296139948272735 0 0 0
92 7 3.756399924274775 0.7171930038167951 21.051513300723396 0 0 0
96 7 0.08519124391043736 2.78998221015709 21.18349389980131 0 0 0
97 7 2.595858530451769 2.8427173449412875 21.19539266160871 0 0 0
63 5 4.959891396858283 0.04590627998460044 18.957994277288194 0 0 0
64 7 7.444766452665087 0.07511941464107852 19.097441660593187 0 0 0
68 7 6.1980399777659 2.1518153321386793 19.076363069687318 0 0 0
93 7 6.262975026615722 0.7123572950660648 21.169821946538185 0 0 0
98 7 5.0288297197066205 2.866624443589271 21.14991910731286 0 0 0
99 5 7.482389679018976 2.8080490793885837 21.165425754802712 0 0 0
65 7 10.004915469411479 0.07320560496556325 19.09209123124045 0 0 0
69 7 8.741643836963204 2.14698386782309 18.99155585942628 0 0 0
70 7 11.29014669469101 2.2312059035575196 18.950280265899558 0 0 0
94 7 8.71719813129943 0.7065165126138332 21.232041331004464 0 0 0
95 7 11.307644861435653 0.6634517333757572 21.195465894908004 0 0 0
100 6 10.034013906291886 2.7776191822029386 21.051156443075744 0 0 0
71 1 12.386709111282574 4.371196882426413 19.18234082726468 -1 0 0
72 7 2.486955549921944 4.381919070540035 19.103249101324288 0 0 0
76 7 1.2032489449084256 6.427652699445457 19.25613294433294 0 0 0
77 7 3.7870645466853086 6.500242345303242 19.161420587269596 0 0 0
101 7 1.2074891707538464 4.979339136478047 21.25550268635822 0 0 0
102 6 3.7329125068361373 5.03540124517199 21.22606601513848 0 0 0
106 7 12.438410823122139 7.0898837716740974 21.311893002958367 -1 0 0
107 7 2.4716475443960366 7.165751740665672 21.228785120268295 0 0 0
73 7 4.979065846788052 4.309347780952625 19.083451853569507 0 0 0
74 6 7.504887658021477 4.278366459614265 19.050954334519293 0 0 0
78 7 6.199630800398813 6.5120461366259486 19.136197444505317 0 0 0
103 7 6.278238700097452 5.040033419927793 21.17234846267697 0 0 0
108 7 5.014797757832536 7.221532814563527 21.223191078548762 0 0 0
109 7 7.422405515496735 7.241526036707271 21.261324051087126 0 0 0
75 5 9.911803389970762 4.298442921148313 19.02973953545384 0 0 0
79 7 8.628706345787494 6.465046878953855 19.31946269598545 0 0 0
80 7 11.116658507634249 6.413602423291194 19.35426335774612 0 0 0
104 7 8.743800052046373 5.016178057069551 21.23996521936967 0 0 0
105 3 10.087393163726258 4.365073649226819 22.28471916482127 0 0 0
110 7 9.893489457774258 7.158952529966386 21.298363509273685 0 0 0
81 4 12.345801154679709 8.465913181626128 19.19662342152679 -1 0 0
82 6 2.361975123501982 8.481997614960036 18.91157626052249 0 0 0
86 7 1.2847900085013597 10.683274455594285 19.157480136538286 0 0 0
87 1 3.6681445335119074 10.708573713397373 18.261842938243827 0 0 0
111 7 1.1827701000195079 9.28259384698353 21.192062832234402 0 0 0
112 6 3.704727828106572 9.348659954786578 21.139340791493012 0 0 0
116 1 0.04007849860110499 11.47965334491085 21.293669625361215 0 0 0
117 7 2.473535278303878 11.52131191255622 21.141342015891162 0 0 0
83 7 4.9493305039956645 8.725927944482399 19.07962378407836 0 0 0
84 7 7.400563693784801 8.63267630604046 19.08184242756518 0 0 0
88 7 6.165600758164829 10.79422540607514 18.926167408926265 0 0 0
113 7 6.217076259022219 9.402134268248801 21.031426217662744 0 0 0
118 7 4.9670955630112035 11.533627236890199 21.038714016661554 0 0 0
119 4 7.402640599161452 11.529129917954794 21.070792510111175 0 0 0
85 6 9.790554801121726 8.466348817893135 18.53679724872392 0 0 0
89 6 8.734442619688004 10.843023322450694 19.03450450615563 0 0 0
90 4 11.275335604760288 10.813950778524116 18.934570476173114 0 0 0
114 7 8.702817007385974 9.308959652256014 20.98896086034732 0 0 0
115 6 11.112104336347361 9.244913229952482 21.171520722970715 0 0 0
120 7 9.988983764174478 11.509412409519129 21.178119086077288 0 0 0
121 7 0.08058297010932707 1.3664503039579228 23.309633467832327 0 0 0
122 7 2.5719368888382133 1.3782042584554621 23.32942508920385 0 0 0
126 6 1.3515562686996887 3.561105189056782 23.265532083877364 0 0 0
127 7 3.8470633030274173 3.5647427634781064 23.361631046458502 0 0 0
152 7 2.649955070175181 12.914899795073783 25.37384737023507 0 -1 0
156 1 1.4762057708265393 2.1046273330407783 25.514886210296922 0 0 0
157 7 3.962442372031283 2.11105225159447 25.44403015040136 0 0 0
162 7 2.595019140016499 4.236884564528004 25.427914289037552 0 0 0
123 7 4.988845430344784 1.4033156334990877 23.16229618032273 0 0 0
124 7 7.390296991290816 1.474603226217468 23.48574960805511 0 0 0
128 7 6.299901071145613 3.638540498874192 23.183348247283316 0 0 0
153 7 5.193124308528828 0.045491857228757364 25.293019649093456 0 0 0
154 7 7.595814240233744 12.913769720704476 25.474736253217976 0 -1 0
158 2 5.771858630392983 2.4318972936458465 24.628559050673683 0 0 0
163 7 5.1142868861540345 4.218147079282038 25.421291222388934 0 0 0
164 5 7.473544694021573 4.036061379681367 25.359841078381997 0 0 0
125 7 10.039589272211991 1.400895174368553 23.354403734753284 0 0 0
129 7 8.747604157073665 3.5195721337897368 23.34730504606734 0 0 0
130 4 11.363266840122089 3.589711431070866 23.4021954896099 0 0 0
155 4 10.115511642162446 0.03497760798630114 25.557740443301096 0 0 0
159 7 8.865459574138459 2.0718841882909835 25.44702676464729 0 0 0
160 7 11.397051933956641 2.1272972354833155 25.420681577166086 0 0 0
165 7 10.061558942665966 4.189915078060448 25.41205089908272 0 0 0
131 7 0.06682596792718361 5.7436965305785215 23.40369775977666 0 0 0
132 7 2.5383947655004993 5.771716235829797 23.360248959488224 0 0 0
136 7 1.2986226875236844 7.8852333318593635 23.30469899589823 0 0 0
137 7 3.7722611370070376 7.9528693174799185 23.278144135875273 0 0 0
161 4 0.10495405089278992 4.31226965721119 25.46884837231426 0 0 0
166 7 1.3331595331960104 6.386301819078745 25.430454446152115 0 0 0
167 7 3.8033833373447106 6.410044612232568 25.44302746537096 0 0 0
133 6 5.060732011943392 5.831009418972971 23.387563483279305 0 0 0
134 7 7.55503277348397 5.750158300471589 23.314975338946994 0 0 0
138 7 6.305779411327223 7.968348172577023 23.34123115602568 0 0 0
168 7 6.360780944605154 6.367163777951559 25.43341985647318 0 0 0
173 7 5.099634893088959 8.525298559968627 25.332380857952447 0 0 0
135 7 10.059909389008729 5.796602507242087 23.38825229176749 0 0 0
139 4 8.68946937056413 7.91347865739512 23.244539511658733 0 0 0
140 4 11.277410802225937 7.861115381467258 23.31811947830454 0 0 0
169 7 8.771243096952015 6.302208910853867 25.384045034733663 0 0 0
170 7 11.284715599949985 6.3789045662937145 25.449097413111705 0 0 0
175 6 9.880389625548343 8.538039910417929 25.52457038453318 0 0 0
141 7 0.015103612090957834 10.038443063614366 23.34390958976628 0 0 0
142 7 2.491076757112817 10.076915165597958 23.254741994727105 0 0 0
146 7 1.2974156582778111 12.20591427990743 23.350594011053396 0 0 0
147 7 3.80150924712011 12.215093603272093 23.180227409566665 0 0 0
151 4 0.08756989244413159 12.845632104940318 25.415501788598636 0 -1 0
171 6 0.1046336274508151 8.585007112774196 25.430271535467444 0 0 0
172 7 2.617723086372767 8.57993095509672 25.375896001451462 0 0 0
176 7 1.3372114292283874 10.76971847228858 25.43200290644229 0 0 0
177 6 3.874400247522663 10.78731435252689 25.273867510555288 0 0 0
143 7 5.0498343140591375 10.076230163818428 23.181391161508625 0 0 0
144 7 7.500311841748156 10.060305645080678 22.920083178063337 0 0 0
148 4 6.207522072117256 12.241422397722554 23.185658629162077 0 0 0
178 6 6.611997901231054 10.513605934151506 25.220726550445313 0 0 0
145 7 9.9906144068241 10.045089520335884 23.3160877725859 0 0 0
149 6 8.702895969221002 12.243514470337178 23.330026046761958 0 0 0
150 7 11.241978310491396 12.188660267424956 23.405932246535457 0 0 0
174 3 8.40843307013163 9.479853168997364 24.424168958979628 0 0 0
179 5 8.993103255206503 10.89340182209676 25.583433905343835 0 0 0
180 5 11.330944351172516 10.83755918347903 25.50746377041624 0 0 0
181 7 1.3868446753442256 0.6361022175881768 27.497191271570845 0 0 0
182 7 3.8732970986934445 0.6737803492124532 27.437207049962158 0 0 0
186 7 0.1683264284809524 2.828738757926355 27.494995977362127 0 0 0
187 7 2.65729100193151 2.823781575806135 27.568932042535916 0 0 0
211 7 0.20765891854984153 1.4159634468493345 29.592031437248274 0 0 0
212 7 2.7095009397872762 1.3318170649024001 29.583288423958283 0 0 0
216 7 1.4084067123804807 3.5259386902720498 29.591844580936936 0 0 0
217 4 3.8219539662677517 3.544035952027471 29.60284897967009 0 0 0
183 7 6.3063748247517815 0.6864417194345251 27.573223932583822 0 0 0
188 7 5.080084123655933 2.845105419432208 27.579022652328323 0 0 0
189 7 7.592007330197781 2.7643710415134826 27.46512173780467 0 0 0
213 5 5.132764605377943 1.3988208398638944 29.60420475620207 0 0 0
214 7 7.610335536944314 1.3261714671799623 29.59543695370807 0 0 0
218 7 6.361717343009908 3.5083748557527024 29.547273808110305 0 0 0
184 7 8.88275627536258 0.6900861005504775 27.569839065896623 0 0 0
185 4 11.380971462715168 0.6930401775630851 27.542846345475567 0 0 0
190 7 10.142127066270808 2.802659852303896 27.493137574139215 0 0 0
215 7 10.122360502666645 1.3745196894245508 29.635408998375834 0 0 0
219 7 8.836517514571039 3.4830358343028793 29.533750424070593 0 0 0
220 7 11.36676658067002 3.5301923150287338 29.525594695558002 0 0 0
191 7 1.388063725988155 4.977475200667058 27.47518820451551 0 0 0
192 7 3.8304662598812595 4.961095793169217 27.485054751824418 0 0 0
197 7 2.57571837180783 7.164164505195976 27.47782825129934 0 0 0
221 7 0.11748933118198944 5.697933548169855 29.575869111710865 0 0 0
222 7 2.5881783869689516 5.699364383219483 29.554483086743822 0 0 0
226 7 1.3609203250095856 7.87426778202485 29.555912241918822 0 0 0
227 7 3.857738027612309 7.884840805345008 29.470484807230207 0 0 0
193 7 6.36680716886048 4.9466408050805 27.416353656818416 0 0 0
198 7 5.099163006837276 7.144697451254024 27.41353660726885 0 0 0
199 7 7.618399928901074 7.1594688774559305 27.451263818844843 0 0 0
223 6 5.150177175120725 5.692112653286241 29.492648584730034 0 0 0
224 7 7.6418541841657825 5.709446627177363 29.58499262151582 0 0 0
228 7 6.390992685744733 7.884219232946866 29.494041618699516 0 0 0
194 6 8.845001257745396 4.967768730972893 27.49647569513191 0 0 0
195 7 11.357829913615413 4.965042304113032 27.51192532555659 0 0 0
196 7 0.13309222485293046 7.128451497161801 27.502157154629447 0 0 0
200 7 10.120893839888849 7.128415080517519 27.544292119936674 0 0 0
225 7 10.099056079444765 5.711629396425284 29.610248957279317 0 0 0
229 7 8.84378295031442 7.85398926023609 29.53001651042269 0 0 0
230 7 11.365884906659355 7.902106753673143 29.530388432215517 0 0 0
201 5 1.3757512852300304 9.296465424109487 27.517302027233686 0 0 0
202 7 3.8689516276876565 9.292271872201745 27.376763525751052 0 0 0
206 4 0.18451772736609695 11.448263111735457 27.528425645893773 0 0 0
207 7 2.608215741955559 11.428558172174574 27.439953722487225 0 0 0
231 7 0.16243771485980363 10.050335061107532 29.5734887012606 0 0 0
232 7 2.6305015150132975 9.997506145499512 29.428954523170052 0 0 0
236 7 1.471152469228086 12.154438990620566 29.557509172954383 0 0 0
203 7 6.371844720619843 9.256812624114197 27.3892094373728 0 0 0
208 7 5.134870712700754 11.471863373024963 27.321169169078075 0 0 0
209 6 7.5790287041591995 11.496234477507727 27.6415296992221 0 0 0
233 7 5.1464529932879 10.026674870015192 29.324101016524615 0 0 0
234 7 7.597714649424554 10.059869848851768 29.66595366969408 0 0 0
238 7 6.208512415658485 12.208666966713233 29.682172101942047 0 0 0
204 7 8.835826603754823 9.339714028636166 27.6271082091878 0 0 0
205 7 11.342262935753025 9.387167961241904 27.551142594204588 0 0 0
210 7 10.14821172088238 11.524959099942034 27.588500728847972 0 0 0
235 7 10.082373701115056 10.150761462982992 29.606173480874553 0 0 0
239 4 8.875525586169127 12.226212267748389 29.734934219042618 0 0 0
240 7 11.39374043084644 12.238306707038596 29.56667228924755 0 0 0
237 3 4.032225250579427 0.2678727355662483 30.556260795986322 0 1 0
241 7 0.19962536524429042 0.07513672058940714 31.636744753378295 0 0 0
242 7 2.567664160693119 0.1176796698765364 31.742405334591506 0 0 0
246 4 1.3420401682816916 2.219589821777035 31.666376802764297 0 0 0
247 7 3.8775179549857333 2.1297133010435028 31.646431054866103 0 0 0
276 7 0.17593223609736622 2.9750355226638474 33.73824151095135 0 0 0
243 7 5.164160559531854 12.881652195391986 32.10193431593259 0 -1 0
244 7 7.62323144271119 12.915640746783954 31.71496644292578 0 -1 0
248 7 6.404689458410347 2.1275739445964046 31.649822610492137 0 0 0
279 7 7.727360160040431 3.0209939670639376 33.734118788607844 0 0 0
249 7 8.848811270120507 2.0797629910353352 31.68569568035451 0 0 0
250 7 11.381799587635076 2.1156356939818193 31.66288112299665 0 0 0
255 1 10.102757896428848 4.196748529098086 31.508959917388278 0 0 0
275 4 11.441389693331303 0.7787300147418087 33.71541177532398 0 0 0
251 7 0.14484077141644836 4.302507358086959 31.652965840345033 0 0 0
252 7 2.6302034555020146 4.298133115232854 31.67149752669299 0 0 0
256 7 1.326678743692242 6.480238633232287 31.63923446032024 0 0 0
257 6 3.789194879244195 6.481398985375054 31.663973316876458 0 0 0
253 7 5.110000309056512 4.288923683258664 31.626150615812705 0 0 0
254 7 7.619496457095436 4.290270426336582 31.59601547189183 0 0 0
258 7 6.348939597404798 6.47302886506418 31.623828549470257 0 0 0
264 7 7.586069390247058 8.55651913627749 31.62379487922228 0 0 0
283 7 6.378163505861969 5.079538484714681 33.67153345544299 0 0 0
289 7 7.629931804106386 7.164707551798116 33.716996581521855 0 0 0
259 4 8.818955383961466 6.4391201378933225 31.63327443305565 0 0 0
260 7 11.31224297933362 6.468092884654392 31.59884327698635 0 0 0
284 5 8.885390372265784 5.095823496441564 33.58853952007995 0 0 0
290 7 10.081693643081604 7.2379208953701175 33.60217653424166 0 0 0
261 7 0.17488979912885935 8.688152451570211 31.65790667918373 0 0 0
262 7 2.6611064403283207 8.699320278415644 31.53375892683993 0 0 0
266 7 1.561480313050209 10.811539631597924 31.57456728888893 0 0 0
267 4 3.91559679903428 11.254985791735823 30.851568313220394 0 0 0
292 7 3.9561436564875767 9.350074255008902 33.50604876807003 0 0 0
326 7 0.5023517883544837 11.632036207773327 33.67721207416455 0 0 0
263 1 5.090302286518046 8.741211359090428 31.421548305574362 0 0 0
268 7 6.255885412834385 10.741656702768726 31.581802809459774 0 0 0
245 7 10.10791902996844 12.862916876530674 31.87338735648193 0 -1 0
265 6 10.09892415860569 8.660636917979032 31.549466568165755 0 0 0
269 7 8.769929435196145 10.779148460644906 31.75225940025836 0 0 0
270 7 11.424961018028645 10.883198449723118 31.620701571638094 0 0 0
294 7 8.764456528403482 9.266164349483596 33.69773927156148 0 0 0
296 3 11.068660217481673 11.811485828562079 33.334833523019824 -1 0 0
271 7 1.4755665676569525 0.8828116810408794 33.776035720232855 0 0 0
272 7 3.920404748825165 0.935494112512313 33.92804695235347 0 0 0
277 7 2.642425283508771 3.060107907832074 33.80056216223515 0 0 0
301 7 0.19241175116038328 1.534929712752057 35.75689301253809 0 0 0
302 7 2.6181564032783866 1.649500207431173 35.8626679344822 0 0 0
306 4 1.4155397950900548 3.813020394531214 35.96592824750449 0 0 0
307 7 3.9976183149740754 3.7133733116934176 35.837362440779366 0 0 0
273 7 6.460410866459984 0.9526639136265848 33.90453998936073 0 0 0
278 1 5.215808735857626 2.9763744849250875 33.723960611501056 0 0 0
303 7 5.247300915332292 1.6488928293544243 35.94503558633834 0 0 0
304 4 7.760670069276023 1.6169297709734045 35.92443466991851 0 0 0
308 7 6.5294322468238315 3.687749740226898 35.80188181684763 0 0 0
274 7 8.836206057428669 0.8777749194051292 33.8437134890245 0 0 0
280 7 10.20231133690202 2.9727943193331434 33.713714557040475 0 0 0
305 7 10.224467328150375 1.5377096422668508 35.732114983142274 0 0 0
309 7 9.021611865085696 3.651369859148533 35.78428162321223 0 0 0
310 4 11.590324113590103 3.9216903703260586 35.868737464405996 0 0 0
335 5 9.91276533398657 12.882129559760179 37.405152809585935 0 -1 0
281 7 1.3220395039283415 5.161700902127226 33.86311468015804 0 0 0
282 4 3.8465584489574387 5.115281858663102 33.7689659631861 0 0 0
286 7 0.09108291433860959 7.259930407036653 33.62797269692139 0 0 0
287 7 2.63001461643058 7.266273776127364 33.746283909333556 0 0 0
312 7 2.727829916517993 5.768915138060553 35.785100854472766 0 0 0
316 7 1.2140672985112304 7.5859268706134095 35.788874219337494 0 0 0
317 7 3.928117586767523 8.040555140495226 35.73519568811157 0 0 0
288 7 5.181211637773023 7.248573484194896 33.66760873096205 0 0 0
313 7 5.264484076738202 5.896750413167841 35.71682250755738 0 0 0
314 7 7.7225239957334475 5.799737261942515 35.747079420097286 0 0 0
318 4 6.553264591637827 8.100543264826655 35.80802470640413 0 0 0
285 4 11.345480060025718 5.133543246652173 33.63971532572693 0 0 0
311 2 12.373855636347695 5.979814290920441 35.3271385029704 -1 0 0
315 7 10.135069240911502 5.787863860144717 35.58522510546752 0 0 0
319 7 8.955531494867524 7.95515603055504 35.825591952645624 0 0 0
320 7 11.349421096269294 7.912819181763701 35.59886706524057 0 0 0
355 3 10.437217132366877 7.882415823342922 37.28118883696801 0 0 0
291 7 1.4640238495867761 9.405329395730721 33.736188957841364 0 0 0
297 6 3.022508510246215 11.553182264472028 33.673382829272825 0 0 0
321 6 0.20789927358665575 10.052944149287448 35.9198622749139 0 0 0
322 7 2.6973342892900516 10.175350031075695 35.764560068130294 0 0 0
327 6 3.922152527695036 12.486525535972076 36.10827038093557 0 0 0
356 4 1.405867844729207 12.336201144596279 35.83555731408865 0 0 0
293 4 6.44676007452221 9.29822244355101 33.65080856183787 0 0 0
298 2 5.199718767712491 12.264423970646916 34.20642564956072 0 0 0
299 7 6.989732238932646 11.556766791745682 33.68136393670382 0 0 0
323 6 5.229159204115443 10.217598268057317 35.578644370217766 0 0 0
324 7 7.909123456800494 10.337491725639554 35.71535407711281 0 0 0
328 7 6.465527445320589 12.4999460313565 35.916595235982726 0 0 0
295 6 11.267144029008358 9.676782802775131 33.769091417443455 0 0 0
300 7 9.373070688488758 11.523695227041793 34.164510077679374 0 0 0
325 7 10.25254102422096 9.826675780498642 37.03609915837642 0 0 0
329 3 9.527228450168433 11.381939369302094 36.20248177066192 0 0 0
330 4 11.249459091169527 12.051674672720216 35.56597514924345 0 0 0
332 7 2.4842601901507138 0.08072253631167917 38.032579879780535 0 0 0
336 7 1.3313427911260365 2.1642593624147577 37.837313473334206 0 0 0
337 7 3.8754718712959284 2.177842174998412 37.869740188685434 0 0 0
333 7 5.217625259219655 0.1480960540699456 38.12055606999649 0 0 0
334 7 7.650909463301903 0.05065746372412088 38.00267847975515 0 0 0
338 7 6.5305214397525395 2.2471044263649573 37.90513656525023 0 0 0
339 7 8.989905203849709 2.169537909396411 37.86062072960773 0 0 0
340 7 11.367355801906626 2.171568479787779 37.73316311098524 0 0 0
342 7 2.7125771581138136 4.272262035919825 37.9297246528267 0 0 0
346 7 1.5172681123971972 6.388171717113873 37.99883369349189 0 0 0
347 6 3.9636285511494935 6.455208836712032 37.766389664667884 0 0 0
343 7 5.304549350616075 4.41294086196452 37.83841077628467 0 0 0
344 7 7.833551383631365 4.422896700167066 37.85050153568653 0 0 0
348 6 6.659791881129174 6.649842638944465 37.81961116176867 0 0 0
341 7 0.21141552822039156 4.230105186770708 38.08014165074947 0 0 0
345 4 10.222873504483866 4.315653542880931 37.81765842376635 0 0 0
349 7 9.24021875954309 6.609390203510432 37.86852751531125 0 0 0
350 7 11.681371680073969 6.252533277495271 37.30515536853494 0 0 0
352 6 2.4900350570070175 8.64372004905029 37.69129084642792 0 0 0
357 7 3.842754627600531 10.790356280598141 37.956953963230774 0 0 0
360 7 1.384392385067844 10.889669998129849 37.903681229172605 1 0 0
361 8 0.4025049965126096 0.4328038720020503 41.52947716161248 0 1 0
362 8 12.173948999928676 0.13390964761186552 41.35018988331766 -1 1 0
353 7 5.12592714296629 8.677670929013063 37.82898399315007 0 0 0
354 7 7.954421152445294 8.937548449456028 37.8183523649179 0 0 0
358 6 6.416007823772656 10.836693523558422 37.7906573174465 0 0 0
331 7 12.39514299189081 12.860238836822688 37.59863485026856 -1 -1 0
351 7 12.243496792021553 8.543683908244665 37.845925628432575 -1 0 0
359 2 8.600679302281051 11.14627745657454 37.42871992026972 0 0 0

Velocities

1 0 0 0
2 0 0 0
6 0 0 0
7 0 0 0
31 0 0 0
32 0 0 0
36 0 0 0
37 0 0 0
3 0 0 0
8 0 0 0
9 0 0 0
33 0 0 0
34 0 0 0
38 0 0 0
4 0 0 0
5 0 0 0
10 0 0 0
35 0 0 0
39 0 0 0
40 0 0 0
11 0 0 0
12 0 0 0
16 0 0 0
17 0 0 0
41 0 0 0
42 0 0 0
46 0 0 0
47 0 0 0
13 0 0 0
18 0 0 0
19 0 0 0
43 0 0 0
44 0 0 0
48 0 0 0
14 0 0 0
15 0 0 0
20 0 0 0
45 0 0 0
49 0 0 0
50 0 0 0
21 0 0 0
22 0 0 0
26 0 0 0
27 0 0 0
51 0 0 0
52 0 0 0
56 0 0 0
57 0 0 0
23 0 0 0
28 0 0 0
29 0 0 0
53 0 0 0
54 0 0 0
58 0 0 0
24 0 0 0
25 0 0 0
30 0 0 0
55 0 0 0
59 0 0 0
60 0 0 0
61 0 0 0
62 0 0 0
66 0 0 0
67 0 0 0
91 0 0 0
92 0 0 0
96 0 0 0
97 0 0 0
63 0 0 0
64 0 0 0
68 0 0 0
93 0 0 0
98 0 0 0
99 0 0 0
65 0 0 0
69 0 0 0
70 0 0 0
94 0 0 0
95 0 0 0
100 0 0 0
71 0 0 0
72 0 0 0
76 0 0 0
77 0 0 0
101 0 0 0
102 0 0 0
106 0 0 0
107 0 0 0
73 0 0 0
74 0 0 0
78 0 0 0
103 0 0 0
108 0 0 0
109 0 0 0
75 0 0 0
79 0 0 0
80 0 0 0
104 0 0 0
105 0 0 0
110 0 0 0
81 0 0 0
82 0 0 0
86 0 0 0
87 0 0 0
111 0 0 0
112 0 0 0
116 0 0 0
117 0 0 0
83 0 0 0
84 0 0 0
88 0 0 0
113 0 0 0
118 0 0 0
119 0 0 0
85 0 0 0
89 0 0 0
90 0 0 0
114 0 0 0
115 0 0 0
120 0 0 0
121 0 0 0
122 0 0 0
126 0 0 0
127 0 0 0
152 0 0 0
156 0 0 0
157 0 0 0
162 0 0 0
123 0 0 0
124 0 0 0
128 0 0 0
153 0 0 0
154 0 0 0
158 0 0 0
163 0 0 0
164 0 0 0
125 0 0 0
129 0 0 0
130 0 0 0
155 0 0 0
159 0 0 0
160 0 0 0
165 0 0 0
131 0 0 0
132 0 0 0
136 0 0 0
137 0 0 0
161 0 0 0
166 0 0 0
167 0 0 0
133 0 0 0
134 0 0 0
138 0 0 0
168 0 0 0
173 0 0 0
135 0 0 0
139 0 0 0
140 0 0 0
169 0 0 0
170 0 0 0
175 0 0 0
141 0 0 0
142 0 0 0
146 0 0 0
147 0 0 0
151 0 0 0
171 0 0 0
172 0 0 0
176 0 0 0
177 0 0 0
143 0 0 0
144 0 0 0
148 0 0 0
178 0 0 0
145 0 0 0
149 0 0 0
150 0 0 0
174 0 0 0
179 0 0 0
180 0 0 0
181 0 0 0
182 0 0 0
186 0 0 0
187 0 0 0
211 0 0 0
212 0 0 0
216 0 0 0
217 0 0 0
183 0 0 0
188 0 0 0
189 0 0 0
213 0 0 0
214 0 0 0
218 0 0 0
184 0 0 0
185 0 0 0
190 0 0 0
215 0 0 0
219 0 0 0
220 0 0 0
191 0 0 0
192 0 0 0
197 0 0 0
221 0 0 0
222 0 0 0
226 0 0 0
227 0 0 0
193 0 0 0
198 0 0 0
199 0 0 0
223 0 0 0
224 0 0 0
228 0 0 0
194 0 0 0
195 0 0 0
196 0 0 0
200 0 0 0
225 0 0 0
229 0 0 0
230 0 0 0
201 0 0 0
202 0 0 0
206 0 0 0
207 0 0 0
231 0 0 0
232 0 0 0
236 0 0 0
203 0 0 0
208 0 0 0
209 0 0 0
233 0 0 0
234 0 0 0
238 0 0 0
204 0 0 0
205 0 0 0
210 0 0 0
235 0 0 0
239 0 0 0
240 0 0 0
237 0 0 0
241 0 0 0
242 0 0 0
246 0 0 0
247 0 0 0
276 0 0 0
243 0 0 0
244 0 0 0
248 0 0 0
279 0 0 0
249 0 0 0
250 0 0 0
255 0 0 0
275 0 0 0
251 0 0 0
252 0 0 0
256 0 0 0
257 0 0 0
253 0 0 0
254 0 0 0
258 0 0 0
264 0 0 0
283 0 0 0
289 0 0 0
259 0 0 0
260 0 0 0
284 0 0 0
290 0 0 0
261 0 0 0
262 0 0 0
266 0 0 0
267 0 0 0
292 0 0 0
326 0 0 0
263 0 0 0
268 0 0 0
245 0 0 0
265 0 0 0
269 0 0 0
270 0 0 0
294 0 0 0
296 0 0 0
271 0 0 0
272 0 0 0
277 0 0 0
301 0 0 0
302 0 0 0
306 0 0 0
307 0 0 0
273 0 0 0
278 0 0 0
303 0 0 0
304 0 0 0
308 0 0 0
274 0 0 0
280 0 0 0
305 0 0 0
309 0 0 0
310 0 0 0
335 0 0 0
281 0 0 0
282 0 0 0
286 0 0 0
287 0 0 0
312 0 0 0
316 0 0 0
317 0 0 0
288 0 0 0
313 0 0 0
314 0 0 0
318 0 0 0
285 0 0 0
311 0 0 0
315 0 0 0
319 0 0 0
320 0 0 0
355 0 0 0
291 0 0 0
297 0 0 0
321 0 0 0
322 0 0 0
327 0 0 0
356 0 0 0
293 0 0 0
298 0 0 0
299 0 0 0
323 0 0 0
324 0 0 0
328 0 0 0
295 0 0 0
300 0 0 0
325 0 0 0
329 0 0 0
330 0 0 0
332 0 0 0
336 0 0 0
337 0 0 0
333 0 0 0
334 0 0 0
338 0 0 0
339 0 0 0
340 0 0 0
342 0 0 0
346 0 0 0
347 0 0 0
343 0 0 0
344 0 0 0
348 0 0 0
341 0 0 0
345 0 0 0
349 0 0 0
350 0 0 0
352 0 0 0
357 0 0 0
360 0 0 0
361 0 0 0
362 0 0 0
353 0 0 0
354 0 0 0
358 0 0 0
331 0 0 0
351 0 0 0
359 0 0 0
