LAMMPS data file via write_data, version 11 Feb 2026, timestep = 451, units = metal

362 atoms
8 atom types

0 12.447907776 xlo xhi
0 12.9362452296 ylo yhi
0 52.3600831054 zlo zhi

Masses

1 26.9815
2 10.811
3 12.011
4 51.9961
5 55.845
6 95.95999999999999
7 58.6934
8 1.008

Atoms # atomic/kk

1 7 1.149973379434589 1.4141182541501147 14.171997929270393 0 0 0
2 7 3.6136994918275596 1.0797359444224872 14.66562120666453 0 0 0
6 7 12.377056765452489 3.4657988958685584 14.81802768729823 -1 0 0
7 7 2.4328913531025567 3.28446211119318 14.98727751464609 0 0 0
31 6 0.13729929968780724 1.5765142428706498 16.540952846383686 0 0 0
32 7 2.6100299880310587 1.6950008169647026 16.9108417064754 0 0 0
36 7 1.2247630564981438 3.865911778604025 17.025058398082987 0 0 0
37 7 3.7156056562121575 3.8470138658038997 17.0523498377298 0 0 0
3 5 6.081819424250728 0.956633605002506 14.907946532350596 0 0 0
8 7 4.933988907702751 3.1369918784766946 15.00613748466797 0 0 0
9 7 7.395701760199275 3.1650708074544975 14.916563369575448 0 0 0
33 7 4.99072204978349 1.67468923088417 16.95034115732506 0 0 0
34 7 7.415387182219426 1.7788476286379502 16.97547539816564 0 0 0
38 5 6.183965314355059 3.8697321822797264 16.98448352431051 0 0 0
4 6 8.645846967178413 1.0064232952404837 14.996339985946795 0 0 0
5 7 11.054987226814099 1.2628346983759309 14.597726740605172 0 0 0
10 7 9.918302479888794 3.4002354965036545 14.776491212379328 0 0 0
35 7 9.990683356076762 1.6721729123264366 16.939433008079746 0 0 0
39 7 8.73594948573832 3.872537614520966 16.85763330620038 0 0 0
40 7 11.195765319954441 3.8166098827116124 16.99595745738528 0 0 0
11 7 1.2401019582310349 5.504868406377279 15.075869184625049 0 0 0
12 7 3.728579780681025 5.3260794752083465 15.086690799737113 0 0 0
16 4 0.4746602935282026 7.822372259175347 14.79493551839508 0 0 0
17 7 2.6581390843349735 7.505033060336134 15.14894860636612 0 0 0
41 7 12.447401966116862 6.008085502384861 17.22197342095837 -1 0 0
42 7 2.459047261901972 6.137360876230234 17.136666834445 0 0 0
46 7 0.7998005442959453 9.377144574370446 16.870134793056426 0 0 0
47 7 3.8918980791538806 8.20749747712202 17.05864787549102 0 0 0
13 7 6.18404382058414 5.31526793015933 15.029718298657738 0 0 0
18 7 5.085097473344061 7.488564238925172 15.063919802837923 0 0 0
19 2 7.065066783965616 7.0287394308393 15.384893872455418 0 0 0
43 7 4.957950995874746 5.972650903356701 17.09006037149153 0 0 0
44 7 7.482341250950959 5.950350972755659 17.08337468883488 0 0 0
48 7 6.352027460581127 8.064788901548626 17.04500864331402 0 0 0
14 7 8.709450120515008 5.668413908488994 14.96103956956338 0 0 0
15 6 11.185834517765349 5.614284839562055 15.180271387266362 0 0 0
20 7 10.450734874192353 7.679521557951855 14.18004690059949 0 0 0
45 7 9.928707512538931 6.048351291882908 17.248553080392874 0 0 0
49 7 8.721873219950679 7.931765205882587 16.06496248160576 0 0 0
50 7 11.190672093346656 8.00078585896709 16.449094887864153 0 0 0
21 2 1.1706528802321583 10.488217088664907 15.20821051059222 0 0 0
22 7 2.9750629020759694 9.874941079225824 15.640678215943439 0 0 0
26 7 0.13334750200529727 12.214322367267576 14.90577663953957 0 0 0
27 7 2.4876105172488194 11.81808390971519 14.4592042247407 0 0 0
51 3 11.524892253626806 9.380098868212862 17.657616628009194 -1 0 0
52 7 1.3555616972437232 11.874519505577496 16.984339948655343 0 0 0
56 2 1.9192031469131132 0.33053648950819947 15.604590342370386 0 1 0
57 7 3.7591009736016154 12.446499602216381 16.6050476131772 0 0 0
23 7 6.926844334197999 9.01546098001985 14.774596273843775 0 0 0
28 7 4.964968199415477 11.796852019840014 14.602642402002479 0 0 0
29 6 7.492726900607242 11.50230425004282 14.916624291253854 0 0 0
53 7 5.341149983610539 10.131837707127081 16.322716639918816 0 0 0
54 7 7.73886512096929 10.063633650081671 16.94222224456875 0 0 0
58 6 6.324829203662356 12.37658888289705 16.950233767901793 0 0 0
24 7 9.216534123835018 9.748125288424696 14.53749674988266 0 0 0
25 7 11.768075111580512 9.884375608203573 14.78617415419276 0 0 0
30 7 10.067006626449393 11.954980547910026 14.757185025111864 0 0 0
55 7 10.190511137830264 10.285804979793557 16.676864248268338 0 0 0
59 7 8.841959535061852 12.390850666978823 16.95746611211087 0 0 0
60 7 11.24814305674634 12.476860812397128 16.87821141591362 0 0 0
61 6 0.05293253292543211 0.008595573369757508 18.9901814004813 0 0 0
62 7 2.5926840441337986 12.864216716362003 19.033453492841716 0 -1 0
66 6 1.398194023946927 2.1757630196216353 19.04864279253738 0 0 0
67 5 3.8362920165554013 2.1796352990671224 19.07264291633059 0 0 0
91 4 1.3661722434556807 0.758843981661047 21.29533142080637 0 0 0
92 7 3.7584656401051055 0.7341889458966089 21.050420934440222 0 0 0
96 7 0.08725214237613577 2.8068430596324 21.182695444403205 0 0 0
97 7 2.5979129663237317 2.8596644906068156 21.194384430413642 0 0 0
63 5 4.962001723519321 0.0628741997452391 18.956940782076654 0 0 0
64 7 7.4469174778293175 0.09199222700537901 19.096609595210634 0 0 0
68 7 6.200177398479735 2.1687277058721017 19.07532572694781 0 0 0
93 7 6.265039110082381 0.7293271213818853 21.168720278544455 0 0 0
98 7 5.030939198177165 2.883613462725585 21.148760544454014 0 0 0
99 5 7.484538155238524 2.8248517561680098 21.16457435155956 0 0 0
65 7 10.007021457988575 0.09004418621518454 19.091455805870968 0 0 0
69 7 8.743785711561403 2.163798327813885 18.990756419431982 0 0 0
70 7 11.292254288650547 2.2480446204608393 18.949468217165176 0 0 0
94 7 8.719250985004596 0.7232842133648787 21.2315540255683 0 0 0
95 7 11.30975688138979 0.6802342057476779 21.194857036335716 0 0 0
100 6 10.036123138074384 2.794313034296073 21.050401827073717 0 0 0
71 1 12.388857950530452 4.388060583608794 19.181426634544625 -1 0 0
72 7 2.4890673081693513 4.398816420775532 19.102146441824036 0 0 0
76 7 1.2053828422128956 6.444548354955875 19.255207736438333 0 0 0
77 7 3.7891963421956585 6.517177585246586 19.160276030617943 0 0 0
101 7 1.2096247991918192 4.996207348081642 21.254551414848848 0 0 0
102 6 3.7350180311843406 5.052354155113269 21.224830024112343 0 0 0
106 7 12.440552371162312 7.106721539275385 21.311107534663755 -1 0 0
107 7 2.4737806343336426 7.182718038683655 21.227719540797665 0 0 0
73 7 4.981223722087094 4.326278057861155 19.0823350120905 0 0 0
74 6 7.507072551027392 4.29519960688244 19.049973484750744 0 0 0
78 7 6.20179808140955 6.528913387793721 19.13515645983282 0 0 0
103 7 6.280446713354171 5.056876605048607 21.17126735887367 0 0 0
108 7 5.016929094815627 7.23847549467755 21.221946877590177 0 0 0
109 7 7.4245705705836365 7.258344281065825 21.260396888212767 0 0 0
75 5 9.913960317379697 4.3152378477764195 19.028914566714437 0 0 0
79 7 8.6308763436704 6.481855623283488 19.318650116957347 0 0 0
80 7 11.118793375253036 6.430450835088537 19.35348237237537 0 0 0
104 7 8.746052256872414 5.032888982530318 21.23909318115666 0 0 0
105 3 10.089599809868243 4.381765745285524 22.283951782424175 0 0 0
110 7 9.895608672416689 7.175710156469379 21.297677890884877 0 0 0
81 4 12.34792248652722 8.482774421590985 19.195844245030155 -1 0 0
82 6 2.3640823757516465 8.49891053423908 18.910484793746626 0 0 0
86 7 1.286909377415492 10.700166149640193 19.156609499116865 0 0 0
87 1 3.6703014273649925 10.72556938651495 18.261160401685473 0 0 0
111 7 1.1848974019213718 9.299482018951561 21.191161119170083 0 0 0
112 6 3.7068609626891624 9.365652680426502 21.138203148164106 0 0 0
116 1 0.04219331203633199 11.496461598716708 21.292915972766096 0 0 0
117 7 2.4756269910710933 11.538296053355618 21.140384717316046 0 0 0
83 7 4.951496239067712 8.742857407630373 19.078525266909082 0 0 0
84 7 7.402707132262905 8.649509702145739 19.080895267033487 0 0 0
88 7 6.167779108662558 10.811147598426787 18.925230382461983 0 0 0
113 7 6.2192333143962815 9.419027906235748 21.03042757413002 0 0 0
118 7 4.969194220198537 11.550584483829974 21.037581063264955 0 0 0
119 4 7.404768539275176 11.546001192311715 21.069983566933352 0 0 0
85 6 9.792682817423092 8.483177327268013 18.535962273439356 0 0 0
89 6 8.736567230301615 10.859875931746693 19.03370117021748 0 0 0
90 4 11.277433742122815 10.830778065899123 18.933859820087463 0 0 0
114 7 8.70497923587041 9.32572574547716 20.988037452216723 0 0 0
115 6 11.114227511819642 9.261680293765865 21.17080788392277 0 0 0
120 7 9.991088127218111 11.526196889478882 21.177453997933757 0 0 0
121 7 0.08267778000849536 1.3833338490833018 23.30903521387697 0 0 0
122 7 2.5740267193409214 1.395210725500982 23.328410444983373 0 0 0
126 6 1.3536250087186157 3.577993565433108 23.26464562567035 0 0 0
127 7 3.849135129322914 3.581777294475175 23.360305751650966 0 0 0
152 7 2.6520224582547596 12.932063189687556 25.37280198670431 0 -1 0
156 1 1.4781296563336968 2.121623774219855 25.51418800232462 0 0 0
157 7 3.9643254926403184 2.1282418799943157 25.44258655162519 0 0 0
162 7 2.5971174015857263 4.25391850909832 25.4266731715579 0 0 0
123 7 4.991024972434154 1.4204087559654464 23.16103810236806 0 0 0
124 7 7.3924806054594265 1.4914194984112459 23.485341361491106 0 0 0
128 7 6.3020684276308865 3.655320319914762 23.18235060687545 0 0 0
153 7 5.195645865777179 0.06304687896792706 25.291680380849964 0 0 0
154 7 7.5984130336931415 12.930715708442984 25.47435440127188 0 -1 0
158 2 5.774137407894146 2.4485305531403645 24.62771491072215 0 0 0
163 7 5.116480522963564 4.235232723196456 25.41975659651469 0 0 0
164 5 7.4756989080716645 4.0526337016885146 25.358833344582315 0 0 0
125 7 10.041743403020975 1.417634782395428 23.353878319801478 0 0 0
129 7 8.749818855512782 3.536310493997442 23.346588292330377 0 0 0
130 4 11.36537034042884 3.6064642193128393 23.401632766577684 0 0 0
155 4 10.11801202058119 0.05178066170248188 25.557368652239344 0 0 0
159 7 8.867971599550343 2.088706323984293 25.446604681359013 0 0 0
160 7 11.399316996817227 2.144176231104507 25.42044199576492 0 0 0
165 7 10.063804875340312 4.206665004602455 25.411593359416326 0 0 0
131 7 0.0689654673109394 5.7604725594592585 23.402936319919124 0 0 0
132 7 2.5405185849880803 5.788667213619552 23.359050865109865 0 0 0
136 7 1.300780473789581 7.902127187619372 23.30378096784102 0 0 0
137 7 3.774440264671581 7.96987222256704 23.276955009332987 0 0 0
161 4 0.10707043616421374 4.329144304748634 25.46833598763464 0 0 0
166 7 1.3353906423173176 6.4032258677560865 25.42942565757199 0 0 0
167 7 3.805660028418127 6.427275118777557 25.441455260758346 0 0 0
133 6 5.062910900254912 5.847923183861736 23.386131471988556 0 0 0
134 7 7.55725998641406 5.766954584286362 23.31392211396758 0 0 0
138 7 6.307857420521572 7.98524400395458 23.33997235801582 0 0 0
168 7 6.362998703152566 6.384336499031562 25.431927113269 0 0 0
173 7 5.101954914590706 8.542755900260772 25.331096149227115 0 0 0
135 7 10.062100944144667 5.813313515060895 23.387485232298268 0 0 0
139 4 8.691614033855833 7.930383826745003 23.243854151048968 0 0 0
140 4 11.279528757535799 7.877879911976385 23.317462087454473 0 0 0
169 7 8.773438287205337 6.318856485399519 25.383145443883723 0 0 0
170 7 11.286899441929053 6.395620232169428 25.448434290575026 0 0 0
175 6 9.88238975693492 8.554788886486834 25.523911219767932 0 0 0
141 7 0.01730925557435139 10.055246269682033 23.343132061239892 0 0 0
142 7 2.4932738029735737 10.093904358292711 23.253686457528477 0 0 0
146 7 1.2995715963017607 12.222842304801643 23.349736777741143 0 0 0
147 7 3.8037128180486284 12.232205739808455 23.179094852122006 0 0 0
151 4 0.08974942363549118 12.862492351698592 25.41488687449689 0 -1 0
171 6 0.10683603892095024 8.601771040873114 25.429515341135527 0 0 0
172 7 2.620011739451932 8.597136562353226 25.374727789383524 0 0 0
176 7 1.339406460253201 10.786659079381451 25.431098018191946 0 0 0
177 6 3.876587214252874 10.804697294579828 25.272671920403308 0 0 0
143 7 5.052018495634269 10.093280100729165 23.18029449318749 0 0 0
144 7 7.502521115970204 10.077041533018932 22.91913862512302 0 0 0
148 4 6.209820118127365 12.258396800039927 23.184342327581632 0 0 0
178 6 6.614303420276079 10.531145979774662 25.219609651384825 0 0 0
145 7 9.992887751667926 10.0619066287965 23.315418562373925 0 0 0
149 6 8.705126491181609 12.260190639760568 23.329577729153904 0 0 0
150 7 11.244202913789799 12.205471667008112 23.405321288901217 0 0 0
174 3 8.410736754657622 9.497088658704076 24.423378624042705 0 0 0
179 5 8.995431561807385 10.91014646169703 25.583155068038426 0 0 0
180 5 11.333184951238273 10.85434863182182 25.50684164508118 0 0 0
181 7 1.3888258664748585 0.6532846204898509 27.496807323169833 0 0 0
182 7 3.8755440840466977 0.690949613202246 27.435630031300274 0 0 0
186 7 0.17053945033775447 2.8455271065560637 27.49517342361762 0 0 0
187 7 2.6594211423166896 2.840928807338252 27.567731262747376 0 0 0
211 7 0.20999981644802707 1.4328122786284059 29.59376735325247 0 0 0
212 7 2.7119925315196656 1.3483036911931399 29.58149635802272 0 0 0
216 7 1.410684680593359 3.5425268567901322 29.591695219308463 0 0 0
217 4 3.8241178638757924 3.561290387555225 29.600045394979386 0 0 0
183 7 6.308984081190027 0.7035057496454135 27.57214633195303 0 0 0
188 7 5.082526309698496 2.8619370050344037 27.576953583992566 0 0 0
189 7 7.594528453760866 2.781367421827247 27.46424178370802 0 0 0
213 5 5.134427467865452 1.4146728892693365 29.602345270081923 0 0 0
214 7 7.612828206927492 1.3431217383764065 29.594340336253865 0 0 0
218 7 6.363474972695558 3.5255076243330303 29.545267714781115 0 0 0
184 7 8.885549638802761 0.7070590823254538 27.569718381034296 0 0 0
185 4 11.383377431552757 0.7102799108568445 27.542958298654177 0 0 0
190 7 10.144471929736774 2.819700857391141 27.493215086796077 0 0 0
215 7 10.124885513916803 1.391904021546843 29.63643895164346 0 0 0
219 7 8.8384918457881 3.5000631593629117 29.53345344934816 0 0 0
220 7 11.369270363400545 3.546842555858672 29.52632461345007 0 0 0
191 7 1.3902853001836308 4.994261171466094 27.474268928380422 0 0 0
192 7 3.8328457549272987 4.978282314255915 27.483131893092846 0 0 0
197 7 2.57805938533043 7.181417703166053 27.476139003135174 0 0 0
221 7 0.1197337579778146 5.714399161387503 29.575747998686975 0 0 0
222 7 2.5905027334756046 5.717029111691909 29.552237800481645 0 0 0
226 7 1.363205696426441 7.891422129609767 29.554310998849143 0 0 0
227 7 3.860197927751215 7.902785114813345 29.468405599986554 0 0 0
193 7 6.369106359934113 4.963797492001959 27.41473364840025 0 0 0
198 7 5.101534955020238 7.162206148008313 27.411740063006555 0 0 0
199 7 7.620818106952865 7.176706992192392 27.449813255519864 0 0 0
223 6 5.15233874571352 5.710011171163259 29.490511120530208 0 0 0
224 7 7.64371631494249 5.726410598102051 29.583773932136157 0 0 0
228 7 6.393665592854807 7.901941978935065 29.492410976894096 0 0 0
194 6 8.84723757900199 4.984704860010673 27.495762246966898 0 0 0
195 7 11.36011291436086 4.981707373610387 27.51170428222833 0 0 0
196 7 0.13537084303720673 7.145069468969149 27.50139373147878 0 0 0
200 7 10.123270259199245 7.145191962257074 27.543504410428202 0 0 0
225 7 10.101110389063178 5.728330259510743 29.609558108468555 0 0 0
229 7 8.846121516904452 7.87077202803739 29.52898887819269 0 0 0
230 7 11.36814205177739 7.91892415505948 29.529590712223428 0 0 0
201 5 1.3781148379312107 9.313542765357782 27.516266207645177 0 0 0
202 7 3.8712845684456405 9.309982189205899 27.375555785097415 0 0 0
206 4 0.18680396747276723 11.465300354645256 27.52776725155189 0 0 0
207 7 2.6102722259726736 11.446077731909405 27.43887704471455 0 0 0
231 7 0.16498804165760883 10.06753219404202 29.572872254715357 0 0 0
232 7 2.632510993520254 10.015589414870671 29.4279046589416 0 0 0
236 7 1.4726220913464727 12.171760615465224 29.557685908055028 0 0 0
203 7 6.374270933230257 9.274321311636264 27.388101909400383 0 0 0
208 7 5.137399555674722 11.489319926801157 27.319697726296177 0 0 0
209 6 7.581597690611562 11.513263526764673 27.64118868643492 0 0 0
233 7 5.148964418897078 10.04473319842798 29.32309882032397 0 0 0
234 7 7.6009639137161695 10.077380007299803 29.66589069007545 0 0 0
238 7 6.211343116844932 12.225813209538435 29.68132418605953 0 0 0
204 7 8.838348139071558 9.356801290320346 27.62666882281772 0 0 0
205 7 11.344681582412115 9.404024560227722 27.550438437379846 0 0 0
210 7 10.150764271467185 11.541965849067656 27.588102221933962 0 0 0
235 7 10.08518109884759 10.167854052323404 29.605613908199842 0 0 0
239 4 8.878570731195248 12.243314426573544 29.735212095926105 0 0 0
240 7 11.396128682130767 12.255720313010007 29.56640902219529 0 0 0
237 3 4.034067701981859 0.28144146172885925 30.552962431075624 0 1 0
241 7 0.2011238117297418 0.09194045202470359 31.639886708401622 0 0 0
242 7 2.569749518795847 0.13602589242414148 31.74056115671188 0 0 0
246 4 1.3442723797563607 2.2370843732327717 31.668884030614183 0 0 0
247 7 3.879714174969637 2.147986411274417 31.642753622752053 0 0 0
276 7 0.17641008936217387 2.991679339650847 33.743315456989436 0 0 0
243 7 5.166667503506769 12.898955804432884 32.09852716795226 0 -1 0
244 7 7.6261734437837605 12.932824756460212 31.714090235938286 0 -1 0
248 7 6.4069139456642255 2.1447242485929983 31.64643944470265 0 0 0
279 7 7.727920910706582 3.0388769190241445 33.734451962168805 0 0 0
249 7 8.850599241396447 2.0972643316730997 31.68624165132375 0 0 0
250 7 11.384318369151197 2.132589156584668 31.665834496355064 0 0 0
255 1 10.104689690544118 4.213573791493317 31.5085965533817 0 0 0
275 4 11.440880838995596 0.7922795374492184 33.72165408761685 0 0 0
251 7 0.14717734415532369 4.319087766240797 31.654748688994506 0 0 0
252 7 2.632551080709161 4.316842648126811 31.667523884397923 0 0 0
256 7 1.3283326197713319 6.497656951957836 31.63821040185322 0 0 0
257 6 3.790905866081199 6.499643060043449 31.661823459477034 0 0 0
253 7 5.111994027245624 4.307658131917716 31.62315263917664 0 0 0
254 7 7.620857098135377 4.307500214876573 31.595408735091404 0 0 0
258 7 6.350798724803491 6.4911235307436375 31.62215207457749 0 0 0
264 7 7.588877638238417 8.574233277136656 31.622888227780603 0 0 0
283 7 6.378499181238978 5.098574648978698 33.67077057025399 0 0 0
289 7 7.630692246286227 7.183107009595021 33.715467140611146 0 0 0
259 4 8.820428272571128 6.455943980319782 31.63200844928428 0 0 0
260 7 11.313786190487438 6.484922076209612 31.598093938870484 0 0 0
284 5 8.886096799919732 5.113199574507554 33.58723060944594 0 0 0
290 7 10.081736091590344 7.255254157664306 33.60073535340962 0 0 0
261 7 0.17661562946056092 8.705082575901223 31.656081930929147 0 0 0
262 7 2.6631946476058577 8.717144035285662 31.530766307008292 0 0 0
266 7 1.5629308849948744 10.829791412350344 31.576128880352673 0 0 0
267 4 3.9173587071537512 11.269481931689986 30.85414322239382 0 0 0
292 7 3.9576094094780823 9.371928714653915 33.50130403244024 0 0 0
326 7 0.50507674530202 11.648793396162233 33.68430969760262 0 0 0
263 1 5.0932690454370935 8.758620988826445 31.41942646078276 0 0 0
268 7 6.259966391636379 10.759069367341414 31.581399038454894 0 0 0
245 7 10.110959914312305 12.88078288697736 31.874379147584087 0 -1 0
265 6 10.101008789457522 8.67763210043981 31.548663018460303 0 0 0
269 7 8.774325322347648 10.797335333900671 31.754018177354325 0 0 0
270 7 11.428239696633547 10.901295131469741 31.619606131021424 0 0 0
294 7 8.765329077008857 9.285387597885068 33.69872896355557 0 0 0
296 3 11.072825752086656 11.82739750429059 33.33686174367307 -1 0 0
271 7 1.472892535181503 0.8991516925446243 33.77537346797601 0 0 0
272 7 3.921527093023187 0.9534903697015977 33.92104376469403 0 0 0
277 7 2.642393088496334 3.077905195697304 33.79105259757524 0 0 0
301 7 0.18918112249393593 1.5504603026164148 35.76411841004739 0 0 0
302 7 2.610355096546068 1.6677119724790792 35.844405349064196 0 0 0
306 4 1.419859579833509 3.835029609885721 35.967934962632455 0 0 0
307 7 3.9963932362595256 3.731717909592509 35.82787788480282 0 0 0
273 7 6.463648099740794 0.969214177460014 33.89829442126387 0 0 0
278 1 5.2186917928758 2.9946674894051872 33.716731671893335 0 0 0
303 7 5.253011325027141 1.6667864548390943 35.928662287101005 0 0 0
304 4 7.761478283385527 1.6333065123126378 35.92503399250566 0 0 0
308 7 6.528879449262844 3.708017187317507 35.801107823258455 0 0 0
274 7 8.837490972994699 0.8953803367902721 33.84413377907832 0 0 0
280 7 10.203144772229475 2.990623465676787 33.714736441936346 0 0 0
305 7 10.223486254437177 1.5589661478482855 35.733657429165504 0 0 0
309 7 9.01979775127224 3.670398890061502 35.7848652375641 0 0 0
310 4 11.590014438988552 3.941407748386601 35.8687473921963 0 0 0
335 5 9.905834033902776 12.906372767212192 37.39707939131652 0 -1 0
281 7 1.3235794039596525 5.180013610996188 33.863768119895795 0 0 0
282 4 3.847837554815091 5.133639929718371 33.766362674588805 0 0 0
286 7 0.09190337471008105 7.277446941559717 33.62638641933313 0 0 0
287 7 2.631528743354265 7.28467815079621 33.74445433792807 0 0 0
312 7 2.7324588977554827 5.788791171825702 35.78433148407682 0 0 0
316 7 1.2133172780919212 7.59944972254857 35.78806231254306 0 0 0
317 7 3.9284908667518073 8.06182437919087 35.73232940183763 0 0 0
288 7 5.181776828894341 7.267928586533914 33.66546412872588 0 0 0
313 7 5.265424949073587 5.91728500309455 35.71613906438177 0 0 0
314 7 7.722150311187113 5.818408942634858 35.74559107666194 0 0 0
318 4 6.554133117328683 8.121954351975383 35.80544427419231 0 0 0
285 4 11.346273604100647 5.150700085525694 33.639504208703336 0 0 0
311 2 12.37260081224345 5.996572432786766 35.3274785915123 -1 0 0
315 7 10.134232860516857 5.805610937643895 35.58461285706461 0 0 0
319 7 8.954916805434868 7.9734913050784915 35.825799904381896 0 0 0
320 7 11.347978393414424 7.927887696073218 35.596834758584606 0 0 0
355 3 10.438153217919819 7.900732167899197 37.28092671919551 0 0 0
291 7 1.467285110017299 9.422446070984245 33.73183818765777 0 0 0
297 6 3.022718979982168 11.57407803372938 33.67384975031441 0 0 0
321 6 0.21044930702707348 10.059636989184176 35.90984268616901 0 0 0
322 7 2.7002398052158405 10.200571388523372 35.7623683523472 0 0 0
327 6 3.919850974711373 12.51355328352627 36.11136252170744 0 0 0
356 4 1.3966813445817006 12.358086437752009 35.85257774373739 0 0 0
293 4 6.448039211554467 9.316778684916333 33.64873241184684 0 0 0
298 2 5.200655806131162 12.284870420122635 34.20741262505143 0 0 0
299 7 6.99322892262485 11.574794583354887 33.68191554047409 0 0 0
323 6 5.229767934373499 10.238374775975684 35.57355369300647 0 0 0
324 7 7.909449540817055 10.356954400742877 35.71530025296955 0 0 0
328 7 6.465023866359882 12.516269679173455 35.91533880067823 0 0 0
295 6 11.266181940652414 9.694355101976672 33.76557095144821 0 0 0
300 7 9.380131527415497 11.543585761485527 34.1708525559906 0 0 0
325 7 10.254832932647243 9.843317677337891 37.033471956111114 0 0 0
329 3 9.527775168218898 11.400440446618292 36.20549602242726 0 0 0
330 4 11.259169805999022 12.07172186206116 35.58214054635271 0 0 0
332 7 2.4839153410486743 0.09761331483450335 38.04443847386533 0 0 0
336 7 1.3398135282700734 2.1847251518172035 37.837731276105764 0 0 0
337 7 3.8674880159446325 2.1851664735232386 37.82845079334428 0 0 0
333 7 5.217895272898865 0.16969165389136923 38.124045875231324 0 0 0
334 7 7.646991073958844 0.07171075349039219 38.00463201750999 0 0 0
338 7 6.521072359260053 2.265834708577527 37.90534645359716 0 0 0
339 7 8.985507276054333 2.191573154978427 37.86135867145496 0 0 0
340 7 11.367417103433489 2.1967953630779107 37.73398190087588 0 0 0
342 7 2.7213928695445184 4.288685384134802 37.93514916346354 0 0 0
346 7 1.5201232867431558 6.401280051129466 37.99574920966849 0 0 0
347 6 3.964376495579191 6.4746231781580565 37.768207863877635 0 0 0
343 7 5.299959936676999 4.435812661988148 37.82953175312075 0 0 0
344 7 7.8311207236783735 4.442062110719054 37.852552338115146 0 0 0
348 6 6.6607521915330326 6.670483061051992 37.816271983762825 0 0 0
361 8 4.050953761644299 2.4445985742622036 41.56920503882803 0 0 0
362 8 4.722899016187618 2.796494149264074 41.63155853322425 0 0 0
341 7 0.21644166759449257 4.249700883138396 38.076844377142066 0 0 0
345 4 10.221540659378354 4.336793996224897 37.815518976311274 0 0 0
349 7 9.239707427594139 6.629845773033161 37.86936587333125 0 0 0
350 7 11.680571845482868 6.271274964902127 37.30616584748817 0 0 0
352 6 2.4901527463760607 8.661723981237964 37.685221794363336 0 0 0
357 7 3.845576117677431 10.810496652881742 37.95322993763274 0 0 0
360 7 1.387453926287343 10.902342530949056 37.89280515932415 1 0 0
353 7 5.126691797121277 8.697259498381564 37.82585589765245 0 0 0
354 7 7.9552531356736225 8.958589053053476 37.81798096220791 0 0 0
358 6 6.415126298568533 10.855617644684784 37.790074251714074 0 0 0
331 7 12.392842989376936 12.88845009043121 37.6324008790426 -1 -1 0
351 7 12.245654472912232 8.561171098254622 37.843486663315105 -1 0 0
359 2 8.600032979193907 11.163639376485374 37.43084189091076 0 0 0

Velocities

1 0 0 0
2 0 0 0
6 0 0 0
7 0 0 0
31 0 0 0
32 0 0 0
36 0 0 0
37 0 0 0
3 0 0 0
8 0 0 0
9 0 0 0
33 0 0 0
34 0 0 0
38 0 0 0
4 0 0 0
5 0 0 0
10 0 0 0
35 0 0 0
39 0 0 0
40 0 0 0
11 0 0 0
12 0 0 0
16 0 0 0
17 0 0 0
41 0 0 0
42 0 0 0
46 0 0 0
47 0 0 0
13 0 0 0
18 0 0 0
19 0 0 0
43 0 0 0
44 0 0 0
48 0 0 0
14 0 0 0
15 0 0 0
20 0 0 0
45 0 0 0
49 0 0 0
50 0 0 0
21 0 0 0
22 0 0 0
26 0 0 0
27 0 0 0
51 0 0 0
52 0 0 0
56 0 0 0
57 0 0 0
23 0 0 0
28 0 0 0
29 0 0 0
53 0 0 0
54 0 0 0
58 0 0 0
24 0 0 0
25 0 0 0
30 0 0 0
55 0 0 0
59 0 0 0
60 0 0 0
61 0 0 0
62 0 0 0
66 0 0 0
67 0 0 0
91 0 0 0
92 0 0 0
96 0 0 0
97 0 0 0
63 0 0 0
64 0 0 0
68 0 0 0
93 0 0 0
98 0 0 0
99 0 0 0
65 0 0 0
69 0 0 0
70 0 0 0
94 0 0 0
95 0 0 0
100 0 0 0
71 0 0 0
72 0 0 0
76 0 0 0
77 0 0 0
101 0 0 0
102 0 0 0
106 0 0 0
107 0 0 0
73 0 0 0
74 0 0 0
78 0 0 0
103 0 0 0
108 0 0 0
109 0 0 0
75 0 0 0
79 0 0 0
80 0 0 0
104 0 0 0
105 0 0 0
110 0 0 0
81 0 0 0
82 0 0 0
86 0 0 0
87 0 0 0
111 0 0 0
112 0 0 0
116 0 0 0
117 0 0 0
83 0 0 0
84 0 0 0
88 0 0 0
113 0 0 0
118 0 0 0
119 0 0 0
85 0 0 0
89 0 0 0
90 0 0 0
114 0 0 0
115 0 0 0
120 0 0 0
121 0 0 0
122 0 0 0
126 0 0 0
127 0 0 0
152 0 0 0
156 0 0 0
157 0 0 0
162 0 0 0
123 0 0 0
124 0 0 0
128 0 0 0
153 0 0 0
154 0 0 0
158 0 0 0
163 0 0 0
164 0 0 0
125 0 0 0
129 0 0 0
130 0 0 0
155 0 0 0
159 0 0 0
160 0 0 0
165 0 0 0
131 0 0 0
132 0 0 0
136 0 0 0
137 0 0 0
161 0 0 0
166 0 0 0
167 0 0 0
133 0 0 0
134 0 0 0
138 0 0 0
168 0 0 0
173 0 0 0
135 0 0 0
139 0 0 0
140 0 0 0
169 0 0 0
170 0 0 0
175 0 0 0
141 0 0 0
142 0 0 0
146 0 0 0
147 0 0 0
151 0 0 0
171 0 0 0
172 0 0 0
176 0 0 0
177 0 0 0
143 0 0 0
144 0 0 0
148 0 0 0
178 0 0 0
145 0 0 0
149 0 0 0
150 0 0 0
174 0 0 0
179 0 0 0
180 0 0 0
181 0 0 0
182 0 0 0
186 0 0 0
187 0 0 0
211 0 0 0
212 0 0 0
216 0 0 0
217 0 0 0
183 0 0 0
188 0 0 0
189 0 0 0
213 0 0 0
214 0 0 0
218 0 0 0
184 0 0 0
185 0 0 0
190 0 0 0
215 0 0 0
219 0 0 0
220 0 0 0
191 0 0 0
192 0 0 0
197 0 0 0
221 0 0 0
222 0 0 0
226 0 0 0
227 0 0 0
193 0 0 0
198 0 0 0
199 0 0 0
223 0 0 0
224 0 0 0
228 0 0 0
194 0 0 0
195 0 0 0
196 0 0 0
200 0 0 0
225 0 0 0
229 0 0 0
230 0 0 0
201 0 0 0
202 0 0 0
206 0 0 0
207 0 0 0
231 0 0 0
232 0 0 0
236 0 0 0
203 0 0 0
208 0 0 0
209 0 0 0
233 0 0 0
234 0 0 0
238 0 0 0
204 0 0 0
205 0 0 0
210 0 0 0
235 0 0 0
239 0 0 0
240 0 0 0
237 0 0 0
241 0 0 0
242 0 0 0
246 0 0 0
247 0 0 0
276 0 0 0
243 0 0 0
244 0 0 0
248 0 0 0
279 0 0 0
249 0 0 0
250 0 0 0
255 0 0 0
275 0 0 0
251 0 0 0
252 0 0 0
256 0 0 0
257 0 0 0
253 0 0 0
254 0 0 0
258 0 0 0
264 0 0 0
283 0 0 0
289 0 0 0
259 0 0 0
260 0 0 0
284 0 0 0
290 0 0 0
261 0 0 0
262 0 0 0
266 0 0 0
267 0 0 0
292 0 0 0
326 0 0 0
263 0 0 0
268 0 0 0
245 0 0 0
265 0 0 0
269 0 0 0
270 0 0 0
294 0 0 0
296 0 0 0
271 0 0 0
272 0 0 0
277 0 0 0
301 0 0 0
302 0 0 0
306 0 0 0
307 0 0 0
273 0 0 0
278 0 0 0
303 0 0 0
304 0 0 0
308 0 0 0
274 0 0 0
280 0 0 0
305 0 0 0
309 0 0 0
310 0 0 0
335 0 0 0
281 0 0 0
282 0 0 0
286 0 0 0
287 0 0 0
312 0 0 0
316 0 0 0
317 0 0 0
288 0 0 0
313 0 0 0
314 0 0 0
318 0 0 0
285 0 0 0
311 0 0 0
315 0 0 0
319 0 0 0
320 0 0 0
355 0 0 0
291 0 0 0
297 0 0 0
321 0 0 0
322 0 0 0
327 0 0 0
356 0 0 0
293 0 0 0
298 0 0 0
299 0 0 0
323 0 0 0
324 0 0 0
328 0 0 0
295 0 0 0
300 0 0 0
325 0 0 0
329 0 0 0
330 0 0 0
332 0 0 0
336 0 0 0
337 0 0 0
333 0 0 0
334 0 0 0
338 0 0 0
339 0 0 0
340 0 0 0
342 0 0 0
346 0 0 0
347 0 0 0
343 0 0 0
344 0 0 0
348 0 0 0
361 0 0 0
362 0 0 0
341 0 0 0
345 0 0 0
349 0 0 0
350 0 0 0
352 0 0 0
357 0 0 0
360 0 0 0
353 0 0 0
354 0 0 0
358 0 0 0
331 0 0 0
351 0 0 0
359 0 0 0
