LAMMPS data file via write_data, version 11 Feb 2026, timestep = 461, units = metal

362 atoms
8 atom types

0 12.447907776 xlo xhi
0 12.9362452296 ylo yhi
0 52.3600831054 zlo zhi

Masses

1 26.9815
2 10.811
3 12.011
4 51.9961
5 55.845
6 95.95999999999999
7 58.6934
8 1.008

Atoms # atomic/kk

1 7 1.1067923242600852 0.809740301909969 14.642293808191566 0 0 0
2 7 3.545311656329806 0.7253827521252283 14.870734398789514 0 0 0
6 7 12.257086170208687 3.465555944977373 14.643206650286563 -1 0 0
7 7 2.21757317334145 2.958705982245157 15.107020011050022 0 0 0
31 6 12.384388659399354 1.8768206440129793 16.48592382104592 -1 0 0
32 7 2.298919318930986 1.24175621300692 16.930916775679542 0 0 0
36 7 1.1284030411708779 3.956716091910152 17.06283706578583 0 0 0
37 7 3.5614057923597398 3.634122784430793 17.093366627706665 0 0 0
3 5 6.006054138404733 0.8545252421579573 14.937499492467255 0 0 0
8 7 4.771154495355716 2.9729565302148577 15.020745713062649 0 0 0
9 7 7.277029769936767 3.0499132180098365 14.8928839843803 0 0 0
33 7 4.820482875489804 1.5235352391575547 16.982811847224195 0 0 0
34 7 7.348256981773926 1.6992952505923984 16.946609578615544 0 0 0
38 5 6.067278517611453 3.729846758880924 16.97040453666261 0 0 0
4 6 8.627010398345485 0.9585516790973343 14.94613599324782 0 0 0
5 7 11.01484223991456 1.2404566376395267 14.461785276303646 0 0 0
10 7 9.799211479047331 3.367049679482672 14.722807808794276 0 0 0
35 7 9.912191047779485 1.7013776327160994 16.904841270673728 0 0 0
39 7 8.626568627538822 3.8521067855575897 16.814445607661284 0 0 0
40 7 11.062886686851472 3.940881038951957 16.96505628155817 0 0 0
11 7 1.125592560693317 5.420732363765415 15.026069480093566 0 0 0
12 7 3.543635711427939 5.134331055839951 15.121920636035462 0 0 0
16 4 0.20692706770056002 7.661398756787919 14.612202826622346 0 0 0
17 7 2.4195226596800734 7.493329147382894 15.091546676296986 0 0 0
41 7 12.307643045945536 6.09800327466871 17.12825915183301 -1 0 0
42 7 2.363971929971562 6.063508146835412 17.11216935431541 0 0 0
46 7 0.8096315844413263 8.401749481321605 16.860480784657568 0 0 0
47 7 3.8071411770174475 7.997728659880446 17.02719960020623 0 0 0
13 7 6.037497236005823 5.173947581692053 15.00854415120023 0 0 0
18 7 4.8867381091204996 7.2901685668408485 14.977148836709612 0 0 0
19 2 6.834564257177979 6.963172960397133 15.316506141406066 0 0 0
43 7 4.845787682139712 5.799053626928567 17.077263283363322 0 0 0
44 7 7.334010667179431 5.868438230356622 17.023561548938005 0 0 0
48 7 6.216931631791896 7.980820618112375 17.018317941557488 0 0 0
14 7 8.565586015632755 5.626684467381674 14.893675030558512 0 0 0
15 6 11.038810640088816 5.626828095594087 15.085709958959914 0 0 0
20 7 10.219234194867665 7.645509593989986 13.989578581292658 0 0 0
45 7 9.79904189537142 6.098948380352283 17.179946983060358 0 0 0
49 7 8.461527957877232 7.846207376828222 16.02250501780705 0 0 0
50 7 10.897425798983008 8.104899071676021 16.21491657847555 0 0 0
21 2 1.5399982213773493 9.461245164265751 15.210670543135933 0 0 0
22 7 3.6085128670674322 9.50039962023972 14.919197680444539 0 0 0
26 7 0.30601654805726863 10.790686254147142 16.829685920266133 0 0 0
27 7 2.0237242134106492 11.46517487274105 15.151363898249661 0 0 0
51 3 11.612278179809698 9.358877922113713 17.499651713315888 -1 0 0
52 7 2.6055792138838685 10.069289107016152 17.043461219264874 0 0 0
56 2 0.9185951151380931 12.69322746684038 16.354744608398523 0 0 0
57 7 3.695289674941194 12.214124478328412 16.929767411319702 0 0 0
23 7 6.576300359848869 9.07461689187931 14.851542944239098 0 0 0
28 7 4.809098171567982 11.598018442559752 14.819086136339166 0 0 0
29 6 7.365442234814255 11.48673663132529 14.917413430060371 0 0 0
53 7 5.119863894730823 10.098927569125685 16.779578545965165 0 0 0
54 7 7.68566824528359 10.032263292658385 16.921998020939217 0 0 0
58 6 6.286225035951557 12.327058489131893 17.012546468972243 0 0 0
24 7 9.043529725856631 9.655674333412557 14.656331125647815 0 0 0
25 7 11.93651483728036 9.866983832755547 14.71150291831475 0 0 0
30 7 9.91509915465315 11.844932181778587 14.578992131606316 0 0 0
55 7 10.235252463208957 10.396765668586372 16.646532319131822 0 0 0
59 7 8.834517387790136 12.359419521973889 16.89096843197206 0 0 0
60 7 11.290370033465654 12.611160908115275 16.35091398518263 0 0 0
61 6 0.09673537235158582 12.902542962076755 18.57655112906192 0 -1 0
62 7 2.5546102729137226 0.024704749599838188 19.14391812885624 0 0 0
66 6 1.3451950941181092 2.220344933747272 19.066871215511803 0 0 0
67 5 3.7896284592046614 2.173003255255186 19.10505966687972 0 0 0
91 4 1.3564896267273228 0.7758747012436347 21.253306296441686 0 0 0
92 7 3.7873826588923247 0.7317083053043281 21.133666524198492 0 0 0
96 7 0.07489162059652993 2.8549412381105164 21.177574241250603 0 0 0
97 7 2.596832177977303 2.8529453923120554 21.20989953530563 0 0 0
63 5 5.006148458882764 0.10864461430361279 19.064502280245968 0 0 0
64 7 7.488713547287126 0.09872902723042522 19.093836819801343 0 0 0
68 7 6.184284063973443 2.1660132767832563 19.050507831449725 0 0 0
93 7 6.314654536691049 0.7307186611875132 21.207882437543798 0 0 0
98 7 5.039592363339495 2.867353349277853 21.152890666883735 0 0 0
99 5 7.494331364147131 2.834069181719713 21.143181098924384 0 0 0
65 7 10.073154932264018 0.0949368642621548 18.965418749681664 0 0 0
69 7 8.724159250877795 2.1773126725950642 18.963677793766696 0 0 0
70 7 11.283413822104519 2.2811339746092276 18.908548389097465 0 0 0
94 7 8.770355138756363 0.7437191247974315 21.17922492234248 0 0 0
95 7 11.355886387184803 0.714687079808309 21.031831585371616 0 0 0
100 6 10.037735292297198 2.831446419377137 21.02029294239112 0 0 0
71 1 12.321118142939996 4.445297245866145 19.19614685379425 -1 0 0
72 7 2.4414879746716696 4.411676429430851 19.117005605883286 0 0 0
76 7 1.1589624685330704 6.488011980497967 19.190784057179187 0 0 0
77 7 3.7519567700989427 6.489095323777833 19.144901057692675 0 0 0
101 7 1.2016996304286538 5.021254534522364 21.232831143930223 0 0 0
102 6 3.7312081064975393 5.0372635526211615 21.226980619982953 0 0 0
106 7 12.435062301676027 7.1279095313434215 21.2743147858159 -1 0 0
107 7 2.465582192851866 7.161950207710179 21.238221014337714 0 0 0
73 7 4.933106051106314 4.300057552442519 19.077036823577515 0 0 0
74 6 7.462146740872738 4.306491331187714 19.026868419073676 0 0 0
78 7 6.163377632715562 6.514468517346592 19.105740798003445 0 0 0
103 7 6.271600593558394 5.047823869573401 21.157066926435867 0 0 0
108 7 5.0124366054740195 7.21201301570427 21.20788288973883 0 0 0
109 7 7.419740581102252 7.256271431998156 21.240301036255804 0 0 0
75 5 9.85426926676555 4.355306902256217 19.01108145227618 0 0 0
79 7 8.606485667122108 6.507877766399728 19.286231395728993 0 0 0
80 7 11.085690370647562 6.500707953062696 19.283934358152777 0 0 0
104 7 8.732057514638484 5.052100990065591 21.21648137544443 0 0 0
105 3 10.082116271924702 4.413682313926857 22.263175035944244 0 0 0
110 7 9.894847448201153 7.18454547890179 21.272195976973684 0 0 0
81 4 12.363160867847569 8.57386854558469 19.188710637411386 -1 0 0
82 6 2.426258953305422 8.52755125674387 19.02469312706515 0 0 0
86 7 1.297133392342602 10.748056868347309 19.17101945913512 0 0 0
87 1 3.839108867620596 10.871096241752657 19.009909223970347 0 0 0
111 7 1.1944209571481585 9.324979536143381 21.217110422339644 0 0 0
112 6 3.741031091289631 9.329993495009443 21.2390959213759 0 0 0
116 1 0.05178283148292341 11.539315842680416 21.17711925960434 0 0 0
117 7 2.5151861599321625 11.530625517809833 21.175499222033082 0 0 0
83 7 4.961783425945586 8.719136255233224 19.033557086181442 0 0 0
84 7 7.415805999787162 8.629380100435537 19.011710411150446 0 0 0
88 7 6.2682859626047085 10.812769937860038 19.022187030352228 0 0 0
113 7 6.233959465603697 9.387760485486034 21.0345662190683 0 0 0
118 7 5.034713497410293 11.55037067575022 21.143568078135555 0 0 0
119 4 7.465407257862706 11.56646734815055 21.077611480153198 0 0 0
85 6 9.82231773482634 8.505836062234454 18.45024000981652 0 0 0
89 6 8.776032261335656 10.861251594698203 18.980322526625613 0 0 0
90 4 11.278301541296994 10.799402599895677 18.892094073435747 0 0 0
114 7 8.700344636254027 9.334249090189953 20.934685442365787 0 0 0
115 6 11.113400537821455 9.281512459925997 21.168468108191924 0 0 0
120 7 10.01218423433831 11.548728558143674 21.12342536968315 0 0 0
121 7 0.07676617751671794 1.3993298076535199 23.257329177453798 0 0 0
122 7 2.565195369775931 1.3962729893279076 23.31764554235785 0 0 0
126 6 1.3481675936252688 3.5957232788178395 23.260893908150813 0 0 0
127 7 3.8493172710325436 3.580479737909728 23.365913577109385 0 0 0
152 7 2.6502470799360798 0.0027160383155537776 25.375655142820168 0 0 0
156 1 1.4825544199425775 2.132021292364829 25.502335119034633 0 0 0
157 7 3.970945170924361 2.129918854531134 25.444435674579008 0 0 0
162 7 2.5998458815295202 4.2595852311029105 25.42791231137996 0 0 0
123 7 5.0061208374712995 1.4222076841904552 23.200474582961547 0 0 0
124 7 7.411485674651986 1.5129918570955798 23.480046977634 0 0 0
128 7 6.303976612760272 3.658650933369258 23.171286998198863 0 0 0
153 7 5.196012786701745 0.05701189755428799 25.33109330397053 0 0 0
154 7 7.607369506379771 0.002916927195324549 25.459446274110775 0 0 0
158 2 5.79648378372348 2.4739896904301824 24.644030119884444 0 0 0
163 7 5.116448740750181 4.24270569957602 25.42277455692244 0 0 0
164 5 7.4759933073755995 4.055071201331986 25.34423327391962 0 0 0
125 7 10.060254682342645 1.4375924982446175 23.301744258999456 0 0 0
129 7 8.755665549093214 3.5550780393900294 23.329510462226537 0 0 0
130 4 11.358586827474614 3.634285330235444 23.383161723192114 0 0 0
155 4 10.131509550913135 0.065368004382688 25.519595550606745 0 0 0
159 7 8.885482422277521 2.09879480344616 25.423601526762557 0 0 0
160 7 11.409053235010148 2.1605342922758375 25.392382024143973 0 0 0
165 7 10.06612583307864 4.2231071863262475 25.397682728732423 0 0 0
131 7 0.07171890866178555 5.785520710873958 23.385650593467535 0 0 0
132 7 2.544905635722516 5.787942626496022 23.36500836355965 0 0 0
136 7 1.3090460762213318 7.9137612653240765 23.296205594649184 0 0 0
137 7 3.785020285298406 7.955344544991044 23.321807255404902 0 0 0
161 4 0.11126124742567585 4.344364363853632 25.45387870775249 0 0 0
166 7 1.3390954353913178 6.415444807083309 25.423826416255697 0 0 0
167 7 3.8109443457438115 6.427597102898588 25.44863923918298 0 0 0
133 6 5.06928723181317 5.841677562755495 23.38473122760977 0 0 0
134 7 7.559351999804719 5.777952944681895 23.301694048565537 0 0 0
138 7 6.312799955462193 7.986775369039773 23.33925123838526 0 0 0
168 7 6.366548333099997 6.38569371521318 25.429921889794713 0 0 0
173 7 5.11414932641755 8.543619385359746 25.353559444788644 0 0 0
135 7 10.064087654589775 5.838480530447518 23.373358832020042 0 0 0
139 4 8.699710939527263 7.947217148685779 23.212197467415923 0 0 0
140 4 11.288307329735488 7.899748717161902 23.295038961660847 0 0 0
169 7 8.775062441528394 6.334302948755046 25.371080876863495 0 0 0
170 7 11.292031373144482 6.411010013192034 25.434396492716793 0 0 0
175 6 9.89448097865684 8.567518160364168 25.501210604813647 0 0 0
141 7 0.02179072614267201 10.08438372019271 23.32861882957513 0 0 0
142 7 2.5035237538610065 10.098655581463714 23.299275903997177 0 0 0
146 7 1.3013677481571913 12.232965937714585 23.31441661776749 0 0 0
147 7 3.8155364885572256 12.232537476335121 23.230615359543886 0 0 0
151 4 0.09530169736978283 12.877576362652057 25.37143866140603 0 -1 0
171 6 0.11406319262385095 8.620477851829204 25.41090017763626 0 0 0
172 7 2.6242950463075845 8.601955221276608 25.39567918217916 0 0 0
176 7 1.345105354660599 10.80373818151189 25.432461236803686 0 0 0
177 6 3.8867657326659133 10.806546984882496 25.31541467629376 0 0 0
143 7 5.074942756686484 10.10107030977783 23.234744074168578 0 0 0
144 7 7.510268450992156 10.08790076159104 22.904403645417283 0 0 0
148 4 6.230818226254222 12.272283163592114 23.261659564523598 0 0 0
178 6 6.6449931745195645 10.516276571022932 25.238628347055574 0 0 0
145 7 9.997429282461168 10.08883478269007 23.300009061078615 0 0 0
149 6 8.722099655948684 12.28851411178314 23.291442613258397 0 0 0
150 7 11.259349778161003 12.227503432711112 23.333726553833095 0 0 0
174 3 8.419927593525731 9.504492442139084 24.405969239859747 0 0 0
179 5 9.012746153784846 10.928471946410957 25.559797527169085 0 0 0
180 5 11.344801867303806 10.876832701370745 25.481797525972627 0 0 0
181 7 1.3877334488928876 0.6612200207556307 27.485817603194384 0 0 0
182 7 3.876653253906865 0.6956924903854178 27.444985167818444 0 0 0
186 7 0.17278733336008176 2.857668832230935 27.479550281990424 0 0 0
187 7 2.66082160748184 2.8453420483668777 27.563804446705152 0 0 0
211 7 0.20914818074097657 1.442613995334992 29.579868788581507 0 0 0
212 7 2.7101733040895213 1.355575401953905 29.579789804276192 0 0 0
216 7 1.4111615738066483 3.550226044084382 29.583820929334014 0 0 0
217 4 3.8253255317439794 3.5641818486521677 29.59954009556091 0 0 0
183 7 6.315506264588008 0.7105942996236718 27.569983923932277 0 0 0
188 7 5.085760376627242 2.8655112921272536 27.575449313539416 0 0 0
189 7 7.60141307708238 2.7880863107828486 27.44854528589733 0 0 0
213 5 5.137396770052513 1.4167835192672331 29.60069388239601 0 0 0
214 7 7.619694399560937 1.3500806437431414 29.584359597561637 0 0 0
218 7 6.367720678852244 3.527625472692793 29.540092760426422 0 0 0
184 7 8.895796733107293 0.7186386764051929 27.5507809726761 0 0 0
185 4 11.388313202346035 0.72209267485601 27.518609057958926 0 0 0
190 7 10.150612333175753 2.8330308108133897 27.475101121294767 0 0 0
215 7 10.128790144133882 1.4036233412821308 29.619614671635713 0 0 0
219 7 8.841879228906569 3.5094345225760146 29.518707598705603 0 0 0
220 7 11.371278710538503 3.5587480592699703 29.51173039900701 0 0 0
191 7 1.3918833190272286 5.004106268943212 27.468949217632968 0 0 0
192 7 3.8347071434938598 4.980444507672095 27.48707749893841 0 0 0
197 7 2.5810236483281503 7.184249839744373 27.480978972325875 0 0 0
221 7 0.12183823383030075 5.725029089824877 29.564690103335778 0 0 0
222 7 2.5921961588702396 5.720275800106627 29.55266491143811 0 0 0
226 7 1.363815038282212 7.897999801592284 29.5502831442523 0 0 0
227 7 3.8622178793095294 7.902673358944451 29.476260462862214 0 0 0
193 7 6.37333673269537 4.966752094258333 27.4132934528134 0 0 0
198 7 5.105286081349364 7.161956547081261 27.418657435232166 0 0 0
199 7 7.618748212302598 7.183835026434314 27.444912642198076 0 0 0
223 6 5.156083851036981 5.709716617010992 29.492779111579775 0 0 0
224 7 7.6478798372300805 5.7329422057607005 29.576871771336357 0 0 0
228 7 6.3950499599926065 7.903486993425669 29.496545152753168 0 0 0
194 6 8.849770000365021 4.99697094644316 27.482201086403254 0 0 0
195 7 11.363053379559853 4.996285229816859 27.497959772488496 0 0 0
196 7 0.13768309410698593 7.159924931801216 27.48773664098009 0 0 0
200 7 10.123756601408259 7.159101883988333 27.52700879856095 0 0 0
225 7 10.10394126228615 5.740199708040757 29.595513779241045 0 0 0
229 7 8.848054311759835 7.881880558550947 29.51457497769308 0 0 0
230 7 11.369557354135807 7.930238908981753 29.514070457343067 0 0 0
201 5 1.378817057407867 9.324379328295656 27.515029814257534 0 0 0
202 7 3.873994096639852 9.310022142694297 27.396196081317978 0 0 0
206 4 0.18817786787150828 11.479413303477681 27.518064549411573 0 0 0
207 7 2.61165221536101 11.455012247478706 27.452497390578078 0 0 0
231 7 0.16366871319959742 10.07747031704835 29.56206032221513 0 0 0
232 7 2.631841287087264 10.019593293094303 29.43463814111251 0 0 0
236 7 1.4696057217192646 12.180795783686795 29.556011959975834 0 0 0
203 7 6.373539457607947 9.28191310807923 27.40731647243803 0 0 0
208 7 5.143264528669939 11.49074288019442 27.35315363968428 0 0 0
209 6 7.592500961893335 11.526645015164444 27.63166723497652 0 0 0
233 7 5.147975688159076 10.044746786219505 29.341901434075993 0 0 0
234 7 7.603699729808263 10.083585570423859 29.655998500510947 0 0 0
238 7 6.222656175788922 12.230674939363533 29.680689355450376 0 0 0
204 7 8.83878769235678 9.367394058246973 27.60407237762492 0 0 0
205 7 11.347404938507939 9.418297714244384 27.530964475248226 0 0 0
210 7 10.157217973451743 11.55607012275039 27.566685627947916 0 0 0
235 7 10.086348841364615 10.17709671667541 29.586408049166316 0 0 0
239 4 8.884814694139246 12.253358428166901 29.723773384597845 0 0 0
240 7 11.394997878811623 12.266834101769701 29.552077990361038 0 0 0
237 3 4.032922804048365 0.29692491426673007 30.55996205426424 0 1 0
241 7 0.19931132504508675 0.10129543659721833 31.628975614253253 0 0 0
242 7 2.565443157369634 0.1426427527457834 31.740038752403013 0 0 0
246 4 1.3426354074144513 2.2439888278493303 31.659501922564584 0 0 0
247 7 3.882176562026173 2.1493958973612783 31.641994308995077 0 0 0
276 7 0.17852940973056466 3.000621850186704 33.73222731380454 0 0 0
243 7 5.169791095681039 12.903902700515665 32.10064368826955 0 -1 0
244 7 7.628772752065675 0.0030862949650514882 31.710034653305883 0 0 0
248 7 6.410165965104505 2.1489505830558895 31.642575058468637 0 0 0
279 7 7.731455438819364 3.0468768178970853 33.72603021853569 0 0 0
249 7 8.853466505678812 2.105090679001423 31.673992979169782 0 0 0
250 7 11.384507498979273 2.142698594452128 31.651876437322173 0 0 0
255 1 10.106240344964318 4.223547040991796 31.49496922476798 0 0 0
275 4 11.444673823096926 0.8049422262646406 33.70930805536591 0 0 0
251 7 0.14759251682319463 4.328226364972661 31.64396989696137 0 0 0
252 7 2.6333017881715244 4.318447292253223 31.665997772371522 0 0 0
256 7 1.3303532114119156 6.503934374442043 31.63259973805566 0 0 0
257 6 3.792646330556088 6.500009903334079 31.663660779974446 0 0 0
253 7 5.11422178803767 4.308534879185306 31.622454272057322 0 0 0
254 7 7.623922256521806 4.313046130041427 31.58682842209949 0 0 0
258 7 6.354528659984151 6.493988373317706 31.62084619997682 0 0 0
264 7 7.592541829047038 8.58003832427676 31.614911980305802 0 0 0
283 7 6.382085618470843 5.103308396583302 33.666322881225476 0 0 0
289 7 7.636764853569156 7.188472655068919 33.70933498223866 0 0 0
259 4 8.824592573439821 6.4653148259263125 31.621337167512777 0 0 0
260 7 11.316824734993789 6.495508455142131 31.585965801145466 0 0 0
284 5 8.889819488970183 5.121772992700306 33.57655779923175 0 0 0
290 7 10.086701480653 7.265654508554635 33.589443528278615 0 0 0
261 7 0.17785715447823358 8.714071954618609 31.64792530779007 0 0 0
262 7 2.663636280960726 8.719622810985493 31.533089528374063 0 0 0
266 7 1.563433208504213 10.834840965004256 31.57089845926007 0 0 0
267 4 3.917476685613627 11.28162182955609 30.854551308180017 0 0 0
292 7 3.9592926531934975 9.376052467626334 33.502413362479494 0 0 0
326 7 0.5084330434934619 11.660279471262823 33.672969178506726 0 0 0
263 1 5.094755040928693 8.759536489235586 31.427312777647447 0 0 0
268 7 6.262656246544685 10.762841684845457 31.578432759760695 0 0 0
245 7 10.111414856676703 12.89021505285055 31.865606089466294 0 -1 0
265 6 10.10380262357355 8.687915265777793 31.53330863495272 0 0 0
269 7 8.7761882344383 10.804863452618028 31.740169417727515 0 0 0
270 7 11.427168929155064 10.911090991139737 31.60707542724815 0 0 0
294 7 8.772151264662899 9.29237594823843 33.68646495437633 0 0 0
296 3 11.07501131261663 11.838326767517458 33.32606580109496 -1 0 0
271 7 1.4776800490188644 0.9099628217481008 33.773767056610154 0 0 0
272 7 3.922754746000907 0.9619244806352778 33.92396530055442 0 0 0
277 7 2.64484538163637 3.0842706984446635 33.79523826536886 0 0 0
301 7 0.19519929859787857 1.5591584620753092 35.75512296193227 0 0 0
302 7 2.6211857591149634 1.6750115270777728 35.85790962314433 0 0 0
306 4 1.4212126915409078 3.8403127289517687 35.95466325133652 0 0 0
307 7 4.000501761529175 3.7370612455351577 35.83144156327578 0 0 0
273 7 6.466055908350493 0.9795120706688393 33.89926117688903 0 0 0
278 1 5.220063007187187 3.0004738190533358 33.718829192407135 0 0 0
303 7 5.249838814349707 1.6719077780578704 35.93864381117894 0 0 0
304 4 7.767243015017191 1.6399942385744062 35.922409847826366 0 0 0
308 7 6.533316432109041 3.7102151713824103 35.79621956443229 0 0 0
274 7 8.840676247147625 0.9054043238745724 33.836725784190456 0 0 0
280 7 10.205804983999837 3.000269143060461 33.702542945543314 0 0 0
305 7 10.229971836200553 1.5687231648335118 35.72274450712353 0 0 0
309 7 9.024793492210634 3.67859397127884 35.77490878426169 0 0 0
310 4 11.593388231331348 3.9509876891343567 35.85717338400907 0 0 0
335 5 9.904003433487924 12.913537764654977 37.3857517072921 0 -1 0
281 7 1.3251508295632393 5.187862875734162 33.85647441518555 0 0 0
282 4 3.8487948156281258 5.137394000269449 33.766715666319605 0 0 0
286 7 0.09537361791954078 7.286570931490875 33.619117501152765 0 0 0
287 7 2.6334863455573183 7.291475964918153 33.74318343046537 0 0 0
312 7 2.731899297313464 5.797215658532242 35.7812487198374 0 0 0
316 7 1.214697213620614 7.611942853836564 35.78492776119768 0 0 0
317 7 3.9365189103269604 8.06836940541135 35.727612668710705 0 0 0
288 7 5.185422323226718 7.271995799323236 33.663267880820115 0 0 0
313 7 5.26810403377256 5.919058973511893 35.711073193649675 0 0 0
314 7 7.7252416010606675 5.824398080235258 35.739091637137015 0 0 0
318 4 6.554745947133157 8.12191203552933 35.796038290961185 0 0 0
285 4 11.34776703568146 5.1610079898250225 33.62752344865056 0 0 0
311 2 12.374236092643336 6.0078422388264965 35.31672143607816 -1 0 0
315 7 10.136951344666336 5.816944436447412 35.57471177663794 0 0 0
319 7 8.954302708083686 7.982504499316821 35.81971274818116 0 0 0
320 7 11.3493639528943 7.9414507763876125 35.58714897242062 0 0 0
355 3 10.442804890605544 7.909215536480035 37.27211665783908 0 0 0
291 7 1.4682249658902873 9.430791835278402 33.729503198744275 0 0 0
297 6 3.0259689927828983 11.57967735832623 33.66839389503383 0 0 0
321 6 0.20966763848658934 10.075896216080771 35.90653312089888 0 0 0
322 7 2.7044042828711454 10.205014809633026 35.7577333474456 0 0 0
327 6 3.921893968818169 12.512076971810295 36.10845434425388 0 0 0
356 4 1.4036474793353062 12.366374590444588 35.84074304761671 0 0 0
293 4 6.456577051610591 9.318211444316018 33.644160368951056 0 0 0
298 2 5.201071925132282 12.297617091127139 34.20714463930232 0 0 0
299 7 6.987634162516384 11.580914179750284 33.6789687926798 0 0 0
323 6 5.236065651031829 10.246204764322012 35.5594765300079 0 0 0
324 7 7.911882065320283 10.35962475270807 35.70369991801081 0 0 0
328 7 6.474372598847856 12.527098250971665 35.91250198074753 0 0 0
295 6 11.27200208436189 9.705084344869073 33.754703573353645 0 0 0
300 7 9.377647413255879 11.55132558178987 34.15463354678444 0 0 0
325 7 10.251764848248946 9.852252767963249 37.02396046620559 0 0 0
329 3 9.529545266413065 11.410139317863393 36.19136359451553 0 0 0
330 4 11.256348126434371 12.079934088044844 35.56316137057256 0 0 0
332 7 2.4856996536753546 0.11300711933487033 38.03445302649467 0 0 0
336 7 1.3358227608974689 2.1961902280664134 37.82977932815311 0 0 0
337 7 3.8786008185163032 2.2053257018249686 37.86156037490247 0 0 0
333 7 5.219204424392977 0.17523217504004276 38.11738463947304 0 0 0
334 7 7.651116360364155 0.0754961736797851 38.01012060374809 0 0 0
338 7 6.534092840583594 2.270719070601263 37.900560012619266 0 0 0
339 7 8.99513037601032 2.198346218057964 37.853594628391406 0 0 0
340 7 11.372220848511526 2.2058288761908176 37.72317149075975 0 0 0
342 7 2.7169941094445704 4.3037349628359385 37.92033592265116 0 0 0
346 7 1.5221127759812345 6.422168045337396 37.99606459084853 0 0 0
347 6 3.970344520478315 6.4852823488888625 37.76041794448207 0 0 0
343 7 5.308094223478277 4.438144488681275 37.83194435916719 0 0 0
344 7 7.837818858277611 4.4484103798477985 37.84267925250497 0 0 0
348 6 6.663951839390175 6.672787090007649 37.81291807737028 0 0 0
341 7 0.21732530726218216 4.263405709423245 38.0660805109573 0 0 0
345 4 10.226126073001213 4.347014328141494 37.805185356607964 0 0 0
349 7 9.243101190117777 6.639963407384828 37.86207517359691 0 0 0
350 7 11.68599263498709 6.283700157733585 37.29394492795128 0 0 0
352 6 2.501813264818827 8.673682806108287 37.68313703118864 0 0 0
357 7 3.861078759365254 10.821214415194895 37.960261396615174 0 0 0
360 7 1.404012992847238 10.912491537278816 37.88343163944267 1 0 0
353 7 5.1404307032332595 8.707418823079516 37.81985646295868 0 0 0
354 7 7.942316960262162 8.971671704119506 37.812753987872696 0 0 0
358 6 6.409281054870458 10.865696903674632 37.774235922429845 0 0 0
361 8 6.05313539228034 10.72997857414128 41.50797675072989 0 0 0
362 8 6.804039390674256 10.80123251213523 41.41675752188392 0 0 0
331 7 12.3918898059443 12.889337584640115 37.615256687827994 -1 -1 0
351 7 12.249392016978224 8.572629633738627 37.835320971198 -1 0 0
359 2 8.602123905157816 11.171289526659175 37.415993837323526 0 0 0

Velocities

1 0 0 0
2 0 0 0
6 0 0 0
7 0 0 0
31 0 0 0
32 0 0 0
36 0 0 0
37 0 0 0
3 0 0 0
8 0 0 0
9 0 0 0
33 0 0 0
34 0 0 0
38 0 0 0
4 0 0 0
5 0 0 0
10 0 0 0
35 0 0 0
39 0 0 0
40 0 0 0
11 0 0 0
12 0 0 0
16 0 0 0
17 0 0 0
41 0 0 0
42 0 0 0
46 0 0 0
47 0 0 0
13 0 0 0
18 0 0 0
19 0 0 0
43 0 0 0
44 0 0 0
48 0 0 0
14 0 0 0
15 0 0 0
20 0 0 0
45 0 0 0
49 0 0 0
50 0 0 0
21 0 0 0
22 0 0 0
26 0 0 0
27 0 0 0
51 0 0 0
52 0 0 0
56 0 0 0
57 0 0 0
23 0 0 0
28 0 0 0
29 0 0 0
53 0 0 0
54 0 0 0
58 0 0 0
24 0 0 0
25 0 0 0
30 0 0 0
55 0 0 0
59 0 0 0
60 0 0 0
61 0 0 0
62 0 0 0
66 0 0 0
67 0 0 0
91 0 0 0
92 0 0 0
96 0 0 0
97 0 0 0
63 0 0 0
64 0 0 0
68 0 0 0
93 0 0 0
98 0 0 0
99 0 0 0
65 0 0 0
69 0 0 0
70 0 0 0
94 0 0 0
95 0 0 0
100 0 0 0
71 0 0 0
72 0 0 0
76 0 0 0
77 0 0 0
101 0 0 0
102 0 0 0
106 0 0 0
107 0 0 0
73 0 0 0
74 0 0 0
78 0 0 0
103 0 0 0
108 0 0 0
109 0 0 0
75 0 0 0
79 0 0 0
80 0 0 0
104 0 0 0
105 0 0 0
110 0 0 0
81 0 0 0
82 0 0 0
86 0 0 0
87 0 0 0
111 0 0 0
112 0 0 0
116 0 0 0
117 0 0 0
83 0 0 0
84 0 0 0
88 0 0 0
113 0 0 0
118 0 0 0
119 0 0 0
85 0 0 0
89 0 0 0
90 0 0 0
114 0 0 0
115 0 0 0
120 0 0 0
121 0 0 0
122 0 0 0
126 0 0 0
127 0 0 0
152 0 0 0
156 0 0 0
157 0 0 0
162 0 0 0
123 0 0 0
124 0 0 0
128 0 0 0
153 0 0 0
154 0 0 0
158 0 0 0
163 0 0 0
164 0 0 0
125 0 0 0
129 0 0 0
130 0 0 0
155 0 0 0
159 0 0 0
160 0 0 0
165 0 0 0
131 0 0 0
132 0 0 0
136 0 0 0
137 0 0 0
161 0 0 0
166 0 0 0
167 0 0 0
133 0 0 0
134 0 0 0
138 0 0 0
168 0 0 0
173 0 0 0
135 0 0 0
139 0 0 0
140 0 0 0
169 0 0 0
170 0 0 0
175 0 0 0
141 0 0 0
142 0 0 0
146 0 0 0
147 0 0 0
151 0 0 0
171 0 0 0
172 0 0 0
176 0 0 0
177 0 0 0
143 0 0 0
144 0 0 0
148 0 0 0
178 0 0 0
145 0 0 0
149 0 0 0
150 0 0 0
174 0 0 0
179 0 0 0
180 0 0 0
181 0 0 0
182 0 0 0
186 0 0 0
187 0 0 0
211 0 0 0
212 0 0 0
216 0 0 0
217 0 0 0
183 0 0 0
188 0 0 0
189 0 0 0
213 0 0 0
214 0 0 0
218 0 0 0
184 0 0 0
185 0 0 0
190 0 0 0
215 0 0 0
219 0 0 0
220 0 0 0
191 0 0 0
192 0 0 0
197 0 0 0
221 0 0 0
222 0 0 0
226 0 0 0
227 0 0 0
193 0 0 0
198 0 0 0
199 0 0 0
223 0 0 0
224 0 0 0
228 0 0 0
194 0 0 0
195 0 0 0
196 0 0 0
200 0 0 0
225 0 0 0
229 0 0 0
230 0 0 0
201 0 0 0
202 0 0 0
206 0 0 0
207 0 0 0
231 0 0 0
232 0 0 0
236 0 0 0
203 0 0 0
208 0 0 0
209 0 0 0
233 0 0 0
234 0 0 0
238 0 0 0
204 0 0 0
205 0 0 0
210 0 0 0
235 0 0 0
239 0 0 0
240 0 0 0
237 0 0 0
241 0 0 0
242 0 0 0
246 0 0 0
247 0 0 0
276 0 0 0
243 0 0 0
244 0 0 0
248 0 0 0
279 0 0 0
249 0 0 0
250 0 0 0
255 0 0 0
275 0 0 0
251 0 0 0
252 0 0 0
256 0 0 0
257 0 0 0
253 0 0 0
254 0 0 0
258 0 0 0
264 0 0 0
283 0 0 0
289 0 0 0
259 0 0 0
260 0 0 0
284 0 0 0
290 0 0 0
261 0 0 0
262 0 0 0
266 0 0 0
267 0 0 0
292 0 0 0
326 0 0 0
263 0 0 0
268 0 0 0
245 0 0 0
265 0 0 0
269 0 0 0
270 0 0 0
294 0 0 0
296 0 0 0
271 0 0 0
272 0 0 0
277 0 0 0
301 0 0 0
302 0 0 0
306 0 0 0
307 0 0 0
273 0 0 0
278 0 0 0
303 0 0 0
304 0 0 0
308 0 0 0
274 0 0 0
280 0 0 0
305 0 0 0
309 0 0 0
310 0 0 0
335 0 0 0
281 0 0 0
282 0 0 0
286 0 0 0
287 0 0 0
312 0 0 0
316 0 0 0
317 0 0 0
288 0 0 0
313 0 0 0
314 0 0 0
318 0 0 0
285 0 0 0
311 0 0 0
315 0 0 0
319 0 0 0
320 0 0 0
355 0 0 0
291 0 0 0
297 0 0 0
321 0 0 0
322 0 0 0
327 0 0 0
356 0 0 0
293 0 0 0
298 0 0 0
299 0 0 0
323 0 0 0
324 0 0 0
328 0 0 0
295 0 0 0
300 0 0 0
325 0 0 0
329 0 0 0
330 0 0 0
332 0 0 0
336 0 0 0
337 0 0 0
333 0 0 0
334 0 0 0
338 0 0 0
339 0 0 0
340 0 0 0
342 0 0 0
346 0 0 0
347 0 0 0
343 0 0 0
344 0 0 0
348 0 0 0
341 0 0 0
345 0 0 0
349 0 0 0
350 0 0 0
352 0 0 0
357 0 0 0
360 0 0 0
353 0 0 0
354 0 0 0
358 0 0 0
361 0 0 0
362 0 0 0
331 0 0 0
351 0 0 0
359 0 0 0
