LAMMPS data file via write_data, version 11 Feb 2026, timestep = 383, units = metal

362 atoms
8 atom types

0 12.447907776 xlo xhi
0 12.9362452296 ylo yhi
0 52.3600831054 zlo zhi

Masses

1 26.9815
2 10.811
3 12.011
4 51.9961
5 55.845
6 95.95999999999999
7 58.6934
8 1.008

Atoms # atomic/kk

1 7 1.1066420736121152 0.8281947613824479 14.644900777658739 0 0 0
2 7 3.5451172607018595 0.7438466768391186 14.87356810529787 0 0 0
6 7 12.256925079043157 3.4840117409324827 14.645774413701355 -1 0 0
7 7 2.2173748629394705 2.9771658821528475 15.10984689861741 0 0 0
31 6 12.384235897980158 1.8952969724170936 16.488501221755314 -1 0 0
32 7 2.2987126139087164 1.2602203741905242 16.933716325825483 0 0 0
36 7 1.1282068140188322 3.975147003302173 17.06569629453431 0 0 0
37 7 3.561193351075049 3.652562134746327 17.096239917706406 0 0 0
3 5 6.005806668597676 0.8729903118112371 14.940230023666007 0 0 0
8 7 4.770926970773128 2.9913970352874326 15.023573286221948 0 0 0
9 7 7.27678234375746 3.0683972392122563 14.895540782422763 0 0 0
33 7 4.820265484555802 1.5419701282516247 16.985657786631098 0 0 0
34 7 7.348018951044433 1.7177467595689968 16.949220914789734 0 0 0
38 5 6.067060521237046 3.748296854528918 16.973159496398242 0 0 0
4 6 8.626773182410469 0.9770719223303678 14.948664290266612 0 0 0
5 7 11.014633935633377 1.258935385195553 14.464385777367214 0 0 0
10 7 9.799013299632264 3.385549261838586 14.725438243085291 0 0 0
35 7 9.912023253860802 1.7198679835925286 16.90732603025471 0 0 0
39 7 8.626356223442116 3.870593694879179 16.817064624009642 0 0 0
40 7 11.062718531585071 3.9593760580274675 16.96760269288732 0 0 0
11 7 1.125459952640396 5.439143856174989 15.028834236957376 0 0 0
12 7 3.5434970892326443 5.152745024741231 15.124741081386311 0 0 0
16 4 0.20683496697081907 7.679879825495671 14.614814408775143 0 0 0
17 7 2.419383120287949 7.511724295368271 15.094303966393099 0 0 0
41 7 12.307503473848035 6.116437674145546 17.130887212242495 -1 0 0
42 7 2.3638403398780437 6.0819038763981 17.114955043494078 0 0 0
46 7 0.8095284921370874 8.420153326510716 16.863138998954156 0 0 0
47 7 3.8069744116070376 8.016143504366996 17.030010336167184 0 0 0
13 7 6.0373224678839374 5.192417006369489 15.011315060202852 0 0 0
18 7 4.8865474229273165 7.308583925804568 14.979945404245175 0 0 0
19 2 6.8343790211263835 6.981671753149343 15.319226988180521 0 0 0
43 7 4.845629604360712 5.817484832640515 17.08009159664124 0 0 0
44 7 7.333846011396856 5.88694517673679 17.02625148204529 0 0 0
48 7 6.216761941551144 7.999306774199437 17.02108247368689 0 0 0
14 7 8.565436505925293 5.645226153622555 14.89633911564541 0 0 0
15 6 11.03870146444295 5.645313756738247 15.088264557788028 0 0 0
20 7 10.219123820342645 7.664040320350096 13.992184271617152 0 0 0
45 7 9.79887084393882 6.117455569305291 17.182456471749568 0 0 0
49 7 8.461344752143008 7.864752263863977 16.02512999708506 0 0 0
50 7 10.89729103200602 8.123323465281901 16.217518397780577 0 0 0
21 2 1.5398386688404437 9.479705065818019 15.213392134433128 0 0 0
22 7 3.608358022997426 9.518795425100452 14.921941571556385 0 0 0
26 7 0.3058923406314897 10.8090996109076 16.83217621523236 0 0 0
27 7 2.023657181454295 11.483613082305418 15.154032295714824 0 0 0
51 3 11.61209466457181 9.377348289493437 17.502146679744545 -1 0 0
52 7 2.6054371385770723 10.087717249402006 17.04620012286199 0 0 0
56 2 0.9185074892504596 12.711692372723943 16.357335171326095 0 0 0
57 7 3.695057039977081 12.232568158713898 16.932610761348037 0 0 0
23 7 6.576003337279845 9.093093368910376 14.854248462006817 0 0 0
28 7 4.808827734205843 11.616459585105844 14.821865032719801 0 0 0
29 6 7.3651839675032305 11.505241378543419 14.920047773138146 0 0 0
53 7 5.119625830800365 10.117369896200827 16.782379526874987 0 0 0
54 7 7.68542686329128 10.050742002381504 16.924617457437638 0 0 0
58 6 6.285967345600703 12.345493805095142 17.015242438994974 0 0 0
24 7 9.04321923199121 9.674173532367384 14.658815309724778 0 0 0
25 7 11.936305516549996 9.885432299654507 14.714024776001473 0 0 0
30 7 9.914847715716622 11.863438087302878 14.581539139071078 0 0 0
55 7 10.235032980034635 10.415187244260586 16.64897530796196 0 0 0
59 7 8.834315161485124 12.377877957303335 16.893440425036562 0 0 0
60 7 11.290226555971687 12.629597043740574 16.353474635638026 0 0 0
61 6 0.09667292753478576 12.921095229176672 18.579042228465276 0 -1 0
62 7 2.55446017941229 0.04318425435899114 19.14677218851591 0 0 0
66 6 1.345047511355585 2.2388488606974666 19.069691352661 0 0 0
67 5 3.7894487839283433 2.191442459397505 19.10798722727065 0 0 0
91 4 1.3563462678329297 0.7943750016617074 21.256080614383368 0 0 0
92 7 3.787189582238232 0.7501090331389257 21.13663938129219 0 0 0
96 7 0.07478046417897483 2.8735222513682372 21.18028974844728 0 0 0
97 7 2.596660233395696 2.871403470610441 21.212884572988326 0 0 0
63 5 5.005991104588808 0.12709110694821477 19.067435621722733 0 0 0
64 7 7.488521939301535 0.11727458842166398 19.09634529453398 0 0 0
68 7 6.184096937588423 2.184477064656538 19.053272248221926 0 0 0
93 7 6.314559667322656 0.7491396639233787 21.210793797842065 0 0 0
98 7 5.0394044129376425 2.885724398494461 21.15576998406452 0 0 0
99 5 7.494139020749986 2.852697433379919 21.145682588642586 0 0 0
65 7 10.073037931080409 0.11351361297658168 18.967698485126345 0 0 0
69 7 8.723991784551089 2.1959250012306843 18.966104582951477 0 0 0
70 7 11.283293306293993 2.29970460241996 18.911026814978605 0 0 0
94 7 8.770311418035135 0.7624808939273621 21.1812170429469 0 0 0
95 7 11.355763060334636 0.7333901879781687 21.03415589246389 0 0 0
100 6 10.037630138827906 2.8503117467785755 21.02267590288529 0 0 0
71 1 12.320897279010953 4.463813080127779 19.198959571164544 -1 0 0
72 7 2.4413205047293944 4.430140436099212 19.119922404133625 0 0 0
76 7 1.158799811059991 6.506463710640023 19.19347482228686 0 0 0
77 7 3.7517912358355607 6.507528941433707 19.147794031547505 0 0 0
101 7 1.2015293703165384 5.0397802611358635 21.235700971523514 0 0 0
102 6 3.731060412360638 5.0556856891142825 21.22997242736716 0 0 0
106 7 12.43486662641855 7.1464194814486035 21.276852559928336 -1 0 0
107 7 2.465445869714041 7.180365420458446 21.241016689880222 0 0 0
73 7 4.9328982768136935 4.318501240660515 19.0798988518583 0 0 0
74 6 7.461903632622546 4.3250394821402125 19.029533258103445 0 0 0
78 7 6.163157433274893 6.533001605030687 19.108501276382338 0 0 0
103 7 6.271341326632671 5.066389062664865 21.159810631933194 0 0 0
108 7 5.012253827350117 7.230482856611635 21.21088264967331 0 0 0
109 7 7.419475324603771 7.274914800111687 21.242906702640756 0 0 0
75 5 9.854064264155824 4.373942040243195 19.013537776952468 0 0 0
79 7 8.606218977371157 6.5264628652267005 19.288671099686024 0 0 0
80 7 11.085507829743822 6.519250674268184 19.2863940897928 0 0 0
104 7 8.731763721878577 5.070863164782402 21.218998210247243 0 0 0
105 3 10.081878893900505 4.432516996127626 22.26563066500895 0 0 0
110 7 9.894630476361261 7.203288396094712 21.27445662385458 0 0 0
81 4 12.363006623384832 8.592359039081868 19.191192761066254 -1 0 0
82 6 2.4261042662593786 8.545997391655693 19.027476425915257 0 0 0
86 7 1.2969507041709127 10.76652636974611 19.173591302788875 0 0 0
87 1 3.838911198481009 10.889546712080836 19.012800925958082 0 0 0
111 7 1.1942413961093323 9.343442709384727 21.21969071844773 0 0 0
112 6 3.7408400286181336 9.348403818822918 21.242071503540213 0 0 0
116 1 0.05159649567656329 11.557915219575706 21.179482199092394 0 0 0
117 7 2.5149811951450824 11.549018973967627 21.17824339602764 0 0 0
83 7 4.961578931119416 8.737599039277027 19.03641804813601 0 0 0
84 7 7.415588816563126 8.64799152733908 19.014498877077468 0 0 0
88 7 6.26806012785683 10.83126646955658 19.024938432029113 0 0 0
113 7 6.2336746595045325 9.406319951338455 21.037430420575774 0 0 0
118 7 5.034509950794435 11.568832599016543 21.14659655618917 0 0 0
119 4 7.465214354527951 11.58505864764543 21.08008987246887 0 0 0
85 6 9.822093109840162 8.524392848769494 18.452811673403396 0 0 0
89 6 8.775856188668074 10.879808875318368 18.98280759019639 0 0 0
90 4 11.278140064695574 10.817976139547813 18.89444376878141 0 0 0
114 7 8.70005566489321 9.353038521214105 20.93745428318739 0 0 0
115 6 11.113210275934842 9.300172308821386 21.17076809069917 0 0 0
120 7 10.012031447045791 11.567442829702482 21.12563840677953 0 0 0
121 7 0.0765044670850262 1.41794005357889 23.25987905442306 0 0 0
122 7 2.564850064854612 1.4147072028633836 23.320650491912126 0 0 0
126 6 1.3479398326601815 3.6142796152498957 23.263847721339975 0 0 0
127 7 3.8490823258355173 3.5988668926083554 23.369005617711636 0 0 0
152 7 2.649711655797723 0.021038297917462312 25.378624865584378 0 0 0
156 1 1.4822188400297935 2.150518239050288 25.505358715917225 0 0 0
157 7 3.970625735888319 2.148066187516628 25.44749597688263 0 0 0
162 7 2.599563381496423 4.277891753967508 25.431145737740135 0 0 0
123 7 5.00574214119026 1.4404851440059288 23.20350041611404 0 0 0
124 7 7.411102432351259 1.531683165259279 23.482261429715138 0 0 0
128 7 6.3036534525399 3.677254423439501 23.173878396378235 0 0 0
153 7 5.195254415050457 0.07478906984951965 25.334213954213446 0 0 0
154 7 7.606729103858105 0.021427188750465172 25.461465775633638 0 0 0
158 2 5.79588631462029 2.4928558610329516 24.646579761013893 0 0 0
163 7 5.116049072323912 4.2610179904806325 25.42585575471807 0 0 0
164 5 7.475705148752773 4.074302992735911 25.346525878725764 0 0 0
125 7 10.060057508393246 1.4563911716615823 23.303816346457793 0 0 0
129 7 8.755345632629721 3.57379837296993 23.331756549398623 0 0 0
130 4 11.358373086778267 3.6531215076669814 23.385537528788767 0 0 0
155 4 10.131137550708127 0.0842380385698083 25.52127228233556 0 0 0
159 7 8.885008580126463 2.1175781474362676 25.425456447168187 0 0 0
160 7 11.408710514495034 2.1794622455451274 25.394591754258503 0 0 0
165 7 10.06563804591137 4.242075460442906 25.399844080814784 0 0 0
131 7 0.07156414160219556 5.804212622949117 23.388411995373804 0 0 0
132 7 2.544777496974374 5.806392668257311 23.368045118932578 0 0 0
136 7 1.3089646314951637 7.932246740646904 23.29882199986857 0 0 0
137 7 3.7848812469709507 7.973768161870425 23.324857846391 0 0 0
161 4 0.11096149009558724 4.363075834683197 25.45668871876316 0 0 0
166 7 1.3389499004025596 6.433844193474257 25.426814338333514 0 0 0
167 7 3.8107360169970783 6.445803828275383 25.45194946543808 0 0 0
133 6 5.069101188013195 5.860169306148905 23.387862282433716 0 0 0
134 7 7.5590320630486545 5.7966301768065716 23.304349799758352 0 0 0
138 7 6.312652522356284 8.005381227439921 23.342425859079952 0 0 0
168 7 6.366180428455725 6.404007662930313 25.433195748428766 0 0 0
173 7 5.113841458202438 8.561739038641338 25.3569608018123 0 0 0
135 7 10.06381662058551 5.857316504614273 23.375807328170197 0 0 0
139 4 8.69944912258788 7.96583252920476 23.214435134042265 0 0 0
140 4 11.288150060688078 7.91844697389615 23.297290459672112 0 0 0
169 7 8.774650175237333 6.353616417758476 25.373458353076654 0 0 0
170 7 11.291703179154728 6.42976436609833 25.436901182933127 0 0 0
175 6 9.894705532606375 8.586497344935962 25.503257841112603 0 0 0
141 7 0.02149835388032204 10.10294117495095 23.330933303746534 0 0 0
142 7 2.503272524555935 10.117050750408104 23.30209471647422 0 0 0
146 7 1.301020675622829 12.251431745545569 23.317008660159743 0 0 0
147 7 3.815086694425893 12.250847655302154 23.233652417583063 0 0 0
151 4 0.09496281196395444 12.896229458410247 25.373787720757473 0 -1 0
171 6 0.11404693865907568 8.63897441345977 25.41317071866213 0 0 0
172 7 2.624177863533563 8.620162584623527 25.398748760114035 0 0 0
176 7 1.3448551962316568 10.822172801451087 25.434917269621334 0 0 0
177 6 3.886330583558459 10.824682921023571 25.31862658463183 0 0 0
143 7 5.07459888476205 10.11951859195803 23.23788261632153 0 0 0
144 7 7.509826734390751 10.106777506165741 22.907195879935056 0 0 0
148 4 6.230337887536438 12.290726984685067 23.264881024572755 0 0 0
178 6 6.644702408067024 10.533967774170591 25.241900352255968 0 0 0
145 7 9.9969522584001 10.107526726302636 23.30206736670437 0 0 0
149 6 8.721684308766058 12.307471109373559 23.293320605670413 0 0 0
150 7 11.259014362097567 12.246165939978509 23.335799114043343 0 0 0
174 3 8.419438167938562 9.522578215203861 24.4084304527415 0 0 0
179 5 9.012435518749708 10.947414262498642 25.56117279752059 0 0 0
180 5 11.344643190394612 10.895520629138353 25.483545757280666 0 0 0
181 7 1.387097153615008 0.6797136366774369 27.48890389135745 0 0 0
182 7 3.875782712337475 0.7138871051173543 27.448331954954092 0 0 0
186 7 0.17219635915334194 2.8765055172372147 27.482198170741306 0 0 0
187 7 2.660131964649181 2.863461544052625 27.567251044725335 0 0 0
211 7 0.20825617128474028 1.4617845294955174 29.582286281315508 0 0 0
212 7 2.7089492584447195 1.3732875428134035 29.58411585857609 0 0 0
216 7 1.410722426999949 3.5685911960785957 29.587235716777517 0 0 0
217 4 3.824717760849022 3.581896222012642 29.602787196496596 0 0 0
183 7 6.314528157006767 0.7286902531574267 27.572085177014827 0 0 0
188 7 5.084880359211343 2.8834886377523237 27.578376674112196 0 0 0
189 7 7.600443500197224 2.806545940875291 27.450118395333217 0 0 0
213 5 5.136273152900112 1.434009173120331 29.6036684233225 0 0 0
214 7 7.618800142934001 1.3687074729991142 29.585157248878097 0 0 0
218 7 6.366568855214268 3.5454198872843974 29.542504586739188 0 0 0
184 7 8.895215086503084 0.7372832925444834 27.552101423161407 0 0 0
185 4 11.387763710948741 0.74104524489131 27.520222113591792 0 0 0
190 7 10.149939599975022 2.8519443706737535 27.47699792057424 0 0 0
215 7 10.128174780768601 1.422643083168469 29.62061231176207 0 0 0
219 7 8.840727983292984 3.528494872411041 29.519926803775963 0 0 0
220 7 11.370368943793626 3.577820790834503 29.51406595031384 0 0 0
191 7 1.3915564741693507 5.022565240961131 27.472185864122466 0 0 0
192 7 3.834269824010973 4.9985504950385256 27.490581770732927 0 0 0
197 7 2.5809482634970453 7.202423152026804 27.484417383573128 0 0 0
221 7 0.12138616646381449 5.74345694851698 29.566944821773046 0 0 0
222 7 2.5922170514093796 5.738476493835005 29.556405004114964 0 0 0
226 7 1.363827811586209 7.916413158988477 29.55276656204186 0 0 0
227 7 3.862217432910313 7.920838765526733 29.480456433747268 0 0 0
193 7 6.372471928530107 4.984913909129739 27.416475823925882 0 0 0
198 7 5.104834203255774 7.180161590808026 27.422414105644442 0 0 0
199 7 7.617645628594973 7.202279692333446 27.448387797277114 0 0 0
223 6 5.155456810612701 5.727872949746674 29.49654135279089 0 0 0
224 7 7.646545467983663 5.751516210370696 29.579490040443375 0 0 0
228 7 6.394161576133145 7.921976124670897 29.501613537949716 0 0 0
194 6 8.84885243514445 5.015874380912013 27.484056820212725 0 0 0
195 7 11.362325181182175 5.015195326677508 27.500431288442993 0 0 0
196 7 0.13737620119260752 7.178547514816392 27.490131467841888 0 0 0
200 7 10.122867067718172 7.1780622052701695 27.529177836419336 0 0 0
225 7 10.102484956108185 5.759539358563014 29.597270039193415 0 0 0
229 7 8.846544229830824 7.900783998654683 29.517298975237004 0 0 0
230 7 11.368948440980969 7.949109927182892 29.51555397743099 0 0 0
201 5 1.378862155106674 9.342701226495215 27.517419746830935 0 0 0
202 7 3.87370852399247 9.328139324510916 27.399726370734168 0 0 0
206 4 0.18791289128679886 11.498077773298197 27.51992463782753 0 0 0
207 7 2.6111077549240256 11.473287314315707 27.45546210502132 0 0 0
231 7 0.1639668241793154 10.096064331936585 29.56329945108335 0 0 0
232 7 2.631890097144005 10.037888335311493 29.437774309923633 0 0 0
236 7 1.4693126331126125 12.199145958939743 29.558951260405074 0 0 0
203 7 6.372893371474814 9.300172075851744 27.411254920637383 0 0 0
208 7 5.142533432264497 11.508665154273997 27.35665316247089 0 0 0
209 6 7.592089634128281 11.544993486620227 27.63375108371789 0 0 0
233 7 5.14748200768615 10.06270147508207 29.346012251704916 0 0 0
234 7 7.603872011810785 10.101704363854093 29.65892219944542 0 0 0
238 7 6.222656902058007 12.248457654824437 29.682824538611673 0 0 0
204 7 8.838177762454546 9.38590580402633 27.606013506852698 0 0 0
205 7 11.347209135172989 9.437027585038225 27.532745139777862 0 0 0
210 7 10.156890195569217 11.574761272794534 27.567866510464814 0 0 0
235 7 10.086233560195277 10.196030545160788 29.58761662372303 0 0 0
239 4 8.884397466948915 12.27188479516502 29.72443696277394 0 0 0
240 7 11.39484403892264 12.285874600985643 29.552844211555627 0 0 0
237 3 4.031606691795701 0.3162593521497053 30.565559940156692 0 1 0
241 7 0.19885866640925784 0.12042416195499642 31.63092015172173 0 0 0
242 7 2.565003611737135 0.15914638462039649 31.74620598064632 0 0 0
246 4 1.342247260033066 2.2617778296881563 31.663417427738434 0 0 0
247 7 3.881544746299912 2.1662949534223728 31.645332274496646 0 0 0
276 7 0.17640919837059407 3.017087864132826 33.73595500118859 0 0 0
243 7 5.170065496334754 12.92068111765438 32.104564684804885 0 -1 0
244 7 7.628328430744571 0.022331948133284218 31.709229451248962 0 0 0
248 7 6.409150710086539 2.1664323420638825 31.644766114921985 0 0 0
279 7 7.728364660440412 3.0654564948274143 33.72648506540653 0 0 0
249 7 8.85250084077821 2.1247814788502124 31.673331169442733 0 0 0
250 7 11.383472431683295 2.161746603361705 31.654339755135066 0 0 0
255 1 10.104420067895436 4.2432552023615875 31.496149392325208 0 0 0
275 4 11.441481910791817 0.8206044527429314 33.71122242202115 0 0 0
251 7 0.1469983293765142 4.346142292744986 31.64687392679404 0 0 0
252 7 2.6332352100944934 4.336249345905696 31.669491396256173 0 0 0
256 7 1.3305282552937123 6.521667905099243 31.63431838723613 0 0 0
257 6 3.793000673475335 6.517980463338764 31.668832507322414 0 0 0
253 7 5.113548376268202 4.326164348283982 31.62524383378481 0 0 0
254 7 7.621793505836956 4.33168528229005 31.588712094702714 0 0 0
258 7 6.3531399154117825 6.512771135761057 31.62567772912968 0 0 0
264 7 7.590414266216312 8.599916317348331 31.620690720649698 0 0 0
283 7 6.379095689447504 5.123144299439822 33.67103966846942 0 0 0
289 7 7.632380525630233 7.210925248161963 33.71539742697092 0 0 0
259 4 8.821273515117433 6.484651600215734 31.623944761894812 0 0 0
260 7 11.315701783111749 6.514049352419135 31.58649813206258 0 0 0
284 5 8.884476424131252 5.141429997025755 33.578059649635826 0 0 0
290 7 10.083992231049294 7.283342598099143 33.588000256771736 0 0 0
261 7 0.17747840313968083 8.732308470284554 31.647861131269515 0 0 0
262 7 2.664840094993154 8.73794805686526 31.53665629501081 0 0 0
266 7 1.5640608512104597 10.853094131639251 31.57315166681526 0 0 0
267 4 3.9172949892917432 11.300032065698367 30.858390677362415 0 0 0
292 7 3.958375190018711 9.39571552488088 33.510112907318835 0 0 0
326 7 0.5076950490097617 11.678849198819163 33.67334342923703 0 0 0
263 1 5.094242722166537 8.778365740137968 31.43343293992239 0 0 0
268 7 6.263305716610357 10.781043315339794 31.58103536490293 0 0 0
245 7 10.111978275454385 12.909035491889172 31.864065306091167 0 -1 0
265 6 10.102419552270419 8.706977548613105 31.534410442262654 0 0 0
269 7 8.776933830580695 10.824771362818563 31.742919898123834 0 0 0
270 7 11.428231747195555 10.929758303128567 31.60673854338602 0 0 0
294 7 8.769932006220314 9.3134096198231 33.68821183084822 0 0 0
296 3 11.074954449387295 11.854953776234195 33.32526986850024 -1 0 0
271 7 1.4759098747904356 0.9277110283339032 33.77781580769415 0 0 0
272 7 3.922605009260637 0.9778444439121327 33.9276199455699 0 0 0
277 7 2.644211630547306 3.1018273913269883 33.798214833411045 0 0 0
301 7 0.19110769955528054 1.5723913546379984 35.7586925176223 0 0 0
302 7 2.617627577820373 1.692929660690785 35.85902131511843 0 0 0
306 4 1.41765774523709 3.85588202666515 35.95805855948321 0 0 0
307 7 4.001099104460013 3.753963221915176 35.835326265641605 0 0 0
273 7 6.463175899006592 0.9962871305481351 33.90487030545813 0 0 0
278 1 5.218600978419206 3.0179577673176987 33.72028703083151 0 0 0
303 7 5.2510263179417915 1.6905752942663685 35.94178759099288 0 0 0
304 4 7.765779957233489 1.6581901103580177 35.920290548556984 0 0 0
308 7 6.531463379148889 3.7296503684209004 35.79846753250281 0 0 0
274 7 8.837370282251205 0.9241552721614202 33.831390637538725 0 0 0
280 7 10.202980092600898 3.0200344407106043 33.702757864667646 0 0 0
305 7 10.224939406587566 1.590294545711363 35.721506464664564 0 0 0
309 7 9.020016769664762 3.6985153036156952 35.776346763237754 0 0 0
310 4 11.59107894513426 3.968732063178511 35.858563905341484 0 0 0
335 5 9.907262226958249 12.929888150131612 37.38164215871675 0 -1 0
281 7 1.3246117802614519 5.2046294840523695 33.85903017062114 0 0 0
282 4 3.8496064501882143 5.155273555969564 33.7712451441588 0 0 0
286 7 0.09564698486669591 7.303853104544126 33.61725481105751 0 0 0
287 7 2.633592285542011 7.308870977929906 33.747620681556505 0 0 0
312 7 2.7325306153215045 5.811226118721373 35.78474532845048 0 0 0
316 7 1.2121690967429004 7.622249045919796 35.78792897066362 0 0 0
317 7 3.9293475707298886 8.085672025066245 35.73766887660319 0 0 0
288 7 5.183686084387009 7.292875196669154 33.670266896048865 0 0 0
313 7 5.266612266198873 5.941671014904134 35.71866357104031 0 0 0
314 7 7.720506961319573 5.844634308216495 35.744298589439865 0 0 0
318 4 6.555493270090751 8.149691099328132 35.814797142296996 0 0 0
285 4 11.346360603672952 5.1786667949090095 33.627906677811595 0 0 0
311 2 12.372724851380951 6.022435316516127 35.315918873254766 -1 0 0
315 7 10.13322644754164 5.83243535566786 35.57247668095894 0 0 0
319 7 8.953207659152909 7.99876725383166 35.815468469222594 0 0 0
320 7 11.349174330183518 7.953354942187069 35.582477734489615 0 0 0
355 3 10.429428093468326 7.928822622142866 37.26100239193832 0 0 0
291 7 1.4695640977603517 9.448820372285999 33.72640086758416 0 0 0
297 6 3.0225843126040024 11.597921166453572 33.678286849163385 0 0 0
321 6 0.21555189963607613 10.086561970432031 35.89642005436293 0 0 0
322 7 2.701717841212295 10.225120801007789 35.76614047708067 0 0 0
327 6 3.9195688220753837 12.535438248287765 36.11434141477925 0 0 0
356 4 1.397965309562752 12.38285938096393 35.85060153858104 0 0 0
293 4 6.451437774025158 9.342356993088814 33.6551608700377 0 0 0
298 2 5.201182773380902 12.309733238799765 34.21183495421686 0 0 0
299 7 6.99149704920553 11.603835589219287 33.67808198234054 0 0 0
323 6 5.229842758830828 10.263546783049543 35.580035573402135 0 0 0
324 7 7.9070066607372 10.381611329556126 35.70285586240861 0 0 0
328 7 6.467395865502173 12.54152825692282 35.91966454593635 0 0 0
295 6 11.270324447384514 9.722995568140384 33.75308448620975 0 0 0
300 7 9.381113964555983 11.57242888272925 34.15988799553673 0 0 0
325 7 10.26216000507576 9.87390442466019 36.99034965306294 0 0 0
329 3 9.520817005388883 11.434305491109885 36.186243372039726 0 0 0
330 4 11.263050265341457 12.10273411147524 35.57143960567257 0 0 0
332 7 2.475871852244374 0.11741155281455638 38.042392295038724 0 0 0
336 7 1.3342366068378284 2.2080467520978693 37.833446850104636 0 0 0
337 7 3.875189234963152 2.2125182702880184 37.86329917877073 0 0 0
333 7 5.221255995303686 0.185106146722666 38.122861286273604 0 0 0
334 7 7.650911450315397 0.09396572548798039 38.00454026286498 0 0 0
338 7 6.532099113596766 2.289114638912944 37.90102016951231 0 0 0
339 7 8.991865980575628 2.216738295732136 37.85527860907751 0 0 0
340 7 11.369475474559664 2.225312769089942 37.72522040692608 0 0 0
342 7 2.7171572734459324 4.3132201292378625 37.9231144751083 0 0 0
346 7 1.5182453463506511 6.428253490103 37.99726344906288 0 0 0
347 6 3.9655967998867343 6.49823546877359 37.76836170744103 0 0 0
343 7 5.308251300705022 4.457543136908426 37.83581569206944 0 0 0
344 7 7.834733959843634 4.469489388975702 37.84584972530117 0 0 0
348 6 6.6645674165748465 6.700817965665608 37.820750178041344 0 0 0
341 7 0.21573167439327842 4.2769162398578136 38.068900998665086 0 0 0
345 4 10.22310274482592 4.363675753479413 37.80794960228676 0 0 0
349 7 9.242054559598275 6.654441621219006 37.86315385256253 0 0 0
350 7 11.681915969668069 6.297841780449372 37.292509474706804 0 0 0
352 6 2.4851684654634334 8.686577454896124 37.68766011442195 0 0 0
357 7 3.8359014274683076 10.833325629520502 37.95568445440036 0 0 0
360 7 1.3743958972720902 10.921561587255722 37.893303288584264 1 0 0
353 7 5.1233485307372195 8.722417815840982 37.831910298953716 0 0 0
354 7 7.986380642374213 8.994282107165093 37.82444034648803 0 0 0
358 6 6.419610266038081 10.872257792660303 37.79218182035129 0 0 0
331 7 12.390060741038264 12.912272715156393 37.6294867419516 -1 -1 0
351 7 12.241168854611649 8.583805687014555 37.825721998791856 -1 0 0
359 2 8.59466595042543 11.190879859882342 37.413358119026185 0 0 0
361 8 10.550062024949792 11.176983715434668 40.95450458847055 0 0 0
362 8 10.8607846619448 10.485648592324134 41.027562807128525 0 0 0

Velocities

1 0 0 0
2 0 0 0
6 0 0 0
7 0 0 0
31 0 0 0
32 0 0 0
36 0 0 0
37 0 0 0
3 0 0 0
8 0 0 0
9 0 0 0
33 0 0 0
34 0 0 0
38 0 0 0
4 0 0 0
5 0 0 0
10 0 0 0
35 0 0 0
39 0 0 0
40 0 0 0
11 0 0 0
12 0 0 0
16 0 0 0
17 0 0 0
41 0 0 0
42 0 0 0
46 0 0 0
47 0 0 0
13 0 0 0
18 0 0 0
19 0 0 0
43 0 0 0
44 0 0 0
48 0 0 0
14 0 0 0
15 0 0 0
20 0 0 0
45 0 0 0
49 0 0 0
50 0 0 0
21 0 0 0
22 0 0 0
26 0 0 0
27 0 0 0
51 0 0 0
52 0 0 0
56 0 0 0
57 0 0 0
23 0 0 0
28 0 0 0
29 0 0 0
53 0 0 0
54 0 0 0
58 0 0 0
24 0 0 0
25 0 0 0
30 0 0 0
55 0 0 0
59 0 0 0
60 0 0 0
61 0 0 0
62 0 0 0
66 0 0 0
67 0 0 0
91 0 0 0
92 0 0 0
96 0 0 0
97 0 0 0
63 0 0 0
64 0 0 0
68 0 0 0
93 0 0 0
98 0 0 0
99 0 0 0
65 0 0 0
69 0 0 0
70 0 0 0
94 0 0 0
95 0 0 0
100 0 0 0
71 0 0 0
72 0 0 0
76 0 0 0
77 0 0 0
101 0 0 0
102 0 0 0
106 0 0 0
107 0 0 0
73 0 0 0
74 0 0 0
78 0 0 0
103 0 0 0
108 0 0 0
109 0 0 0
75 0 0 0
79 0 0 0
80 0 0 0
104 0 0 0
105 0 0 0
110 0 0 0
81 0 0 0
82 0 0 0
86 0 0 0
87 0 0 0
111 0 0 0
112 0 0 0
116 0 0 0
117 0 0 0
83 0 0 0
84 0 0 0
88 0 0 0
113 0 0 0
118 0 0 0
119 0 0 0
85 0 0 0
89 0 0 0
90 0 0 0
114 0 0 0
115 0 0 0
120 0 0 0
121 0 0 0
122 0 0 0
126 0 0 0
127 0 0 0
152 0 0 0
156 0 0 0
157 0 0 0
162 0 0 0
123 0 0 0
124 0 0 0
128 0 0 0
153 0 0 0
154 0 0 0
158 0 0 0
163 0 0 0
164 0 0 0
125 0 0 0
129 0 0 0
130 0 0 0
155 0 0 0
159 0 0 0
160 0 0 0
165 0 0 0
131 0 0 0
132 0 0 0
136 0 0 0
137 0 0 0
161 0 0 0
166 0 0 0
167 0 0 0
133 0 0 0
134 0 0 0
138 0 0 0
168 0 0 0
173 0 0 0
135 0 0 0
139 0 0 0
140 0 0 0
169 0 0 0
170 0 0 0
175 0 0 0
141 0 0 0
142 0 0 0
146 0 0 0
147 0 0 0
151 0 0 0
171 0 0 0
172 0 0 0
176 0 0 0
177 0 0 0
143 0 0 0
144 0 0 0
148 0 0 0
178 0 0 0
145 0 0 0
149 0 0 0
150 0 0 0
174 0 0 0
179 0 0 0
180 0 0 0
181 0 0 0
182 0 0 0
186 0 0 0
187 0 0 0
211 0 0 0
212 0 0 0
216 0 0 0
217 0 0 0
183 0 0 0
188 0 0 0
189 0 0 0
213 0 0 0
214 0 0 0
218 0 0 0
184 0 0 0
185 0 0 0
190 0 0 0
215 0 0 0
219 0 0 0
220 0 0 0
191 0 0 0
192 0 0 0
197 0 0 0
221 0 0 0
222 0 0 0
226 0 0 0
227 0 0 0
193 0 0 0
198 0 0 0
199 0 0 0
223 0 0 0
224 0 0 0
228 0 0 0
194 0 0 0
195 0 0 0
196 0 0 0
200 0 0 0
225 0 0 0
229 0 0 0
230 0 0 0
201 0 0 0
202 0 0 0
206 0 0 0
207 0 0 0
231 0 0 0
232 0 0 0
236 0 0 0
203 0 0 0
208 0 0 0
209 0 0 0
233 0 0 0
234 0 0 0
238 0 0 0
204 0 0 0
205 0 0 0
210 0 0 0
235 0 0 0
239 0 0 0
240 0 0 0
237 0 0 0
241 0 0 0
242 0 0 0
246 0 0 0
247 0 0 0
276 0 0 0
243 0 0 0
244 0 0 0
248 0 0 0
279 0 0 0
249 0 0 0
250 0 0 0
255 0 0 0
275 0 0 0
251 0 0 0
252 0 0 0
256 0 0 0
257 0 0 0
253 0 0 0
254 0 0 0
258 0 0 0
264 0 0 0
283 0 0 0
289 0 0 0
259 0 0 0
260 0 0 0
284 0 0 0
290 0 0 0
261 0 0 0
262 0 0 0
266 0 0 0
267 0 0 0
292 0 0 0
326 0 0 0
263 0 0 0
268 0 0 0
245 0 0 0
265 0 0 0
269 0 0 0
270 0 0 0
294 0 0 0
296 0 0 0
271 0 0 0
272 0 0 0
277 0 0 0
301 0 0 0
302 0 0 0
306 0 0 0
307 0 0 0
273 0 0 0
278 0 0 0
303 0 0 0
304 0 0 0
308 0 0 0
274 0 0 0
280 0 0 0
305 0 0 0
309 0 0 0
310 0 0 0
335 0 0 0
281 0 0 0
282 0 0 0
286 0 0 0
287 0 0 0
312 0 0 0
316 0 0 0
317 0 0 0
288 0 0 0
313 0 0 0
314 0 0 0
318 0 0 0
285 0 0 0
311 0 0 0
315 0 0 0
319 0 0 0
320 0 0 0
355 0 0 0
291 0 0 0
297 0 0 0
321 0 0 0
322 0 0 0
327 0 0 0
356 0 0 0
293 0 0 0
298 0 0 0
299 0 0 0
323 0 0 0
324 0 0 0
328 0 0 0
295 0 0 0
300 0 0 0
325 0 0 0
329 0 0 0
330 0 0 0
332 0 0 0
336 0 0 0
337 0 0 0
333 0 0 0
334 0 0 0
338 0 0 0
339 0 0 0
340 0 0 0
342 0 0 0
346 0 0 0
347 0 0 0
343 0 0 0
344 0 0 0
348 0 0 0
341 0 0 0
345 0 0 0
349 0 0 0
350 0 0 0
352 0 0 0
357 0 0 0
360 0 0 0
353 0 0 0
354 0 0 0
358 0 0 0
331 0 0 0
351 0 0 0
359 0 0 0
361 0 0 0
362 0 0 0
