LAMMPS data file via write_data, version 11 Feb 2026, timestep = 422, units = metal

362 atoms
8 atom types

0 12.447907776 xlo xhi
0 12.9362452296 ylo yhi
0 52.3600831054 zlo zhi

Masses

1 26.9815
2 10.811
3 12.011
4 51.9961
5 55.845
6 95.95999999999999
7 58.6934
8 1.008

Atoms # atomic/kk

1 7 1.1476823406928656 1.4089051352899173 14.172846791384053 0 0 0
2 7 3.6113969473242697 1.074535911019186 14.66650566057813 0 0 0
6 7 12.37476453665632 3.4605949889018044 14.818905703803154 -1 0 0
7 7 2.4305853573255956 3.279215622765061 14.988296734936673 0 0 0
31 6 0.13502644557024399 1.5713313992827895 16.541795936714006 0 0 0
32 7 2.6077501653715305 1.6897603014599278 16.911781299815402 0 0 0
36 7 1.2224716422460704 3.8607140458204667 17.02605364764433 0 0 0
37 7 3.7132966645313736 3.841779857125112 17.053426663604988 0 0 0
3 5 6.07947760393679 0.9514008367497976 14.908924078883752 0 0 0
8 7 4.931653255362761 3.131752423840556 15.007193290201517 0 0 0
9 7 7.393354955827783 3.159862818420659 14.91751983507009 0 0 0
33 7 4.988424678855024 1.6694414704496356 16.95138563948685 0 0 0
34 7 7.413048496960431 1.7735968469050976 16.976378160967524 0 0 0
38 5 6.181630766832914 3.864503445229166 16.985503910518553 0 0 0
4 6 8.643513683863075 1.0012168685530243 14.997193520821625 0 0 0
5 7 11.052677661562564 1.2575895424554193 14.59860252746229 0 0 0
10 7 9.915988977884977 3.3949980985886636 14.777433861394734 0 0 0
35 7 9.98838018516645 1.6669767790933645 16.94026488603911 0 0 0
39 7 8.733611551661248 3.867321841891708 16.858571116401553 0 0 0
40 7 11.193465164891537 3.8114303183906957 16.996821641874224 0 0 0
11 7 1.2378177639016985 5.499630424524412 15.076846144634915 0 0 0
12 7 3.7262635355990676 5.320833419084774 15.087758310871202 0 0 0
16 4 0.47235138490763484 7.817120975131148 14.795756299720965 0 0 0
17 7 2.655795840285696 7.499781776863588 15.150008144678646 0 0 0
41 7 12.445107297629892 6.002895161345651 17.222855243480595 -1 0 0
42 7 2.4567792350772457 6.132145977071343 17.137717580551293 0 0 0
46 7 0.797601227930739 9.371838076058351 16.87096796765916 0 0 0
47 7 3.889582658652019 8.202374713566208 17.059689903895592 0 0 0
13 7 6.1816793501947975 5.310052916349799 15.030735399914768 0 0 0
18 7 5.082733743554368 7.4833832693645395 15.064948665156047 0 0 0
19 2 7.062722364432311 7.023510781500998 15.385850907230193 0 0 0
43 7 4.955623624035151 5.967451575420825 17.091119658431598 0 0 0
44 7 7.480010291949016 5.945134762994874 17.084329398788114 0 0 0
48 7 6.349710034758915 8.059571150844137 17.04598646054861 0 0 0
14 7 8.707117443988974 5.663177394471425 14.961973227255186 0 0 0
15 6 11.183534705429267 5.6090723935117754 15.181122422789267 0 0 0
20 7 10.448403393652331 7.674293195417899 14.18088405954705 0 0 0
45 7 9.92639041256876 6.0431648036390815 17.249378114144083 0 0 0
49 7 8.719556855284551 7.926538158572861 16.065833532008117 0 0 0
50 7 11.18837054297843 7.995574398987781 16.449906440885243 0 0 0
21 2 1.1683937016983348 10.482976726920432 15.209057423385424 0 0 0
22 7 2.9728403573449023 9.869664901697451 15.64140546401135 0 0 0
26 7 0.13107726899931704 12.209093688249745 14.906607016509582 0 0 0
27 7 2.485325455780942 11.81288255420746 14.460097290759398 0 0 0
51 3 11.522638669312927 9.37489533754465 17.658380995424004 -1 0 0
52 7 1.3533235099162328 11.869233278055265 16.985171167930194 0 0 0
56 2 1.9169069243314698 0.325342698574133 15.605474702136725 0 1 0
57 7 3.7568252578434755 12.441320123127216 16.60593049135805 0 0 0
23 7 6.924545386097577 9.010181465267486 14.77546541566912 0 0 0
28 7 4.962642847313363 11.791628048246508 14.603527267949028 0 0 0
29 6 7.490398090390162 11.49706019871473 14.917497087381898 0 0 0
53 7 5.338878983881775 10.126577276804166 16.323506517074808 0 0 0
54 7 7.736566742309527 10.05838301734918 16.94308818574481 0 0 0
58 6 6.3224938869717295 12.371304296855438 16.951150733784186 0 0 0
24 7 9.214211692244904 9.74289207742672 14.53832130399192 0 0 0
25 7 11.765805036225519 9.879159442159082 14.787020775872227 0 0 0
30 7 10.064674076016766 11.949760534021973 14.757960285272544 0 0 0
55 7 10.188211515087456 10.280587291920863 16.67765699945734 0 0 0
59 7 8.83964426040082 12.385611287474532 16.95825032975863 0 0 0
60 7 11.245833162210323 12.471670495720598 16.878954086993527 0 0 0
61 6 0.050698089002514504 0.003407306534116788 18.99088723812517 0 0 0
62 7 2.590452020132437 12.858918830549346 19.034423173811007 0 -1 0
66 6 1.3959551427138168 2.170550285123748 19.049554270244514 0 0 0
67 5 3.834025617177519 2.174327249212665 19.07370690570808 0 0 0
91 4 1.3639802458747776 0.753587944519596 21.29613994561579 0 0 0
92 7 3.756246873450606 0.728851667544295 21.051513314852702 0 0 0
96 7 0.08503819298924936 2.8016408743850407 21.18349388303921 0 0 0
97 7 2.595705469687419 2.8543760041081048 21.195392628155595 0 0 0
63 5 4.959738348616414 0.05756496495424206 18.95799428242574 0 0 0
64 7 7.444613408567128 0.08677810715432215 19.0974416706682 0 0 0
68 7 6.197886938153917 2.163474021614229 19.07636307810566 0 0 0
93 7 6.262821973032812 0.7240159581591546 21.16982194640347 0 0 0
98 7 5.0286766606151 2.878283105160178 21.14991909935984 0 0 0
99 5 7.482236624458267 2.8197077454668524 21.165425770602823 0 0 0
65 7 10.004762426188867 0.08486430283442116 19.092091269593787 0 0 0
69 7 8.74149079588464 2.158642560481313 18.991555875793008 0 0 0
70 7 11.289993640880969 2.2428646125161653 18.950280285425404 0 0 0
94 7 8.717045076271363 0.7181751765179011 21.232041360917982 0 0 0
95 7 11.307491804301652 0.6751103908723525 21.195465940448962 0 0 0
100 6 10.033860845820826 2.789277830860159 21.051156462487825 0 0 0
71 1 12.386556078873756 4.38285558446313 19.182340812961417 -1 0 0
72 7 2.486802514591332 4.3935777619969505 19.103249087836627 0 0 0
76 7 1.203095907304595 6.439311391127403 19.256132928822797 0 0 0
77 7 3.7869115068297527 6.511901034947889 19.16142058995379 0 0 0
101 7 1.2073361262107667 4.990997803506322 21.25550266598038 0 0 0
102 6 3.732759461914024 5.047059907921106 21.226066009032902 0 0 0
106 7 12.43825779456735 7.101542436041838 21.311892982663245 -1 0 0
107 7 2.4714945074674883 7.177410407954127 21.228785122665972 0 0 0
73 7 4.978912809904637 4.321006465386003 19.083451853178843 0 0 0
74 6 7.504734618972338 4.290025161577356 19.050954354244475 0 0 0
78 7 6.199477758169588 6.5237048148500545 19.136197469828687 0 0 0
103 7 6.27808564673947 5.051692081421337 21.172348484960832 0 0 0
108 7 5.0146447111770485 7.23319147965615 21.223191106407427 0 0 0
109 7 7.422252462182707 7.253184696927573 21.2613240732531 0 0 0
75 5 9.911650354491332 4.310101621757863 19.029739558553555 0 0 0
79 7 8.628553318357646 6.476705572400636 19.319462728232207 0 0 0
80 7 11.116505463946508 6.425261137393536 19.354263354596892 0 0 0
104 7 8.743646992644264 5.0278367153307135 21.239965243205333 0 0 0
105 3 10.087240115279803 4.37673231480696 22.28471918347166 0 0 0
110 7 9.893336423369863 7.170611162613926 21.298363556363462 0 0 0
81 4 12.345648092863566 8.477571876188659 19.19662337144545 -1 0 0
82 6 2.3618220720492036 8.493656306361268 18.911576267653214 0 0 0
86 7 1.2846369575498757 10.694933150926277 19.157480139465406 0 0 0
87 1 3.6679914517505807 10.720232393245107 18.261842844722924 0 0 0
111 7 1.182617048121386 9.294252508682574 21.19206282556721 0 0 0
112 6 3.7045747805679445 9.360318621008686 21.13934081323201 0 0 0
116 1 0.03992544769016371 11.491311992275495 21.293669632578613 0 0 0
117 7 2.4733822279269653 11.53297058131825 21.14134204153526 0 0 0
83 7 4.949177433643894 8.737586627995073 19.079623799528335 0 0 0
84 7 7.400410628734018 8.644334991787947 19.081842438074403 0 0 0
88 7 6.165447687309471 10.805884091851064 18.9261674157131 0 0 0
113 7 6.216923207007804 9.413792936693394 21.031426227663445 0 0 0
118 7 4.9669425066835915 11.545285899310752 21.038714033693214 0 0 0
119 4 7.402487544962864 11.540788573364464 21.070792520900667 0 0 0
85 6 9.790401721005544 8.478007518445002 18.53679717756263 0 0 0
89 6 8.734289570352804 10.854682002507099 19.034504521911614 0 0 0
90 4 11.275182545098984 10.825609469446652 18.934570454392244 0 0 0
114 7 8.702663965490826 9.32061829656066 20.988960852468196 0 0 0
115 6 11.111951287802968 9.256571875087538 21.171520692321124 0 0 0
120 7 9.98883071879352 11.521071068816553 21.178119100050065 0 0 0
121 7 0.08042992634396365 1.3781089506872208 23.30963347968042 0 0 0
122 7 2.5717838515924627 1.3898628928281653 23.329425075724348 0 0 0
126 6 1.3514032150869002 3.5727638223439953 23.265532054803572 0 0 0
127 7 3.846910248086734 3.5764014032402387 23.361631031159572 0 0 0
152 7 2.6498020196726415 12.926558400563838 25.37384737059582 0 -1 0
156 1 1.4760527141807487 2.1162859395980353 25.514886183943066 0 0 0
157 7 3.9622893266719 2.122710854091206 25.444030139333595 0 0 0
162 7 2.594866076321812 4.248543170146339 25.42791427370604 0 0 0
123 7 4.98869239758176 1.4149742666845384 23.162296181525964 0 0 0
124 7 7.390143955691058 1.4862618680312354 23.48574961940306 0 0 0
128 7 6.299748022005668 3.6501991356150802 23.183348255987312 0 0 0
153 7 5.192971266575861 0.057150448147893496 25.293019653898124 0 0 0
154 7 7.595661194550104 12.925428336749388 25.474736258831207 0 -1 0
158 2 5.77170559847024 2.4435559033049428 24.628559064104923 0 0 0
163 7 5.11413381417947 4.229805683561966 25.421291220499466 0 0 0
164 5 7.473391628784619 4.04771998618924 25.359841093874426 0 0 0
125 7 10.039436224463623 1.412553812007633 23.354403760814012 0 0 0
129 7 8.747451106997001 3.531230778788171 23.347305072851483 0 0 0
130 4 11.363113787980993 3.601370070129031 23.402195500022504 0 0 0
155 4 10.115358593424206 0.046636226620604425 25.557740462580387 0 0 0
159 7 8.86530651574772 2.083542803672872 25.447026786241974 0 0 0
160 7 11.39689887637517 2.138955852516281 25.42068158569613 0 0 0
165 7 10.06140588631008 4.201573693139629 25.412050919892668 0 0 0
131 7 0.06667291414676593 5.755355171632453 23.40369774335883 0 0 0
132 7 2.538241714171672 5.783374876675303 23.36024895194775 0 0 0
136 7 1.2984696457052616 7.896891969014647 23.3046989888668 0 0 0
137 7 3.7721080956205912 7.964527962707892 23.278144160807013 0 0 0
161 4 0.10480099069178836 4.323928265789619 25.4688483521806 0 0 0
166 7 1.3330064744950014 6.397960425875349 25.430454435393568 0 0 0
167 7 3.8032302707265084 6.421703213477633 25.44302747789692 0 0 0
133 6 5.060578956483819 5.842668062754083 23.387563496681746 0 0 0
134 7 7.554879722052087 5.761816937023193 23.314975354878428 0 0 0
138 7 6.305626381823948 7.980006812056068 23.341231213576123 0 0 0
168 7 6.360627873736194 6.378822362344233 25.433419881631593 0 0 0
173 7 5.099481842542397 8.536957165099436 25.33238089468092 0 0 0
135 7 10.059756340688795 5.808261144298034 23.388252322296225 0 0 0
139 4 8.689316325356153 7.9251372858233315 23.244539513922618 0 0 0
140 4 11.277257780679648 7.87277401899256 23.318119465640514 0 0 0
169 7 8.77109003017306 6.31386753290138 25.384045062190282 0 0 0
170 7 11.2845625506 6.390563179031884 25.449097416280146 0 0 0
175 6 9.880236594676049 8.549698525656542 25.52457036979197 0 0 0
141 7 0.014950570051869781 10.050101700611357 23.34390958842259 0 0 0
142 7 2.4909237072349617 10.088573816257615 23.25474201241504 0 0 0
146 7 1.2972626143840962 12.217572925099178 23.350594014732938 0 0 0
147 7 3.801356217851072 12.226752232833775 23.180227433941813 0 0 0
151 4 0.08741684514550581 12.857290725486203 25.41550180337561 0 -1 0
171 6 0.10448058728024874 8.596665729048603 25.43027153052774 0 0 0
172 7 2.6175700280897543 8.591589561950112 25.375896010879156 0 0 0
176 7 1.337058379291582 10.781377092072105 25.432002913548526 0 0 0
177 6 3.8742471938677037 10.798972958256423 25.273867528884015 0 0 0
143 7 5.049681273228698 10.087888799267214 23.18139118858509 0 0 0
144 7 7.500158810215749 10.071964286355621 22.92008318198496 0 0 0
148 4 6.207369042013757 12.253081038469809 23.18565862154564 0 0 0
178 6 6.611844859241028 10.525264528473878 25.220726569425757 0 0 0
145 7 9.990461359595274 10.056748141560321 23.316087764222285 0 0 0
149 6 8.702742934878254 12.255173103529337 23.330026058710466 0 0 0
150 7 11.241825265483588 12.200318899279546 23.40593226927408 0 0 0
174 3 8.408280025615502 9.49151178168228 24.424168955646415 0 0 0
179 5 8.992950208834403 10.905060428866957 25.583433890623425 0 0 0
180 5 11.330791300758186 10.849217799978227 25.507463783784704 0 0 0
181 7 1.3866916044600517 0.6477607982432825 27.497191261291174 0 0 0
182 7 3.8731440328373226 0.6854389302668691 27.437207037204644 0 0 0
186 7 0.16817335856611434 2.84039734012951 27.4949959621636 0 0 0
187 7 2.6571379280017364 2.835440147849223 27.56893202877137 0 0 0
211 7 0.20750582146478955 1.4276219924902334 29.592031434425866 0 0 0
212 7 2.7093478278119885 1.343475613774061 29.583288418734718 0 0 0
216 7 1.4082536147242628 3.537597231951289 29.591844575572704 0 0 0
217 4 3.8218008668951526 3.5556944905311534 29.602848978174414 0 0 0
183 7 6.30622174829587 0.6981002872011516 27.57322393226046 0 0 0
188 7 5.079931040791656 2.8567639929105324 27.579022654354944 0 0 0
189 7 7.5918542415310695 2.776029613627893 27.46512174647391 0 0 0
213 5 5.13261150565099 1.4104793730006826 29.604204746985488 0 0 0
214 7 7.610182430861157 1.3378300059358703 29.59543697044174 0 0 0
218 7 6.361564232680447 3.520033383011866 29.547273826937722 0 0 0
184 7 8.882603201089438 0.7017446848491122 27.569839081308547 0 0 0
185 4 11.380818393875611 0.7046987566038924 27.5428463584214 0 0 0
190 7 10.141973994381239 2.814318431929467 27.493137582244277 0 0 0
215 7 10.12220740240638 1.3861782430752443 29.635409012932914 0 0 0
219 7 8.836364409268402 3.494694380756083 29.533750418299576 0 0 0
220 7 11.366613486228436 3.5418508671588884 29.52559469056632 0 0 0
191 7 1.3879106429081334 4.989133784571986 27.475188196788135 0 0 0
192 7 3.8303131721927213 4.9727543628969855 27.485054754397012 0 0 0
197 7 2.5755652861532967 7.175823078126579 27.477828250685768 0 0 0
221 7 0.11733622980873523 5.709592093515093 29.575869089176184 0 0 0
222 7 2.5880252818396507 5.711022916695459 29.55448308367335 0 0 0
226 7 1.360767210658578 7.885926320357518 29.55591223794423 0 0 0
227 7 3.857584915894385 7.8964993362830835 29.470484816992766 0 0 0
193 7 6.366654075541721 4.958299370743786 27.416353675467533 0 0 0
198 7 5.099009921984207 7.156356022020281 27.413536630641254 0 0 0
199 7 7.618246825546671 7.171127434111752 27.451263845182158 0 0 0
223 6 5.150024066098986 5.703771188030105 29.492648600167026 0 0 0
224 7 7.641701072295452 5.7211051583230335 29.584992635048163 0 0 0
228 7 6.390839569523393 7.895877773649737 29.49404163368304 0 0 0
194 6 8.844848166584711 4.979427303296581 27.496475691653945 0 0 0
195 7 11.357676830959242 4.976700884928193 27.511925316038834 0 0 0
196 7 0.13293913978318736 7.140110084663714 27.502157143042435 0 0 0
200 7 10.1207407411094 7.140073663105134 27.544292104958437 0 0 0
225 7 10.098902969622875 5.723287942912753 29.61024894071407 0 0 0
229 7 8.843629835309004 7.8656478084387444 29.5300164993308 0 0 0
230 7 11.365731796328058 7.913765304503583 29.53038842006001 0 0 0
201 5 1.375598206104072 9.308124008970362 27.517302026626723 0 0 0
202 7 3.8687985475087667 9.303930443596117 27.37676354188706 0 0 0
206 4 0.18436465865534288 11.45992169289766 27.528425667072327 0 0 0
207 7 2.6080626792612587 11.44021675274815 27.439953748481294 0 0 0
231 7 0.16228461056237573 10.061993611802949 29.57348871146337 0 0 0
232 7 2.630348402245306 10.00916467080261 29.428954530831074 0 0 0
236 7 1.4709993829154429 12.166097540062147 29.557509184303125 0 0 0
203 7 6.371691647457017 9.268471195545608 27.38920946252778 0 0 0
208 7 5.134717639783431 11.48352194056789 27.321169189847136 0 0 0
209 6 7.578875637646053 11.507893059762772 27.641529690051684 0 0 0
233 7 5.146299882992985 10.038333411116364 29.324101029708608 0 0 0
234 7 7.597561544294396 10.071528391666188 29.665953647520922 0 0 0
238 7 6.208359330986326 12.22032550380743 29.682172096978462 0 0 0
204 7 8.835673525005094 9.351372599610078 27.62710818707297 0 0 0
205 7 11.342109859697974 9.398826546217665 27.55114259645097 0 0 0
210 7 10.148058646767275 11.53661768803771 27.58850073343791 0 0 0
235 7 10.082220599009025 10.162420017907905 29.606173474088028 0 0 0
239 4 8.875372493246553 12.237870821580389 29.734934223603894 0 0 0
240 7 11.393587333685014 12.249965252308584 29.5666723023243 0 0 0
237 3 4.032072124406256 0.27953133524554385 30.55626085492537 0 1 0
241 7 0.19947223280611676 0.08679525181991864 31.636744742755738 0 0 0
242 7 2.5675110315869376 0.12933819314793898 31.74240535761513 0 0 0
246 4 1.34188704580458 2.2312483488082084 31.666376807005257 0 0 0
247 7 3.877364844475944 2.1413717978474214 31.646431058777363 0 0 0
276 7 0.1757790892096366 2.9866940328422684 33.73824150575246 0 0 0
243 7 5.164007419784483 12.89331068180003 32.101934362347485 0 -1 0
244 7 7.623078307941238 12.927299260029683 31.71496646584872 0 -1 0
248 7 6.404536331300114 2.13923244115362 31.649822626039825 0 0 0
279 7 7.727207011275968 3.0326524758209032 33.73411878196488 0 0 0
249 7 8.848658143593962 2.091421515821055 31.685695678203746 0 0 0
250 7 11.38164646448303 2.1272942276269844 31.662881123284865 0 0 0
255 1 10.102604769607646 4.208407060051073 31.508959899002793 0 0 0
275 4 11.441236547460253 0.7903885325752853 33.71541177145153 0 0 0
251 7 0.1446876504888134 4.314165886904855 31.65296583076582 0 0 0
252 7 2.6300503354365437 4.309791623266029 31.67149752197171 0 0 0
256 7 1.326525622024006 6.4918971489804 31.63923444233655 0 0 0
257 6 3.789041753395641 6.493057501167721 31.663973324930485 0 0 0
253 7 5.109847183512899 4.3005821895288525 31.626150632951756 0 0 0
254 7 7.619343330389886 4.301928935106237 31.59601547616308 0 0 0
258 7 6.348786469567858 6.484687378718654 31.623828566012403 0 0 0
264 7 7.585916255172438 8.568177653871379 31.623794866877404 0 0 0
283 7 6.378010361400153 5.0911969795618734 33.67153347491851 0 0 0
289 7 7.629778669003426 7.176366053730916 33.716996583270905 0 0 0
259 4 8.818802258098605 6.450778663749207 31.633274421611063 0 0 0
260 7 11.312089859677835 6.479751407469368 31.59884326026485 0 0 0
284 5 8.88523722465681 5.107482005238086 33.588539512351346 0 0 0
290 7 10.081540505142119 7.249579399760724 33.60217650563799 0 0 0
261 7 0.17473667113488608 8.69981097235702 31.65790667978685 0 0 0
262 7 2.660953305284209 8.710978788786699 31.53375893017079 0 0 0
266 7 1.561327202819239 10.823198155532124 31.574567285715307 0 0 0
267 4 3.915443673902006 11.266644373811602 30.851568265706817 0 0 0
292 7 3.9559905072739516 9.361732742026717 33.50604879374401 0 0 0
326 7 0.5021986415555635 11.643694705724139 33.67721204126157 0 0 0
263 1 5.090149140342359 8.752869888092517 31.421548323287933 0 0 0
268 7 6.255732286774168 10.753315214837736 31.58180278354655 0 0 0
245 7 10.107765896888404 12.874575393777985 31.873387367716063 0 -1 0
265 6 10.098771031483322 8.672295443272409 31.549466549959703 0 0 0
269 7 8.769776300860098 10.790806979562474 31.752259378381538 0 0 0
270 7 11.424807888842743 10.894856974791168 31.620701578458444 0 0 0
294 7 8.764303385445144 9.277822853765505 33.697739239636334 0 0 0
296 3 11.06850706238652 11.823144337112232 33.33483354641056 -1 0 0
271 7 1.4754134030354245 0.8944701859267727 33.77603572977932 0 0 0
272 7 3.9202515868721783 0.9471526173374945 33.928046976376685 0 0 0
277 7 2.642272134511401 3.071766400200479 33.80056216071625 0 0 0
301 7 0.19225859150115365 1.5465882212563422 35.75689301265839 0 0 0
302 7 2.618003226207952 1.661158704350233 35.86266795364868 0 0 0
306 4 1.4153866129750126 3.8246789028423422 35.96592824642392 0 0 0
307 7 3.9974651539556687 3.7250317915262148 35.83736244994736 0 0 0
273 7 6.46025773385566 0.9643224123371003 33.90454001796949 0 0 0
278 1 5.215655594857609 2.9880329710327045 33.72396062205708 0 0 0
303 7 5.247147757780678 1.6605513041789188 35.94503559960385 0 0 0
304 4 7.760516931818723 1.6285882491382095 35.92443468314427 0 0 0
308 7 6.529279079360283 3.6994082179744225 35.801881830463905 0 0 0
274 7 8.836052928113718 0.8894334555295632 33.84371348698106 0 0 0
280 7 10.202158195423344 2.984452847265115 33.71371454636907 0 0 0
305 7 10.22431418954045 1.5493681790114726 35.73211496689078 0 0 0
309 7 9.021458690511219 3.663028364300621 35.784281615728055 0 0 0
310 4 11.59017092896885 3.9333488469842735 35.86873746075009 0 0 0
335 5 9.91261214808906 12.89378808944037 37.40515273782785 0 -1 0
281 7 1.3218863759830315 5.173359395137868 33.86311465521652 0 0 0
282 4 3.8464053104150713 5.126940348415904 33.7689659645537 0 0 0
286 7 0.09092978680791788 7.271588896734797 33.6279726834943 0 0 0
287 7 2.6298614740630546 7.277932271854675 33.746283908513426 0 0 0
312 7 2.7276767613718267 5.780573620701426 35.78510085005709 0 0 0
316 7 1.213914152779234 7.597585355179276 35.788874211322124 0 0 0
317 7 3.927964432967736 8.052213628265237 35.735195702081654 0 0 0
288 7 5.18105849367015 7.260231971144595 33.667608751147135 0 0 0
313 7 5.264330914779191 5.908408897114563 35.71682252064673 0 0 0
314 7 7.722370828588966 5.811395763698118 35.74707942527425 0 0 0
318 4 6.553111427234109 8.112201754949252 35.808024709066885 0 0 0
285 4 11.345326933931608 5.145201757070763 33.63971531033442 0 0 0
311 2 12.373702511594322 5.991472763177478 35.32713849794475 -1 0 0
315 7 10.134916083328754 5.7995223488538965 35.58522507337059 0 0 0
319 7 8.955378342289576 7.966814525781562 35.82559190698763 0 0 0
320 7 11.349267957370385 7.92447766157401 35.598867029796686 0 0 0
355 3 10.437063961563352 7.894074313962462 37.28118878592531 0 0 0
291 7 1.4638707128053734 9.416987896528681 33.73618895500192 0 0 0
297 6 3.022355371114633 11.564840760717331 33.67338284042532 0 0 0
321 6 0.20774613008561985 10.064602635564675 35.91986224759591 0 0 0
322 7 2.6971811531776733 10.187008528901808 35.76456008248944 0 0 0
327 6 3.9219993604144787 12.498184031299607 36.108270426663076 0 0 0
356 4 1.4057146870131696 12.347859643491391 35.83555729067086 0 0 0
293 4 6.446606927087614 9.309880916864106 33.65080856790711 0 0 0
298 2 5.199565599237057 12.276082502896424 34.20642570401711 0 0 0
299 7 6.989579022850225 11.5684252776376 33.68136393551097 0 0 0
323 6 5.229006055579854 10.229256766015803 35.57864437703822 0 0 0
324 7 7.908970297566234 10.349150205153496 35.71535404747379 0 0 0
328 7 6.465374301381215 12.511604519301187 35.91659526310456 0 0 0
295 6 11.266990877549944 9.688441304135166 33.769091408357426 0 0 0
300 7 9.37291749219197 11.535353742134914 34.164510035187 0 0 0
325 7 10.252387861735505 9.838334272184264 37.03609907730338 0 0 0
329 3 9.5270752806855 11.393597874667918 36.20248172513579 0 0 0
330 4 11.249305928918231 12.063333141901085 35.56597509955425 0 0 0
332 7 2.4841069915928315 0.09238104720849438 38.03257989511783 0 0 0
336 7 1.3311896079414938 2.1759178601249487 37.83731349636163 0 0 0
337 7 3.8753187041958275 2.189500654145147 37.86974019877842 0 0 0
361 8 12.173795458018006 0.1455676277188487 41.35018971480659 -1 0 0
362 8 0.40235146200708555 0.44446174683648965 41.52947714473565 0 0 0
333 7 5.217472100325064 0.15975453875917545 38.12055611498814 0 0 0
334 7 7.650756307711122 0.06231596466507023 38.002678513744165 0 0 0
338 7 6.530368274246187 2.2587629162733425 37.90513657061237 0 0 0
339 7 8.98975203772436 2.181196418120453 37.860620734313336 0 0 0
340 7 11.36720263359096 2.1832269772557873 37.733163126195926 0 0 0
342 7 2.7124239855456325 4.2839205203157835 37.929724648472956 0 0 0
346 7 1.5171149360315055 6.399830210980631 37.99883368476599 0 0 0
347 6 3.9634753795068427 6.466867327797235 37.766389669558585 0 0 0
343 7 5.304396181302368 4.424599354569172 37.83841079628206 0 0 0
344 7 7.833398210663105 4.434555204943229 37.850501544563954 0 0 0
348 6 6.659638707754168 6.661501136907996 37.81961117489279 0 0 0
341 7 0.21126234951228778 4.2417636827441365 38.08014165184263 0 0 0
345 4 10.222720332680087 4.327312047386714 37.817658415950845 0 0 0
349 7 9.240065585360554 6.621048706538288 37.86852747020226 0 0 0
350 7 11.681218507443026 6.264191769116913 37.30515535080763 0 0 0
352 6 2.4898818925684765 8.655378543660177 37.69129085212566 0 0 0
357 7 3.842601467219812 10.802014775926608 37.95695400408558 0 0 0
360 7 1.3842392348319983 10.901328493192551 37.90368118508593 1 0 0
353 7 5.125773974150678 8.689329430017295 37.82898399680503 0 0 0
354 7 7.954268007840951 8.94920693375457 37.8183523287795 0 0 0
358 6 6.415854674556929 10.848352009049385 37.79065732663749 0 0 0
331 7 12.394989810330724 12.871897323227463 37.59863480297476 -1 -1 0
351 7 12.24334362051539 8.55534240776696 37.84592559922479 -1 0 0
359 2 8.600526126079112 11.157935994477068 37.428719860813516 0 0 0

Velocities

1 0 0 0
2 0 0 0
6 0 0 0
7 0 0 0
31 0 0 0
32 0 0 0
36 0 0 0
37 0 0 0
3 0 0 0
8 0 0 0
9 0 0 0
33 0 0 0
34 0 0 0
38 0 0 0
4 0 0 0
5 0 0 0
10 0 0 0
35 0 0 0
39 0 0 0
40 0 0 0
11 0 0 0
12 0 0 0
16 0 0 0
17 0 0 0
41 0 0 0
42 0 0 0
46 0 0 0
47 0 0 0
13 0 0 0
18 0 0 0
19 0 0 0
43 0 0 0
44 0 0 0
48 0 0 0
14 0 0 0
15 0 0 0
20 0 0 0
45 0 0 0
49 0 0 0
50 0 0 0
21 0 0 0
22 0 0 0
26 0 0 0
27 0 0 0
51 0 0 0
52 0 0 0
56 0 0 0
57 0 0 0
23 0 0 0
28 0 0 0
29 0 0 0
53 0 0 0
54 0 0 0
58 0 0 0
24 0 0 0
25 0 0 0
30 0 0 0
55 0 0 0
59 0 0 0
60 0 0 0
61 0 0 0
62 0 0 0
66 0 0 0
67 0 0 0
91 0 0 0
92 0 0 0
96 0 0 0
97 0 0 0
63 0 0 0
64 0 0 0
68 0 0 0
93 0 0 0
98 0 0 0
99 0 0 0
65 0 0 0
69 0 0 0
70 0 0 0
94 0 0 0
95 0 0 0
100 0 0 0
71 0 0 0
72 0 0 0
76 0 0 0
77 0 0 0
101 0 0 0
102 0 0 0
106 0 0 0
107 0 0 0
73 0 0 0
74 0 0 0
78 0 0 0
103 0 0 0
108 0 0 0
109 0 0 0
75 0 0 0
79 0 0 0
80 0 0 0
104 0 0 0
105 0 0 0
110 0 0 0
81 0 0 0
82 0 0 0
86 0 0 0
87 0 0 0
111 0 0 0
112 0 0 0
116 0 0 0
117 0 0 0
83 0 0 0
84 0 0 0
88 0 0 0
113 0 0 0
118 0 0 0
119 0 0 0
85 0 0 0
89 0 0 0
90 0 0 0
114 0 0 0
115 0 0 0
120 0 0 0
121 0 0 0
122 0 0 0
126 0 0 0
127 0 0 0
152 0 0 0
156 0 0 0
157 0 0 0
162 0 0 0
123 0 0 0
124 0 0 0
128 0 0 0
153 0 0 0
154 0 0 0
158 0 0 0
163 0 0 0
164 0 0 0
125 0 0 0
129 0 0 0
130 0 0 0
155 0 0 0
159 0 0 0
160 0 0 0
165 0 0 0
131 0 0 0
132 0 0 0
136 0 0 0
137 0 0 0
161 0 0 0
166 0 0 0
167 0 0 0
133 0 0 0
134 0 0 0
138 0 0 0
168 0 0 0
173 0 0 0
135 0 0 0
139 0 0 0
140 0 0 0
169 0 0 0
170 0 0 0
175 0 0 0
141 0 0 0
142 0 0 0
146 0 0 0
147 0 0 0
151 0 0 0
171 0 0 0
172 0 0 0
176 0 0 0
177 0 0 0
143 0 0 0
144 0 0 0
148 0 0 0
178 0 0 0
145 0 0 0
149 0 0 0
150 0 0 0
174 0 0 0
179 0 0 0
180 0 0 0
181 0 0 0
182 0 0 0
186 0 0 0
187 0 0 0
211 0 0 0
212 0 0 0
216 0 0 0
217 0 0 0
183 0 0 0
188 0 0 0
189 0 0 0
213 0 0 0
214 0 0 0
218 0 0 0
184 0 0 0
185 0 0 0
190 0 0 0
215 0 0 0
219 0 0 0
220 0 0 0
191 0 0 0
192 0 0 0
197 0 0 0
221 0 0 0
222 0 0 0
226 0 0 0
227 0 0 0
193 0 0 0
198 0 0 0
199 0 0 0
223 0 0 0
224 0 0 0
228 0 0 0
194 0 0 0
195 0 0 0
196 0 0 0
200 0 0 0
225 0 0 0
229 0 0 0
230 0 0 0
201 0 0 0
202 0 0 0
206 0 0 0
207 0 0 0
231 0 0 0
232 0 0 0
236 0 0 0
203 0 0 0
208 0 0 0
209 0 0 0
233 0 0 0
234 0 0 0
238 0 0 0
204 0 0 0
205 0 0 0
210 0 0 0
235 0 0 0
239 0 0 0
240 0 0 0
237 0 0 0
241 0 0 0
242 0 0 0
246 0 0 0
247 0 0 0
276 0 0 0
243 0 0 0
244 0 0 0
248 0 0 0
279 0 0 0
249 0 0 0
250 0 0 0
255 0 0 0
275 0 0 0
251 0 0 0
252 0 0 0
256 0 0 0
257 0 0 0
253 0 0 0
254 0 0 0
258 0 0 0
264 0 0 0
283 0 0 0
289 0 0 0
259 0 0 0
260 0 0 0
284 0 0 0
290 0 0 0
261 0 0 0
262 0 0 0
266 0 0 0
267 0 0 0
292 0 0 0
326 0 0 0
263 0 0 0
268 0 0 0
245 0 0 0
265 0 0 0
269 0 0 0
270 0 0 0
294 0 0 0
296 0 0 0
271 0 0 0
272 0 0 0
277 0 0 0
301 0 0 0
302 0 0 0
306 0 0 0
307 0 0 0
273 0 0 0
278 0 0 0
303 0 0 0
304 0 0 0
308 0 0 0
274 0 0 0
280 0 0 0
305 0 0 0
309 0 0 0
310 0 0 0
335 0 0 0
281 0 0 0
282 0 0 0
286 0 0 0
287 0 0 0
312 0 0 0
316 0 0 0
317 0 0 0
288 0 0 0
313 0 0 0
314 0 0 0
318 0 0 0
285 0 0 0
311 0 0 0
315 0 0 0
319 0 0 0
320 0 0 0
355 0 0 0
291 0 0 0
297 0 0 0
321 0 0 0
322 0 0 0
327 0 0 0
356 0 0 0
293 0 0 0
298 0 0 0
299 0 0 0
323 0 0 0
324 0 0 0
328 0 0 0
295 0 0 0
300 0 0 0
325 0 0 0
329 0 0 0
330 0 0 0
332 0 0 0
336 0 0 0
337 0 0 0
361 0 0 0
362 0 0 0
333 0 0 0
334 0 0 0
338 0 0 0
339 0 0 0
340 0 0 0
342 0 0 0
346 0 0 0
347 0 0 0
343 0 0 0
344 0 0 0
348 0 0 0
341 0 0 0
345 0 0 0
349 0 0 0
350 0 0 0
352 0 0 0
357 0 0 0
360 0 0 0
353 0 0 0
354 0 0 0
358 0 0 0
331 0 0 0
351 0 0 0
359 0 0 0
