LAMMPS data file via write_data, version 11 Feb 2026, timestep = 491, units = metal

362 atoms
8 atom types

0 12.447907776 xlo xhi
0 12.9362452296 ylo yhi
0 52.3600831054 zlo zhi

Masses

1 26.9815
2 10.811
3 12.011
4 51.9961
5 55.845
6 95.95999999999999
7 58.6934
8 1.008

Atoms # atomic/kk

1 7 1.1214723193433358 0.8204991495782611 14.641185771252752 0 0 0
2 7 3.5599408697618924 0.7361768053442327 14.86988313480473 0 0 0
6 7 12.271751433160244 3.4763923866081523 14.642005070302176 -1 0 0
7 7 2.232189157640061 2.9695046010750663 15.106176059274087 0 0 0
31 6 12.399101708468278 1.8876866152511858 16.484735015218824 -1 0 0
32 7 2.313544557522007 1.2525478239329777 16.930015409650732 0 0 0
36 7 1.1430472096783457 3.9675203007370277 17.06201545209956 0 0 0
37 7 3.575992917886132 3.6449342587831772 17.092604672659053 0 0 0
3 5 6.020598438175288 0.8653911211293523 14.936493630004774 0 0 0
8 7 4.785711427873069 2.9837903905590055 15.019882499012294 0 0 0
9 7 7.29155417455978 3.0608242804044394 14.891784514170276 0 0 0
33 7 4.835066045983093 1.534352471004407 16.98195071978806 0 0 0
34 7 7.36281133382504 1.7101725401653243 16.945441588558964 0 0 0
38 5 6.081828368126073 3.740708287279762 16.969446094716258 0 0 0
4 6 8.641567794800496 0.9695055743435383 14.944878080591476 0 0 0
5 7 11.029452504954712 1.2513182230574618 14.46066297790121 0 0 0
10 7 9.813812860134892 3.377959664463306 14.721665337882703 0 0 0
35 7 9.926856548632779 1.71230394751958 16.903513481588334 0 0 0
39 7 8.64116204075722 3.8630215751654187 16.8132831897702 0 0 0
40 7 11.07756027427153 3.95177341191516 16.963788517389702 0 0 0
11 7 1.1402917331648943 5.431515015730003 15.025128151364493 0 0 0
12 7 3.5583129471408266 5.1451229485520775 15.121114786004112 0 0 0
16 4 0.22162685967532728 7.672303709146819 14.611302550826164 0 0 0
17 7 2.4341698451102367 7.504111494083264 15.090759844711274 0 0 0
41 7 12.322382733875068 6.108796231695995 17.127101419173957 -1 0 0
42 7 2.378674803690148 6.074233552145267 17.111337490329156 0 0 0
46 7 0.8243422251694249 8.412539040583747 16.859653927343857 0 0 0
47 7 3.821729504133162 8.008532908630528 17.02648554331569 0 0 0
13 7 6.052111567399091 5.184857578101994 15.007645034454999 0 0 0
18 7 4.901316706454989 7.301008404827858 14.976374791074338 0 0 0
19 2 6.8491724182826275 6.974124819239577 15.315567558317078 0 0 0
43 7 4.860419680234902 5.8098868709902165 17.07647623815055 0 0 0
44 7 7.34863406350515 5.879356003099573 17.02255236837145 0 0 0
48 7 6.2315315316925295 7.991727176121633 17.01745028204311 0 0 0
14 7 8.580238828350321 5.637706485764869 14.892638842580796 0 0 0
15 6 11.053525457421598 5.637712657614404 15.084490642884615 0 0 0
20 7 10.23393949221468 7.656527147496348 13.988611816883108 0 0 0
45 7 9.813708686699988 6.109868569873043 17.17865813623106 0 0 0
49 7 8.476124181183195 7.857196389707192 16.021559054706 0 0 0
50 7 10.912094274787359 8.115752566854015 16.21400386902745 0 0 0
21 2 1.5546213221159686 9.47207472870968 15.209857471114253 0 0 0
22 7 3.623147952233751 9.511171014825852 14.918404593483329 0 0 0
26 7 0.32070391527978986 10.801491699357449 16.828620917476115 0 0 0
27 7 2.0384715952124504 11.47594419664063 15.1504379434131 0 0 0
51 3 11.626916110595218 9.369766663010012 17.498638265861423 -1 0 0
52 7 2.6202247574497655 10.08011142453873 17.04267934079677 0 0 0
56 2 0.9333269237668773 12.70406134404349 16.353675682081978 0 0 0
57 7 3.7098917364956607 12.22492219797139 16.92896961582128 0 0 0
23 7 6.590789025745416 9.08552110213708 14.850609889910102 0 0 0
28 7 4.823654872921688 11.608798587525518 14.81820756004753 0 0 0
29 6 7.380014309121483 11.497684598062078 14.916311766589759 0 0 0
53 7 5.134393411056762 10.109766618661409 16.7788152656968 0 0 0
54 7 7.700196570733864 10.043223600433535 16.920917582020593 0 0 0
58 6 6.300778248255391 12.337908751631169 17.011525739790613 0 0 0
24 7 9.058041956416822 9.66660662460492 14.655265306132309 0 0 0
25 7 11.951089699016709 9.8778547442975 14.710463299253902 0 0 0
30 7 9.929689828685792 11.855851621069784 14.577887863916315 0 0 0
55 7 10.249851847346484 10.4075981311069 16.645431885562463 0 0 0
59 7 8.84913489779729 12.370333299527276 16.889678336599204 0 0 0
60 7 11.305069020424892 12.621998824943962 16.349812275628125 0 0 0
61 6 0.11152505133810794 12.913501861590916 18.575386875842796 0 -1 0
62 7 2.569315961328051 0.035547300629335206 19.143116261798973 0 0 0
66 6 1.3599531737059958 2.231240228458474 19.065951500433258 0 0 0
67 5 3.8043001745188896 2.18380934903867 19.104328658266407 0 0 0
91 4 1.3712774663444458 0.7867915172836305 21.252358263791784 0 0 0
92 7 3.802068296037135 0.7424994978443531 21.132999707170136 0 0 0
96 7 0.08971693451154648 2.8659322411241606 21.176502622833947 0 0 0
97 7 2.611565705276387 2.8638146272367493 21.20922069182577 0 0 0
63 5 5.0208253339262106 0.11947545124103254 19.063747446677706 0 0 0
64 7 7.5033412546258 0.10973581975126945 19.09260642119063 0 0 0
68 7 6.198893385275779 2.1768949218403533 19.049518543755713 0 0 0
93 7 6.3293755500735545 0.7416103969286123 21.20704623464648 0 0 0
98 7 5.054250272267081 2.8781669243411314 21.15208870690322 0 0 0
99 5 7.508971341058937 2.8451871525900465 21.14184230530821 0 0 0
65 7 10.087863865881095 0.10598192205703946 18.963948232535174 0 0 0
69 7 8.738800666828329 2.1883517553133793 18.96225292954247 0 0 0
70 7 11.29818122056333 2.2921073737803526 18.90718057361204 0 0 0
94 7 8.78510860710293 0.7549807307523267 21.17750238744827 0 0 0
95 7 11.370622423011831 0.7258608352425296 21.03037084065131 0 0 0
100 6 10.052501513951613 2.842746077635287 21.018714006717083 0 0 0
71 1 12.335765951199658 4.456163817315422 19.195267217293534 -1 0 0
72 7 2.4561575476160304 4.422545665394833 19.11632573400903 0 0 0
76 7 1.1736232377633062 6.498874638270614 19.189835409320672 0 0 0
77 7 3.7665832554477565 6.499946274632403 19.144247642395175 0 0 0
101 7 1.216372148677049 5.032217316250888 21.232080558794983 0 0 0
102 6 3.745897490696351 5.048131508256387 21.22646194005653 0 0 0
106 7 0.0017281008542511245 7.138838518915723 21.2731978208958 0 0 0
107 7 2.4802434977997914 7.1727828542971155 21.23753017483362 0 0 0
73 7 4.9476829348458 4.310925706109127 19.07626754565975 0 0 0
74 6 7.476669942893445 4.31744030364695 19.02577380164159 0 0 0
78 7 6.177927865822442 6.525463779466766 19.104822890355514 0 0 0
103 7 6.286151834815995 5.058920195547343 21.15606994315384 0 0 0
108 7 5.027073147898721 7.222935755087736 21.207353024974545 0 0 0
109 7 7.434319724871267 7.267471277036641 21.239072885538977 0 0 0
75 5 9.868880901331263 4.366348144370494 19.009643351302323 0 0 0
79 7 8.620954354429506 6.518869936703268 19.28472120952192 0 0 0
80 7 11.100397195655715 6.511538097592017 19.28250703269511 0 0 0
104 7 8.746632625570141 5.063409922763757 21.215046942988465 0 0 0
105 3 10.09680647293322 4.424982043319592 22.261563471944083 0 0 0
110 7 9.909430927248595 7.195992733620908 21.270224605460285 0 0 0
81 4 12.377826073313079 8.584795133487745 19.187713244072448 -1 0 0
82 6 2.4409125130379223 8.53843668840746 19.02401915196396 0 0 0
86 7 1.3117487843531426 10.758946911913409 19.17009256274952 0 0 0
87 1 3.853732251728753 10.88193805668235 19.009252106782146 0 0 0
111 7 1.209039374643067 9.335882253687434 21.216244896757974 0 0 0
112 6 3.755656904492655 9.340822904196894 21.238605708366087 0 0 0
116 1 0.06645344851258424 11.550435187674012 21.175983348014668 0 0 0
117 7 2.5298366006666395 11.541428832969075 21.17470087520087 0 0 0
83 7 4.976377851142454 8.730023270450737 19.032849801940948 0 0 0
84 7 7.430410043579531 8.64047675601536 19.01078495112959 0 0 0
88 7 6.282883228683344 10.82372203005481 19.021280406540154 0 0 0
113 7 6.248468883676501 9.398795146245163 21.033766263834927 0 0 0
118 7 5.04935327396704 11.56125254076774 21.14299053312692 0 0 0
119 4 7.480051624276525 11.577591931359063 21.0763710288716 0 0 0
85 6 9.837032095591168 8.5168354047907 18.449446466807 0 0 0
89 6 8.790681396282677 10.872324272517929 18.97905342405652 0 0 0
90 4 11.29296909551468 10.810435178624036 18.89091444896286 0 0 0
114 7 8.714848655254297 9.345682248359648 20.933715544436822 0 0 0
115 6 11.128049351120486 9.292799918685226 21.167268485117678 0 0 0
120 7 10.02684222927347 11.56001235523947 21.121977682123948 0 0 0
121 7 0.0914793399396988 1.4103779747165652 23.256005062604032 0 0 0
122 7 2.5798014969375003 1.4070611155937522 23.316985134741113 0 0 0
126 6 1.3629301832375669 3.606694190747722 23.260194794298247 0 0 0
127 7 3.8640134619998823 3.5912779394954475 23.365506375770007 0 0 0
152 7 2.664621241687559 0.013267417489079596 25.375027564412008 0 0 0
156 1 1.4974669448733462 2.142859729809553 25.50167607596918 0 0 0
157 7 3.985694528601268 2.140365587101671 25.44383990954651 0 0 0
162 7 2.6145584459026723 4.270359508695528 25.427787125842944 0 0 0
123 7 5.020629217894077 1.4328756322854115 23.199840321553626 0 0 0
124 7 7.425927773765291 1.5241967319328715 23.47839120996623 0 0 0
128 7 6.31852012474968 3.669821154482477 23.170027323902204 0 0 0
153 7 5.210048898268316 0.06692062871008328 25.33048729376267 0 0 0
154 7 7.621517454409431 0.014067644620787084 25.457882557144856 0 0 0
158 2 5.810679178719685 2.485624107705353 24.642691035606322 0 0 0
163 7 5.1308807663014795 4.253478472058321 25.422440949222025 0 0 0
164 5 7.4906195499773816 4.067260948486647 25.342450910494616 0 0 0
125 7 10.07499916161999 1.448955473638782 23.299920823131878 0 0 0
129 7 8.770178675942734 3.566327697710234 23.327629861253346 0 0 0
130 4 11.373370589604827 3.645621452413336 23.381407304042867 0 0 0
155 4 10.145999683606961 0.07701446618758646 25.51770190240942 0 0 0
159 7 8.89985145379344 2.1101868485804274 25.421283636588907 0 0 0
160 7 11.423816611430063 2.171939740208586 25.39046888879358 0 0 0
165 7 10.080639209338441 4.234658163243843 25.395282673957013 0 0 0
131 7 0.08653649268497994 5.796675529049321 23.384717349030485 0 0 0
132 7 2.559688761238288 5.798828419480493 23.36464969648297 0 0 0
136 7 1.3237915666106237 7.92468026706596 23.295348499934555 0 0 0
137 7 3.7997236657651148 7.966206375099395 23.321429658711317 0 0 0
161 4 0.12606206977441084 4.3555004760375144 25.45280329137017 0 0 0
166 7 1.3537857377417712 6.426270069661597 25.423456251840854 0 0 0
167 7 3.8255925174053487 6.438229886967468 25.448723057331826 0 0 0
133 6 5.0839506025785575 5.852639817675527 23.3844185451849 0 0 0
134 7 7.573885012212096 5.78926403662347 23.300355381953594 0 0 0
138 7 6.327539623856462 7.997861730094512 23.338781075033666 0 0 0
168 7 6.381092949866754 6.396467961395395 25.42958889292648 0 0 0
173 7 5.128737562117956 8.554132903018756 25.353447953914273 0 0 0
135 7 10.078789241933515 5.849922392029785 23.37151104919797 0 0 0
139 4 8.714394666943994 7.958564890821246 23.21049231070318 0 0 0
140 4 11.303028105296534 7.9110137526104545 23.293546227602523 0 0 0
169 7 8.789631145090185 6.3464502495080835 25.36902585368282 0 0 0
170 7 11.306581926743686 6.42232521947615 25.432854055648967 0 0 0
175 6 9.909580805442717 8.579297065080091 25.499392604844626 0 0 0
141 7 0.0363495535807105 10.095473412753748 23.32753145653143 0 0 0
142 7 2.5180754163556953 10.109445006423003 23.2986535978006 0 0 0
146 7 1.315909189293422 12.24384854722608 23.31348334696038 0 0 0
147 7 3.8299633274448563 12.243182860383587 23.230082347268812 0 0 0
151 4 0.10988404548308141 12.888730160622728 25.370139269709465 0 -1 0
171 6 0.12881956729873836 8.631458291084238 25.409684311086075 0 0 0
172 7 2.6389534831944887 8.612463763615596 25.395388611489693 0 0 0
176 7 1.359682580062843 10.814554813087708 25.431614684807776 0 0 0
177 6 3.9011583416112416 10.816906017953979 25.31514540850953 0 0 0
143 7 5.0894616366504 10.111950929109454 23.234377605700885 0 0 0
144 7 7.524611818882169 10.09934228663881 22.90344886295745 0 0 0
148 4 6.2452227471532105 12.283214776955404 23.261156237151475 0 0 0
178 6 6.659686337987599 10.526518908227384 25.238303076635844 0 0 0
145 7 10.01183838957242 10.100258547329476 23.29843898184316 0 0 0
149 6 8.736527034240266 12.300076123127212 23.289732263446528 0 0 0
150 7 11.273880120298834 12.238750890128625 23.332219204885362 0 0 0
174 3 8.434346895980239 9.515431720001981 24.40465974889721 0 0 0
179 5 9.027352350085673 10.940218585487592 25.557650998318874 0 0 0
180 5 11.359525365098177 10.888238506913952 25.48013797063378 0 0 0
181 7 1.4021416240303821 0.6718661817983782 27.485263287981958 0 0 0
182 7 3.890578170271262 0.7061184675236042 27.444547101566343 0 0 0
186 7 0.1875044704778907 2.8686701008017232 27.478046953465785 0 0 0
187 7 2.6751386615513364 2.8559774777953653 27.563731666865078 0 0 0
211 7 0.22370681284746807 1.4536072913574356 29.578905266173326 0 0 0
212 7 2.7238560190169245 1.3664474682356609 29.580193221860032 0 0 0
216 7 1.4258155433736326 3.5609759047248537 29.583723310939785 0 0 0
217 4 3.839347340802434 3.574955519974781 29.600573691753073 0 0 0
183 7 6.329108354041533 0.7212053956741503 27.568371983260786 0 0 0
188 7 5.09922215698751 2.876093856390674 27.57502866908262 0 0 0
189 7 7.61465192550377 2.7989269384644566 27.445416069127877 0 0 0
213 5 5.1508971776997345 1.427087260237654 29.59982968715664 0 0 0
214 7 7.633236475292231 1.3611053900947818 29.581384898335507 0 0 0
218 7 6.3809112676774165 3.537997407503135 29.538492200335373 0 0 0
184 7 8.909916744217682 0.7299700248887188 27.548493255109182 0 0 0
185 4 11.402801279787905 0.7336322854409236 27.516697539592638 0 0 0
190 7 10.164879213143756 2.844258667393422 27.47212215320746 0 0 0
215 7 10.14312280822761 1.414981681849091 29.61693763916258 0 0 0
219 7 8.855194823595413 3.5202174363755327 29.51402459530062 0 0 0
220 7 11.385876646690422 3.5695773075340984 29.50854209904749 0 0 0
191 7 1.4064440874669892 5.014999170475127 27.468924336508234 0 0 0
192 7 3.848989793072793 4.991202628604815 27.4877549105575 0 0 0
197 7 2.5955380430347246 7.1947573809914775 27.481458052479308 0 0 0
221 7 0.13620443786636496 5.735948268566947 29.563307503063275 0 0 0
222 7 2.606711597378528 5.730706982782046 29.554234173784987 0 0 0
226 7 1.3780568535675946 7.908190275942167 29.550394305646783 0 0 0
227 7 3.8765992671589498 7.9129448010694805 29.47732855567141 0 0 0
193 7 6.387122057431874 4.977499925558572 27.41294544381135 0 0 0
198 7 5.119692164821521 7.172542959979465 27.41915442147091 0 0 0
199 7 7.63268124974336 7.194967392123554 27.444183016405606 0 0 0
223 6 5.170365526281317 5.720401533410165 29.49381536118696 0 0 0
224 7 7.661866974547514 5.744290630188912 29.57473110522711 0 0 0
228 7 6.409261235799274 7.914387572341893 29.497606910494927 0 0 0
194 6 8.863630905722726 5.0083060853265815 27.479105570696046 0 0 0
195 7 11.377320908639986 5.007536178847737 27.49595047231101 0 0 0
196 7 0.15200822516379048 7.171032220598391 27.48670524321651 0 0 0
200 7 10.137708206381815 7.170651017488425 27.524894543403274 0 0 0
225 7 10.117690627011868 5.751971313869468 29.59191700637125 0 0 0
229 7 8.861733253659239 7.893968895353684 29.512812674763918 0 0 0
230 7 11.38327524188484 7.942120055406922 29.511854522650612 0 0 0
201 5 1.3933667327590038 9.33478480700511 27.514172069076807 0 0 0
202 7 3.888434913639585 9.320256745070944 27.396304260180155 0 0 0
206 4 0.20286163123250842 11.490513770345308 27.516723164169257 0 0 0
207 7 2.626045261435337 11.465236708046046 27.452207571569303 0 0 0
231 7 0.17843129300176233 10.08852049983846 29.559894768687677 0 0 0
232 7 2.6460194951943623 10.029212002008599 29.43448613806182 0 0 0
236 7 1.4850233879065806 12.191330401576312 29.555755853771586 0 0 0
203 7 6.387791752531056 9.292655369990015 27.407438657946948 0 0 0
208 7 5.157448143472749 11.500955131890734 27.35298524710208 0 0 0
209 6 7.606975939779157 11.537695091397772 27.630438905646752 0 0 0
233 7 5.162417579273019 10.054795723565359 29.342041235245343 0 0 0
234 7 7.618659339429239 10.094683547331531 29.65592204383791 0 0 0
238 7 6.2368937522558285 12.24095988102275 29.679167755982554 0 0 0
204 7 8.852956982384754 9.37886853427098 27.60212722013744 0 0 0
205 7 11.361829319072998 9.429714868905577 27.529100334301056 0 0 0
210 7 10.171829349624673 11.567666551156051 27.56446208718474 0 0 0
235 7 10.100751928011992 10.189008872500253 29.584054682580128 0 0 0
239 4 8.899260086759137 12.264595287696968 29.721603382774806 0 0 0
240 7 11.409999085758766 12.278393951045917 29.549873993555934 0 0 0
237 3 4.046205855384145 0.30820893179258246 30.559820786301657 0 1 0
241 7 0.21450351933159748 0.11189561059401788 31.62847755023844 0 0 0
242 7 2.5803376174879338 0.15230885608008798 31.741583894663655 0 0 0
246 4 1.3576315463515043 2.2541132091288123 31.659805317171738 0 0 0
247 7 3.8961205123472973 2.1596648943457586 31.642827736465122 0 0 0
276 7 0.19267394541862135 3.00915203044358 33.73072045161192 0 0 0
243 7 5.184407360213099 12.91328633105591 32.09890584182123 0 -1 0
244 7 7.643239427446983 0.014802997837270264 31.70560581490689 0 0 0
248 7 6.423276490148653 2.1591374828163468 31.64114941512391 0 0 0
279 7 7.742863313309238 3.0563963904364257 33.72030164812277 0 0 0
249 7 8.867020606616123 2.116308812106082 31.669368390842727 0 0 0
250 7 11.399262872019701 2.15344761223341 31.650091900220698 0 0 0
255 1 10.119358581405253 4.23362509986414 31.487838270534823 0 0 0
275 4 11.458773773764202 0.8137064036329823 33.708311826999 0 0 0
251 7 0.16211445175029698 4.338164499769318 31.64178296522348 0 0 0
252 7 2.647291498851616 4.328787100033808 31.66883536722131 0 0 0
256 7 1.3449423682998491 6.513081745118318 31.63372121483335 0 0 0
257 6 3.807601593253129 6.510669860269281 31.66591957981568 0 0 0
253 7 5.12776852850272 4.3189366520201276 31.62359203265102 0 0 0
254 7 7.635921867310539 4.323124415786318 31.582043979890976 0 0 0
258 7 6.369161519802489 6.504622067877909 31.62178309691467 0 0 0
264 7 7.6059450874484815 8.592106486591023 31.616596625333077 0 0 0
283 7 6.395440524336579 5.114052158386514 33.668130416512014 0 0 0
289 7 7.650080764722985 7.201622399237837 33.711312829277794 0 0 0
259 4 8.838276259249982 6.477398275255526 31.618319576830995 0 0 0
260 7 11.330653830264211 6.507239266654566 31.581644420494445 0 0 0
284 5 8.900352421189979 5.134741266726788 33.5633283678329 0 0 0
290 7 10.10026664812123 7.278471327876404 33.58501031823909 0 0 0
261 7 0.1917752378846032 8.724735116125668 31.645073256634426 0 0 0
262 7 2.678542432258591 8.730163161905777 31.534547135946003 0 0 0
266 7 1.577815218957731 10.84533895883041 31.57014905626912 0 0 0
267 4 3.9312844318075597 11.29280133484482 30.852346170569454 0 0 0
292 7 3.9736047029052015 9.383647872813063 33.50705422156459 0 0 0
326 7 0.5229718876360463 11.670377568895546 33.67349454934046 0 0 0
263 1 5.108811436111172 8.770614289495262 31.42888342014654 0 0 0
268 7 6.277139359077067 10.773733612861838 31.577886562880416 0 0 0
245 7 10.126998403711882 12.90188376220659 31.86182582946927 0 -1 0
265 6 10.116796683184855 8.700474661748498 31.53108236299449 0 0 0
269 7 8.791583313656243 10.817553259476036 31.74094367038147 0 0 0
270 7 11.44248026232527 10.922128773200503 31.603777816989133 0 0 0
294 7 8.784744467558761 9.306296078054975 33.6872930352547 0 0 0
296 3 11.090924892953534 11.848532533134373 33.32227788053554 -1 0 0
271 7 1.4935056334203052 0.9194288529429874 33.77557965319143 0 0 0
272 7 3.939551403595119 0.9692635509056016 33.9244882755698 0 0 0
277 7 2.65996403414295 3.0940142453609982 33.79832294986772 0 0 0
301 7 0.21030469448543976 1.567638568136278 35.75560586983057 0 0 0
302 7 2.6374003604706413 1.6836145008676044 35.86076976720344 0 0 0
306 4 1.4393526134203294 3.846438333281688 35.964751790798616 0 0 0
307 7 4.017415072541196 3.747148838480739 35.8350270645095 0 0 0
273 7 6.4786954249905095 0.9873363160879414 33.898606376235 0 0 0
278 1 5.23437070613159 3.010250920616363 33.720827914568304 0 0 0
303 7 5.266817794125241 1.6823900729198757 35.94036085292559 0 0 0
304 4 7.78069153043072 1.6509798970343612 35.914945711888 0 0 0
308 7 6.548807500478417 3.722712904195806 35.79839208388437 0 0 0
274 7 8.854398241067216 0.915233310196034 33.83058052927909 0 0 0
280 7 10.218956883428831 3.011955086990131 33.69665218709816 0 0 0
305 7 10.245332203121368 1.5829178462426274 35.717795035593014 0 0 0
309 7 9.034463270537591 3.6890311854965 35.76484102470664 0 0 0
310 4 11.615711387355493 3.9646247471927074 35.857977571140005 0 0 0
335 5 9.92531044438535 12.933243665512078 37.38925874247274 0 -1 0
281 7 1.335917827630211 5.196465627292444 33.86455929452357 0 0 0
282 4 3.8627705709956754 5.1474683198981985 33.76947844377071 0 0 0
286 7 0.10817062661534438 7.297809338898672 33.61550781799786 0 0 0
287 7 2.6469579524030955 7.299401254626399 33.74548355080007 0 0 0
312 7 2.7487958398321095 5.804638910244734 35.78654013018386 0 0 0
316 7 1.2257441620422016 7.61351528712287 35.78484883006477 0 0 0
317 7 3.9493711222441132 8.075593559563949 35.731875215230936 0 0 0
288 7 5.200740940166017 7.282624135757282 33.665608233438576 0 0 0
313 7 5.283546041536957 5.931548989610714 35.71517823686848 0 0 0
314 7 7.741212005500562 5.833713524408809 35.74084159645955 0 0 0
318 4 6.5724540662391915 8.135181739340595 35.80317627662011 0 0 0
285 4 11.359335312716329 5.170622454171997 33.617321807197214 0 0 0
311 2 12.37844124012906 6.020869916823431 35.30671378482047 -1 0 0
315 7 10.15191491061208 5.827613344965448 35.561814199837094 0 0 0
319 7 8.972223267681903 7.991177644347645 35.81680254518497 0 0 0
320 7 11.362586861590003 7.953537157609628 35.584970538986695 0 0 0
355 3 10.45571192441392 7.921738571690805 37.27116357622928 0 0 0
291 7 1.4826126790399543 9.440188593364024 33.72673336910195 0 0 0
297 6 3.0411464838861764 11.587626442625696 33.66908851885668 0 0 0
321 6 0.2257034799409361 10.082948246041544 35.90210093628252 0 0 0
322 7 2.7171467116288404 10.210988066366461 35.75667735152099 0 0 0
327 6 3.9391346405816146 12.52063227893687 36.10455256947933 0 0 0
356 4 1.4180355908621607 12.374898432526171 35.8418157576271 0 0 0
293 4 6.4677785012358555 9.33429197185462 33.648243899229506 0 0 0
298 2 5.219636972487797 12.297833961273502 34.202122274806165 0 0 0
299 7 7.012960558379512 11.593731020646073 33.674981942270534 0 0 0
323 6 5.249984914905502 10.252607658846683 35.57422260501059 0 0 0
324 7 7.930568145276871 10.373547454475425 35.70805402480816 0 0 0
328 7 6.484783939288317 12.533875611543538 35.91113499319833 0 0 0
295 6 11.285480293414151 9.716436588123285 33.75160204300297 0 0 0
300 7 9.399191973514545 11.563309684162405 34.16012678282976 0 0 0
325 7 10.27166381616754 9.864486214600173 37.024913408796735 0 0 0
329 3 9.547908485065046 11.424023359499607 36.19664739913795 0 0 0
330 4 11.276007666462053 12.094949813379396 35.56941381962143 0 0 0
332 7 2.5010524519265918 0.11872483367514662 38.03037996541916 0 0 0
336 7 1.3496912977935867 2.2028469933620856 37.834805083234876 0 0 0
337 7 3.8946336814692835 2.2131635353350663 37.86472257923612 0 0 0
333 7 5.235489587020242 0.1821684284879564 38.11567731677135 0 0 0
334 7 7.668776624388267 0.09009536732753826 37.99818544445566 0 0 0
338 7 6.551604056193761 2.2834607194153107 37.8993131169396 0 0 0
339 7 9.009114557923656 2.2133689833328316 37.84327478122106 0 0 0
340 7 11.385333985098868 2.2182846598108754 37.72316206054773 0 0 0
361 8 10.13077199461499 4.136959510651274 41.5769259843929 0 0 0
362 8 10.026871463354682 3.3849290695355285 41.64786490016301 0 0 0
342 7 2.732440954473224 4.308912070324446 37.92823074734651 0 0 0
346 7 1.5352884220337792 6.420074769038626 38.00313712695517 0 0 0
347 6 3.9843379228451514 6.491505108121268 37.76695280889099 0 0 0
343 7 5.326873670276866 4.44952836537281 37.834484074862154 0 0 0
344 7 7.858412086119262 4.458595502228628 37.849561535789704 0 0 0
348 6 6.684144492210596 6.6834375641595365 37.81450076680941 0 0 0
341 7 0.22858373910212657 4.2653158599591565 38.0802153437192 0 0 0
345 4 10.242718409768012 4.360020516105395 37.77144637855283 0 0 0
349 7 9.264470327175518 6.645910327590545 37.86384786586857 0 0 0
350 7 11.705069693803871 6.289171737246697 37.28606030466521 0 0 0
352 6 2.507889340684005 8.674735832386496 37.68127464454083 0 0 0
357 7 3.863383746432926 10.821678675478648 37.948621225234604 0 0 0
360 7 1.408353288898238 10.918952433921023 37.88376916269961 1 0 0
353 7 5.148969525978301 8.711164557247033 37.82491462906546 0 0 0
354 7 7.977199250258505 8.972656364030877 37.81141556165894 0 0 0
358 6 6.437765423349671 10.87179991677801 37.78602032645885 0 0 0
331 7 12.409559019439032 12.90422649133381 37.620673541421276 -1 -1 0
351 7 12.261369330781985 8.579719322770597 37.83343261174799 -1 0 0
359 2 8.619193986202383 11.188832857300447 37.41979947833436 0 0 0

Velocities

1 0 0 0
2 0 0 0
6 0 0 0
7 0 0 0
31 0 0 0
32 0 0 0
36 0 0 0
37 0 0 0
3 0 0 0
8 0 0 0
9 0 0 0
33 0 0 0
34 0 0 0
38 0 0 0
4 0 0 0
5 0 0 0
10 0 0 0
35 0 0 0
39 0 0 0
40 0 0 0
11 0 0 0
12 0 0 0
16 0 0 0
17 0 0 0
41 0 0 0
42 0 0 0
46 0 0 0
47 0 0 0
13 0 0 0
18 0 0 0
19 0 0 0
43 0 0 0
44 0 0 0
48 0 0 0
14 0 0 0
15 0 0 0
20 0 0 0
45 0 0 0
49 0 0 0
50 0 0 0
21 0 0 0
22 0 0 0
26 0 0 0
27 0 0 0
51 0 0 0
52 0 0 0
56 0 0 0
57 0 0 0
23 0 0 0
28 0 0 0
29 0 0 0
53 0 0 0
54 0 0 0
58 0 0 0
24 0 0 0
25 0 0 0
30 0 0 0
55 0 0 0
59 0 0 0
60 0 0 0
61 0 0 0
62 0 0 0
66 0 0 0
67 0 0 0
91 0 0 0
92 0 0 0
96 0 0 0
97 0 0 0
63 0 0 0
64 0 0 0
68 0 0 0
93 0 0 0
98 0 0 0
99 0 0 0
65 0 0 0
69 0 0 0
70 0 0 0
94 0 0 0
95 0 0 0
100 0 0 0
71 0 0 0
72 0 0 0
76 0 0 0
77 0 0 0
101 0 0 0
102 0 0 0
106 0 0 0
107 0 0 0
73 0 0 0
74 0 0 0
78 0 0 0
103 0 0 0
108 0 0 0
109 0 0 0
75 0 0 0
79 0 0 0
80 0 0 0
104 0 0 0
105 0 0 0
110 0 0 0
81 0 0 0
82 0 0 0
86 0 0 0
87 0 0 0
111 0 0 0
112 0 0 0
116 0 0 0
117 0 0 0
83 0 0 0
84 0 0 0
88 0 0 0
113 0 0 0
118 0 0 0
119 0 0 0
85 0 0 0
89 0 0 0
90 0 0 0
114 0 0 0
115 0 0 0
120 0 0 0
121 0 0 0
122 0 0 0
126 0 0 0
127 0 0 0
152 0 0 0
156 0 0 0
157 0 0 0
162 0 0 0
123 0 0 0
124 0 0 0
128 0 0 0
153 0 0 0
154 0 0 0
158 0 0 0
163 0 0 0
164 0 0 0
125 0 0 0
129 0 0 0
130 0 0 0
155 0 0 0
159 0 0 0
160 0 0 0
165 0 0 0
131 0 0 0
132 0 0 0
136 0 0 0
137 0 0 0
161 0 0 0
166 0 0 0
167 0 0 0
133 0 0 0
134 0 0 0
138 0 0 0
168 0 0 0
173 0 0 0
135 0 0 0
139 0 0 0
140 0 0 0
169 0 0 0
170 0 0 0
175 0 0 0
141 0 0 0
142 0 0 0
146 0 0 0
147 0 0 0
151 0 0 0
171 0 0 0
172 0 0 0
176 0 0 0
177 0 0 0
143 0 0 0
144 0 0 0
148 0 0 0
178 0 0 0
145 0 0 0
149 0 0 0
150 0 0 0
174 0 0 0
179 0 0 0
180 0 0 0
181 0 0 0
182 0 0 0
186 0 0 0
187 0 0 0
211 0 0 0
212 0 0 0
216 0 0 0
217 0 0 0
183 0 0 0
188 0 0 0
189 0 0 0
213 0 0 0
214 0 0 0
218 0 0 0
184 0 0 0
185 0 0 0
190 0 0 0
215 0 0 0
219 0 0 0
220 0 0 0
191 0 0 0
192 0 0 0
197 0 0 0
221 0 0 0
222 0 0 0
226 0 0 0
227 0 0 0
193 0 0 0
198 0 0 0
199 0 0 0
223 0 0 0
224 0 0 0
228 0 0 0
194 0 0 0
195 0 0 0
196 0 0 0
200 0 0 0
225 0 0 0
229 0 0 0
230 0 0 0
201 0 0 0
202 0 0 0
206 0 0 0
207 0 0 0
231 0 0 0
232 0 0 0
236 0 0 0
203 0 0 0
208 0 0 0
209 0 0 0
233 0 0 0
234 0 0 0
238 0 0 0
204 0 0 0
205 0 0 0
210 0 0 0
235 0 0 0
239 0 0 0
240 0 0 0
237 0 0 0
241 0 0 0
242 0 0 0
246 0 0 0
247 0 0 0
276 0 0 0
243 0 0 0
244 0 0 0
248 0 0 0
279 0 0 0
249 0 0 0
250 0 0 0
255 0 0 0
275 0 0 0
251 0 0 0
252 0 0 0
256 0 0 0
257 0 0 0
253 0 0 0
254 0 0 0
258 0 0 0
264 0 0 0
283 0 0 0
289 0 0 0
259 0 0 0
260 0 0 0
284 0 0 0
290 0 0 0
261 0 0 0
262 0 0 0
266 0 0 0
267 0 0 0
292 0 0 0
326 0 0 0
263 0 0 0
268 0 0 0
245 0 0 0
265 0 0 0
269 0 0 0
270 0 0 0
294 0 0 0
296 0 0 0
271 0 0 0
272 0 0 0
277 0 0 0
301 0 0 0
302 0 0 0
306 0 0 0
307 0 0 0
273 0 0 0
278 0 0 0
303 0 0 0
304 0 0 0
308 0 0 0
274 0 0 0
280 0 0 0
305 0 0 0
309 0 0 0
310 0 0 0
335 0 0 0
281 0 0 0
282 0 0 0
286 0 0 0
287 0 0 0
312 0 0 0
316 0 0 0
317 0 0 0
288 0 0 0
313 0 0 0
314 0 0 0
318 0 0 0
285 0 0 0
311 0 0 0
315 0 0 0
319 0 0 0
320 0 0 0
355 0 0 0
291 0 0 0
297 0 0 0
321 0 0 0
322 0 0 0
327 0 0 0
356 0 0 0
293 0 0 0
298 0 0 0
299 0 0 0
323 0 0 0
324 0 0 0
328 0 0 0
295 0 0 0
300 0 0 0
325 0 0 0
329 0 0 0
330 0 0 0
332 0 0 0
336 0 0 0
337 0 0 0
333 0 0 0
334 0 0 0
338 0 0 0
339 0 0 0
340 0 0 0
361 0 0 0
362 0 0 0
342 0 0 0
346 0 0 0
347 0 0 0
343 0 0 0
344 0 0 0
348 0 0 0
341 0 0 0
345 0 0 0
349 0 0 0
350 0 0 0
352 0 0 0
357 0 0 0
360 0 0 0
353 0 0 0
354 0 0 0
358 0 0 0
331 0 0 0
351 0 0 0
359 0 0 0
