LAMMPS data file via write_data, version 11 Feb 2026, timestep = 617, units = metal

362 atoms
8 atom types

0 12.447907776 xlo xhi
0 12.9362452296 ylo yhi
0 52.3600831054 zlo zhi

Masses

1 26.9815
2 10.811
3 12.011
4 51.9961
5 55.845
6 95.95999999999999
7 58.6934
8 1.008

Atoms # atomic/kk

1 7 1.1218480515093732 0.8245110211371622 14.642198839829168 0 0 0
2 7 3.560316388312245 0.7401949673672644 14.87073714208303 0 0 0
6 7 12.272115974141688 3.480347076099744 14.643105142250638 -1 0 0
7 7 2.232570482469845 2.9735113013124015 15.107068390270943 0 0 0
31 6 12.399460253276626 1.8916074788532962 16.485807038464014 -1 0 0
32 7 2.313947396732771 1.256595600722943 16.930956113865566 0 0 0
36 7 1.1434252480017069 3.9714522324778354 17.06296848500741 0 0 0
37 7 3.576420891640074 3.6489393625217605 17.093397790547357 0 0 0
3 5 6.021034415832542 0.8693604184637103 14.937334809163874 0 0 0
8 7 4.786136224553388 2.987777818004656 15.02070159834247 0 0 0
9 7 7.292016882682262 3.064751486237972 14.892720171920939 0 0 0
33 7 4.8354818183111705 1.5383388518528172 16.982751156502125 0 0 0
34 7 7.363259083194067 1.714102944676981 16.946405577210466 0 0 0
38 5 6.082288273765358 3.744661570676016 16.970301034352996 0 0 0
4 6 8.642009479954776 0.973401424751876 14.945898603862064 0 0 0
5 7 11.029878395746122 1.255266113312555 14.461675292280246 0 0 0
10 7 9.814235525134754 3.381876291993281 14.722640764498715 0 0 0
35 7 9.927244922577145 1.7161781321812877 16.90460340795978 0 0 0
39 7 8.641594019022504 3.8669211703621773 16.814272297062917 0 0 0
40 7 11.077937862541464 3.95567140551242 16.964922828989017 0 0 0
11 7 1.1406215338854357 5.435483739834898 15.026153022911984 0 0 0
12 7 3.5586601231750876 5.149133507517402 15.121931425689978 0 0 0
16 4 0.22197951763850574 7.676191315537409 14.612126048300908 0 0 0
17 7 2.434548389237166 7.508065281737344 15.091536151054978 0 0 0
41 7 12.322673132825924 6.112750797820857 17.128277562996065 -1 0 0
42 7 2.3789946207929162 6.078270307926703 17.112230269758776 0 0 0
46 7 0.8246853469317439 8.416481524639078 16.86044094217009 0 0 0
47 7 3.822163099050251 8.01248234747109 17.027167928627044 0 0 0
13 7 6.052508588895972 5.188775620251744 15.008456264418038 0 0 0
18 7 4.901746866783834 7.3049677730644005 14.977081042298737 0 0 0
19 2 6.849592959684032 6.9780093419075735 15.316365839566755 0 0 0
43 7 4.860822319090468 5.813853454109573 17.077232321896474 0 0 0
44 7 7.349041294547034 5.8832741997973415 17.023415016342906 0 0 0
48 7 6.2319525817764285 7.995645389123719 17.018186027145443 0 0 0
14 7 8.580634025867182 5.6415270124210695 14.893539811359982 0 0 0
15 6 11.053875282186983 5.64164541350485 15.085629052236687 0 0 0
20 7 10.234283777263139 7.6603328992618405 13.98949144379853 0 0 0
45 7 9.814063218416742 6.1137682892887035 17.17982023328501 0 0 0
49 7 8.476559489712066 7.861047918918793 16.022366458497736 0 0 0
50 7 10.912479797597085 8.119668014566395 16.21482574715865 0 0 0
21 2 1.5550050148366605 9.476005322454029 15.210622822467759 0 0 0
22 7 3.6235150100765243 9.515151564060742 14.919110434710554 0 0 0
26 7 0.3210827443458334 10.805430279461298 16.829532947069072 0 0 0
27 7 2.038785203647145 11.479920221467419 15.151262868682455 0 0 0
51 3 11.627354038359327 9.373636021456486 17.499545439955366 -1 0 0
52 7 2.6206108258869505 10.0840234082196 17.043402561849284 0 0 0
56 2 0.9337252171625651 12.708008131258183 16.354654666189827 0 0 0
57 7 3.710245734641703 12.228902296174638 16.929707570950967 0 0 0
23 7 6.591291281657714 9.08943040355476 14.851386233918031 0 0 0
28 7 4.824064182381477 11.612811380780434 14.818968301604244 0 0 0
29 6 7.380439984430037 11.501586324827814 14.91718287731188 0 0 0
53 7 5.134836857600115 10.113713987148564 16.779470582862498 0 0 0
54 7 7.7006550607778195 10.047108609360068 16.921770646037775 0 0 0
58 6 6.301189505512728 12.341860240088128 17.012329141686184 0 0 0
24 7 9.058526558458324 9.670514922552313 14.656167242848905 0 0 0
25 7 11.951514368083926 9.881764879558158 14.711361238015563 0 0 0
30 7 9.93013017823226 11.859769177843427 14.578835387009148 0 0 0
55 7 10.250302990243092 10.411533695877297 16.646368761328336 0 0 0
59 7 8.849541141330487 12.374219170743867 16.89068827993773 0 0 0
60 7 11.305458883937803 12.625929648708809 16.350777847591626 0 0 0
61 6 0.11185333633889603 12.917322070681376 18.57639183396066 0 -1 0
62 7 2.569658635021663 0.03945658585772258 19.143921663545502 0 0 0
66 6 1.3602558610875606 2.2350920586176954 19.067006575664333 0 0 0
67 5 3.8046576593898 2.1877941537209713 19.10509409787168 0 0 0
91 4 1.3715682108613636 0.7906230378661347 21.253370407649452 0 0 0
92 7 3.802398332643159 0.7464866060460377 21.13366685202909 0 0 0
96 7 0.09000264263110745 2.8697257277811623 21.177677834263907 0 0 0
97 7 2.611870068673163 2.8677342243106474 21.21011997802593 0 0 0
63 5 5.021188390242377 0.12343689283762078 19.0644138680984 0 0 0
64 7 7.503749901845377 0.11357690643071175 19.093498218821345 0 0 0
68 7 6.199311997519303 2.180847777229635 19.05034252554057 0 0 0
93 7 6.329718331197523 0.7455337640297488 21.20762489503856 0 0 0
98 7 5.054632825632285 2.8821494025303513 21.152804351411444 0 0 0
99 5 7.5093953156459206 2.8489730538734994 21.142845193714713 0 0 0
65 7 10.088240384380228 0.1097736296588363 18.965074280629448 0 0 0
69 7 8.73921571172708 2.1921939769926335 18.96338914366626 0 0 0
70 7 11.29852059524178 2.2959357898313453 18.908346392300214 0 0 0
94 7 8.785482892230139 0.7586477769071513 21.178647110820073 0 0 0
95 7 11.370996270872542 0.729538209268164 21.031561330696025 0 0 0
100 6 10.052878451351566 2.84642236133313 21.020014777937437 0 0 0
71 1 12.336137941127758 4.460053597369666 19.1962907636103 -1 0 0
72 7 2.456524689887892 4.4264264991136475 19.11713690279078 0 0 0
76 7 1.173997144883717 6.502732544542937 19.190870862734723 0 0 0
77 7 3.7670054621454474 6.503852150403683 19.14494526387943 0 0 0
101 7 1.2167527517678183 5.036012176209689 21.233078182081975 0 0 0
102 6 3.746261766829516 5.052054968004609 21.22708813242789 0 0 0
106 7 0.0021704235566634587 7.14261488211226 21.274402345805925 0 0 0
107 7 2.4806297794584293 7.176694081988366 21.238315546616015 0 0 0
73 7 4.948131645404548 4.314872816955912 19.07701436750826 0 0 0
74 6 7.477167419831745 4.321366155059998 19.026686319998987 0 0 0
78 7 6.178411564563498 6.529331305432463 19.105623929498776 0 0 0
103 7 6.2866404504238975 5.0627247264621795 21.156905449790084 0 0 0
108 7 5.027491604901964 7.22684238322413 21.20787121332628 0 0 0
109 7 7.434770791612839 7.271201003752213 21.2401412021973 0 0 0
75 5 9.869315291986169 4.370160404197977 19.01086659006283 0 0 0
79 7 8.621495998664832 6.522744034268783 19.28606575940969 0 0 0
80 7 11.100735340895993 6.515486582962385 19.283850688218642 0 0 0
104 7 8.747134807416614 5.0670000476214225 21.216284415572307 0 0 0
105 3 10.097297255877534 4.428630749907674 22.262937014157938 0 0 0
110 7 9.909885104992016 7.199427588950442 21.27200101866378 0 0 0
81 4 12.378207245862312 8.588606491710156 19.188654694475886 -1 0 0
82 6 2.4412979215649666 8.542271381934446 19.024682168715902 0 0 0
86 7 1.312175423443375 10.762774054800246 19.170935347692833 0 0 0
87 1 3.854133789873313 10.885857525454858 19.009841142051176 0 0 0
111 7 1.2094559327171652 9.339677611137112 21.21708470727985 0 0 0
112 6 3.7560793026839017 9.344751828473411 21.239061478053582 0 0 0
116 1 0.0668552928577955 11.55408959666377 21.176951790025008 0 0 0
117 7 2.5302175895483097 11.54534488367911 21.17543973860429 0 0 0
83 7 4.976816333076047 8.73393322695201 19.033479266206168 0 0 0
84 7 7.430845549177876 8.64424707321271 19.011524663471448 0 0 0
88 7 6.28330207836761 10.827589812226643 19.02199017917908 0 0 0
113 7 6.248987652480201 9.40263174988606 21.03442512470772 0 0 0
118 7 5.04971472784352 11.565182110945523 21.143463694006265 0 0 0
119 4 7.480450605757227 11.581321183396424 21.077276046590875 0 0 0
85 6 9.837409022937255 8.520648085845222 18.450167533622864 0 0 0
89 6 8.791076933612809 10.876101465854447 18.98003192487966 0 0 0
90 4 11.293371382198496 10.8142010931286 18.891900713608788 0 0 0
114 7 8.715411101582642 9.34914241997398 20.934446091833465 0 0 0
115 6 11.128478915394549 9.296310915671373 21.16834633755162 0 0 0
120 7 10.027295364069268 11.563566946683205 21.123045363822545 0 0 0
121 7 0.0918228876815403 1.4140993732722904 23.257318629555932 0 0 0
122 7 2.5801753475193516 1.4110178716805786 23.317806666732906 0 0 0
126 6 1.3632057710191436 3.6104844907092386 23.261232017766662 0 0 0
127 7 3.864366444663333 3.5952808253024395 23.366039493418043 0 0 0
152 7 2.6649967545155047 0.017322755082916624 25.37574575855662 0 0 0
156 1 1.497543817266686 2.1467226411855425 25.502832115757858 0 0 0
157 7 3.9859106912411293 2.14456963154151 25.444259442929585 0 0 0
162 7 2.6148394036490337 4.2743117807015 25.428326767294713 0 0 0
123 7 5.021126805271241 1.4369421041594708 23.20034734604659 0 0 0
124 7 7.426513605395658 1.5279169857339725 23.479286223757423 0 0 0
128 7 6.319020281546242 3.6735957708278777 23.170992358007332 0 0 0
153 7 5.21072065177537 0.07135913438002625 25.330709751084292 0 0 0
154 7 7.622287089534634 0.0178312859112308 25.458439435134984 0 0 0
158 2 5.811238750983143 2.4891728138169347 24.643637319442796 0 0 0
163 7 5.131429522382334 4.257630802808346 25.422681002782276 0 0 0
164 5 7.491127689249174 4.070587995674958 25.343630221715767 0 0 0
125 7 10.07542644572707 1.4524848756700737 23.30122429519711 0 0 0
129 7 8.770737582185436 3.5700032854274024 23.329083176404495 0 0 0
130 4 11.373679726298857 3.6492110354541505 23.383030967335454 0 0 0
155 4 10.146702475127928 0.08028816173798431 25.518811058800395 0 0 0
159 7 8.900582527350824 2.1138088354680606 25.422691703930987 0 0 0
160 7 11.424236772643908 2.1755116009651516 25.39228284366602 0 0 0
165 7 10.08115452377759 4.238149330349573 25.397378230324097 0 0 0
131 7 0.08685447005249952 5.800349392802466 23.38607789501679 0 0 0
132 7 2.5599835912418993 5.802707924849314 23.36529904085497 0 0 0
136 7 1.3241159050723617 7.9284753985665155 23.29632677322426 0 0 0
137 7 3.8000697347745556 7.970158678472451 23.321877931763876 0 0 0
161 4 0.12634026317211333 4.359195065874184 25.454421219850097 0 0 0
166 7 1.3541758262888326 6.430096701155021 25.42442803359756 0 0 0
167 7 3.8260009151228016 6.4423802572138404 25.44888480116927 0 0 0
133 6 5.084359274605272 5.856582784731605 23.384777729718863 0 0 0
134 7 7.5743993016851565 5.792927407769705 23.301451991076576 0 0 0
138 7 6.327872621661571 8.001747371508309 23.339244067427472 0 0 0
168 7 6.381579438262063 6.400792693482551 25.429873474534812 0 0 0
173 7 5.1291201065715475 8.558496160009607 25.353630490170513 0 0 0
135 7 10.079214214715897 5.853362190390152 23.37322756427672 0 0 0
139 4 8.714825315881942 7.962101494703482 23.211964369225168 0 0 0
140 4 11.30332651269855 7.91455995932147 23.29501391933069 0 0 0
169 7 8.79005715466577 6.349633462163446 25.370702065975742 0 0 0
170 7 11.306955680430281 6.42582399829148 25.434663624231174 0 0 0
175 6 9.909604778943521 8.582616043311035 25.501152902686446 0 0 0
141 7 0.03683988181042613 10.099063399153472 23.32857949125935 0 0 0
142 7 2.5185138020801303 10.113334559826638 23.29922203133809 0 0 0
146 7 1.3163807318085963 12.247653635173444 23.314344454265846 0 0 0
147 7 3.8304697806807573 12.247249291631174 23.230603439169986 0 0 0
151 4 0.1103274373072037 12.892299201001205 25.371244604032213 0 -1 0
171 6 0.129051344801444 8.63504144359021 25.410944613621577 0 0 0
172 7 2.639314923709371 8.616478793987993 25.395891422548782 0 0 0
176 7 1.36012905540578 10.818295817419353 25.432418359483066 0 0 0
177 6 3.9015226572363133 10.821105095355808 25.315454065941157 0 0 0
143 7 5.089934630176958 10.115952977973889 23.234713275218585 0 0 0
144 7 7.525366586567737 10.10282680729151 22.904163001251412 0 0 0
148 4 6.245848818047699 12.28709696823886 23.261369454626713 0 0 0
178 6 6.660109550705596 10.530837881097677 25.238402413102154 0 0 0
145 7 10.012472649268872 10.103707848040637 23.29975104619396 0 0 0
149 6 8.737159604694604 12.303490850206517 23.29070461401282 0 0 0
150 7 11.27443656307035 12.242265196403809 23.33335773423578 0 0 0
174 3 8.434971387079267 9.519235661011148 24.405737776058963 0 0 0
179 5 9.02790525133835 10.943601129454944 25.559104198504436 0 0 0
180 5 11.360027359120604 10.891643466909036 25.48159833584267 0 0 0
181 7 1.4024462578907602 0.6757608632965953 27.486352290201616 0 0 0
182 7 3.8911896447885947 0.7103955685654288 27.444760229103256 0 0 0
186 7 0.1878096536202827 2.8724471119325883 27.4802704082006 0 0 0
187 7 2.6756137642403233 2.8601438514943847 27.564170641836593 0 0 0
211 7 0.22391988607627533 1.457427792461119 29.58119458301353 0 0 0
212 7 2.7238246274292814 1.3706600248954008 29.580050404347773 0 0 0
216 7 1.4262929129673425 3.5649276837327983 29.585263415522707 0 0 0
217 4 3.8402031911752132 3.5791306540787247 29.599381498705096 0 0 0
183 7 6.330067897490501 0.7254872460837264 27.568389293018164 0 0 0
188 7 5.100435792041604 2.8803481811474736 27.57479739138235 0 0 0
189 7 7.616237711200523 2.803155133182983 27.447090410087775 0 0 0
213 5 5.151306194271517 1.4311855349657154 29.599442032119796 0 0 0
214 7 7.634410227742771 1.3652924831526445 29.581464048286612 0 0 0
218 7 6.382370038478644 3.542884491554626 29.538529929947767 0 0 0
184 7 8.91094432619982 0.7335776800539512 27.549241053379614 0 0 0
185 4 11.40350364684495 0.7369860570796005 27.51818062153066 0 0 0
190 7 10.165638433920401 2.8481083062688066 27.47457825178839 0 0 0
215 7 10.144055252275212 1.4186094593257188 29.618187256861184 0 0 0
219 7 8.85666221971898 3.524926262486161 29.517285940021054 0 0 0
220 7 11.386208345824386 3.573562928052151 29.512208853065506 0 0 0
191 7 1.4069379110277227 5.018819398113233 27.469907298635817 0 0 0
192 7 3.849649694389711 4.995364505170441 27.487402746056368 0 0 0
197 7 2.596162642240751 7.198810795930414 27.4818266304556 0 0 0
221 7 0.1367513036421051 5.739644781005755 29.565398585328207 0 0 0
222 7 2.6074901959355032 5.7348280605080335 29.554170702310316 0 0 0
226 7 1.3788310923866476 7.912266056932942 29.551074526697775 0 0 0
227 7 3.877233243528722 7.917568060789108 29.477268047185184 0 0 0
193 7 6.3881978199757175 4.981850186110096 27.413001799298883 0 0 0
198 7 5.120299579145338 7.177100541464326 27.41883311709426 0 0 0
199 7 7.633612125060524 7.199109450670624 27.444966727784752 0 0 0
223 6 5.171065689803503 5.725302993989061 29.492653425605997 0 0 0
224 7 7.662574810992661 5.748595933974056 29.576181312969563 0 0 0
228 7 6.409943253975297 7.919147401286899 29.49731699465683 0 0 0
194 6 8.864618409748076 5.012263192981691 27.481500089989332 0 0 0
195 7 11.377972054372778 5.011181848482575 27.498354250686212 0 0 0
196 7 0.15263273998823143 7.174642906889965 27.488234122248855 0 0 0
200 7 10.138556152976623 7.174250039650848 27.52713860644837 0 0 0
225 7 10.118513732263308 5.75543804855907 29.59537194232724 0 0 0
229 7 8.862601085086606 7.897408097425112 29.51487737255463 0 0 0
230 7 11.384170175938944 7.945176582133207 29.514396491721058 0 0 0
201 5 1.3939081620364075 9.338677246374603 27.514884789218225 0 0 0
202 7 3.8889531698794837 9.324633584179312 27.396536987464447 0 0 0
206 4 0.2035527880739917 11.493914767914044 27.518055403520638 0 0 0
207 7 2.6265995699869626 11.4694676645752 27.452806839778372 0 0 0
231 7 0.1791381347025319 10.091894510848288 29.56165098425922 0 0 0
232 7 2.6462659346474977 10.033434476795746 29.434807770474404 0 0 0
236 7 1.4855319547168377 12.19525147614226 29.55707336705423 0 0 0
203 7 6.388538195370389 9.29696391013894 27.407528290918165 0 0 0
208 7 5.15807826749367 11.505357133256394 27.352938807888737 0 0 0
209 6 7.607523440614844 11.541603461925634 27.630694686276026 0 0 0
233 7 5.162984097018315 10.059570262838978 29.342027857427603 0 0 0
234 7 7.619313638237727 10.09905237502449 29.656345504788195 0 0 0
238 7 6.237695068855654 12.245384703986339 29.67898805730914 0 0 0
204 7 8.853820795893073 9.382532106670597 27.60397092908833 0 0 0
205 7 11.362509737240647 9.433020423341139 27.530905018540693 0 0 0
210 7 10.17257892989668 11.570952358988775 27.566026526396087 0 0 0
235 7 10.101627045269655 10.192193511249998 29.58617765358412 0 0 0
239 4 8.900186265377874 12.268202750953895 29.72181485651365 0 0 0
240 7 11.410899070178605 12.281668193068509 29.551486081873247 0 0 0
237 3 4.04557692760358 0.3119656280921746 30.558716118683655 0 1 0
241 7 0.21450367096529535 0.11576197372369995 31.631128288314862 0 0 0
242 7 2.5804066786107693 0.15714576883548215 31.742003741520328 0 0 0
246 4 1.3569834665388534 2.2585842866801356 31.66172807191719 0 0 0
247 7 3.8962261445318096 2.1642807513043913 31.640906539114553 0 0 0
276 7 0.19172637145300434 3.0137310297898523 33.73383948811229 0 0 0
243 7 5.18440039005133 12.917840198778935 32.09715408067859 0 -1 0
244 7 7.644154555624739 0.018666683721414265 31.70505235067268 0 0 0
248 7 6.424595778032693 2.163962070422776 31.638922584046263 0 0 0
279 7 7.7454122303969015 3.0612777001299496 33.7224392656332 0 0 0
249 7 8.86823604138038 2.121082233773995 31.670202968277206 0 0 0
250 7 11.398990412941835 2.157386484187569 31.653288213250622 0 0 0
255 1 10.120616723637312 4.238717333271481 31.494482074090598 0 0 0
275 4 11.456876596568769 0.8162823253445672 33.7113376221603 0 0 0
251 7 0.16258411373025525 4.342610577011805 31.64507428336272 0 0 0
252 7 2.6485585898512927 4.3330220553300745 31.668430533796176 0 0 0
256 7 1.3455021511382226 6.518065045858864 31.63358771077116 0 0 0
257 6 3.8081301049353096 6.515281914523961 31.665229315934152 0 0 0
253 7 5.12904957663971 4.324229154065147 31.620762511736064 0 0 0
254 7 7.63811393618036 4.3288774750766805 31.58518516224169 0 0 0
258 7 6.369309745251138 6.510010940037661 31.620849496424757 0 0 0
264 7 7.606752812362595 8.596669785679747 31.61638138149342 0 0 0
283 7 6.395252712335715 5.119091570321589 33.6657305315803 0 0 0
289 7 7.650060257592191 7.206026377763372 33.70974559467299 0 0 0
259 4 8.838579837900214 6.48095037619521 31.621359814765814 0 0 0
260 7 11.331105269835907 6.510217778015591 31.58587009219778 0 0 0
284 5 8.90271452369495 5.138067611008737 33.575056407979645 0 0 0
290 7 10.100530151872391 7.281197898474482 33.58867528273226 0 0 0
261 7 0.19261583808710883 8.727935942002762 31.647647914180837 0 0 0
262 7 2.6792563449276177 8.734983258293784 31.53469406160128 0 0 0
266 7 1.578188195437406 10.849738735811906 31.57190138498756 0 0 0
267 4 3.9309897593251306 11.296885885744064 30.852504863482736 0 0 0
292 7 3.97442140442191 9.389104730423629 33.50667487098182 0 0 0
326 7 0.5238670395741074 11.67421729866061 33.67669322936198 0 0 0
263 1 5.109407996562214 8.775408095624133 31.428537360975564 0 0 0
268 7 6.277852695629354 10.778484143213555 31.57799778915827 0 0 0
245 7 10.128828071168758 12.904839375222497 31.86041993707663 0 -1 0
265 6 10.1178013068054 8.7033507266007 31.533654887990586 0 0 0
269 7 8.792473918486285 10.821407220306927 31.741568313116076 0 0 0
270 7 11.443616157828762 10.924837968002766 31.60585668666545 0 0 0
294 7 8.785336924317038 9.310544769627695 33.68741950699257 0 0 0
296 3 11.092032524332012 11.851311263788512 33.32349839971569 -1 0 0
271 7 1.4919462483929078 0.9238019823448972 33.7767841700114 0 0 0
272 7 3.9356278601098924 0.9721887284503352 33.920205933666985 0 0 0
277 7 2.6589948449942526 3.097866897655568 33.798207418101676 0 0 0
301 7 0.2101877701048386 1.573157896095208 35.75745285666819 0 0 0
302 7 2.6390301207230897 1.6893498219022338 35.86297793861679 0 0 0
306 4 1.4333361985602084 3.8536681880154333 35.95747543045552 0 0 0
307 7 4.014766004707078 3.7535444592831135 35.83347044032429 0 0 0
273 7 6.48013346750977 0.9919495888514099 33.892896941127944 0 0 0
278 1 5.232147384524481 3.01410882407754 33.711709687516745 0 0 0
303 7 5.259012878692751 1.686569346388807 35.92146332072731 0 0 0
304 4 7.784815657316547 1.6559089655179717 35.90058022821501 0 0 0
308 7 6.54464964524747 3.7281293150745483 35.78849822836527 0 0 0
274 7 8.856684622552029 0.9177715715624083 33.82546538855233 0 0 0
280 7 10.218708408367304 3.0151078116056684 33.70321534578299 0 0 0
305 7 10.241715341619377 1.5814712019913004 35.72132455088647 0 0 0
309 7 9.03704693060888 3.6938160234855513 35.776494468575734 0 0 0
310 4 11.60532147609297 3.9639587835117784 35.85893652309908 0 0 0
335 5 9.925869712622667 12.928726010048166 37.390978112340775 0 -1 0
281 7 1.3388400046334736 5.201432568299977 33.859105254900264 0 0 0
282 4 3.864159252961934 5.152092721534074 33.76849215345518 0 0 0
286 7 0.10909498671463938 7.300147490408638 33.61861308913673 0 0 0
287 7 2.6481071993948673 7.304907660284181 33.74413206132019 0 0 0
312 7 2.74679622727406 5.809600821106055 35.782693836081684 0 0 0
316 7 1.2275847793821866 7.620860433454984 35.783800210742186 0 0 0
317 7 3.9479601472263486 8.081039102620274 35.731339769276204 0 0 0
288 7 5.200861161451497 7.287575803469823 33.66536384759884 0 0 0
313 7 5.28167354745169 5.935617939331242 35.71449122156099 0 0 0
314 7 7.7392420033948905 5.839517314674325 35.73948849258927 0 0 0
318 4 6.5720551274071495 8.141027782885137 35.801566337993144 0 0 0
285 4 11.361616611796093 5.174593440099546 33.62679482534682 0 0 0
311 2 12.384754735630207 6.020344890620916 35.31740705013117 -1 0 0
315 7 10.151208331806123 5.8298968094743415 35.57188646163984 0 0 0
319 7 8.972317873224805 7.996744530573154 35.81544200539943 0 0 0
320 7 11.36387388143621 7.954582969645211 35.587618713356775 0 0 0
355 3 10.452808010520044 7.9231578163487475 37.27178313393954 0 0 0
291 7 1.4836043320142291 9.444301454226993 33.72848210442598 0 0 0
297 6 3.0415084512967185 11.592038559361201 33.66953495537005 0 0 0
321 6 0.22738413107914784 10.086058705238495 35.9043932626462 0 0 0
322 7 2.719427006797068 10.2186920135585 35.75868134608316 0 0 0
327 6 3.942080983542384 12.525651126533319 36.10722878962197 0 0 0
356 4 1.4203322573180492 12.381644096120754 35.84437288803945 0 0 0
293 4 6.468355029786542 9.33911266331226 33.64716508551366 0 0 0
298 2 5.219860595993638 12.306175924744414 34.20407713087726 0 0 0
299 7 7.012818605145392 11.598438897751052 33.675903392201356 0 0 0
323 6 5.251164856408538 10.258180335065024 35.57286615139564 0 0 0
324 7 7.930073554036655 10.377740574137432 35.70744480943064 0 0 0
328 7 6.486917784180077 12.54218291207155 35.91061021491279 0 0 0
295 6 11.286611734693004 9.719366412856814 33.75432349237306 0 0 0
300 7 9.400204031720367 11.567583282803922 34.16173622347301 0 0 0
325 7 10.271333874707185 9.867104369807997 37.02692182936864 0 0 0
329 3 9.546529194877497 11.42443083006582 36.19638794257261 0 0 0
330 4 11.277284420943614 12.097008548860652 35.57344859730532 0 0 0
332 7 2.5052160802724277 0.12823223096548503 38.03386472938588 0 0 0
336 7 1.3507094487279248 2.209444151758098 37.83342897412774 0 0 0
337 7 3.9047551757793455 2.2219273604041097 37.868170629358104 0 0 0
333 7 5.237853101610526 0.19170595148601197 38.12274302445688 0 0 0
334 7 7.669096893328503 0.09341988772856255 37.999382630045865 0 0 0
338 7 6.5498970531838605 2.2790507375380384 37.85756854164407 0 0 0
361 8 6.132609057629675 2.1522160744979595 41.48394462853357 0 0 0
362 8 6.6866078168382534 2.671459892968123 41.48626748927851 0 0 0
339 7 8.999173349439383 2.2087734394250553 37.85269086046306 0 0 0
340 7 11.380487696703234 2.2174063887657187 37.7231968411931 0 0 0
342 7 2.730376245429179 4.312338726959961 37.923798927680245 0 0 0
346 7 1.5326639995400169 6.427885637035941 37.99361758461947 0 0 0
347 6 3.9814592711239296 6.495450698688623 37.765353450092036 0 0 0
343 7 5.322328937159245 4.454067528076973 37.830749387288655 0 0 0
344 7 7.845062189760801 4.459722026702614 37.84547744275877 0 0 0
348 6 6.677976477715319 6.690363978296553 37.812850337486196 0 0 0
341 7 0.22682476593626824 4.273830535047631 38.067343199032265 0 0 0
345 4 10.234519292219417 4.356604802868826 37.80570235086929 0 0 0
349 7 9.254904740557716 6.649371101988274 37.858120728487584 0 0 0
350 7 11.695065964035374 6.294867948728366 37.295445860839784 0 0 0
352 6 2.508175514995325 8.682063259311395 37.68188024139395 0 0 0
357 7 3.865745487223853 10.829592683589945 37.95197874458193 0 0 0
360 7 1.411389304490645 10.927056328696622 37.884193685714195 1 0 0
353 7 5.14684517413611 8.718182469425859 37.82339366845248 0 0 0
354 7 7.973457108378712 8.978563579980008 37.81108236261369 0 0 0
358 6 6.4362706951936355 10.879415491023265 37.786301606479306 0 0 0
331 7 12.411813280616435 12.908698652217462 37.62336608359281 -1 -1 0
351 7 12.26197771115222 8.583932734909956 37.835054803837544 -1 0 0
359 2 8.616872417069706 11.191154344177175 37.42140165518043 0 0 0

Velocities

1 0 0 0
2 0 0 0
6 0 0 0
7 0 0 0
31 0 0 0
32 0 0 0
36 0 0 0
37 0 0 0
3 0 0 0
8 0 0 0
9 0 0 0
33 0 0 0
34 0 0 0
38 0 0 0
4 0 0 0
5 0 0 0
10 0 0 0
35 0 0 0
39 0 0 0
40 0 0 0
11 0 0 0
12 0 0 0
16 0 0 0
17 0 0 0
41 0 0 0
42 0 0 0
46 0 0 0
47 0 0 0
13 0 0 0
18 0 0 0
19 0 0 0
43 0 0 0
44 0 0 0
48 0 0 0
14 0 0 0
15 0 0 0
20 0 0 0
45 0 0 0
49 0 0 0
50 0 0 0
21 0 0 0
22 0 0 0
26 0 0 0
27 0 0 0
51 0 0 0
52 0 0 0
56 0 0 0
57 0 0 0
23 0 0 0
28 0 0 0
29 0 0 0
53 0 0 0
54 0 0 0
58 0 0 0
24 0 0 0
25 0 0 0
30 0 0 0
55 0 0 0
59 0 0 0
60 0 0 0
61 0 0 0
62 0 0 0
66 0 0 0
67 0 0 0
91 0 0 0
92 0 0 0
96 0 0 0
97 0 0 0
63 0 0 0
64 0 0 0
68 0 0 0
93 0 0 0
98 0 0 0
99 0 0 0
65 0 0 0
69 0 0 0
70 0 0 0
94 0 0 0
95 0 0 0
100 0 0 0
71 0 0 0
72 0 0 0
76 0 0 0
77 0 0 0
101 0 0 0
102 0 0 0
106 0 0 0
107 0 0 0
73 0 0 0
74 0 0 0
78 0 0 0
103 0 0 0
108 0 0 0
109 0 0 0
75 0 0 0
79 0 0 0
80 0 0 0
104 0 0 0
105 0 0 0
110 0 0 0
81 0 0 0
82 0 0 0
86 0 0 0
87 0 0 0
111 0 0 0
112 0 0 0
116 0 0 0
117 0 0 0
83 0 0 0
84 0 0 0
88 0 0 0
113 0 0 0
118 0 0 0
119 0 0 0
85 0 0 0
89 0 0 0
90 0 0 0
114 0 0 0
115 0 0 0
120 0 0 0
121 0 0 0
122 0 0 0
126 0 0 0
127 0 0 0
152 0 0 0
156 0 0 0
157 0 0 0
162 0 0 0
123 0 0 0
124 0 0 0
128 0 0 0
153 0 0 0
154 0 0 0
158 0 0 0
163 0 0 0
164 0 0 0
125 0 0 0
129 0 0 0
130 0 0 0
155 0 0 0
159 0 0 0
160 0 0 0
165 0 0 0
131 0 0 0
132 0 0 0
136 0 0 0
137 0 0 0
161 0 0 0
166 0 0 0
167 0 0 0
133 0 0 0
134 0 0 0
138 0 0 0
168 0 0 0
173 0 0 0
135 0 0 0
139 0 0 0
140 0 0 0
169 0 0 0
170 0 0 0
175 0 0 0
141 0 0 0
142 0 0 0
146 0 0 0
147 0 0 0
151 0 0 0
171 0 0 0
172 0 0 0
176 0 0 0
177 0 0 0
143 0 0 0
144 0 0 0
148 0 0 0
178 0 0 0
145 0 0 0
149 0 0 0
150 0 0 0
174 0 0 0
179 0 0 0
180 0 0 0
181 0 0 0
182 0 0 0
186 0 0 0
187 0 0 0
211 0 0 0
212 0 0 0
216 0 0 0
217 0 0 0
183 0 0 0
188 0 0 0
189 0 0 0
213 0 0 0
214 0 0 0
218 0 0 0
184 0 0 0
185 0 0 0
190 0 0 0
215 0 0 0
219 0 0 0
220 0 0 0
191 0 0 0
192 0 0 0
197 0 0 0
221 0 0 0
222 0 0 0
226 0 0 0
227 0 0 0
193 0 0 0
198 0 0 0
199 0 0 0
223 0 0 0
224 0 0 0
228 0 0 0
194 0 0 0
195 0 0 0
196 0 0 0
200 0 0 0
225 0 0 0
229 0 0 0
230 0 0 0
201 0 0 0
202 0 0 0
206 0 0 0
207 0 0 0
231 0 0 0
232 0 0 0
236 0 0 0
203 0 0 0
208 0 0 0
209 0 0 0
233 0 0 0
234 0 0 0
238 0 0 0
204 0 0 0
205 0 0 0
210 0 0 0
235 0 0 0
239 0 0 0
240 0 0 0
237 0 0 0
241 0 0 0
242 0 0 0
246 0 0 0
247 0 0 0
276 0 0 0
243 0 0 0
244 0 0 0
248 0 0 0
279 0 0 0
249 0 0 0
250 0 0 0
255 0 0 0
275 0 0 0
251 0 0 0
252 0 0 0
256 0 0 0
257 0 0 0
253 0 0 0
254 0 0 0
258 0 0 0
264 0 0 0
283 0 0 0
289 0 0 0
259 0 0 0
260 0 0 0
284 0 0 0
290 0 0 0
261 0 0 0
262 0 0 0
266 0 0 0
267 0 0 0
292 0 0 0
326 0 0 0
263 0 0 0
268 0 0 0
245 0 0 0
265 0 0 0
269 0 0 0
270 0 0 0
294 0 0 0
296 0 0 0
271 0 0 0
272 0 0 0
277 0 0 0
301 0 0 0
302 0 0 0
306 0 0 0
307 0 0 0
273 0 0 0
278 0 0 0
303 0 0 0
304 0 0 0
308 0 0 0
274 0 0 0
280 0 0 0
305 0 0 0
309 0 0 0
310 0 0 0
335 0 0 0
281 0 0 0
282 0 0 0
286 0 0 0
287 0 0 0
312 0 0 0
316 0 0 0
317 0 0 0
288 0 0 0
313 0 0 0
314 0 0 0
318 0 0 0
285 0 0 0
311 0 0 0
315 0 0 0
319 0 0 0
320 0 0 0
355 0 0 0
291 0 0 0
297 0 0 0
321 0 0 0
322 0 0 0
327 0 0 0
356 0 0 0
293 0 0 0
298 0 0 0
299 0 0 0
323 0 0 0
324 0 0 0
328 0 0 0
295 0 0 0
300 0 0 0
325 0 0 0
329 0 0 0
330 0 0 0
332 0 0 0
336 0 0 0
337 0 0 0
333 0 0 0
334 0 0 0
338 0 0 0
361 0 0 0
362 0 0 0
339 0 0 0
340 0 0 0
342 0 0 0
346 0 0 0
347 0 0 0
343 0 0 0
344 0 0 0
348 0 0 0
341 0 0 0
345 0 0 0
349 0 0 0
350 0 0 0
352 0 0 0
357 0 0 0
360 0 0 0
353 0 0 0
354 0 0 0
358 0 0 0
331 0 0 0
351 0 0 0
359 0 0 0
