LAMMPS data file via write_data, version 11 Feb 2026, timestep = 370, units = metal

362 atoms
8 atom types

0 12.447907776 xlo xhi
0 12.9362452296 ylo yhi
0 52.3600831054 zlo zhi

Masses

1 26.9815
2 10.811
3 12.011
4 51.9961
5 55.845
6 95.95999999999999
7 58.6934
8 1.008

Atoms # atomic/kk

1 7 1.15162592732035 1.408049744274355 14.17370382182861 0 0 0
2 7 3.615332281476573 1.0737120883627593 14.667420830588979 0 0 0
6 7 12.378704731430348 3.4597590541104406 14.819713362064858 -1 0 0
7 7 2.434507376389545 3.2783625637157257 14.989150943308848 0 0 0
31 6 0.1389418833524197 1.570508304238185 16.542634709582877 0 0 0
32 7 2.611649451808979 1.6889265356262821 16.912713455605854 0 0 0
36 7 1.2263896527052331 3.8598466894451247 17.026906962943816 0 0 0
37 7 3.717219923630332 3.840955008507957 17.054207236943608 0 0 0
3 5 6.083411302797231 0.9505959107989552 14.909741985635533 0 0 0
8 7 4.935590207290617 3.130942178354743 15.00795913279651 0 0 0
9 7 7.397282842925327 3.1590641415831504 14.918258130915966 0 0 0
33 7 4.992334789901758 1.6686469609582422 16.95219626486271 0 0 0
34 7 7.416969623834852 1.7728315358324693 16.97716480727877 0 0 0
38 5 6.185548880386727 3.863713832820667 16.986224741286964 0 0 0
4 6 8.647459846916707 1.0004411062812966 14.998004142435562 0 0 0
5 7 11.056619275829199 1.25680086515769 14.599419937910724 0 0 0
10 7 9.9199269981755 3.394223288519387 14.77815327130085 0 0 0
35 7 9.992319940533893 1.6661842487433798 16.941077952621473 0 0 0
39 7 8.737553906415009 3.8665264286026733 16.85928283957865 0 0 0
40 7 11.197399198084842 3.810613226754191 16.997596534373756 0 0 0
11 7 1.2417467676714167 5.498782219284067 15.077658685623147 0 0 0
12 7 3.7302053645272273 5.319981941867026 15.088509528555345 0 0 0
16 4 0.47630272654433964 7.816336050387852 14.796650449807363 0 0 0
17 7 2.6597466770662335 7.498908965804361 15.150790875158949 0 0 0
41 7 0.0011353847030282083 6.0020357198840335 17.223653459711997 0 0 0
42 7 2.4607069980258456 6.1312672176564345 17.138494414518835 0 0 0
46 7 0.8015212092017676 9.37108778969218 16.871870333281812 0 0 0
47 7 3.8934629539433256 8.201532100192981 17.06050674193481 0 0 0
13 7 6.185622583501555 5.30927835616075 15.031458570578891 0 0 0
18 7 5.08665665806751 7.482604763820206 15.0657463056294 0 0 0
19 2 7.066647532798787 7.022753754333655 15.386625858890918 0 0 0
43 7 4.959539903811367 5.9666353387215505 17.091854761447753 0 0 0
44 7 7.48392327535456 5.944323696603366 17.085051619590942 0 0 0
48 7 6.3536202446273 8.058772161982446 17.046795554728742 0 0 0
14 7 8.711061927746144 5.662434943920194 14.962717437231607 0 0 0
15 6 11.187483250474862 5.60826661128141 15.181900905319353 0 0 0
20 7 10.452351634650038 7.673537699065699 14.181765394297718 0 0 0
45 7 9.930308416596054 6.042355195476824 17.25012192325543 0 0 0
49 7 8.723470239053258 7.925772677413024 16.066679779124723 0 0 0
50 7 11.192313706771726 7.99476242615809 16.45080687049867 0 0 0
21 2 1.1723183512472808 10.482184898482213 15.209947016813896 0 0 0
22 7 2.976746517217674 9.868780300011421 15.64218995654164 0 0 0
26 7 0.1350002914418215 12.20828810067304 14.907536713790831 0 0 0
27 7 2.4892570608394844 11.812073142738688 14.460997956633559 0 0 0
51 3 11.526553016535338 9.374101245226438 17.65926117186292 -1 0 0
52 7 1.3572365145838232 11.868460158422462 16.986111348871 0 0 0
56 2 1.920840142454109 0.3245269994054731 15.606375041571969 0 1 0
57 7 3.7607504512121213 12.440495937773097 16.606828971677437 0 0 0
23 7 6.928436661177422 9.009449428716508 14.776317418929157 0 0 0
28 7 4.96657036855675 11.790799358895708 14.604406019156492 0 0 0
29 6 7.49433506506256 11.4963162508417 14.91835198239243 0 0 0
53 7 5.342748353913737 10.125788975546431 16.324439623216993 0 0 0
54 7 7.740459026684785 10.05762217349256 16.94392449181504 0 0 0
58 6 6.3264193874190555 12.370533545062939 16.952008750651824 0 0 0
24 7 9.218125120905524 9.742128453626119 14.539188812376038 0 0 0
25 7 11.769723580060102 9.87835537401004 14.7879243703233 0 0 0
30 7 10.06862484462561 11.948977158707516 14.758879534960968 0 0 0
55 7 10.192113166575963 10.279776918313766 16.678545013917223 0 0 0
59 7 8.843575705699509 12.384858458944738 16.95911180383267 0 0 0
60 7 11.249767529102119 12.470860791146633 16.879908154261017 0 0 0
61 6 0.05463735375696012 0.0025970578477325307 18.991881952752074 0 0 0
62 7 2.594373606907834 12.85809698724271 19.03535877233789 0 -1 0
66 6 1.399912007982998 2.1697010493071374 19.05054112470098 0 0 0
67 5 3.837964295878855 2.1735269602039304 19.074579013547407 0 0 0
91 4 1.367890198243295 0.7527977723782127 21.297212853959 0 0 0
92 7 3.7601406783451017 0.72806813512637 21.052407401982205 0 0 0
96 7 0.08897426343250714 2.8008372301920916 21.18445490561385 0 0 0
97 7 2.599628730035524 2.853561071974091 21.196367483348606 0 0 0
63 5 4.96365787225748 0.05678146995106727 18.958863029788507 0 0 0
64 7 7.448550768353937 0.08599959901603445 19.09829298614263 0 0 0
68 7 6.201818079584944 2.1626643433428656 19.07715864040263 0 0 0
93 7 6.266742062943229 0.7232588711685023 21.170663292552188 0 0 0
98 7 5.032612585846125 2.8774960108555376 21.15070388172188 0 0 0
99 5 7.486193311741667 2.8189311921729505 21.166196894911778 0 0 0
65 7 10.008705652213921 0.08408789531120804 19.093009694132935 0 0 0
69 7 8.745428198801134 2.157823996510471 18.99234063880673 0 0 0
70 7 11.293970322650841 2.2420442059040817 18.951076481901623 0 0 0
94 7 8.720958291141097 0.717408167953063 21.23295806037693 0 0 0
95 7 11.311434011547684 0.6743205837646026 21.196468570105655 0 0 0
100 6 10.037813818046489 2.788421042511937 21.051903442121542 0 0 0
71 1 12.390509078363392 4.382001482998434 19.183205390094244 -1 0 0
72 7 2.4907498350822097 4.392723564663149 19.104048101208633 0 0 0
76 7 1.2070509948009933 6.438450857160324 19.256932310150205 0 0 0
77 7 3.790840549981785 6.51108010219298 19.16216255575361 0 0 0
101 7 1.211323378631399 4.990135053323056 21.256354977002896 0 0 0
102 6 3.736717916671967 5.046232120513071 21.226785309085383 0 0 0
106 7 12.442179699969794 7.1006605383248 21.312659008047326 -1 0 0
107 7 2.4754443109397113 7.176587137252358 21.22956008676255 0 0 0
73 7 4.982862035741931 4.320197250341741 19.08418615549263 0 0 0
74 6 7.5086791750398465 4.289188221224225 19.051645871313077 0 0 0
78 7 6.203398282771599 6.522913589663157 19.136907282459973 0 0 0
103 7 6.282074336999931 5.050890905191817 21.17301902383134 0 0 0
108 7 5.018571909612629 7.232402598558208 21.223891035696905 0 0 0
109 7 7.426178048485967 7.252425122850189 21.2619990092339 0 0 0
75 5 9.915600621161383 4.309258480320147 19.030464920200792 0 0 0
79 7 8.632443615665151 6.475870947001954 19.320134635647676 0 0 0
80 7 11.1204530266627 6.424386908576597 19.35497914193108 0 0 0
104 7 8.747684761355147 5.027025976830241 21.24061940004297 0 0 0
105 3 10.09125364313692 4.3758583659894255 22.285419249207997 0 0 0
110 7 9.89723167473724 7.169922082397314 21.298918621463493 0 0 0
81 4 12.349594034013226 8.47672550071072 19.1974579871867 -1 0 0
82 6 2.365748249102324 8.492847464551552 18.91244532283247 0 0 0
86 7 1.2885619887086344 10.69412272406974 19.158426896536476 0 0 0
87 1 3.6718895000528726 10.719444688365538 18.262765087169313 0 0 0
111 7 1.1865392809918514 9.293426005121551 21.192956897708946 0 0 0
112 6 3.708496139498303 9.359551127106561 21.14021037919492 0 0 0
116 1 0.04384485539815707 11.490537178924688 21.294656734965006 0 0 0
117 7 2.4772751284387344 11.532191371683394 21.142316824644688 0 0 0
83 7 4.953084752533633 8.73681744086817 19.08041739163856 0 0 0
84 7 7.40432900063695 8.643570315930093 19.08264332531124 0 0 0
88 7 6.169364843674784 10.805120911181634 18.927029810072764 0 0 0
113 7 6.2208050931436345 9.413026253752866 21.03223494993989 0 0 0
118 7 4.970849741102072 11.544524926369531 21.03962972065917 0 0 0
119 4 7.406405998701094 11.540051009287938 21.071610451008862 0 0 0
85 6 9.794359107165771 8.477205205690838 18.537726500494507 0 0 0
89 6 8.738226743554991 10.853919950640856 19.0353165029489 0 0 0
90 4 11.279131351565763 10.82481482377792 18.935461734914227 0 0 0
114 7 8.706567982681607 9.319919854132245 20.989762171888945 0 0 0
115 6 11.115902285986563 9.255822990279837 21.172320514265635 0 0 0
120 7 9.992752414265583 11.520338918146487 21.17896818939155 0 0 0
121 7 0.08432556145952601 1.3773601554444255 23.31073145789222 0 0 0
122 7 2.5756619918554478 1.3890933750627652 23.33052628720858 0 0 0
126 6 1.3553350615926911 3.5719350721001186 23.26656085207143 0 0 0
127 7 3.8508319024339204 3.5756110958826834 23.36247378290001 0 0 0
152 7 2.6536449391238652 12.92591983789539 25.375001417984127 0 -1 0
156 1 1.4799962604459858 2.1155828045361282 25.516269169169558 0 0 0
157 7 3.966162539160518 2.122017053293842 25.445014585645726 0 0 0
162 7 2.5988638692643584 4.247740197993018 25.428874100286997 0 0 0
123 7 4.992567150123946 1.4142218410713252 23.16309439436288 0 0 0
124 7 7.394060626778453 1.485550142908217 23.48667894272579 0 0 0
128 7 6.303677381706686 3.6494070824656397 23.184088034799487 0 0 0
153 7 5.1969359853109305 0.05661102430480508 25.29389004176128 0 0 0
154 7 7.599690231474566 12.92493996409751 25.475738024491154 0 -1 0
158 2 5.775580417351231 2.44275232674813 24.62934787661123 0 0 0
163 7 5.118084929127351 4.229001386941293 25.422025852537924 0 0 0
164 5 7.477328502439293 4.047097258104519 25.360493097805424 0 0 0
125 7 10.043355982297571 1.4118486336512401 23.355389504138348 0 0 0
129 7 8.751393170994191 3.5304914091790955 23.348032686436227 0 0 0
130 4 11.367052008264482 3.600577189067275 23.403065602280034 0 0 0
155 4 10.119391813533165 0.04621935922794918 25.558798222705512 0 0 0
159 7 8.869311597957996 2.0829975302540253 25.448002193781694 0 0 0
160 7 11.400966649344287 2.1383483486013786 25.42190701504329 0 0 0
165 7 10.065429913262033 4.20084832298062 25.41273585198394 0 0 0
131 7 0.07066544699553304 5.754474532783412 23.40446444573377 0 0 0
132 7 2.5422285969361984 5.782533982276539 23.360997918524923 0 0 0
136 7 1.30245662283293 7.896045579136442 23.30546525310479 0 0 0
137 7 3.776090362110016 7.963740155402215 23.278922131170546 0 0 0
161 4 0.10882785077000603 4.323151525691968 25.46990057881396 0 0 0
166 7 1.3370522726022542 6.3970643818713535 25.43116071976414 0 0 0
167 7 3.8072873136770107 6.420932732069318 25.443634510680432 0 0 0
133 6 5.064542622720171 5.84183196324587 23.38815692011928 0 0 0
134 7 7.558851543334745 5.7610798721527265 23.31548078239963 0 0 0
138 7 6.309539582178109 7.979230561526272 23.341928762482247 0 0 0
168 7 6.364579436315909 6.378009075918445 25.433891037749564 0 0 0
173 7 5.103528147302436 8.536371686137283 25.333168393343655 0 0 0
135 7 10.063769577089891 5.807527556148394 23.388728688897288 0 0 0
139 4 8.69325035797108 7.9245151492023576 23.24517054627623 0 0 0
140 4 11.281259213691492 7.871999386774786 23.318784357983734 0 0 0
169 7 8.775119613817466 6.313208752957902 25.384320492792572 0 0 0
170 7 11.288555078253165 6.3896943707155485 25.449645688505914 0 0 0
175 6 9.884288585822718 8.549062156270892 25.525022098179704 0 0 0
141 7 0.018911962793449394 10.049332005864592 23.34479422106738 0 0 0
142 7 2.494861383956865 10.087802562891206 23.255649757787097 0 0 0
146 7 1.301146926748727 12.216817097512529 23.35167058297901 0 0 0
147 7 3.805232204722008 12.226040646778467 23.18117424939947 0 0 0
151 4 0.09135938837090207 12.856626868270151 25.416712837744246 0 -1 0
171 6 0.10852293451656182 8.595806977607388 25.430974578232572 0 0 0
172 7 2.6216081941361993 8.590858094353358 25.37665520072881 0 0 0
176 7 1.3410057143843372 10.780653909498414 25.432986091983466 0 0 0
177 6 3.8781432634328334 10.798373708340243 25.274788025600607 0 0 0
143 7 5.053580318270387 10.087170294925954 23.182325241877454 0 0 0
144 7 7.503993120363459 10.071241644713455 22.92084345738669 0 0 0
148 4 6.211280124373856 12.25238488705138 23.18653517577248 0 0 0
178 6 6.615927411687002 10.524757393287638 25.221585189883683 0 0 0
145 7 9.994444717493744 10.056094563495558 23.316778024819282 0 0 0
149 6 8.706639478176262 12.254452452627852 23.33093677566107 0 0 0
150 7 11.245746619844532 12.199634918624405 23.40696843847212 0 0 0
174 3 8.412288080225215 9.491035251548904 24.42485791139413 0 0 0
179 5 8.997072262446576 10.904555721670283 25.58414787160915 0 0 0
180 5 11.334841898880226 10.84858479696298 25.508337065153444 0 0 0
181 7 1.3904270935361631 0.6472119461298347 27.498950984912753 0 0 0
182 7 3.8769287107189383 0.6848429990347631 27.438350015463353 0 0 0
186 7 0.17216929124286878 2.83955115469234 27.49671161987587 0 0 0
187 7 2.6609986495084166 2.834731144261992 27.57029675836975 0 0 0
211 7 0.21138288524342025 1.426713925820767 29.59526337623247 0 0 0
212 7 2.71307482717163 1.3425843340914079 29.58479610273954 0 0 0
216 7 1.4122085342031707 3.5363423740022637 29.593859917110475 0 0 0
217 4 3.825753303206454 3.5549023680572978 29.603687598244086 0 0 0
183 7 6.310070517639559 0.6975619696193582 27.57423655121307 0 0 0
188 7 5.0837346898625215 2.855903474310753 27.579932921912793 0 0 0
189 7 7.595589435849121 2.7754740753497895 27.46584818921476 0 0 0
213 5 5.135851127735672 1.4088616776661593 29.605619218680193 0 0 0
214 7 7.613831621420688 1.3375191627015912 29.596286344299894 0 0 0
218 7 6.364889415240675 3.519130854818621 29.548012578951077 0 0 0
184 7 8.886637898921641 0.7014371260395155 27.57107759562649 0 0 0
185 4 11.38481888447712 0.7045129685071592 27.544471788641104 0 0 0
190 7 10.145893850473065 2.813814063356746 27.49429939823682 0 0 0
215 7 10.12599863701438 1.385955050810419 29.637470374712112 0 0 0
219 7 8.840024661449544 3.4941704559291735 29.534390488570466 0 0 0
220 7 11.370726607082807 3.5407935831650987 29.527239232337806 0 0 0
191 7 1.391888277292555 4.9881505459935935 27.476264654329242 0 0 0
192 7 3.834299779377708 4.971979538735681 27.48580784302812 0 0 0
197 7 2.5795375062247583 7.175002471301601 27.478195089703775 0 0 0
221 7 0.12124684049744866 5.708247294195336 29.57679958655525 0 0 0
222 7 2.59203987299272 5.710316451873557 29.555105826078176 0 0 0
226 7 1.3646099402048844 7.885319510507628 29.555616859968204 0 0 0
227 7 3.8614852452957904 7.895875395863017 29.470552698079487 0 0 0
193 7 6.370377879503262 4.95763002377594 27.417004075275415 0 0 0
198 7 5.102997320253528 7.155654859884526 27.414027118571276 0 0 0
199 7 7.622174419602066 7.170727818127748 27.451111407334388 0 0 0
223 6 5.153769889365681 5.703191632541013 29.493485405996715 0 0 0
224 7 7.645203630502304 5.720388743248904 29.584843092048057 0 0 0
228 7 6.394954879233196 7.895297860095066 29.49394007470165 0 0 0
194 6 8.848584737720536 4.978781758995864 27.496666901057566 0 0 0
195 7 11.361605791425594 4.975720140602655 27.512787389284597 0 0 0
196 7 0.1369019645708687 7.139017972563321 27.502628814414138 0 0 0
200 7 10.124751556742497 7.139274429488011 27.544424500787322 0 0 0
225 7 10.102618530806273 5.722354102134863 29.6102901471611 0 0 0
229 7 8.847534482661157 7.865008046184517 29.52951280836632 0 0 0
230 7 11.369714132281999 7.9128328827411885 29.53037307958828 0 0 0
201 5 1.3796080163798798 9.30750404344288 27.517925790466126 0 0 0
202 7 3.8727063885518227 9.303491199244098 27.377577948090966 0 0 0
206 4 0.18836086015877138 11.459429047238864 27.529583753698407 0 0 0
207 7 2.611827750013997 11.43986726728769 27.44098265839306 0 0 0
231 7 0.16629660031965757 10.06148033925627 29.57431850200407 0 0 0
232 7 2.634160378923545 10.009212960638882 29.42980616483852 0 0 0
236 7 1.4744499672236895 12.165720841474267 29.559714510023614 0 0 0
203 7 6.375475986258566 9.268220941279385 27.390119635393418 0 0 0
208 7 5.138710688965645 11.483120771963064 27.321959168527677 0 0 0
209 6 7.583042808193006 11.507524125511676 27.6423758438314 0 0 0
233 7 5.150002012255031 10.038378646414266 29.325136735056827 0 0 0
234 7 7.601863613634156 10.071316320699287 29.666637066830617 0 0 0
238 7 6.212662817477259 12.219768055653924 29.682845494774853 0 0 0
204 7 8.839654375941898 9.351054745383417 27.627374424003385 0 0 0
205 7 11.346156847288789 9.398234703781792 27.551669777032618 0 0 0
210 7 10.15221666358865 11.536434397982854 27.58923191603328 0 0 0
235 7 10.086358555684463 10.162402715382289 29.60617114925147 0 0 0
239 4 8.879632583732619 12.237866990843914 29.736363627324693 0 0 0
240 7 11.397568464620633 12.24989364147287 29.567999597331344 0 0 0
237 3 4.034730992411268 0.2776896996142349 30.557695736070496 0 1 0
241 7 0.20263875112089907 0.08580574848723854 31.641591419934084 0 0 0
242 7 2.5702898436619925 0.12978871198346795 31.744641531585753 0 0 0
246 4 1.3450365213971738 2.2302466916835044 31.670924326489327 0 0 0
247 7 3.8810917779364944 2.1411187294646052 31.64737023354878 0 0 0
276 7 0.17788678268106028 2.9846501089613757 33.744062928320446 0 0 0
243 7 5.167161673090733 12.89282901230995 32.1029694685354 0 -1 0
244 7 7.626597272426869 12.92743808589192 31.71517544806221 0 -1 0
248 7 6.407638803766678 2.1385123009731926 31.65065127631089 0 0 0
279 7 7.7284559664923 3.0326431197189816 33.73576347085265 0 0 0
249 7 8.851735915568874 2.091498028746336 31.68738756594901 0 0 0
250 7 11.385194184152692 2.126207670065353 31.666168361775366 0 0 0
255 1 10.106656561598362 4.207582696612916 31.5093000813209 0 0 0
275 4 11.443354487981702 0.7864677470212742 33.721839652597964 0 0 0
251 7 0.14852419033194755 4.312714645029388 31.655563316262942 0 0 0
252 7 2.6341507623036495 4.309006845955676 31.671866841410882 0 0 0
256 7 1.3302970380362058 6.491732163359834 31.63845849880264 0 0 0
257 6 3.792999052976953 6.49221843887833 31.664937154832696 0 0 0
253 7 5.113823523118917 4.30037897524373 31.62730365880043 0 0 0
254 7 7.622470327662452 4.301129492859709 31.59616611836838 0 0 0
258 7 6.352838636530559 6.484203125504423 31.624685521524235 0 0 0
264 7 7.590029051183814 8.568013637928225 31.62325889021657 0 0 0
283 7 6.382149500187425 5.092184789755731 33.67429039629004 0 0 0
289 7 7.633360249202632 7.177488385124334 33.71643827607047 0 0 0
259 4 8.822327180060928 6.450114027952545 31.631857986710013 0 0 0
260 7 11.315572270890561 6.478613466785513 31.598789980582318 0 0 0
284 5 8.888553651185342 5.106705188576016 33.58521079638628 0 0 0
290 7 10.084083973331328 7.249598361344597 33.599372243405284 0 0 0
261 7 0.17802886418544253 8.698828446052874 31.657622515406768 0 0 0
262 7 2.664808726106664 8.71034179556963 31.532640494181482 0 0 0
266 7 1.5645113218736142 10.823069441627498 31.576956941748623 0 0 0
267 4 3.9188009778867166 11.264901335461175 30.854996155012802 0 0 0
292 7 3.9604193103282963 9.364174243203859 33.50300266224396 0 0 0
326 7 0.508001441513145 11.64303598553073 33.68480427406771 0 0 0
263 1 5.094575547951216 8.751833066892205 31.420857097111206 0 0 0
268 7 6.260568578280605 10.753314045908859 31.583153016079535 0 0 0
245 7 10.111862357211631 12.874595845040693 31.876126305103718 0 -1 0
265 6 10.10263146423025 8.672160186630235 31.548413266441976 0 0 0
269 7 8.775104895429067 10.79184275932404 31.753519567166475 0 0 0
270 7 11.429451181368599 10.895181315330422 31.62109890350719 0 0 0
294 7 8.76706702244188 9.28027881148825 33.696234886370696 0 0 0
296 3 11.075515728541014 11.821135251798381 33.33814908699196 -1 0 0
271 7 1.4778700475738464 0.8939866416308666 33.78199452461074 0 0 0
272 7 3.9233828605374987 0.9479093427048245 33.9290281272285 0 0 0
277 7 2.644956867570084 3.071218280385112 33.80191266323183 0 0 0
301 7 0.19260468182594528 1.542930273191271 35.76554937684684 0 0 0
302 7 2.6199627562520282 1.6627812947795657 35.86466907999376 0 0 0
306 4 1.4157934495387805 3.827984648775609 35.960883428286884 0 0 0
307 7 4.00017268724022 3.726110611774095 35.840541841593826 0 0 0
273 7 6.4614990407673005 0.9644405575213074 33.90564884570058 0 0 0
278 1 5.218914338913562 2.9888641858027265 33.72497667514314 0 0 0
303 7 5.24878012836824 1.6604817031841124 35.9457884121839 0 0 0
304 4 7.7593900578487425 1.6288774718479346 35.92481694340357 0 0 0
308 7 6.528991180089589 3.7008191994048834 35.80659944309154 0 0 0
274 7 8.836184024524407 0.8885292604948956 33.844791472022955 0 0 0
280 7 10.204314214121862 2.9840050522622885 33.71529881919932 0 0 0
305 7 10.22493416753416 1.551996497023311 35.7326200223413 0 0 0
309 7 9.019690260961905 3.663962222168626 35.784001687207336 0 0 0
310 4 11.58826443858674 3.9333666450549756 35.8700177292625 0 0 0
335 5 9.907245380154308 12.899795000339385 37.39710355237179 0 -1 0
281 7 1.326366806335065 5.173383112391518 33.85830833305651 0 0 0
282 4 3.849315629623599 5.126090671025956 33.76990669230138 0 0 0
286 7 0.09396432825456151 7.269890163988924 33.62705368404735 0 0 0
287 7 2.6345283742182772 7.278915825207847 33.745840819849704 0 0 0
312 7 2.7295106515722436 5.782276931525949 35.78261648672461 0 0 0
316 7 1.2154274465370853 7.596240708247314 35.78735221332117 0 0 0
317 7 3.936192296067094 8.05436310489046 35.73167430017139 0 0 0
288 7 5.185699921883542 7.260748402119494 33.66889057859352 0 0 0
313 7 5.264282629349537 5.907567650869515 35.715597742147814 0 0 0
314 7 7.724635922615259 5.8125501450619375 35.74392743485808 0 0 0
318 4 6.55864629770844 8.11263105248637 35.80092465185105 0 0 0
285 4 11.349214646338204 5.144318061907195 33.64129860895283 0 0 0
311 2 12.379134581707214 5.987739817374414 35.33047025320079 -1 0 0
315 7 10.135402335883105 5.799104584511893 35.581931001766854 0 0 0
319 7 8.959626318116177 7.970256525615842 35.81888145706762 0 0 0
320 7 11.351259310462595 7.919764285519324 35.59696122108491 0 0 0
355 3 10.434782023967133 7.892213712482838 37.27795676612212 0 0 0
291 7 1.4686608967774841 9.41581670784626 33.732941974017045 0 0 0
297 6 3.0257303165483003 11.565907354677082 33.6745119320746 0 0 0
321 6 0.21166753315824094 10.054450153160523 35.91348594910502 0 0 0
322 7 2.701279023000144 10.188521760430453 35.76200879699638 0 0 0
327 6 3.9206905423100875 12.498648915113925 36.109188237082954 0 0 0
356 4 1.3998130654713712 12.351368591126368 35.851732001825404 0 0 0
293 4 6.4497382392268525 9.313565000697967 33.64841607409184 0 0 0
298 2 5.202683126586671 12.275284263186451 34.20758146700219 0 0 0
299 7 6.996687440430855 11.57106533836365 33.68317815018681 0 0 0
323 6 5.233369242350018 10.229827457354158 35.57722764923513 0 0 0
324 7 7.911878164054275 10.348576283268228 35.714713646753566 0 0 0
328 7 6.465557323084986 12.511135504089182 35.9182469150214 0 0 0
295 6 11.269179778972548 9.687902088512438 33.767368988360346 0 0 0
300 7 9.382255569257302 11.536750651108617 34.17150002839958 0 0 0
325 7 10.254461390081946 9.83404576847646 37.031924857837375 0 0 0
329 3 9.530484584303137 11.393811611809674 36.205287270238216 0 0 0
330 4 11.260865143194795 12.065219746574922 35.58110728682584 0 0 0
332 7 2.48692129009462 0.09578551875205257 38.03823162577262 0 0 0
336 7 1.3341928229316087 2.1798848479486854 37.83763026524743 0 0 0
337 7 3.87872281729876 2.191079542440085 37.869308664333 0 0 0
333 7 5.217960151048927 0.15750044035548308 38.12143128404931 0 0 0
334 7 7.651008820482422 0.06401905836124508 38.004786640940615 0 0 0
338 7 6.529707317008944 2.260963864333413 37.908045383045256 0 0 0
339 7 8.989530717690036 2.185075866251161 37.85839661428114 0 0 0
340 7 11.367481691363734 2.188903036631255 37.73393411365354 0 0 0
342 7 2.7134739970857265 4.284623969585488 37.925679174238915 0 0 0
346 7 1.512347287475731 6.398421811648975 37.99216977445697 0 0 0
347 6 3.9631444368826307 6.468987459716262 37.76617724431385 0 0 0
343 7 5.308675482515337 4.430575973962793 37.849791742306486 0 0 0
344 7 7.833447562091729 4.435025921337075 37.85525792111607 0 0 0
348 6 6.65737269538508 6.654241962662728 37.81881536603005 0 0 0
361 8 6.368533324333738 6.73268660167676 41.251670180483416 0 0 0
341 7 0.21317609576574423 4.245380910377421 38.07513484439525 0 0 0
345 4 10.221899203274079 4.330465059814474 37.81480632567507 0 0 0
349 7 9.230765236424562 6.621869893400127 37.860509209314266 0 0 0
350 7 11.672928218194153 6.266933737056973 37.30896880679564 0 0 0
362 8 7.122388352847804 6.745413441215836 41.35635672772143 0 0 0
352 6 2.4963413236820347 8.649675605424708 37.68554891731322 0 0 0
357 7 3.8518995267188614 10.795149955965071 37.95198395649509 0 0 0
360 7 1.3965544231041755 10.895245808532813 37.89207061938826 1 0 0
353 7 5.144355215931027 8.682751489147199 37.82634890252196 0 0 0
354 7 7.952734091464845 8.942780317974146 37.814122701238176 0 0 0
358 6 6.421571837839804 10.847025579009124 37.793984644442666 0 0 0
331 7 12.394062002953657 12.878391680307292 37.632161349427875 -1 -1 0
351 7 12.247514846369135 8.55435100983036 37.843406124902224 -1 0 0
359 2 8.603358314237795 11.154048255400891 37.430205838026986 0 0 0

Velocities

1 0 0 0
2 0 0 0
6 0 0 0
7 0 0 0
31 0 0 0
32 0 0 0
36 0 0 0
37 0 0 0
3 0 0 0
8 0 0 0
9 0 0 0
33 0 0 0
34 0 0 0
38 0 0 0
4 0 0 0
5 0 0 0
10 0 0 0
35 0 0 0
39 0 0 0
40 0 0 0
11 0 0 0
12 0 0 0
16 0 0 0
17 0 0 0
41 0 0 0
42 0 0 0
46 0 0 0
47 0 0 0
13 0 0 0
18 0 0 0
19 0 0 0
43 0 0 0
44 0 0 0
48 0 0 0
14 0 0 0
15 0 0 0
20 0 0 0
45 0 0 0
49 0 0 0
50 0 0 0
21 0 0 0
22 0 0 0
26 0 0 0
27 0 0 0
51 0 0 0
52 0 0 0
56 0 0 0
57 0 0 0
23 0 0 0
28 0 0 0
29 0 0 0
53 0 0 0
54 0 0 0
58 0 0 0
24 0 0 0
25 0 0 0
30 0 0 0
55 0 0 0
59 0 0 0
60 0 0 0
61 0 0 0
62 0 0 0
66 0 0 0
67 0 0 0
91 0 0 0
92 0 0 0
96 0 0 0
97 0 0 0
63 0 0 0
64 0 0 0
68 0 0 0
93 0 0 0
98 0 0 0
99 0 0 0
65 0 0 0
69 0 0 0
70 0 0 0
94 0 0 0
95 0 0 0
100 0 0 0
71 0 0 0
72 0 0 0
76 0 0 0
77 0 0 0
101 0 0 0
102 0 0 0
106 0 0 0
107 0 0 0
73 0 0 0
74 0 0 0
78 0 0 0
103 0 0 0
108 0 0 0
109 0 0 0
75 0 0 0
79 0 0 0
80 0 0 0
104 0 0 0
105 0 0 0
110 0 0 0
81 0 0 0
82 0 0 0
86 0 0 0
87 0 0 0
111 0 0 0
112 0 0 0
116 0 0 0
117 0 0 0
83 0 0 0
84 0 0 0
88 0 0 0
113 0 0 0
118 0 0 0
119 0 0 0
85 0 0 0
89 0 0 0
90 0 0 0
114 0 0 0
115 0 0 0
120 0 0 0
121 0 0 0
122 0 0 0
126 0 0 0
127 0 0 0
152 0 0 0
156 0 0 0
157 0 0 0
162 0 0 0
123 0 0 0
124 0 0 0
128 0 0 0
153 0 0 0
154 0 0 0
158 0 0 0
163 0 0 0
164 0 0 0
125 0 0 0
129 0 0 0
130 0 0 0
155 0 0 0
159 0 0 0
160 0 0 0
165 0 0 0
131 0 0 0
132 0 0 0
136 0 0 0
137 0 0 0
161 0 0 0
166 0 0 0
167 0 0 0
133 0 0 0
134 0 0 0
138 0 0 0
168 0 0 0
173 0 0 0
135 0 0 0
139 0 0 0
140 0 0 0
169 0 0 0
170 0 0 0
175 0 0 0
141 0 0 0
142 0 0 0
146 0 0 0
147 0 0 0
151 0 0 0
171 0 0 0
172 0 0 0
176 0 0 0
177 0 0 0
143 0 0 0
144 0 0 0
148 0 0 0
178 0 0 0
145 0 0 0
149 0 0 0
150 0 0 0
174 0 0 0
179 0 0 0
180 0 0 0
181 0 0 0
182 0 0 0
186 0 0 0
187 0 0 0
211 0 0 0
212 0 0 0
216 0 0 0
217 0 0 0
183 0 0 0
188 0 0 0
189 0 0 0
213 0 0 0
214 0 0 0
218 0 0 0
184 0 0 0
185 0 0 0
190 0 0 0
215 0 0 0
219 0 0 0
220 0 0 0
191 0 0 0
192 0 0 0
197 0 0 0
221 0 0 0
222 0 0 0
226 0 0 0
227 0 0 0
193 0 0 0
198 0 0 0
199 0 0 0
223 0 0 0
224 0 0 0
228 0 0 0
194 0 0 0
195 0 0 0
196 0 0 0
200 0 0 0
225 0 0 0
229 0 0 0
230 0 0 0
201 0 0 0
202 0 0 0
206 0 0 0
207 0 0 0
231 0 0 0
232 0 0 0
236 0 0 0
203 0 0 0
208 0 0 0
209 0 0 0
233 0 0 0
234 0 0 0
238 0 0 0
204 0 0 0
205 0 0 0
210 0 0 0
235 0 0 0
239 0 0 0
240 0 0 0
237 0 0 0
241 0 0 0
242 0 0 0
246 0 0 0
247 0 0 0
276 0 0 0
243 0 0 0
244 0 0 0
248 0 0 0
279 0 0 0
249 0 0 0
250 0 0 0
255 0 0 0
275 0 0 0
251 0 0 0
252 0 0 0
256 0 0 0
257 0 0 0
253 0 0 0
254 0 0 0
258 0 0 0
264 0 0 0
283 0 0 0
289 0 0 0
259 0 0 0
260 0 0 0
284 0 0 0
290 0 0 0
261 0 0 0
262 0 0 0
266 0 0 0
267 0 0 0
292 0 0 0
326 0 0 0
263 0 0 0
268 0 0 0
245 0 0 0
265 0 0 0
269 0 0 0
270 0 0 0
294 0 0 0
296 0 0 0
271 0 0 0
272 0 0 0
277 0 0 0
301 0 0 0
302 0 0 0
306 0 0 0
307 0 0 0
273 0 0 0
278 0 0 0
303 0 0 0
304 0 0 0
308 0 0 0
274 0 0 0
280 0 0 0
305 0 0 0
309 0 0 0
310 0 0 0
335 0 0 0
281 0 0 0
282 0 0 0
286 0 0 0
287 0 0 0
312 0 0 0
316 0 0 0
317 0 0 0
288 0 0 0
313 0 0 0
314 0 0 0
318 0 0 0
285 0 0 0
311 0 0 0
315 0 0 0
319 0 0 0
320 0 0 0
355 0 0 0
291 0 0 0
297 0 0 0
321 0 0 0
322 0 0 0
327 0 0 0
356 0 0 0
293 0 0 0
298 0 0 0
299 0 0 0
323 0 0 0
324 0 0 0
328 0 0 0
295 0 0 0
300 0 0 0
325 0 0 0
329 0 0 0
330 0 0 0
332 0 0 0
336 0 0 0
337 0 0 0
333 0 0 0
334 0 0 0
338 0 0 0
339 0 0 0
340 0 0 0
342 0 0 0
346 0 0 0
347 0 0 0
343 0 0 0
344 0 0 0
348 0 0 0
361 0 0 0
341 0 0 0
345 0 0 0
349 0 0 0
350 0 0 0
362 0 0 0
352 0 0 0
357 0 0 0
360 0 0 0
353 0 0 0
354 0 0 0
358 0 0 0
331 0 0 0
351 0 0 0
359 0 0 0
