LAMMPS data file via write_data, version 11 Feb 2026, timestep = 360, units = metal

362 atoms
8 atom types

0 12.447907776 xlo xhi
0 12.9362452296 ylo yhi
0 52.3600831054 zlo zhi

Masses

1 26.9815
2 10.811
3 12.011
4 51.9961
5 55.845
6 95.95999999999999
7 58.6934
8 1.008

Atoms # atomic/kk

1 7 1.1344882077599507 1.409069073347953 14.173812011855222 0 0 0
2 7 3.598216926615087 1.0747080190521885 14.66750568066312 0 0 0
6 7 12.3615759542667 3.4607437167111033 14.819898545089734 -1 0 0
7 7 2.417391640113083 3.2793539783244836 14.989296633624502 0 0 0
31 6 0.12184555733308709 1.5714797162267842 16.542782723601253 0 0 0
32 7 2.5945515320575523 1.6898928212516537 16.912809533551442 0 0 0
36 7 1.209276490231832 3.860859559927109 17.027051168385658 0 0 0
37 7 3.7001130303142387 3.8419284697911045 17.05437454268472 0 0 0
3 5 6.066312287400751 0.951558180175468 14.909876141627759 0 0 0
8 7 4.918481772919621 3.1319122474136645 15.008140865974198 0 0 0
9 7 7.380189143728692 3.1600051917427097 14.918491499813099 0 0 0
33 7 4.975241555852274 1.6695971246872763 16.952329857670872 0 0 0
34 7 7.399882810138778 1.7737426462710912 16.977361109271623 0 0 0
38 5 6.168468280964631 3.8646514315086242 16.98645912123047 0 0 0
4 6 8.630344384353636 1.0013656607096446 14.998178723254894 0 0 0
5 7 11.039502624376427 1.2577306838678546 14.599597902612416 0 0 0
10 7 9.902816080987462 3.395139131602458 14.77840973560209 0 0 0
35 7 9.975205916725228 1.6671137998890486 16.941272019780804 0 0 0
39 7 8.720443038053412 3.867464262148231 16.859550211516716 0 0 0
40 7 11.180282370689682 3.8115807583009875 16.997826061889647 0 0 0
11 7 1.2246273322919405 5.499773584424842 15.077819600957593 0 0 0
12 7 3.7130716448006353 5.320978916798185 15.08869038542046 0 0 0
16 4 0.4591675794116646 7.817256735241203 14.796650824268456 0 0 0
17 7 2.64260849958899 7.499938261482515 15.150920851122612 0 0 0
41 7 12.43191043771511 6.003053837488551 17.223845334731234 -1 0 0
42 7 2.4435882151478445 6.132308323218106 17.138651276453423 0 0 0
46 7 0.7843982105878635 9.371979197299673 16.87184300643986 0 0 0
47 7 3.8764318472791035 8.202498527824817 17.060566458356604 0 0 0
13 7 6.168510395527093 5.310181685251004 15.03167064135139 0 0 0
18 7 5.069564960536375 7.483490800472459 15.065838686440028 0 0 0
19 2 7.04954636102645 7.0236447071791925 15.386763914554606 0 0 0
43 7 4.94245436533667 5.967588296500404 17.0920358157688 0 0 0
44 7 7.466847212108377 5.945288635488415 17.085269536709347 0 0 0
48 7 6.3365413025707165 8.059710525663833 17.046888353743864 0 0 0
14 7 8.693941885477328 5.663297716630286 14.962915956279591 0 0 0
15 6 11.170347383164444 5.609215275673394 15.182105779081867 0 0 0
20 7 10.43523109939129 7.674406097582382 14.181775335900713 0 0 0
45 7 9.913204430108989 6.043310643066312 17.250366604327205 0 0 0
49 7 8.706382960507428 7.92667792187185 16.066707265869056 0 0 0
50 7 11.1751862633001 7.9957059812715485 16.450784439241293 0 0 0
21 2 1.1552141563392992 10.483130807918599 15.209952194596726 0 0 0
22 7 2.95965416434952 9.869847672154425 15.64237376573452 0 0 0
26 7 0.11789395770519125 12.209240325296149 14.907506596599159 0 0 0
27 7 2.4721502265941164 11.813059684232844 14.461036229225313 0 0 0
51 3 11.509438492954398 9.37502839391704 17.659255390594485 -1 0 0
52 7 1.3401351591835284 11.869374924299231 16.986068621999692 0 0 0
56 2 1.9037296552866962 0.32551450935903686 15.606427752404306 0 1 0
57 7 3.743642749305559 12.441453288421489 16.606892093905117 0 0 0
23 7 6.911347858439066 9.010336992671478 14.776393922142578 0 0 0
28 7 4.949469396053381 11.791788019543741 14.60448046398867 0 0 0
29 6 7.477224605092081 11.497194448296376 14.918434656559128 0 0 0
53 7 5.325698309446543 10.126737610857106 16.324471936018202 0 0 0
54 7 7.72338963440302 10.058511728904739 16.944021767039942 0 0 0
58 6 6.3093242726990955 12.371461281014623 16.952087141352862 0 0 0
24 7 9.201027121427726 9.74302494143664 14.539177261832096 0 0 0
25 7 11.75263027157763 9.879303487030132 14.787889588361057 0 0 0
30 7 10.051482380929366 11.949902965519279 14.758853897849104 0 0 0
55 7 10.175020766736559 10.280723857368667 16.678517309752444 0 0 0
59 7 8.826469112519758 12.385736603003142 16.959190033651282 0 0 0
60 7 11.232645621857934 12.471802435259884 16.879842445193354 0 0 0
61 6 0.03749919666647722 0.0035602610850714567 18.991770733558884 0 0 0
62 7 2.577245095800619 12.859109441730034 19.035317734975607 0 -1 0
66 6 1.3827444156216213 2.1707172467629032 19.050611289266627 0 0 0
67 5 3.8208342288890886 2.1745214248298366 19.074664102711893 0 0 0
91 4 1.35074032218734 0.753755394754517 21.297104636269477 0 0 0
92 7 3.7430156327069017 0.729035621778584 21.052414565211635 0 0 0
96 7 0.07181787985130905 2.801836243844475 21.184563703211033 0 0 0
97 7 2.582475693483334 2.8545607537281037 21.19642830434347 0 0 0
63 5 4.946552425067332 0.057746351659111135 18.958912190835022 0 0 0
64 7 7.431439057063233 0.0869361195674389 19.09837994819742 0 0 0
68 7 6.184710477170281 2.163649975138204 19.0773067555106 0 0 0
93 7 6.249628781106029 0.7241934602644556 21.17072177202662 0 0 0
98 7 5.0154751929537476 2.878464736524852 21.15083356082538 0 0 0
99 5 7.469055930313257 2.8198581277179415 21.166418877910626 0 0 0
65 7 9.991578190455044 0.08500898254888009 19.093026656089805 0 0 0
69 7 8.728320034371045 2.1588064077978157 18.9925729973153 0 0 0
70 7 11.276803439479435 2.2430347130167627 18.951314119176534 0 0 0
94 7 8.703868604400371 0.7183269523120993 21.233009428981653 0 0 0
95 7 11.294308593542475 0.6752675638961528 21.196415526340232 0 0 0
100 6 10.020676411255904 2.789452759649948 21.05222146969301 0 0 0
71 1 12.373358754337902 4.383037460236347 19.183351808689167 -1 0 0
72 7 2.473616386865472 4.393733942473861 19.104199140256082 0 0 0
76 7 1.1899191714493373 6.439455301528526 19.257097922162824 0 0 0
77 7 3.7737411049524923 6.512060233786612 19.162315260630187 0 0 0
101 7 1.194155978692856 4.991154311403124 21.256523257381463 0 0 0
102 6 3.719569305406403 5.047230868947346 21.226963611949216 0 0 0
106 7 12.425088613795367 7.1016733010295905 21.31286394643906 -1 0 0
107 7 2.458333275431192 7.177578815464706 21.229665030174928 0 0 0
73 7 4.96574211746978 4.3211775674225255 19.084375947071354 0 0 0
74 6 7.491574210946981 4.290193245792802 19.051918062496966 0 0 0
78 7 6.186314354171541 6.523850454928127 19.137113884631688 0 0 0
103 7 6.264913607582474 5.051834787934838 21.173281843047523 0 0 0
108 7 5.001467217431685 7.233357230392872 21.224049533533556 0 0 0
109 7 7.4090563200574575 7.253317410327232 21.26228799240642 0 0 0
75 5 9.898473425846166 4.310262100113185 19.030764313665042 0 0 0
79 7 8.615393874302585 6.476862012620802 19.32049050432863 0 0 0
80 7 11.103294090520178 6.425457054878132 19.355278121584668 0 0 0
104 7 8.730466419769241 5.027956128600002 21.241007052516814 0 0 0
105 3 10.074037934855546 4.376886523462682 22.28582771987127 0 0 0
110 7 9.880148460920074 7.170686758059513 21.29948440904375 0 0 0
81 4 12.332465669145614 8.477697258073801 19.197486267419873 -1 0 0
82 6 2.348634325037125 8.493794195274193 18.91240121230668 0 0 0
86 7 1.271442816218228 10.695076890078159 19.158342615624335 0 0 0
87 1 3.654829741573606 10.720418251778357 18.26286939125517 0 0 0
111 7 1.1694427787294768 9.29438440395073 21.19290123218158 0 0 0
112 6 3.691400670744029 9.360492757983751 21.14018151777691 0 0 0
116 1 0.026724354528043687 11.491426172962433 21.294500338302505 0 0 0
117 7 2.4601857079040133 11.533135497905384 21.14218444490546 0 0 0
83 7 4.936012111384223 8.737737608452427 19.080491624390223 0 0 0
84 7 7.387222341815177 8.64447001243156 19.08276866908664 0 0 0
88 7 6.15227657648118 10.806043408979553 18.927096895583045 0 0 0
113 7 6.203737740700436 9.413948665335559 21.03233607409644 0 0 0
118 7 4.9537462105281485 11.545465021258895 21.03960339361199 0 0 0
119 4 7.389308999741339 11.540936890464055 21.071721275585748 0 0 0
85 6 9.777171566071644 8.478146766019602 18.537619571894506 0 0 0
89 6 8.72110337558907 10.854812370520365 19.03543834333002 0 0 0
90 4 11.2619917878983 10.825748325519827 18.93542364229199 0 0 0
114 7 8.689490539892498 9.320714830323602 20.989878016148428 0 0 0
115 6 11.098765608591115 9.256652800952029 21.172359249898026 0 0 0
120 7 9.975658997861059 11.521188227201167 21.179005071759118 0 0 0
121 7 0.06717483867230163 1.3782902491152036 23.31066767240826 0 0 0
122 7 2.5585050392366373 1.3900649118507715 23.330374514242042 0 0 0
126 6 1.3381456480844074 3.5729482804858455 23.26663029192591 0 0 0
127 7 3.8336660034518064 3.5766164420360793 23.362537564765915 0 0 0
152 7 2.6364798418087747 12.926760194258812 25.37470474975252 0 -1 0
156 1 1.4627124935447826 2.116496178117638 25.516076130031045 0 0 0
157 7 3.948941241241126 2.1229622510947643 25.444796983962206 0 0 0
162 7 2.581581340580008 4.248776353268842 25.428908704004712 0 0 0
123 7 4.975471814754036 1.4151830194347488 23.16314360777519 0 0 0
124 7 7.376944819591805 1.4863988053011523 23.486800074909432 0 0 0
128 7 6.286547952833592 3.6503351273410787 23.18430511063999 0 0 0
153 7 5.179838689985502 0.05743366672462035 25.29376080367322 0 0 0
154 7 7.582653007622032 12.925472280498989 25.475614956994615 0 -1 0
158 2 5.758436308591185 2.4437027660345207 24.629513192860355 0 0 0
163 7 5.100875840077383 4.2300525843934 25.42213198367732 0 0 0
164 5 7.4601090271939094 4.047767171540792 25.360846361762537 0 0 0
125 7 10.026234299840278 1.4126765319336265 23.355445617709698 0 0 0
129 7 8.734264535061573 3.531362324970459 23.34841177454146 0 0 0
130 4 11.349874168003907 3.601555012511743 23.403378481023164 0 0 0
155 4 10.10233206005401 0.04671575015226914 25.55868050998216 0 0 0
159 7 8.852204248592463 2.0836579887537 25.448126141280902 0 0 0
160 7 11.38373420733931 2.1391977686408716 25.421889486664277 0 0 0
165 7 10.048146060046454 4.201708428332482 25.413348489947634 0 0 0
131 7 0.053470704671883876 5.755499137519082 23.404820694556797 0 0 0
132 7 2.5250407776162143 5.783553320946593 23.36116976327406 0 0 0
136 7 1.2853284388040902 7.897026401041609 23.305568618445115 0 0 0
137 7 3.7589506384167954 7.964706797427225 23.278992392445325 0 0 0
161 4 0.09153201814932063 4.3241051970161735 25.470216484701936 0 0 0
166 7 1.319844243305779 6.398062532319168 25.431507494402652 0 0 0
167 7 3.790069542334522 6.421958411134588 25.443812577845105 0 0 0
133 6 5.04739552412252 5.842839645760384 23.388398784691997 0 0 0
134 7 7.541672126613109 5.761935622892931 23.315982339378873 0 0 0
138 7 6.29240802765697 7.980173981311623 23.342128027563312 0 0 0
168 7 6.3473705510731895 6.379029206039119 25.43433527774483 0 0 0
173 7 5.0863337895793705 8.53725309950664 25.333267646480582 0 0 0
135 7 10.0465217551839 5.808380244505073 23.389424981491466 0 0 0
139 4 8.676066526038216 7.925229031075289 23.245531612478665 0 0 0
140 4 11.264053353445746 7.872863754609346 23.3190624598655 0 0 0
169 7 8.757779549029399 6.313916939416419 25.385185448192143 0 0 0
170 7 11.271321296781545 6.390583276815499 25.450263478331653 0 0 0
175 6 9.867010069345271 8.549694429770561 25.52547458509287 0 0 0
141 7 0.0017660484223700845 10.050180204380524 23.344709721574233 0 0 0
142 7 2.477765526456739 10.08874393280033 23.255556600691897 0 0 0
146 7 1.2840456439760346 12.217718557531304 23.351407643486887 0 0 0
147 7 3.7881446854763183 12.226961350123716 23.18110835254126 0 0 0
151 4 0.07422984428807398 12.857431103707388 25.416259988052065 0 -1 0
171 6 0.09131995120552305 8.596655516362782 25.43106652202495 0 0 0
172 7 2.6044620043090396 8.591767438355836 25.376721946040252 0 0 0
176 7 1.3239049572127934 10.781489612280614 25.43272522273607 0 0 0
177 6 3.8610304119961723 10.799232496681878 25.274773923421076 0 0 0
143 7 5.036484387478165 10.08809315760976 23.182292996804573 0 0 0
144 7 7.486979740460355 10.072075458027195 22.92099424225326 0 0 0
148 4 6.1942107030617635 12.253246821265439 23.186470648082818 0 0 0
178 6 6.598702900576422 10.525530142093038 25.22158728053976 0 0 0
145 7 9.977271412645162 10.056800746075744 23.31695610645155 0 0 0
149 6 8.689591437762028 12.255260658384033 23.33090853677743 0 0 0
150 7 11.22863318654227 12.200415774986668 23.406754895929474 0 0 0
174 3 8.395100707761019 9.491644376922322 24.425098254166038 0 0 0
179 5 8.9798772750127 10.905079749973522 25.58437974780489 0 0 0
180 5 11.31767834736603 10.849295726742024 25.508195459140747 0 0 0
181 7 1.3733272326412194 0.6479790921139176 27.49830732275199 0 0 0
182 7 3.8598785783177463 0.6856856095365642 27.437759860265462 0 0 0
186 7 0.15493500332053084 2.8405489487388746 27.496700597395535 0 0 0
187 7 2.6437973309353087 2.835914265288073 27.56985336079526 0 0 0
211 7 0.1943819085345063 1.4276480472706097 29.594414144750203 0 0 0
212 7 2.695844645454295 1.3443821371676417 29.583405289864608 0 0 0
216 7 1.394872883591354 3.5376902393444674 29.59387693437534 0 0 0
217 4 3.808444314071003 3.556497208307186 29.60332682362902 0 0 0
183 7 6.293161891338893 0.6982314203040278 27.573584303741104 0 0 0
188 7 5.066699113387687 2.857028070097958 27.579603025518423 0 0 0
189 7 7.578710446379845 2.7762095907062694 27.466115071338404 0 0 0
213 5 5.119490365530301 1.4105710506415754 29.60395689976176 0 0 0
214 7 7.597119726295162 1.3379848221788833 29.595890908311524 0 0 0
218 7 6.348201827787916 3.520331511091431 29.548089974266755 0 0 0
184 7 8.869630969733985 0.7018216240491849 27.57081203708984 0 0 0
185 4 11.367741560795498 0.7051030625777376 27.543796857677936 0 0 0
190 7 10.128788696980408 2.8145675998987145 27.494500010098736 0 0 0
215 7 10.109146780521677 1.386446454653214 29.636605127479175 0 0 0
219 7 8.82307142880163 3.4949027086351894 29.534987820368315 0 0 0
220 7 11.353381633406558 3.5418554202457444 29.52756921985023 0 0 0
191 7 1.3746309125192937 4.989268259040336 27.47654371918199 0 0 0
192 7 3.817091485725192 4.973157440697497 27.485805463366198 0 0 0
197 7 2.562419788442803 7.176013554677744 27.47865668708107 0 0 0
221 7 0.10384986844885655 5.709417038409979 29.57755864364758 0 0 0
222 7 2.574791125075071 5.711411337838477 29.555484540105486 0 0 0
226 7 1.347427295188516 7.885962822951954 29.55622769149396 0 0 0
227 7 3.844353515570506 7.8967984458835145 29.471448972775175 0 0 0
193 7 6.35338021056369 4.95851894109535 27.417285130370164 0 0 0
198 7 5.085787099827273 7.156713907372056 27.414367185015077 0 0 0
199 7 7.60482959517474 7.171255748828235 27.452372319273692 0 0 0
223 6 5.136749832243597 5.7042930470452005 29.49343809688669 0 0 0
224 7 7.628235521550788 5.721289888373139 29.586252707047425 0 0 0
228 7 6.377352591796709 7.8965764100089135 29.495249570862264 0 0 0
194 6 8.831504342518405 4.979605884233429 27.497752472956364 0 0 0
195 7 11.344356860806522 4.976762127064317 27.513460850753805 0 0 0
196 7 0.1196293355246834 7.140043440744292 27.50316841182858 0 0 0
200 7 10.10740321936158 7.140105560928691 27.545296734057445 0 0 0
225 7 10.085356636539405 5.723417539646763 29.61168961564149 0 0 0
229 7 8.82998761292299 7.865554000982758 29.530917391701667 0 0 0
230 7 11.35222789644769 7.913785809230864 29.531216777725163 0 0 0
201 5 1.3625483583481315 9.30819042927131 27.51772330737248 0 0 0
202 7 3.855688307152046 9.304235250464703 27.37773004258599 0 0 0
206 4 0.17129963560303915 11.46012513439968 27.528994361193103 0 0 0
207 7 2.594847290899893 11.44048168140738 27.440918454330163 0 0 0
231 7 0.1494483735391014 10.062200052822718 29.573376563600092 0 0 0
232 7 2.616923058860174 10.00937518105324 29.42974381342836 0 0 0
236 7 1.4579649621758572 12.166497408807688 29.559001758238296 0 0 0
203 7 6.358618826608207 9.268757727887373 27.39010456945384 0 0 0
208 7 5.12166213462625 11.483769538800093 27.32193877150973 0 0 0
209 6 7.565961392390376 11.507980111127265 27.642498865348585 0 0 0
233 7 5.133436790012338 10.03880113382444 29.324949605953623 0 0 0
234 7 7.585220362692474 10.072110986587305 29.667379577965566 0 0 0
238 7 6.195609504699558 12.220475650464905 29.682648885723147 0 0 0
204 7 8.822553522941407 9.351426675151698 27.62816289996445 0 0 0
205 7 11.328934949438768 9.398835793271738 27.551763807179704 0 0 0
210 7 10.135099738830174 11.536746134640198 27.589333338455713 0 0 0
235 7 10.06935078009245 10.162484533570208 29.606914840045455 0 0 0
239 4 8.862854478806033 12.23794505927484 29.736273944711034 0 0 0
240 7 11.38084890757496 12.25057057764254 29.567157993983304 0 0 0
237 3 4.018112042196689 0.28047167199151657 30.556039512890166 0 1 0
241 7 0.1860667474694199 0.08651239502050401 31.64041582136551 0 0 0
242 7 2.553718486286699 0.13084989769834085 31.74268277040359 0 0 0
246 4 1.328215443258589 2.231041658222081 31.669511158496924 0 0 0
247 7 3.864602459320476 2.1420336823710815 31.645784241464696 0 0 0
276 7 0.16186283885008174 2.9846145447367176 33.742354698137326 0 0 0
243 7 5.1511217444171935 12.893314818620851 32.100683745405505 0 -1 0
244 7 7.6101744040064965 12.927462745219666 31.714908885210935 0 -1 0
248 7 6.391280834184936 2.139246992782747 31.649986504648275 0 0 0
279 7 7.713878119002745 3.0316886323616967 33.73478854125307 0 0 0
249 7 8.835295765897996 2.0913956276736907 31.68654963529244 0 0 0
250 7 11.36834467637139 2.1268808396409304 31.66511947239161 0 0 0
255 1 10.088923577052542 4.208522371203645 31.510444567288392 0 0 0
275 4 11.427656345920571 0.7869933178078339 33.72044192008628 0 0 0
251 7 0.13098072041973843 4.31372826653312 31.65603809489391 0 0 0
252 7 2.616733360009596 4.310311898460135 31.672328491287896 0 0 0
256 7 1.312857566727275 6.491996878701236 31.639763517292533 0 0 0
257 6 3.7757487121122324 6.493382205729407 31.66525218022242 0 0 0
253 7 5.096608536095675 4.301370666751255 31.626788488198418 0 0 0
254 7 7.60608669810664 4.302139094463584 31.59718859934156 0 0 0
258 7 6.33514443714182 6.485553031823829 31.624691621965784 0 0 0
264 7 7.572336332321467 8.568852859625803 31.624696589499564 0 0 0
283 7 6.365525707507756 5.091071321980052 33.67151841798768 0 0 0
289 7 7.615605195125589 7.177601898513452 33.71843612598169 0 0 0
259 4 8.805020157517472 6.450766915755684 31.63529027180582 0 0 0
260 7 11.298113591407407 6.479706472127354 31.600346513575307 0 0 0
284 5 8.871753113412463 5.107738572814481 33.591137577138234 0 0 0
290 7 10.066980265657111 7.250120573586625 33.60429378443323 0 0 0
261 7 0.1607800969435605 8.699487243555998 31.657042335710255 0 0 0
262 7 2.6471457102598666 8.711418476197203 31.533888634258698 0 0 0
266 7 1.5470261261671412 10.823969996645287 31.576196613891973 0 0 0
267 4 3.9016967321172604 11.267965121247515 30.850794542134736 0 0 0
292 7 3.9391492818618987 9.359073987038862 33.50989914869013 0 0 0
326 7 0.48917941742464477 11.643093916276896 33.684355968462626 0 0 0
263 1 5.075563064823139 8.754408629443668 31.422787947243027 0 0 0
268 7 6.243530601286586 10.753758228811314 31.582718421868275 0 0 0
245 7 10.095372453791366 12.875133588504378 31.87466182654989 0 -1 0
265 6 10.084649194250684 8.672024421469096 31.550393755842194 0 0 0
269 7 8.75835117780006 10.791898253420337 31.755231281945512 0 0 0
270 7 11.412994338180376 10.895996203918756 31.61953495353477 0 0 0
294 7 8.748895599708007 9.279340163423154 33.70022018181555 0 0 0
296 3 11.056600170868847 11.822156658675503 33.33650260336019 -1 0 0
271 7 1.4619475094679029 0.8931895326617358 33.78030064886969 0 0 0
272 7 3.9073894200287054 0.9479738859753102 33.92485428372749 0 0 0
277 7 2.628393168511478 3.070861297335219 33.80008317199451 0 0 0
301 7 0.1768551297198656 1.5437014246579015 35.76333944264024 0 0 0
302 7 2.6043256622694564 1.6592594980925304 35.86320198571753 0 0 0
306 4 1.404690420363583 3.8235139586116023 35.95969759932608 0 0 0
307 7 3.984255072224076 3.724223618773867 35.83749013729047 0 0 0
273 7 6.44618195641431 0.963322978527475 33.90434233474878 0 0 0
278 1 5.2031785963101775 2.9883111695391698 33.72376802429057 0 0 0
303 7 5.231919644993344 1.6583985277888738 35.943872351318404 0 0 0
304 4 7.746549827171114 1.62642561919918 35.92433770530571 0 0 0
308 7 6.515778023499027 3.6987299262997655 35.80267512032376 0 0 0
274 7 8.821557400162336 0.8875070505615855 33.84424577748149 0 0 0
280 7 10.188605169640098 2.9839313780060195 33.71430861971344 0 0 0
305 7 10.209973811772011 1.5524722065091523 35.73251464081505 0 0 0
309 7 9.006604010038838 3.6649780236773477 35.783884260407 0 0 0
310 4 11.576375626073125 3.9353963218214707 35.86551871982815 0 0 0
335 5 9.886456703480853 12.901282962798303 37.3968813317668 0 -1 0
281 7 1.307025375953694 5.173390592656456 33.863427461880995 0 0 0
282 4 3.8324578955196165 5.126421178106667 33.771157877238394 0 0 0
286 7 0.0766818385679995 7.272090071463933 33.62832751144623 0 0 0
287 7 2.6157999068516093 7.277340292751938 33.746593625018185 0 0 0
312 7 2.7138616454833815 5.7802684355890035 35.785685423926125 0 0 0
316 7 1.2050532789231387 7.598586186540656 35.78859258799068 0 0 0
317 7 3.9141222659612067 8.049961027762789 35.73393747021546 0 0 0
288 7 5.167924096213427 7.259980296890738 33.66867010936486 0 0 0
313 7 5.2518159531972755 5.90743835875194 35.71641493151382 0 0 0
314 7 7.7088959681685605 5.812665562679741 35.74719565781824 0 0 0
318 4 6.540325022303576 8.115457461633206 35.81118626797904 0 0 0
285 4 11.330765923502733 5.145438047300366 33.64157847658998 0 0 0
311 2 12.359919367181696 5.994527478670967 35.328502769006775 -1 0 0
315 7 10.123532979864704 5.802165226075561 35.59007541880873 0 0 0
319 7 8.941482633792305 7.967475113330683 35.827999803621694 0 0 0
320 7 11.337553855559124 7.927295551666972 35.598972467955704 0 0 0
355 3 10.435432806069322 7.8904157005198865 37.28563818971013 0 0 0
291 7 1.4489424005927767 9.414928140199947 33.73417053358431 0 0 0
297 6 3.0085171974519977 11.564566309336234 33.67152158335045 0 0 0
321 6 0.19144771780106212 10.061253042807724 35.91271187359715 0 0 0
322 7 2.680150512939917 10.185364975758393 35.757762809851876 0 0 0
327 6 3.9028737473079134 12.49693192738038 36.10098658930456 0 0 0
356 4 1.3796248244316813 12.351007496092876 35.84938013768299 0 0 0
293 4 6.432353905853053 9.30992229382143 33.65071520367867 0 0 0
298 2 5.186717743726032 12.27335350224145 34.2035066118536 0 0 0
299 7 6.980600978928496 11.568492243261245 33.68233424085505 0 0 0
323 6 5.215061597750468 10.227238193906945 35.57593801953483 0 0 0
324 7 7.894570950499652 10.349785172420393 35.71782517013837 0 0 0
328 7 6.448849962744423 12.509386020794762 35.91649796496091 0 0 0
295 6 11.249957048087499 9.688938657060985 33.764373899306236 0 0 0
300 7 9.364901740941068 11.535707097783545 34.17244541124122 0 0 0
325 7 10.242400923327315 9.830479088155878 37.040080394349964 0 0 0
329 3 9.513487088425398 11.388995976675806 36.211164936011656 0 0 0
330 4 11.239725869903051 12.067175581008247 35.58081372311166 0 0 0
332 7 2.4687078735849615 0.09481339584517848 38.03432103414729 0 0 0
336 7 1.3188455678315583 2.182122061111856 37.836388377879715 0 0 0
337 7 3.8606158838197775 2.19054642871993 37.86786213553256 0 0 0
333 7 5.199433119582345 0.15874638468378124 38.11499349779147 0 0 0
334 7 7.631396592456842 0.05879831701577985 38.004878120311446 0 0 0
338 7 6.514628296516681 2.2576486656386767 37.90483998283216 0 0 0
339 7 8.973893547024966 2.1864206924385376 37.858965874230215 0 0 0
340 7 11.353388816427072 2.1942328744975588 37.731381440058115 0 0 0
342 7 2.6985180205933545 4.287105205318751 37.92572267048961 0 0 0
346 7 1.5086318054386092 6.407603559640994 38.00704436650827 0 0 0
347 6 3.9516824648715985 6.468007386568206 37.765475852113155 0 0 0
343 7 5.291691495877372 4.4248091042205395 37.83694920513539 0 0 0
344 7 7.8190269078362835 4.439964310144343 37.85109767134157 0 0 0
348 6 6.644202091013212 6.666804990855402 37.81885005071105 0 0 0
341 7 0.20140083706106487 4.251875967511178 38.07014118648182 0 0 0
345 4 10.207505275214078 4.333445969608049 37.814165384179965 0 0 0
349 7 9.226974880487207 6.626255203077475 37.87097589911698 0 0 0
350 7 11.671268484849168 6.275747524591704 37.31038233157232 0 0 0
352 6 2.479905900674193 8.656806116021977 37.68960928760582 0 0 0
357 7 3.8229031710612067 10.80445556919848 37.950303088496305 0 0 0
360 7 1.3729468306163624 10.895081720091394 37.8935378766495 1 0 0
361 8 2.329175057489535 9.26829714156744 41.27231844120127 0 0 0
362 8 2.527938956161152 8.534146433097975 41.26512650152749 0 0 0
353 7 5.0976183224075715 8.689337775590612 37.844100721412275 0 0 0
354 7 7.939618571988579 8.95300574524296 37.82137996172558 0 0 0
358 6 6.393920315182774 10.84337658238882 37.790310578124725 0 0 0
331 7 12.375919678574247 12.882900144196277 37.629069122944976 -1 -1 0
351 7 12.25431856102172 8.560480759705369 37.84951216594736 -1 0 0
359 2 8.583135821755205 11.15253865229866 37.43541008592247 0 0 0

Velocities

1 0 0 0
2 0 0 0
6 0 0 0
7 0 0 0
31 0 0 0
32 0 0 0
36 0 0 0
37 0 0 0
3 0 0 0
8 0 0 0
9 0 0 0
33 0 0 0
34 0 0 0
38 0 0 0
4 0 0 0
5 0 0 0
10 0 0 0
35 0 0 0
39 0 0 0
40 0 0 0
11 0 0 0
12 0 0 0
16 0 0 0
17 0 0 0
41 0 0 0
42 0 0 0
46 0 0 0
47 0 0 0
13 0 0 0
18 0 0 0
19 0 0 0
43 0 0 0
44 0 0 0
48 0 0 0
14 0 0 0
15 0 0 0
20 0 0 0
45 0 0 0
49 0 0 0
50 0 0 0
21 0 0 0
22 0 0 0
26 0 0 0
27 0 0 0
51 0 0 0
52 0 0 0
56 0 0 0
57 0 0 0
23 0 0 0
28 0 0 0
29 0 0 0
53 0 0 0
54 0 0 0
58 0 0 0
24 0 0 0
25 0 0 0
30 0 0 0
55 0 0 0
59 0 0 0
60 0 0 0
61 0 0 0
62 0 0 0
66 0 0 0
67 0 0 0
91 0 0 0
92 0 0 0
96 0 0 0
97 0 0 0
63 0 0 0
64 0 0 0
68 0 0 0
93 0 0 0
98 0 0 0
99 0 0 0
65 0 0 0
69 0 0 0
70 0 0 0
94 0 0 0
95 0 0 0
100 0 0 0
71 0 0 0
72 0 0 0
76 0 0 0
77 0 0 0
101 0 0 0
102 0 0 0
106 0 0 0
107 0 0 0
73 0 0 0
74 0 0 0
78 0 0 0
103 0 0 0
108 0 0 0
109 0 0 0
75 0 0 0
79 0 0 0
80 0 0 0
104 0 0 0
105 0 0 0
110 0 0 0
81 0 0 0
82 0 0 0
86 0 0 0
87 0 0 0
111 0 0 0
112 0 0 0
116 0 0 0
117 0 0 0
83 0 0 0
84 0 0 0
88 0 0 0
113 0 0 0
118 0 0 0
119 0 0 0
85 0 0 0
89 0 0 0
90 0 0 0
114 0 0 0
115 0 0 0
120 0 0 0
121 0 0 0
122 0 0 0
126 0 0 0
127 0 0 0
152 0 0 0
156 0 0 0
157 0 0 0
162 0 0 0
123 0 0 0
124 0 0 0
128 0 0 0
153 0 0 0
154 0 0 0
158 0 0 0
163 0 0 0
164 0 0 0
125 0 0 0
129 0 0 0
130 0 0 0
155 0 0 0
159 0 0 0
160 0 0 0
165 0 0 0
131 0 0 0
132 0 0 0
136 0 0 0
137 0 0 0
161 0 0 0
166 0 0 0
167 0 0 0
133 0 0 0
134 0 0 0
138 0 0 0
168 0 0 0
173 0 0 0
135 0 0 0
139 0 0 0
140 0 0 0
169 0 0 0
170 0 0 0
175 0 0 0
141 0 0 0
142 0 0 0
146 0 0 0
147 0 0 0
151 0 0 0
171 0 0 0
172 0 0 0
176 0 0 0
177 0 0 0
143 0 0 0
144 0 0 0
148 0 0 0
178 0 0 0
145 0 0 0
149 0 0 0
150 0 0 0
174 0 0 0
179 0 0 0
180 0 0 0
181 0 0 0
182 0 0 0
186 0 0 0
187 0 0 0
211 0 0 0
212 0 0 0
216 0 0 0
217 0 0 0
183 0 0 0
188 0 0 0
189 0 0 0
213 0 0 0
214 0 0 0
218 0 0 0
184 0 0 0
185 0 0 0
190 0 0 0
215 0 0 0
219 0 0 0
220 0 0 0
191 0 0 0
192 0 0 0
197 0 0 0
221 0 0 0
222 0 0 0
226 0 0 0
227 0 0 0
193 0 0 0
198 0 0 0
199 0 0 0
223 0 0 0
224 0 0 0
228 0 0 0
194 0 0 0
195 0 0 0
196 0 0 0
200 0 0 0
225 0 0 0
229 0 0 0
230 0 0 0
201 0 0 0
202 0 0 0
206 0 0 0
207 0 0 0
231 0 0 0
232 0 0 0
236 0 0 0
203 0 0 0
208 0 0 0
209 0 0 0
233 0 0 0
234 0 0 0
238 0 0 0
204 0 0 0
205 0 0 0
210 0 0 0
235 0 0 0
239 0 0 0
240 0 0 0
237 0 0 0
241 0 0 0
242 0 0 0
246 0 0 0
247 0 0 0
276 0 0 0
243 0 0 0
244 0 0 0
248 0 0 0
279 0 0 0
249 0 0 0
250 0 0 0
255 0 0 0
275 0 0 0
251 0 0 0
252 0 0 0
256 0 0 0
257 0 0 0
253 0 0 0
254 0 0 0
258 0 0 0
264 0 0 0
283 0 0 0
289 0 0 0
259 0 0 0
260 0 0 0
284 0 0 0
290 0 0 0
261 0 0 0
262 0 0 0
266 0 0 0
267 0 0 0
292 0 0 0
326 0 0 0
263 0 0 0
268 0 0 0
245 0 0 0
265 0 0 0
269 0 0 0
270 0 0 0
294 0 0 0
296 0 0 0
271 0 0 0
272 0 0 0
277 0 0 0
301 0 0 0
302 0 0 0
306 0 0 0
307 0 0 0
273 0 0 0
278 0 0 0
303 0 0 0
304 0 0 0
308 0 0 0
274 0 0 0
280 0 0 0
305 0 0 0
309 0 0 0
310 0 0 0
335 0 0 0
281 0 0 0
282 0 0 0
286 0 0 0
287 0 0 0
312 0 0 0
316 0 0 0
317 0 0 0
288 0 0 0
313 0 0 0
314 0 0 0
318 0 0 0
285 0 0 0
311 0 0 0
315 0 0 0
319 0 0 0
320 0 0 0
355 0 0 0
291 0 0 0
297 0 0 0
321 0 0 0
322 0 0 0
327 0 0 0
356 0 0 0
293 0 0 0
298 0 0 0
299 0 0 0
323 0 0 0
324 0 0 0
328 0 0 0
295 0 0 0
300 0 0 0
325 0 0 0
329 0 0 0
330 0 0 0
332 0 0 0
336 0 0 0
337 0 0 0
333 0 0 0
334 0 0 0
338 0 0 0
339 0 0 0
340 0 0 0
342 0 0 0
346 0 0 0
347 0 0 0
343 0 0 0
344 0 0 0
348 0 0 0
341 0 0 0
345 0 0 0
349 0 0 0
350 0 0 0
352 0 0 0
357 0 0 0
360 0 0 0
361 0 0 0
362 0 0 0
353 0 0 0
354 0 0 0
358 0 0 0
331 0 0 0
351 0 0 0
359 0 0 0
