LAMMPS data file via write_data, version 11 Feb 2026, timestep = 324, units = metal

362 atoms
8 atom types

0 12.447907776 xlo xhi
0 12.9362452296 ylo yhi
0 52.3600831054 zlo zhi

Masses

1 26.9815
2 10.811
3 12.011
4 51.9961
5 55.845
6 95.95999999999999
7 58.6934
8 1.008

Atoms # atomic/kk

1 7 1.111975356460181 0.8269700014529788 14.641538830117682 0 0 0
2 7 3.5504772754809757 0.7426093648771032 14.869998797703364 0 0 0
6 7 12.262258902355963 3.4827606750242226 14.642483045491572 -1 0 0
7 7 2.2227356891724024 2.975935582891197 15.106321417966855 0 0 0
31 6 12.38956157475601 1.8940167937083843 16.485186217551234 -1 0 0
32 7 2.3040918755434703 1.2589921477037023 16.930206586030312 0 0 0
36 7 1.1335650195079219 3.9738969224940175 17.06218851027936 0 0 0
37 7 3.5665842145389663 3.6513385631480877 17.092643151816247 0 0 0
3 5 6.01122467400113 0.8717344869890769 14.936706794535095 0 0 0
8 7 4.776327409076605 2.9901683255172444 15.020006808652935 0 0 0
9 7 7.282212678228709 3.067115317047116 14.892128734881842 0 0 0
33 7 4.825656927794488 1.5407334719162942 16.98205350089908 0 0 0
34 7 7.353437113726278 1.7164735780476408 16.945830159593907 0 0 0
38 5 6.072470400898661 3.747040963389874 16.96966172796117 0 0 0
4 6 8.632186490029163 0.975749463433566 14.945343493396342 0 0 0
5 7 11.02002325295079 1.2576671647282345 14.461023618016368 0 0 0
10 7 9.80439715858313 3.3842503965061046 14.722077672181735 0 0 0
35 7 9.917371648089436 1.7185518362065442 16.90406721856532 0 0 0
39 7 8.631743856117764 3.8692923258015144 16.813714571259585 0 0 0
40 7 11.068059932184164 3.958072867161995 16.96435448022737 0 0 0
11 7 1.1307630548007217 5.437918233499867 15.025417397099142 0 0 0
12 7 3.5488110106432376 5.151540135387701 15.12119160684065 0 0 0
16 4 0.21213344517308522 7.678574088396591 14.61135713888581 0 0 0
17 7 2.4247151307899117 7.510494860152646 15.090763003590672 0 0 0
41 7 12.312786220545123 6.1151951488979535 17.127622493272266 -1 0 0
42 7 2.3691376634651036 6.080720825922273 17.111465270378314 0 0 0
46 7 0.814826157115772 8.418912451110442 16.85964429492726 0 0 0
47 7 3.812341526322022 8.014904604177772 17.02640211742236 0 0 0
13 7 6.042678701132428 5.191134990316235 15.007794076035033 0 0 0
18 7 4.891926937474746 7.307348535234703 14.976353322294958 0 0 0
19 2 6.839752392454612 6.980355624140774 15.315719974792245 0 0 0
43 7 4.850978511392605 5.816248169582048 17.076514071648678 0 0 0
44 7 7.339199707424489 5.8856476975157594 17.022802099046203 0 0 0
48 7 6.222122024271484 7.998016442313684 17.017514410307772 0 0 0
14 7 8.570779455280586 5.643852516054919 14.892920681898007 0 0 0
15 6 11.044003321602734 5.644031632448794 15.085014610057963 0 0 0
20 7 10.224426360243406 7.6626592382609315 13.988754949367332 0 0 0
45 7 9.804200547874693 6.116144648282921 17.179242113536223 0 0 0
49 7 8.466724317174803 7.863397192762489 16.021667290733934 0 0 0
50 7 10.9026242311389 8.122057612807499 16.214058405071825 0 0 0
21 2 1.5451801103997724 9.478433112564357 15.20985476040567 0 0 0
22 7 3.613687705702042 9.517579700240212 14.918367220054732 0 0 0
26 7 0.31121224442750095 10.807853447666949 16.828817108626417 0 0 0
27 7 2.0289196265250187 11.482374692058837 15.150548420730775 0 0 0
51 3 11.61747739518312 9.376035785606842 17.49878374868411 -1 0 0
52 7 2.610766705060872 10.086450337816801 17.042636662386244 0 0 0
56 2 0.9238143254506219 12.710425685359466 16.353960897272735 0 0 0
57 7 3.700431407738197 12.231319732885217 16.928983008123357 0 0 0
23 7 6.5814733546780975 9.091797386948148 14.850722998290593 0 0 0
28 7 4.8142484557858065 11.615229971742178 14.818282155387916 0 0 0
29 6 7.370605909369257 11.503926662503467 14.91658605762891 0 0 0
53 7 5.1250328843829305 10.116111036677212 16.778748846718177 0 0 0
54 7 7.690846575435137 10.04943657856373 16.9211626051776 0 0 0
58 6 6.291381367448451 12.344238811144546 17.011714061158703 0 0 0
24 7 9.04869134624668 9.6728605493181 14.655454874619759 0 0 0
25 7 11.941694962210395 9.88415294692453 14.710642293638434 0 0 0
30 7 9.920267336756957 11.86213154141038 14.578163103807778 0 0 0
55 7 10.240443045675775 10.413934743306607 16.645648362822918 0 0 0
59 7 8.83969650511978 12.376579576142388 16.890135294259657 0 0 0
60 7 11.295564045947534 12.628338341006536 16.35010013148532 0 0 0
61 6 0.10192788440173173 12.919716957355615 18.575729839970915 0 -1 0
62 7 2.559770350484856 0.04187577713759658 19.143152240288448 0 0 0
66 6 1.3503437617630123 2.2375134210801484 19.066218473754272 0 0 0
67 5 3.794787088677904 2.1901963187837747 19.104307720940056 0 0 0
91 4 1.3616271776702142 0.7930169280166106 21.252587232329372 0 0 0
92 7 3.7925251268809026 0.7488830197363804 21.132868817227596 0 0 0
96 7 0.08005637296427358 2.87211288105149 21.176944119811544 0 0 0
97 7 2.6019739429672564 2.8701279568708893 21.209237327763155 0 0 0
63 5 5.011324112643146 0.1258288333997498 19.063707367804945 0 0 0
64 7 7.493898868306447 0.11591586755303376 19.092955423054345 0 0 0
68 7 6.189469985149928 2.1832163026310116 19.049719935336057 0 0 0
93 7 6.319853726783111 0.7478836463848131 21.20701756998262 0 0 0
98 7 5.044757566238347 2.8845257904145445 21.15208692114159 0 0 0
99 5 7.499513864320912 2.851264387133206 21.142374101347073 0 0 0
65 7 10.078348723022424 0.11211356329845026 18.964555473728325 0 0 0
69 7 8.729353918628433 2.1945391643385928 18.962901421889264 0 0 0
70 7 11.288590513247087 2.29832632214466 18.9078133219492 0 0 0
94 7 8.77559051906019 0.7609244846905714 21.178242269906058 0 0 0
95 7 11.361078077144938 0.731863843960912 21.031020269570647 0 0 0
100 6 10.042945128451194 2.8487125880255038 21.019585511047975 0 0 0
71 1 12.326265107324396 4.462495965586206 19.19551512418755 -1 0 0
72 7 2.4466612840508577 4.428843112723995 19.116323581222016 0 0 0
76 7 1.1641452998949595 6.505160410167634 19.190105729372306 0 0 0
77 7 3.757157759411977 6.5062621277152815 19.144168425615327 0 0 0
101 7 1.206876306119135 5.03841269873433 21.232223645113642 0 0 0
102 6 3.7363855444320366 5.054443880418133 21.226266865669533 0 0 0
106 7 12.440267407652161 7.145037621510638 21.273645549693427 -1 0 0
107 7 2.47078474648773 7.179110774511001 21.23749170330441 0 0 0
73 7 4.938290373793781 4.31725233526942 19.076293263457814 0 0 0
74 6 7.4673358533102805 4.323729922916246 19.02612633285945 0 0 0
78 7 6.168573816618812 6.531670063738546 19.10499037216058 0 0 0
103 7 6.2767670714615305 5.065022659840905 21.15632069575239 0 0 0
108 7 5.017622910103554 7.229200370276262 21.20715089632313 0 0 0
109 7 7.4248886743454126 7.273460354486528 21.239613352270887 0 0 0
75 5 9.859450701034614 4.37252976840637 19.010384338421368 0 0 0
79 7 8.611690183947431 6.525107202933472 19.285597748825428 0 0 0
80 7 11.090836251079642 6.517952593087593 19.28329829293547 0 0 0
104 7 8.737216128697707 5.069267358138927 21.21583486171111 0 0 0
105 3 10.087307491679812 4.430912822479392 22.262555660371987 0 0 0
110 7 9.900041025652273 7.201608745284207 21.271685006263354 0 0 0
81 4 12.368345564424823 8.591001643101677 19.18785203378043 -1 0 0
82 6 2.43144586675977 8.544685123149012 19.023875767673697 0 0 0
86 7 1.3023133396500952 10.765188912298782 19.170161550895966 0 0 0
87 1 3.844276223411471 10.88826327434133 19.00909111298884 0 0 0
111 7 1.1996066001691803 9.34209019927256 21.216265467734456 0 0 0
112 6 3.7462215493514477 9.347152904811047 21.238292197033772 0 0 0
116 1 0.05695096637898701 11.55641816358484 21.176221599451438 0 0 0
117 7 2.5203367574430144 11.547763085700542 21.174664189623954 0 0 0
83 7 4.966966310184036 8.736311297444896 19.032761502532676 0 0 0
84 7 7.4209812100861665 8.646562506250342 19.010906915261746 0 0 0
88 7 6.273452764157924 10.829941221091884 19.021346020374015 0 0 0
113 7 6.239143658041964 9.404947852376168 21.033765191366438 0 0 0
118 7 5.039865405079994 11.567547064765144 21.14273185108045 0 0 0
119 4 7.470587973494201 11.58361529896216 21.076725276176493 0 0 0
85 6 9.827457661332812 8.523006942047953 18.449304893300855 0 0 0
89 6 8.781211795861854 10.878406897873361 18.97947755630636 0 0 0
90 4 11.28348823101775 10.816557873921433 18.891190181919793 0 0 0
114 7 8.705554222381744 9.35135149055708 20.933853666412418 0 0 0
115 6 11.118589852573333 9.298570195040401 21.16757460189682 0 0 0
120 7 10.017402113267597 11.565847656822537 21.122488334473157 0 0 0
121 7 0.08188850057692651 1.4164753617824268 23.256673815968096 0 0 0
122 7 2.5702858049062636 1.4134272694754204 23.316880124473194 0 0 0
126 6 1.3532810211270347 3.612887140915443 23.260304821945482 0 0 0
127 7 3.854449683930486 3.5976687984484625 23.3651277666325 0 0 0
152 7 2.6551774480447494 0.019796063953516685 25.37479652619414 0 0 0
156 1 1.487507356017772 2.149123362381836 25.501734824665373 0 0 0
157 7 3.975935660192772 2.1469928717808724 25.443364445664983 0 0 0
162 7 2.6049085340870914 4.276713068802411 25.42724999915779 0 0 0
123 7 5.011279434327918 1.4393526524100089 23.199585198167828 0 0 0
124 7 7.4166429268856096 1.5301653879390111 23.479113445484344 0 0 0
128 7 6.309129672698886 3.675833446822508 23.170464740719513 0 0 0
153 7 5.2010992800625475 0.07398714884531125 25.32999117107754 0 0 0
154 7 7.612613603627856 0.019933737423375227 25.458239524971468 0 0 0
158 2 5.801508017763601 2.491237621668106 24.643165799801597 0 0 0
163 7 5.121518681890533 4.259925535410522 25.421886792626406 0 0 0
164 5 7.481109287170406 4.072399141302306 25.34333242455882 0 0 0
125 7 10.065443443849075 1.4547361596969433 23.30088739875232 0 0 0
129 7 8.76084183357981 3.57223992015347 23.328791800733736 0 0 0
130 4 11.363718987349111 3.6514770869203472 23.382600592865614 0 0 0
155 4 10.136818304513955 0.08243804808300134 25.51848530617679 0 0 0
159 7 8.890680941014603 2.115941619301644 25.422669338898945 0 0 0
160 7 11.41416907411001 2.1777409647782777 25.391818820472984 0 0 0
165 7 10.07118093785849 4.240296977841419 25.397210878364422 0 0 0
131 7 0.07689430650525718 5.802693853205236 23.385212775154994 0 0 0
132 7 2.550067711780261 5.805115185215965 23.3643670671511 0 0 0
136 7 1.3142541232797988 7.930883835456233 23.295485263698275 0 0 0
137 7 3.7902088341197877 7.97254334277716 23.32108037441671 0 0 0
161 4 0.1163357110131921 4.361513838620823 25.453533703057666 0 0 0
166 7 1.344270650894466 6.432541280541076 25.42338988437836 0 0 0
167 7 3.8160888402925868 6.444814871756713 25.447954693291617 0 0 0
133 6 5.074460378253166 5.858905356848839 23.384018190334867 0 0 0
134 7 7.564487835702587 5.795125830446256 23.30105188873476 0 0 0
138 7 6.31797204841498 8.004021953694528 23.338633252078917 0 0 0
168 7 6.371616453387491 6.403005166649082 25.42930938964023 0 0 0
173 7 5.119247013341644 8.5608627842263 25.352931668799066 0 0 0
135 7 10.069232348222702 5.855604598192772 23.372915488781622 0 0 0
139 4 8.704859927624772 7.9642672049827326 23.2114727232657 0 0 0
140 4 11.293471120791244 7.916846024721995 23.2943287172241 0 0 0
169 7 8.78008600113171 6.3515714996871155 25.3705645388296 0 0 0
170 7 11.297121262671405 6.428086843178463 25.434042641348878 0 0 0
175 6 9.899740504039253 8.584632182632314 25.500441029538745 0 0 0
141 7 0.026951649626171907 10.101405993124963 23.32774950353973 0 0 0
142 7 2.5086660170841752 10.11577344555185 23.298417889126195 0 0 0
146 7 1.3064773472430624 12.250056867079735 23.313570787921634 0 0 0
147 7 3.8206502942809264 12.249679664438693 23.229780643918513 0 0 0
151 4 0.10037784638033731 12.894642372677747 25.370612793231057 0 -1 0
171 6 0.11926333488134842 8.637426767691693 25.41015947547931 0 0 0
172 7 2.629479653667252 8.619054586009403 25.394988563999934 0 0 0
176 7 1.3502453139042485 10.820746715886182 25.43159369604782 0 0 0
177 6 3.891757582726464 10.823662163006242 25.31460153902466 0 0 0
143 7 5.080100176279863 10.118285224703145 23.233962997564227 0 0 0
144 7 7.515502060772538 10.105056463413886 22.903571225352202 0 0 0
148 4 6.236031554091088 12.289403463771777 23.260707350652048 0 0 0
178 6 6.650206884132576 10.533205501437685 25.237792734159108 0 0 0
145 7 10.002566433952161 10.105879021335594 23.299078835018484 0 0 0
149 6 8.72729938506761 12.305679171778534 23.29031636254107 0 0 0
150 7 11.26452784459254 12.244571026541735 23.332745545076804 0 0 0
174 3 8.425061337276144 9.521407843890044 24.405159754357335 0 0 0
179 5 9.018016480340751 10.94558079876389 25.55863180567776 0 0 0
180 5 11.350069860800216 10.89384066660709 25.480740321697663 0 0 0
181 7 1.3926398042174692 0.6783285565583109 27.48525118375946 0 0 0
182 7 3.881651232230085 0.7126998613459797 27.44371466428706 0 0 0
186 7 0.1778248403241643 2.87480472240964 27.479329822990998 0 0 0
187 7 2.665842872352622 2.8624911607834083 27.562937274808334 0 0 0
211 7 0.2141804449270456 1.4598739280422812 29.580173476707873 0 0 0
212 7 2.715089497358306 1.3723866971213516 29.57844928508615 0 0 0
216 7 1.4163420735228045 3.5673432107048795 29.58340585592312 0 0 0
217 4 3.830380436866079 3.581443971285656 29.597884124394813 0 0 0
183 7 6.320710794875417 0.7276288813302659 27.568126817513797 0 0 0
188 7 5.090868340844248 2.8824797919050225 27.57395390392247 0 0 0
189 7 7.606578646161996 2.805312849488644 27.447300309870172 0 0 0
213 5 5.14222523263918 1.433207916083428 29.598711274194937 0 0 0
214 7 7.624937309581814 1.3674524635757337 29.581937176227523 0 0 0
218 7 6.372442563002838 3.545012149638199 29.538514974765683 0 0 0
184 7 8.901275566080832 0.7357248465502179 27.549486496411237 0 0 0
185 4 11.393502523852286 0.7393522964486091 27.517891882953297 0 0 0
190 7 10.155705420607688 2.8502927319037963 27.47467009428381 0 0 0
215 7 10.134049446213975 1.4210384420552205 29.61927837266336 0 0 0
219 7 8.846598142656392 3.5268830108999163 29.517967311677044 0 0 0
220 7 11.376325945576312 3.5759062583819987 29.511759000956168 0 0 0
191 7 1.3969926695879273 5.021247538393031 27.468571564509393 0 0 0
192 7 3.8398309295047897 4.997691250796085 27.486211734126154 0 0 0
197 7 2.5862071651342737 7.201507309033252 27.48053005351797 0 0 0
221 7 0.1268383491202104 5.742113190423822 29.564478038939093 0 0 0
222 7 2.5974692314437933 5.737899705770712 29.5520028602377 0 0 0
226 7 1.3688616573555474 7.9150610211689525 29.55002954259669 0 0 0
227 7 3.8673597769767105 7.9203268461684555 29.476088043082914 0 0 0
193 7 6.378312176919741 4.98395500740001 27.412468114089215 0 0 0
198 7 5.110330453754739 7.179398139500022 27.418104084473605 0 0 0
199 7 7.62360281225925 7.200970924848085 27.44472488478751 0 0 0
223 6 5.16104435091891 5.727490678478367 29.49189376964144 0 0 0
224 7 7.652483578310304 5.750212207448574 29.576442054650354 0 0 0
228 7 6.400012122052635 7.921144488021625 29.496891612540868 0 0 0
194 6 8.854712299779539 5.014255009957301 27.48159576673633 0 0 0
195 7 11.368064670326424 5.0134493897489465 27.497736572879067 0 0 0
196 7 0.1427295198721547 7.1770512179515915 27.48738888710605 0 0 0
200 7 10.12863490339714 7.1763668781256325 27.526542318568886 0 0 0
225 7 10.10853441764809 5.7575547651553185 29.5949062478346 0 0 0
229 7 8.852553839771806 7.899208358156197 29.51439486923216 0 0 0
230 7 11.374196921869226 7.94757303167062 29.513591128592125 0 0 0
201 5 1.3840168626179488 9.341324692503955 27.514201574137715 0 0 0
202 7 3.8791084464905534 9.327274421366257 27.39566380610231 0 0 0
206 4 0.19342393105707506 11.496455770829773 27.517117967442548 0 0 0
207 7 2.616680905236693 11.472094816699885 27.451762404806374 0 0 0
231 7 0.16903232203439125 10.09457572758055 29.561021877119906 0 0 0
232 7 2.636553840249656 10.036560594749325 29.434037628400265 0 0 0
236 7 1.474707796037148 12.19782486275131 29.555631621179742 0 0 0
203 7 6.378793145013815 9.299029329349999 27.40684660633345 0 0 0
208 7 5.148457694646092 11.507689533462974 27.352110974045228 0 0 0
209 6 7.597837678012603 11.543604996512322 27.630440290631686 0 0 0
233 7 5.153324839165138 10.061834032224205 29.341323713372 0 0 0
234 7 7.609644119924083 10.100867339176899 29.655700927954843 0 0 0
238 7 6.22813028510485 12.247571233346227 29.678794600829274 0 0 0
204 7 8.843998661315043 9.384436370462675 27.60336259470124 0 0 0
205 7 11.352651332461702 9.435303033048294 27.53010922666958 0 0 0
210 7 10.162657394260833 11.573080861154205 27.56543076500241 0 0 0
235 7 10.091761985236062 10.194273255817889 29.58542579616487 0 0 0
239 4 8.890459754747688 12.270311975815213 29.721847816708014 0 0 0
240 7 11.400423950956133 12.28410770952946 29.55091732042199 0 0 0
237 3 4.03769208195588 0.3122736134319169 30.556978756126266 0 1 0
241 7 0.2043152060661965 0.11827583577836497 31.629571451726736 0 0 0
242 7 2.57148498483234 0.15916563222954322 31.738816675594247 0 0 0
246 4 1.348298264450614 2.261397015224388 31.659936489964633 0 0 0
247 7 3.887354104641786 2.1667486960324265 31.639178777638342 0 0 0
276 7 0.18257040783263587 3.017034215385288 33.73316560739158 0 0 0
243 7 5.176222048040002 12.920302847951135 32.09619888389323 0 -1 0
244 7 7.634959388095292 0.021126111149213027 31.70571506765473 0 0 0
248 7 6.415484450976649 2.1661516380657537 31.639226968546208 0 0 0
279 7 7.735082485473039 3.063980323061782 33.72572626816234 0 0 0
249 7 8.858456504345353 2.1231475735484993 31.672958512555354 0 0 0
250 7 11.389884572481552 2.1600215671739753 31.653220808513765 0 0 0
255 1 10.110586883162792 4.240964038851293 31.49423779309867 0 0 0
275 4 11.446546436572108 0.8190331978837919 33.71129910789003 0 0 0
251 7 0.15287711485123956 4.345182615296964 31.64411327774578 0 0 0
252 7 2.6386389131812784 4.33672159848574 31.663848797298726 0 0 0
256 7 1.335253130688283 6.520685885088852 31.632762736903736 0 0 0
257 6 3.79786370978476 6.51804443659275 31.663597341194418 0 0 0
253 7 5.11903418399934 4.326704539081459 31.620706030031823 0 0 0
254 7 7.627986280838468 4.330641866812942 31.586587726969068 0 0 0
258 7 6.358998489211399 6.511963956089314 31.62076737214393 0 0 0
264 7 7.596583068806551 8.598669191967938 31.6161047632732 0 0 0
283 7 6.385234635505091 5.12213762984236 33.66709829008366 0 0 0
289 7 7.639209648141944 7.20863921747599 33.70913455545993 0 0 0
259 4 8.828316351321929 6.482967382446369 31.621063169761687 0 0 0
260 7 11.3210085437465 6.5128016567560465 31.584978213504296 0 0 0
284 5 8.892650602181922 5.13984842739882 33.575773784634244 0 0 0
290 7 10.089789523057386 7.283430766836412 33.58806195722774 0 0 0
261 7 0.1823296803524217 8.730943964566428 31.646527155127707 0 0 0
262 7 2.669029847310707 8.737443683760729 31.53317529924379 0 0 0
266 7 1.5682274764183102 10.85242238784731 31.57120059689456 0 0 0
267 4 3.92210976103134 11.297412795782645 30.8541419031425 0 0 0
292 7 3.9633444109011426 9.394598200531169 33.50419635222997 0 0 0
326 7 0.5117425064840607 11.675751734241237 33.674886051097985 0 0 0
263 1 5.099663427141476 8.777439488247806 31.427942515710264 0 0 0
268 7 6.268804392781402 10.780154281679527 31.57710901459635 0 0 0
245 7 10.117475958152076 12.907958438059845 31.86310042966162 0 -1 0
265 6 10.107580590123911 8.705572254233001 31.5329320348024 0 0 0
269 7 8.782670776883743 10.823560924191225 31.74104473771063 0 0 0
270 7 11.432793449366484 10.928045637090598 31.605409492902663 0 0 0
294 7 8.77409014115359 9.312991298611202 33.687090370543864 0 0 0
296 3 11.07999583866165 11.854033194556425 33.324154084916884 -1 0 0
271 7 1.4791221107323302 0.9249950220447503 33.77001229550001 0 0 0
272 7 3.9286032930219124 0.9759185756005432 33.917531206586425 0 0 0
277 7 2.6491719051810496 3.100860222414439 33.7874423180546 0 0 0
301 7 0.19639362640035324 1.5753938711838869 35.75572957609669 0 0 0
302 7 2.6181300566617214 1.6902867520900566 35.840574448215065 0 0 0
306 4 1.4289964845387757 3.856477557935271 35.96187844820061 0 0 0
307 7 4.003797589547025 3.7545059191679084 35.82466387057572 0 0 0
273 7 6.471731963865145 0.9937223842296015 33.89384751504742 0 0 0
278 1 5.226019394615714 3.0171684930275697 33.71262933729969 0 0 0
303 7 5.260889735922077 1.6900801020459408 35.924316950129175 0 0 0
304 4 7.77001389588489 1.658192264779828 35.918115490670615 0 0 0
308 7 6.5367620127161 3.7318081249827317 35.79546778370644 0 0 0
274 7 8.845261786954087 0.9220536436861314 33.833466024358955 0 0 0
280 7 10.209509255314911 3.017688329157242 33.70274466979961 0 0 0
305 7 10.230725461848802 1.5859597379363812 35.72310786937408 0 0 0
309 7 9.027696938826747 3.6967769690072583 35.77504457178194 0 0 0
310 4 11.598541962332797 3.9685628238999033 35.85774806962196 0 0 0
335 5 9.913226089358268 12.93328117222438 37.38747385886018 0 -1 0
281 7 1.3290066689230846 5.2040568884964085 33.86065427374696 0 0 0
282 4 3.853977077467617 5.154906654801759 33.76607887351938 0 0 0
286 7 0.0991206329993537 7.303268161722516 33.617305337322904 0 0 0
287 7 2.6381029052980067 7.30773831199224 33.74305089007322 0 0 0
312 7 2.738646317509683 5.812474863107439 35.78300889818903 0 0 0
316 7 1.217888350189704 7.622804212840514 35.783084137222644 0 0 0
317 7 3.9361272216471415 8.084957356660881 35.730599070660986 0 0 0
288 7 5.189474230620215 7.291109498426936 33.66425688232457 0 0 0
313 7 5.272135076733182 5.940106968059642 35.71383102554071 0 0 0
314 7 7.72920653766572 5.843830134781322 35.73903969287461 0 0 0
318 4 6.561151268231444 8.145460685606487 35.8011193790982 0 0 0
285 4 11.35160740986167 5.177439126670863 33.625448466206684 0 0 0
311 2 12.374817625346386 6.02404601672417 35.315157799455385 -1 0 0
315 7 10.141425829945375 5.832841325531428 35.5721052183498 0 0 0
319 7 8.961876092812872 8.000005085078454 35.81511678624994 0 0 0
320 7 11.353701392533836 7.956717728228454 35.586345852569046 0 0 0
355 3 10.444786237440447 7.927520702627652 37.271001666392905 0 0 0
291 7 1.4732900669020113 9.447045507640585 33.727007360495705 0 0 0
297 6 3.029074577981026 11.597428092726389 33.67070279118738 0 0 0
321 6 0.21657343988669508 10.086864104061098 35.90134751929087 0 0 0
322 7 2.7077697306186317 10.223722986467223 35.758393725116306 0 0 0
327 6 3.9283842774177913 12.53675929519547 36.10839387735109 0 0 0
356 4 1.4050685480250729 12.382593438693887 35.84504681488289 0 0 0
293 4 6.4570223701812175 9.341227954394418 33.647634539695915 0 0 0
298 2 5.20847336299884 12.30870520754829 34.20386150204239 0 0 0
299 7 7.00082869849543 11.600300737408535 33.675000675866194 0 0 0
323 6 5.23739059795105 10.262520291676287 35.5713298993545 0 0 0
324 7 7.917870918425072 10.381285284102105 35.706858321127086 0 0 0
328 7 6.474167703593741 12.540186442712264 35.91034474462775 0 0 0
295 6 11.274444185617007 9.721629042985704 33.752927498098906 0 0 0
300 7 9.388045898391109 11.570275763352694 34.161092311535896 0 0 0
325 7 10.262041886176467 9.87037129557104 37.025003971332545 0 0 0
329 3 9.53512483094823 11.427276274618892 36.196014500555684 0 0 0
330 4 11.266367908664856 12.098960409113129 35.57215665371726 0 0 0
332 7 2.490339193716251 0.12143470459556002 38.039068621555096 0 0 0
336 7 1.3462468050835674 2.2084622910881953 37.83217899651887 0 0 0
337 7 3.8749214455174674 2.2083436821923956 37.824553964451866 0 0 0
361 8 4.059099746284051 2.468229014055916 41.564391079884665 0 0 0
333 7 5.226311625646594 0.19329753910476374 38.1202696046622 0 0 0
334 7 7.655530728803567 0.09695769047218386 37.999307022664766 0 0 0
338 7 6.529327416360841 2.289964302910854 37.89960343168234 0 0 0
362 8 4.7302937273940975 2.8215081635268224 41.62695994288624 0 0 0
339 7 8.993660752029934 2.217757733311048 37.853263488021454 0 0 0
340 7 11.37454023353439 2.2225891906757314 37.72376991792021 0 0 0
342 7 2.728202125409344 4.312313333075191 37.930533760953736 0 0 0
346 7 1.526623264364853 6.425731452023814 37.99421510658052 0 0 0
347 6 3.97140812111093 6.498505029599413 37.766474856209356 0 0 0
343 7 5.307755156894595 4.459470385609342 37.825313629989544 0 0 0
344 7 7.839384629422997 4.466714596256137 37.84494145514244 0 0 0
348 6 6.668532036396663 6.69451117984683 37.811821451891824 0 0 0
341 7 0.22325162083294994 4.27482995495322 38.067759616941046 0 0 0
345 4 10.229865483604376 4.363086626383915 37.80431939640963 0 0 0
349 7 9.247709368077313 6.6549691443269525 37.858199541629205 0 0 0
350 7 11.689347049049884 6.297163581622132 37.29364572242346 0 0 0
352 6 2.4962528677218647 8.685269478399462 37.680499495043335 0 0 0
357 7 3.852695826338872 10.833694073715057 37.950086044302076 0 0 0
360 7 1.3943363212511932 10.92629793405086 37.885478004362554 1 0 0
353 7 5.134556346770447 8.721106558865978 37.822666330093334 0 0 0
354 7 7.964616173456658 8.982531524466854 37.81016488204057 0 0 0
358 6 6.424389935681209 10.879550967773847 37.78531147928414 0 0 0
331 7 12.399788286350661 12.912885989164389 37.62380016714324 -1 -1 0
351 7 12.25163821978735 8.586752092517449 37.83448740442556 -1 0 0
359 2 8.60754382163281 11.190802748804568 37.42142939784216 0 0 0

Velocities

1 0 0 0
2 0 0 0
6 0 0 0
7 0 0 0
31 0 0 0
32 0 0 0
36 0 0 0
37 0 0 0
3 0 0 0
8 0 0 0
9 0 0 0
33 0 0 0
34 0 0 0
38 0 0 0
4 0 0 0
5 0 0 0
10 0 0 0
35 0 0 0
39 0 0 0
40 0 0 0
11 0 0 0
12 0 0 0
16 0 0 0
17 0 0 0
41 0 0 0
42 0 0 0
46 0 0 0
47 0 0 0
13 0 0 0
18 0 0 0
19 0 0 0
43 0 0 0
44 0 0 0
48 0 0 0
14 0 0 0
15 0 0 0
20 0 0 0
45 0 0 0
49 0 0 0
50 0 0 0
21 0 0 0
22 0 0 0
26 0 0 0
27 0 0 0
51 0 0 0
52 0 0 0
56 0 0 0
57 0 0 0
23 0 0 0
28 0 0 0
29 0 0 0
53 0 0 0
54 0 0 0
58 0 0 0
24 0 0 0
25 0 0 0
30 0 0 0
55 0 0 0
59 0 0 0
60 0 0 0
61 0 0 0
62 0 0 0
66 0 0 0
67 0 0 0
91 0 0 0
92 0 0 0
96 0 0 0
97 0 0 0
63 0 0 0
64 0 0 0
68 0 0 0
93 0 0 0
98 0 0 0
99 0 0 0
65 0 0 0
69 0 0 0
70 0 0 0
94 0 0 0
95 0 0 0
100 0 0 0
71 0 0 0
72 0 0 0
76 0 0 0
77 0 0 0
101 0 0 0
102 0 0 0
106 0 0 0
107 0 0 0
73 0 0 0
74 0 0 0
78 0 0 0
103 0 0 0
108 0 0 0
109 0 0 0
75 0 0 0
79 0 0 0
80 0 0 0
104 0 0 0
105 0 0 0
110 0 0 0
81 0 0 0
82 0 0 0
86 0 0 0
87 0 0 0
111 0 0 0
112 0 0 0
116 0 0 0
117 0 0 0
83 0 0 0
84 0 0 0
88 0 0 0
113 0 0 0
118 0 0 0
119 0 0 0
85 0 0 0
89 0 0 0
90 0 0 0
114 0 0 0
115 0 0 0
120 0 0 0
121 0 0 0
122 0 0 0
126 0 0 0
127 0 0 0
152 0 0 0
156 0 0 0
157 0 0 0
162 0 0 0
123 0 0 0
124 0 0 0
128 0 0 0
153 0 0 0
154 0 0 0
158 0 0 0
163 0 0 0
164 0 0 0
125 0 0 0
129 0 0 0
130 0 0 0
155 0 0 0
159 0 0 0
160 0 0 0
165 0 0 0
131 0 0 0
132 0 0 0
136 0 0 0
137 0 0 0
161 0 0 0
166 0 0 0
167 0 0 0
133 0 0 0
134 0 0 0
138 0 0 0
168 0 0 0
173 0 0 0
135 0 0 0
139 0 0 0
140 0 0 0
169 0 0 0
170 0 0 0
175 0 0 0
141 0 0 0
142 0 0 0
146 0 0 0
147 0 0 0
151 0 0 0
171 0 0 0
172 0 0 0
176 0 0 0
177 0 0 0
143 0 0 0
144 0 0 0
148 0 0 0
178 0 0 0
145 0 0 0
149 0 0 0
150 0 0 0
174 0 0 0
179 0 0 0
180 0 0 0
181 0 0 0
182 0 0 0
186 0 0 0
187 0 0 0
211 0 0 0
212 0 0 0
216 0 0 0
217 0 0 0
183 0 0 0
188 0 0 0
189 0 0 0
213 0 0 0
214 0 0 0
218 0 0 0
184 0 0 0
185 0 0 0
190 0 0 0
215 0 0 0
219 0 0 0
220 0 0 0
191 0 0 0
192 0 0 0
197 0 0 0
221 0 0 0
222 0 0 0
226 0 0 0
227 0 0 0
193 0 0 0
198 0 0 0
199 0 0 0
223 0 0 0
224 0 0 0
228 0 0 0
194 0 0 0
195 0 0 0
196 0 0 0
200 0 0 0
225 0 0 0
229 0 0 0
230 0 0 0
201 0 0 0
202 0 0 0
206 0 0 0
207 0 0 0
231 0 0 0
232 0 0 0
236 0 0 0
203 0 0 0
208 0 0 0
209 0 0 0
233 0 0 0
234 0 0 0
238 0 0 0
204 0 0 0
205 0 0 0
210 0 0 0
235 0 0 0
239 0 0 0
240 0 0 0
237 0 0 0
241 0 0 0
242 0 0 0
246 0 0 0
247 0 0 0
276 0 0 0
243 0 0 0
244 0 0 0
248 0 0 0
279 0 0 0
249 0 0 0
250 0 0 0
255 0 0 0
275 0 0 0
251 0 0 0
252 0 0 0
256 0 0 0
257 0 0 0
253 0 0 0
254 0 0 0
258 0 0 0
264 0 0 0
283 0 0 0
289 0 0 0
259 0 0 0
260 0 0 0
284 0 0 0
290 0 0 0
261 0 0 0
262 0 0 0
266 0 0 0
267 0 0 0
292 0 0 0
326 0 0 0
263 0 0 0
268 0 0 0
245 0 0 0
265 0 0 0
269 0 0 0
270 0 0 0
294 0 0 0
296 0 0 0
271 0 0 0
272 0 0 0
277 0 0 0
301 0 0 0
302 0 0 0
306 0 0 0
307 0 0 0
273 0 0 0
278 0 0 0
303 0 0 0
304 0 0 0
308 0 0 0
274 0 0 0
280 0 0 0
305 0 0 0
309 0 0 0
310 0 0 0
335 0 0 0
281 0 0 0
282 0 0 0
286 0 0 0
287 0 0 0
312 0 0 0
316 0 0 0
317 0 0 0
288 0 0 0
313 0 0 0
314 0 0 0
318 0 0 0
285 0 0 0
311 0 0 0
315 0 0 0
319 0 0 0
320 0 0 0
355 0 0 0
291 0 0 0
297 0 0 0
321 0 0 0
322 0 0 0
327 0 0 0
356 0 0 0
293 0 0 0
298 0 0 0
299 0 0 0
323 0 0 0
324 0 0 0
328 0 0 0
295 0 0 0
300 0 0 0
325 0 0 0
329 0 0 0
330 0 0 0
332 0 0 0
336 0 0 0
337 0 0 0
361 0 0 0
333 0 0 0
334 0 0 0
338 0 0 0
362 0 0 0
339 0 0 0
340 0 0 0
342 0 0 0
346 0 0 0
347 0 0 0
343 0 0 0
344 0 0 0
348 0 0 0
341 0 0 0
345 0 0 0
349 0 0 0
350 0 0 0
352 0 0 0
357 0 0 0
360 0 0 0
353 0 0 0
354 0 0 0
358 0 0 0
331 0 0 0
351 0 0 0
359 0 0 0
