LAMMPS data file via write_data, version 11 Feb 2026, timestep = 365, units = metal

362 atoms
8 atom types

0 12.447907776 xlo xhi
0 12.9362452296 ylo yhi
0 52.3600831054 zlo zhi

Masses

1 26.9815
2 10.811
3 12.011
4 51.9961
5 55.845
6 95.95999999999999
7 58.6934
8 1.008

Atoms # atomic/kk

1 7 1.1420277227142148 1.4017680607709535 14.171577689355146 0 0 0
2 7 3.6056999673040897 1.0674490024127532 14.665294337178231 0 0 0
6 7 12.369094606218285 3.4535204778602564 14.817580759905281 -1 0 0
7 7 2.424879275949732 3.272095514193178 14.987135176375867 0 0 0
31 6 0.12933934026211924 1.5642815225240418 16.540461716597182 0 0 0
32 7 2.602046695273796 1.6826652727641078 16.910605202474542 0 0 0
36 7 1.2167842849535482 3.8535956223879415 17.02489578533299 0 0 0
37 7 3.7075738438209047 3.834695899969155 17.052274750857034 0 0 0
3 5 6.073738129361494 0.9443307646547016 14.907729995266218 0 0 0
8 7 4.925920890188046 3.124680432317948 15.00598673357697 0 0 0
9 7 7.387604288320805 3.1528398930398103 14.91618714139795 0 0 0
33 7 4.982706334248042 1.6623780745806938 16.95021619325352 0 0 0
34 7 7.40730451376223 1.7665849507206663 16.975049920707402 0 0 0
38 5 6.1758639046572235 3.8574712723874796 16.984204812017364 0 0 0
4 6 8.637803208972223 0.9942030553671449 14.995871999464299 0 0 0
5 7 11.046985101651826 1.2505286897702814 14.597271166549532 0 0 0
10 7 9.91029272582136 3.3879694697362113 14.776066000141729 0 0 0
35 7 9.98269650106582 1.6599648444632211 16.938897108275356 0 0 0
39 7 8.727903124224428 3.860294652638415 16.857175625024382 0 0 0
40 7 11.187791561094286 3.8043812200574267 16.995449950198992 0 0 0
11 7 1.2321349955299554 5.492513728898055 15.075683822677677 0 0 0
12 7 3.7205619038431 5.313725975123272 15.086607734532318 0 0 0
16 4 0.46664366625769166 7.810047896410125 14.794633443672947 0 0 0
17 7 2.650070475546846 7.4926222819916495 15.148958014239948 0 0 0
41 7 12.439435467105245 5.995779592067853 17.22160159169394 -1 0 0
42 7 2.451096278832812 6.125009003188604 17.136623861316437 0 0 0
46 7 0.7920363368440289 9.364715038868287 16.869893632559318 0 0 0
47 7 3.8837624716856554 8.195415021002791 17.058710676638327 0 0 0
13 7 6.175918635660603 5.303090292883287 15.029482196901538 0 0 0
18 7 5.076938532426262 7.476488314249231 15.063899893855142 0 0 0
19 2 7.056965069590355 7.01654073744566 15.384676283191933 0 0 0
43 7 4.94986032399862 5.960432855842487 17.089944217222428 0 0 0
44 7 7.474240591117542 5.938066406144633 17.083030080858183 0 0 0
48 7 6.343961551256029 8.0525515936541 17.044894632069465 0 0 0
14 7 8.701405030769761 5.656225434478653 14.960693862938545 0 0 0
15 6 11.17786237547169 5.602026874418632 15.179805895988638 0 0 0
20 7 10.442669715284223 7.667324144221169 14.179782448556127 0 0 0
45 7 9.920678728177487 6.036139093236535 17.24799241997637 0 0 0
49 7 8.71381455503272 7.91952866156667 16.06475498669513 0 0 0
50 7 11.18268488001049 7.988537792332709 16.448824724694344 0 0 0
21 2 1.1627272709263399 10.475875842574666 15.207936559527921 0 0 0
22 7 2.9672086641716975 9.862424822560273 15.639951475137918 0 0 0
26 7 0.12540730184182822 12.202014169304839 14.905483232672706 0 0 0
27 7 2.479637223195358 11.805785455857258 14.458956105356316 0 0 0
51 3 11.517031850731026 9.367857962520421 17.657266768099028 -1 0 0
52 7 1.3476987852329514 11.862106754378239 16.98403902505966 0 0 0
56 2 1.911215641282985 0.31825356578191666 15.604302321956707 0 1 0
57 7 3.7511617043964374 12.434301024542393 16.60474322818981 0 0 0
23 7 6.918834770080392 9.003155982247444 14.774289832233839 0 0 0
28 7 4.956923742458534 11.784524728644923 14.602339158843424 0 0 0
29 6 7.484678114926017 11.490080239986282 14.916305129402145 0 0 0
53 7 5.333151656423286 10.119506421675931 16.322305462890984 0 0 0
54 7 7.730840052164177 10.05139189033696 16.941879407511244 0 0 0
58 6 6.316775733591741 12.364244885031006 16.949998035677325 0 0 0
24 7 9.208486926554256 9.735886728793883 14.537271573428459 0 0 0
25 7 11.760112801452488 9.872100516585693 14.785985248918642 0 0 0
30 7 10.058991408112439 11.94272382131416 14.756817381269183 0 0 0
55 7 10.182528273378878 10.273531629700562 16.67658869928795 0 0 0
59 7 8.833945081633992 12.378628437775117 16.957000488921626 0 0 0
60 7 11.240145331342982 12.46464500389256 16.877796303645873 0 0 0
61 6 0.04508757114199067 12.932581711611316 18.98967340695855 0 -1 0
62 7 2.5848274253022416 12.851707818991507 19.033387034814137 0 -1 0
66 6 1.3903870213124256 2.1634164009946746 19.048407458705604 0 0 0
67 5 3.8283758599206164 2.167164091201081 19.07260744688388 0 0 0
91 4 1.358422090554214 0.746478937027304 21.29497752966232 0 0 0
92 7 3.7506212414853666 0.7216980794500042 21.050498979521276 0 0 0
96 7 0.07950657550274512 2.7945637814655804 21.182238952861937 0 0 0
97 7 2.5901069716797207 2.847244575394799 21.194350021764734 0 0 0
63 5 4.954051494795406 0.0504283092843012 18.95692526326708 0 0 0
64 7 7.438931451079627 0.07974990592194799 19.096243126008723 0 0 0
68 7 6.192194717659616 2.1563644042416668 19.075144406684124 0 0 0
93 7 6.257184032537411 0.716955578806393 21.168745337827016 0 0 0
98 7 5.023026743868406 2.8711538772388527 21.14875014945061 0 0 0
99 5 7.4765974222123575 2.8126963555980433 21.164009818519897 0 0 0
65 7 9.999114640667004 0.07787441357405775 19.090829720587756 0 0 0
69 7 8.73580606594264 2.151578674174798 18.990121776137038 0 0 0
70 7 11.284430378906182 2.235780785960837 18.948833383891962 0 0 0
94 7 8.711377468271543 0.7112161769331878 21.23077800590757 0 0 0
95 7 11.30188448231844 0.6681274989885622 21.194142004797293 0 0 0
100 6 10.028271011204236 2.782240594620747 21.049549269302062 0 0 0
71 1 12.380925234562515 4.375708295265112 19.18116103498606 -1 0 0
72 7 2.4811509558966747 4.386449697202702 19.102167099537887 0 0 0
76 7 1.197432886937925 6.43218800081522 19.254981000649142 0 0 0
77 7 3.781225234366823 6.504783208893265 19.160360452007943 0 0 0
101 7 1.2017253979212537 4.983893959758843 21.254412029657296 0 0 0
102 6 3.7271392726328654 5.0399246305465715 21.225020976806622 0 0 0
106 7 12.432548312908867 7.0944420269319455 21.310652435510615 -1 0 0
107 7 2.4658483060907783 7.170257659979361 21.227800169667752 0 0 0
73 7 4.973216472627369 4.3139070223464016 19.082268104414705 0 0 0
74 6 7.499013526705089 4.28292674574225 19.049567100980124 0 0 0
78 7 6.193744614180254 6.516704494934932 19.134957653901076 0 0 0
103 7 6.272425386175999 5.044689079554331 21.17099976707525 0 0 0
108 7 5.00898275354157 7.226101350188179 21.22216755436886 0 0 0
109 7 7.416580149079895 7.246275152413459 21.259921813783656 0 0 0
75 5 9.905982852454565 4.303031733315745 19.028222717991135 0 0 0
79 7 8.622762647765112 6.46966248537227 19.31789322993333 0 0 0
80 7 11.110888180713394 6.41807682264024 19.352819454136018 0 0 0
104 7 8.7380489745925 5.020912848126975 21.23833390273573 0 0 0
105 3 10.08168979252475 4.369729138094286 22.28298879345275 0 0 0
110 7 9.887607419583983 7.163903684391406 21.296472784437253 0 0 0
81 4 12.339995815452053 8.47050798592763 19.19553029345981 -1 0 0
82 6 2.3561757207376175 8.486585202097961 18.910810073619633 0 0 0
86 7 1.2789666295141653 10.687847528267914 19.15645977527642 0 0 0
87 1 3.6622189140689554 10.713029920182791 18.260405439590595 0 0 0
111 7 1.17695315945777 9.287178433899683 21.19111135863971 0 0 0
112 6 3.6989374105011024 9.353201064247806 21.138606628427002 0 0 0
116 1 0.03428393022420757 11.484359389572605 21.29257441692613 0 0 0
117 7 2.467753227191447 11.525814870737877 21.140405693834648 0 0 0
83 7 4.943430457063063 8.730563824302578 19.078667304149338 0 0 0
84 7 7.394726851477739 8.637402869335457 19.08069074003262 0 0 0
88 7 6.159712168377912 10.798853514036724 18.92506650629972 0 0 0
113 7 6.211194314584884 9.406790592704764 21.030375068463144 0 0 0
118 7 4.961290175662487 11.53819489587675 21.03781971537443 0 0 0
119 4 7.396819619972786 11.5338272675903 21.069587338378685 0 0 0
85 6 9.784848394179411 8.471007190291935 18.535872562246684 0 0 0
89 6 8.728618143550586 10.847726169242403 19.0332344046486 0 0 0
90 4 11.269530955180901 10.818600020639787 18.933437656370078 0 0 0
114 7 8.69691350320149 9.313881086171525 20.98782325032507 0 0 0
115 6 11.106299142186586 9.249748015100064 21.170362237130806 0 0 0
120 7 9.983132433337758 11.514217565038932 21.17688218112694 0 0 0
121 7 0.07488363467408458 1.3710906079619092 23.308292550066593 0 0 0
122 7 2.566127548123474 1.3826752593829528 23.328455270373553 0 0 0
126 6 1.3458903944975749 3.565665089587366 23.264532760605064 0 0 0
127 7 3.8413101756245074 3.5692351480196276 23.36067368056872 0 0 0
152 7 2.6440284140482584 12.919329600693361 25.372974547999352 0 -1 0
156 1 1.470689284620312 2.109165098428599 25.514089746270322 0 0 0
157 7 3.95667230201065 2.115412644482105 25.443016263793186 0 0 0
162 7 2.5893761680750584 4.2413666855099805 25.427217713227943 0 0 0
123 7 4.982968255711986 1.4077834664548399 23.16124921775593 0 0 0
124 7 7.384387244451783 1.4793141920156692 23.484519592090237 0 0 0
128 7 6.294070359688051 3.6431917604390653 23.181906282670052 0 0 0
153 7 5.187139005741208 0.049768253249511174 25.29213074421466 0 0 0
154 7 7.589871250351703 12.918635718568808 25.473866221245974 0 -1 0
158 2 5.765889425780442 2.4367673320993517 24.627201954899288 0 0 0
163 7 5.108447525792885 4.222591725714839 25.420289557215554 0 0 0
164 5 7.467815198749446 4.041313268456794 25.357987208151954 0 0 0
125 7 10.033886574970067 1.4057211259671993 23.35290237822728 0 0 0
129 7 8.741758932496861 3.524276111759552 23.345452276614292 0 0 0
130 4 11.357633289641388 3.594460592503929 23.400430128007446 0 0 0
155 4 10.109774003756971 0.040172715046053895 25.556548952244498 0 0 0
159 7 8.859695376972839 2.076752913337 25.445199856881494 0 0 0
160 7 11.391561424701344 2.132182039070686 25.419060910624168 0 0 0
165 7 10.055869824319862 4.194816999499947 25.40968423344853 0 0 0
131 7 0.06121206562840939 5.748328645075562 23.402435030784666 0 0 0
132 7 2.532740234742756 5.776235651325627 23.3593464303051 0 0 0
136 7 1.2929162337729712 7.889791975011381 23.30364466694279 0 0 0
137 7 3.7665536345904496 7.957395478960936 23.277316257874187 0 0 0
161 4 0.09940699955282632 4.316933844821309 25.467581120124983 0 0 0
166 7 1.3275157269191864 6.390765940822519 25.429503345313027 0 0 0
167 7 3.7977653468815684 6.414482344438032 25.442247577683528 0 0 0
133 6 5.054992442677007 5.8355280104077885 23.386530884482077 0 0 0
134 7 7.549256633633558 5.7549623639600345 23.313270977241963 0 0 0
138 7 6.300029188096729 7.972949817299385 23.340169743229097 0 0 0
168 7 6.355054237162978 6.371603814463532 25.43223169352815 0 0 0
173 7 5.094036070151491 8.529837768628365 25.331625928321813 0 0 0
135 7 10.05426767597286 5.801460866196129 23.386185189174277 0 0 0
139 4 8.683732402655966 7.918512413331594 23.24293017454559 0 0 0
140 4 11.271688386432531 7.865912706815692 23.316652412925947 0 0 0
169 7 8.76558603809129 6.307544519602155 25.381678457473974 0 0 0
170 7 11.278984373679409 6.383665512300015 25.447270076462164 0 0 0
175 6 9.87486292134466 8.543260327469342 25.522826976329092 0 0 0
141 7 0.00929641548943866 10.043164444268642 23.34284834095682 0 0 0
142 7 2.485290704013036 10.081441236771525 23.2539332193636 0 0 0
146 7 1.2915868731213889 12.210476380728952 23.34958292346595 0 0 0
147 7 3.79564240276554 12.21955244750553 23.17939287262661 0 0 0
151 4 0.08184369139387664 12.85039912946262 25.41435858540373 0 -1 0
171 6 0.09898889365312045 8.589620117872322 25.429014753092936 0 0 0
172 7 2.612085363878306 8.58435244676299 25.37513430057182 0 0 0
176 7 1.3314447228019624 10.774277240832388 25.431074411050307 0 0 0
177 6 3.8685987341264223 10.791746523563182 25.27320717944144 0 0 0
143 7 5.044025164485431 10.080800279603391 23.180689277971908 0 0 0
144 7 7.4942887505234745 10.065163972120043 22.91897224589352 0 0 0
148 4 6.201632414751045 12.246078301371655 23.184761308877977 0 0 0
178 6 6.606371923436077 10.518271371790677 25.22006656236954 0 0 0
145 7 9.984783998835377 10.05010765746737 23.31472377938804 0 0 0
149 6 8.696984918981695 12.248417039177085 23.328933928038147 0 0 0
150 7 11.236148359236845 12.193521204875292 23.404721321107225 0 0 0
174 3 8.402643988536507 9.484968789635277 24.42287467199161 0 0 0
179 5 8.987395021613645 10.898588477170104 25.582195517985653 0 0 0
180 5 11.325251975199135 10.842576515722657 25.506171134872368 0 0 0
181 7 1.3809365532869413 0.6406073610424832 27.496782490642847 0 0 0
182 7 3.867069785555687 0.6781493296660905 27.436412406542477 0 0 0
186 7 0.16283152557501976 2.833176871434692 27.493867175422537 0 0 0
187 7 2.651319656071511 2.8281840326850722 27.568519485635196 0 0 0
211 7 0.20214406158799997 1.4203114053120112 29.592498461337783 0 0 0
212 7 2.703354504332966 1.336098483948662 29.583251102282954 0 0 0
216 7 1.4027689442871867 3.5299107488588284 29.592020807743367 0 0 0
217 4 3.815685143809921 3.5485265882134738 29.602724970986706 0 0 0
183 7 6.299998530646962 0.6908423558580443 27.572340764981476 0 0 0
188 7 5.073488157584629 2.849318268466568 27.5779977161608 0 0 0
189 7 7.585197924774247 2.7687726523383085 27.46238409131463 0 0 0
213 5 5.125690279255282 1.4022596936753438 29.603429077131388 0 0 0
214 7 7.603707961901144 1.3305393958936171 29.59377675846571 0 0 0
218 7 6.354520669691835 3.5122463881719677 29.545251364288962 0 0 0
184 7 8.876770402249097 0.6950864135762709 27.568680751593327 0 0 0
185 4 11.375295806001049 0.6983559720639131 27.541734986839522 0 0 0
190 7 10.136238291688393 2.807437972006419 27.49065357496505 0 0 0
215 7 10.116552258998 1.379604134233722 29.634066111671807 0 0 0
219 7 8.829676209271943 3.4871442276121067 29.529497066746625 0 0 0
220 7 11.361431278005409 3.534268269568763 29.523070695385712 0 0 0
191 7 1.3823423082779 4.9818037754160125 27.474633958521714 0 0 0
192 7 3.8246038981861137 4.965559892719827 27.484685497777814 0 0 0
197 7 2.5699967128509154 7.168443850652489 27.47708631140373 0 0 0
221 7 0.11170963791273536 5.70200363318298 29.574565455220593 0 0 0
222 7 2.582351312089785 5.703586724550276 29.554501516356137 0 0 0
226 7 1.3550130522989685 7.878309552932586 29.55468451068017 0 0 0
227 7 3.8520322127898954 7.889156121894376 29.46966214406392 0 0 0
193 7 6.360500394470125 4.951123299367682 27.41522365484241 0 0 0
198 7 5.093487791352854 7.149132657142148 27.412801214220906 0 0 0
199 7 7.6124739158212025 7.164466607062493 27.449313403395287 0 0 0
223 6 5.144234242897174 5.696684941990308 29.49244902933236 0 0 0
224 7 7.635681898725287 5.714235662979651 29.58208371814719 0 0 0
228 7 6.385490140929836 7.888950353830957 29.493116490951003 0 0 0
194 6 8.838765061343699 4.972526446139473 27.49329741756363 0 0 0
195 7 11.351977585551465 4.969577068447415 27.509909153613627 0 0 0
196 7 0.1272529693718596 7.132852706886291 27.50070116844114 0 0 0
200 7 10.114939634281601 7.133264963263151 27.541833364315742 0 0 0
225 7 10.092862967351934 5.716509078175496 29.606537975750605 0 0 0
229 7 8.837895149610855 7.859284408556815 29.52739855585886 0 0 0
230 7 11.359815035040977 7.907245385635507 29.527811350530705 0 0 0
201 5 1.3700761517384412 9.300783661282217 27.516226868555155 0 0 0
202 7 3.8632063332640634 9.296746263056 27.376201582085965 0 0 0
206 4 0.17885132258993097 11.453154179068662 27.52731962464815 0 0 0
207 7 2.602245956153781 11.433005016418385 27.43928884506157 0 0 0
231 7 0.15699827729968605 10.055232354485812 29.571684237932036 0 0 0
232 7 2.6245926496745664 10.00201632128142 29.428359930618544 0 0 0
236 7 1.4655309206720903 12.159026753377173 29.557754920300592 0 0 0
203 7 6.365868694567577 9.261733292445584 27.38867799217749 0 0 0
208 7 5.1290195099752065 11.47635740128576 27.320528496099016 0 0 0
209 6 7.573375383155348 11.501120820999748 27.64112113588642 0 0 0
233 7 5.140651460940094 10.031470423990585 29.323798519657426 0 0 0
234 7 7.592584190137231 10.064941286760908 29.666062640501792 0 0 0
238 7 6.202769003599558 12.212940004706958 29.681664159788088 0 0 0
204 7 8.829936404428643 9.345005590150437 27.625422832754918 0 0 0
205 7 11.336457686243428 9.39224032706942 27.549388094556384 0 0 0
210 7 10.142561167595774 11.530354205510125 27.58712382509463 0 0 0
235 7 10.076779402169036 10.156364241838515 29.604219044471286 0 0 0
239 4 8.869952462867461 12.231357821969974 29.7349262659584 0 0 0
240 7 11.388328672194874 12.243787088335255 29.56534377341959 0 0 0
237 3 4.025206897746201 0.2710765797432068 30.555816012873557 0 1 0
241 7 0.19397253958938676 0.07931481229806737 31.638813550758776 0 0 0
242 7 2.5612397499409076 0.12287430845818433 31.743310772826266 0 0 0
246 4 1.3362696402492518 2.223525545234704 31.668817149738196 0 0 0
247 7 3.871114700752986 2.134582853836098 31.646381123172507 0 0 0
276 7 0.1690944654438692 2.9774707603169253 33.74086127094194 0 0 0
243 7 5.157510363426617 12.885657879502018 32.101226286422346 0 -1 0
244 7 7.617070353434186 12.920220290036633 31.713970988848942 0 -1 0
248 7 6.397307307815247 2.131435157310027 31.648380783589868 0 0 0
279 7 7.718314845750827 3.0249830742129116 33.72905961380086 0 0 0
249 7 8.841755921445735 2.084138899095129 31.682606567760462 0 0 0
250 7 11.376322357919706 2.1197407217461826 31.662676961374856 0 0 0
255 1 10.096020823418257 4.199915748831563 31.502096217783503 0 0 0
275 4 11.4357359486597 0.780625662569331 33.7186488596431 0 0 0
251 7 0.1390249009820719 4.305786785284111 31.652401280565847 0 0 0
252 7 2.6238137567191306 4.30262099498982 31.672516285659462 0 0 0
256 7 1.3206295394937326 6.4837564584266625 31.639204036996812 0 0 0
257 6 3.783231992665354 6.4860181481016745 31.664207256660056 0 0 0
253 7 5.103300681021397 4.2936163600367525 31.626022826407766 0 0 0
254 7 7.611363463030809 4.293709019883218 31.590889155902293 0 0 0
258 7 6.34353628257326 6.477514587070108 31.623159534547522 0 0 0
264 7 7.580841204514013 8.561388132524856 31.623339183884116 0 0 0
283 7 6.371296078045915 5.0841564543662665 33.67177507717792 0 0 0
289 7 7.624146472249499 7.169784021012168 33.71762230099029 0 0 0
259 4 8.812985087874711 6.444077832482349 31.62927388795846 0 0 0
260 7 11.306034538600144 6.47310167750136 31.594690229163128 0 0 0
284 5 8.876396826211273 5.1017828122557605 33.5747568731049 0 0 0
290 7 10.07479227906909 7.2440289716776585 33.59763390086719 0 0 0
261 7 0.16867051281462297 8.692589271728187 31.65456284302426 0 0 0
262 7 2.6553226678713475 8.703599166588182 31.53215442523582 0 0 0
266 7 1.555109558273738 10.816442220648696 31.57501584883023 0 0 0
267 4 3.9091836692385806 11.258497483143168 30.852506410499227 0 0 0
292 7 3.950445735048022 9.354586653611712 33.50423742147905 0 0 0
326 7 0.4988958096023787 11.637084108215038 33.682881064850235 0 0 0
263 1 5.084997287477592 8.745559473517563 31.42035433013089 0 0 0
268 7 6.250956398484586 10.746373374364376 31.58216401607453 0 0 0
245 7 10.103121449060962 12.8684418766766 31.873038523084514 0 -1 0
265 6 10.092826924735096 8.666269790562513 31.546782813332904 0 0 0
269 7 8.765885308990867 10.785059111343095 31.753886020958042 0 0 0
270 7 11.420574120220595 10.8891152907824 31.61790809395197 0 0 0
294 7 8.758557721524864 9.272416690852022 33.6989137597994 0 0 0
296 3 11.066349468619158 11.815603375881633 33.33492617687415 -1 0 0
271 7 1.46989376282622 0.8872556823533025 33.78092614895127 0 0 0
272 7 3.915115899031588 0.9405027654131838 33.92799066539749 0 0 0
277 7 2.6357644422869577 3.06472050727364 33.80194756368228 0 0 0
301 7 0.18574960077551503 1.5363056184887665 35.76394948508123 0 0 0
302 7 2.612281433943015 1.65459321879049 35.86464654523158 0 0 0
306 4 1.41290987677579 3.818537313615075 35.97091810910384 0 0 0
307 7 3.9926687607161173 3.7179547143178744 35.83826597430039 0 0 0
273 7 6.453251869811875 0.9565042053432482 33.90306948549796 0 0 0
278 1 5.2096572027679855 2.9814210700169737 33.7249295126043 0 0 0
303 7 5.24158627024293 1.652722979877561 35.944749246285 0 0 0
304 4 7.7548139232169895 1.6197594560345356 35.92191478231575 0 0 0
308 7 6.523590079392651 3.692539182102161 35.80404827788604 0 0 0
274 7 8.829255584785436 0.8822419840623345 33.84115976394966 0 0 0
280 7 10.195187074890837 2.978562806496802 33.70858387596369 0 0 0
305 7 10.22072343505177 1.5495856661813845 35.728279218795414 0 0 0
309 7 9.009261764684892 3.65635468829159 35.77464046344562 0 0 0
310 4 11.589882487260125 3.931125418225701 35.868915119723106 0 0 0
335 5 9.90057086155471 12.900032033932664 37.39886605111978 0 -1 0
281 7 1.31299599736761 5.166090799713489 33.8678668687382 0 0 0
282 4 3.8391709224386537 5.119866091226211 33.76978565018256 0 0 0
286 7 0.08349360906390649 7.2657006942304445 33.62456245491425 0 0 0
287 7 2.6229338666946145 7.269970529726514 33.74702505968373 0 0 0
312 7 2.725317380021499 5.774528241908003 35.788026426569225 0 0 0
316 7 1.2035898427796954 7.583450251217404 35.78999476273036 0 0 0
317 7 3.92441311391511 8.046083503437584 35.733620857626875 0 0 0
288 7 5.175638345720262 7.2530842637456505 33.66685262219911 0 0 0
313 7 5.25949917715451 5.902353169553909 35.71749768948441 0 0 0
314 7 7.716810535461035 5.80191564205294 35.747307687317765 0 0 0
318 4 6.548056266032986 8.10534328055891 35.807526292526994 0 0 0
285 4 11.336461454774899 5.137528283108169 33.63108706700882 0 0 0
311 2 12.358384658118576 5.987115580696265 35.31865663915859 -1 0 0
315 7 10.127436366503415 5.79409553579616 35.574173634792515 0 0 0
319 7 8.947822050040163 7.958310830898656 35.827468236310736 0 0 0
320 7 11.339341409211666 7.918547566754122 35.59541194006082 0 0 0
355 3 10.43180921404251 7.888619118212083 37.2811161441492 0 0 0
291 7 1.459201292777704 9.409258029972856 33.7314662848678 0 0 0
297 6 3.017392248845979 11.55794213964968 33.67221725987415 0 0 0
321 6 0.20227243038251758 10.049285420142374 35.910501516739544 0 0 0
322 7 2.6923001513376796 10.181426840365566 35.76056507679556 0 0 0
327 6 3.9132843405399034 12.491026058668622 36.10745080379325 0 0 0
356 4 1.3922643822914413 12.343983255940307 35.84931681135146 0 0 0
293 4 6.441376881866479 9.3035126952181 33.64931292304792 0 0 0
298 2 5.194477438053048 12.267647219702344 34.20561075231317 0 0 0
299 7 6.988023478936791 11.561876407011793 33.68190714829844 0 0 0
323 6 5.225033128170161 10.222133915806655 35.576446601566424 0 0 0
324 7 7.904819436040653 10.342892157913072 35.71653695390961 0 0 0
328 7 6.458315265581268 12.503613013520408 35.91611795515765 0 0 0
295 6 11.259803337674569 9.682887448212448 33.76415740926441 0 0 0
300 7 9.373927147435277 11.530327557022453 34.16993193180627 0 0 0
325 7 10.247157483766642 9.831129495857288 37.0334038736497 0 0 0
329 3 9.52321057226966 11.390858830122786 36.20616834119096 0 0 0
330 4 11.251494973654816 12.06135775160237 35.57943663817029 0 0 0
332 7 2.4772791253879722 0.088549745775668 38.03564545810551 0 0 0
336 7 1.3259195676332645 2.1727711773701954 37.84039446994682 0 0 0
337 7 3.869880198171657 2.1836020323181766 37.86866363122105 0 0 0
333 7 5.209711774126143 0.15215940897355762 38.11941256631499 0 0 0
334 7 7.64288414760609 0.05848119196696839 38.00352091254608 0 0 0
338 7 6.525948976772657 2.252955322982967 37.90514416713716 0 0 0
339 7 8.98362769828483 2.1808875292903904 37.851382537246934 0 0 0
340 7 11.360867124358453 2.1861074593973675 37.73329793657385 0 0 0
361 8 9.999567721275293 3.3507444305961473 41.65744224826199 0 0 0
362 8 10.103643675896652 4.102740403867968 41.58669030667031 0 0 0
342 7 2.7083378651745638 4.278916602252979 37.93291459190977 0 0 0
346 7 1.511623341698227 6.389293341871173 38.00520820099386 0 0 0
347 6 3.9600532221682028 6.461267191516645 37.76875549352181 0 0 0
343 7 5.30176340503729 4.4195327644723035 37.838691414880756 0 0 0
344 7 7.832899733488896 4.427572265252346 37.857242091895785 0 0 0
348 6 6.659115812383047 6.653071586016582 37.81892525068347 0 0 0
341 7 0.20433353918810748 4.2337777106201635 38.08953080164013 0 0 0
345 4 10.21715435960885 4.327386176044822 37.782371339145975 0 0 0
349 7 9.23925220432643 6.614403084432523 37.874911730696006 0 0 0
350 7 11.679250634211972 6.256861172257798 37.298261070541926 0 0 0
352 6 2.4844229885845337 8.644813380138253 37.68591653300722 0 0 0
357 7 3.838901121506658 10.792103461124936 37.95169341267115 0 0 0
360 7 1.384108487948817 10.88862960993985 37.89102029343258 1 0 0
353 7 5.123760320311943 8.680959665346098 37.8281261287645 0 0 0
354 7 7.950570962719234 8.94239030118134 37.81925223827328 0 0 0
358 6 6.41116940230381 10.841489002431837 37.79078911756765 0 0 0
331 7 12.385287765224406 12.873456660062491 37.62929615761415 -1 -1 0
351 7 12.238028722659156 8.547732316988917 37.8424129144097 -1 0 0
359 2 8.594389701678333 11.155275240838485 37.42930496372645 0 0 0

Velocities

1 0 0 0
2 0 0 0
6 0 0 0
7 0 0 0
31 0 0 0
32 0 0 0
36 0 0 0
37 0 0 0
3 0 0 0
8 0 0 0
9 0 0 0
33 0 0 0
34 0 0 0
38 0 0 0
4 0 0 0
5 0 0 0
10 0 0 0
35 0 0 0
39 0 0 0
40 0 0 0
11 0 0 0
12 0 0 0
16 0 0 0
17 0 0 0
41 0 0 0
42 0 0 0
46 0 0 0
47 0 0 0
13 0 0 0
18 0 0 0
19 0 0 0
43 0 0 0
44 0 0 0
48 0 0 0
14 0 0 0
15 0 0 0
20 0 0 0
45 0 0 0
49 0 0 0
50 0 0 0
21 0 0 0
22 0 0 0
26 0 0 0
27 0 0 0
51 0 0 0
52 0 0 0
56 0 0 0
57 0 0 0
23 0 0 0
28 0 0 0
29 0 0 0
53 0 0 0
54 0 0 0
58 0 0 0
24 0 0 0
25 0 0 0
30 0 0 0
55 0 0 0
59 0 0 0
60 0 0 0
61 0 0 0
62 0 0 0
66 0 0 0
67 0 0 0
91 0 0 0
92 0 0 0
96 0 0 0
97 0 0 0
63 0 0 0
64 0 0 0
68 0 0 0
93 0 0 0
98 0 0 0
99 0 0 0
65 0 0 0
69 0 0 0
70 0 0 0
94 0 0 0
95 0 0 0
100 0 0 0
71 0 0 0
72 0 0 0
76 0 0 0
77 0 0 0
101 0 0 0
102 0 0 0
106 0 0 0
107 0 0 0
73 0 0 0
74 0 0 0
78 0 0 0
103 0 0 0
108 0 0 0
109 0 0 0
75 0 0 0
79 0 0 0
80 0 0 0
104 0 0 0
105 0 0 0
110 0 0 0
81 0 0 0
82 0 0 0
86 0 0 0
87 0 0 0
111 0 0 0
112 0 0 0
116 0 0 0
117 0 0 0
83 0 0 0
84 0 0 0
88 0 0 0
113 0 0 0
118 0 0 0
119 0 0 0
85 0 0 0
89 0 0 0
90 0 0 0
114 0 0 0
115 0 0 0
120 0 0 0
121 0 0 0
122 0 0 0
126 0 0 0
127 0 0 0
152 0 0 0
156 0 0 0
157 0 0 0
162 0 0 0
123 0 0 0
124 0 0 0
128 0 0 0
153 0 0 0
154 0 0 0
158 0 0 0
163 0 0 0
164 0 0 0
125 0 0 0
129 0 0 0
130 0 0 0
155 0 0 0
159 0 0 0
160 0 0 0
165 0 0 0
131 0 0 0
132 0 0 0
136 0 0 0
137 0 0 0
161 0 0 0
166 0 0 0
167 0 0 0
133 0 0 0
134 0 0 0
138 0 0 0
168 0 0 0
173 0 0 0
135 0 0 0
139 0 0 0
140 0 0 0
169 0 0 0
170 0 0 0
175 0 0 0
141 0 0 0
142 0 0 0
146 0 0 0
147 0 0 0
151 0 0 0
171 0 0 0
172 0 0 0
176 0 0 0
177 0 0 0
143 0 0 0
144 0 0 0
148 0 0 0
178 0 0 0
145 0 0 0
149 0 0 0
150 0 0 0
174 0 0 0
179 0 0 0
180 0 0 0
181 0 0 0
182 0 0 0
186 0 0 0
187 0 0 0
211 0 0 0
212 0 0 0
216 0 0 0
217 0 0 0
183 0 0 0
188 0 0 0
189 0 0 0
213 0 0 0
214 0 0 0
218 0 0 0
184 0 0 0
185 0 0 0
190 0 0 0
215 0 0 0
219 0 0 0
220 0 0 0
191 0 0 0
192 0 0 0
197 0 0 0
221 0 0 0
222 0 0 0
226 0 0 0
227 0 0 0
193 0 0 0
198 0 0 0
199 0 0 0
223 0 0 0
224 0 0 0
228 0 0 0
194 0 0 0
195 0 0 0
196 0 0 0
200 0 0 0
225 0 0 0
229 0 0 0
230 0 0 0
201 0 0 0
202 0 0 0
206 0 0 0
207 0 0 0
231 0 0 0
232 0 0 0
236 0 0 0
203 0 0 0
208 0 0 0
209 0 0 0
233 0 0 0
234 0 0 0
238 0 0 0
204 0 0 0
205 0 0 0
210 0 0 0
235 0 0 0
239 0 0 0
240 0 0 0
237 0 0 0
241 0 0 0
242 0 0 0
246 0 0 0
247 0 0 0
276 0 0 0
243 0 0 0
244 0 0 0
248 0 0 0
279 0 0 0
249 0 0 0
250 0 0 0
255 0 0 0
275 0 0 0
251 0 0 0
252 0 0 0
256 0 0 0
257 0 0 0
253 0 0 0
254 0 0 0
258 0 0 0
264 0 0 0
283 0 0 0
289 0 0 0
259 0 0 0
260 0 0 0
284 0 0 0
290 0 0 0
261 0 0 0
262 0 0 0
266 0 0 0
267 0 0 0
292 0 0 0
326 0 0 0
263 0 0 0
268 0 0 0
245 0 0 0
265 0 0 0
269 0 0 0
270 0 0 0
294 0 0 0
296 0 0 0
271 0 0 0
272 0 0 0
277 0 0 0
301 0 0 0
302 0 0 0
306 0 0 0
307 0 0 0
273 0 0 0
278 0 0 0
303 0 0 0
304 0 0 0
308 0 0 0
274 0 0 0
280 0 0 0
305 0 0 0
309 0 0 0
310 0 0 0
335 0 0 0
281 0 0 0
282 0 0 0
286 0 0 0
287 0 0 0
312 0 0 0
316 0 0 0
317 0 0 0
288 0 0 0
313 0 0 0
314 0 0 0
318 0 0 0
285 0 0 0
311 0 0 0
315 0 0 0
319 0 0 0
320 0 0 0
355 0 0 0
291 0 0 0
297 0 0 0
321 0 0 0
322 0 0 0
327 0 0 0
356 0 0 0
293 0 0 0
298 0 0 0
299 0 0 0
323 0 0 0
324 0 0 0
328 0 0 0
295 0 0 0
300 0 0 0
325 0 0 0
329 0 0 0
330 0 0 0
332 0 0 0
336 0 0 0
337 0 0 0
333 0 0 0
334 0 0 0
338 0 0 0
339 0 0 0
340 0 0 0
361 0 0 0
362 0 0 0
342 0 0 0
346 0 0 0
347 0 0 0
343 0 0 0
344 0 0 0
348 0 0 0
341 0 0 0
345 0 0 0
349 0 0 0
350 0 0 0
352 0 0 0
357 0 0 0
360 0 0 0
353 0 0 0
354 0 0 0
358 0 0 0
331 0 0 0
351 0 0 0
359 0 0 0
