LAMMPS data file via write_data, version 11 Feb 2026, timestep = 335, units = metal

362 atoms
8 atom types

0 12.447907776 xlo xhi
0 12.9362452296 ylo yhi
0 52.3600831054 zlo zhi

Masses

1 26.9815
2 10.811
3 12.011
4 51.9961
5 55.845
6 95.95999999999999
7 58.6934
8 1.008

Atoms # atomic/kk

1 7 1.1103537611949255 0.815701544557522 14.64229381650353 0 0 0
2 7 3.5488730971945426 0.7313440222283507 14.870734392373972 0 0 0
6 7 12.260647622608106 3.471517196655637 14.643206657207736 -1 0 0
7 7 2.22113462905308 2.9646672360161146 15.107019982409549 0 0 0
31 6 12.387950089973174 1.8827818845228872 16.485923831001426 -1 0 0
32 7 2.3024807659550857 1.2477174906461552 16.930916772517698 0 0 0
36 7 1.1319644818206775 3.962677331839409 17.062837044104985 0 0 0
37 7 3.564967231968995 3.6400840284496643 17.093366616303243 0 0 0
3 5 6.0096155911194735 0.8604864885108502 14.93749949460249 0 0 0
8 7 4.7747159622125945 2.9789177811533305 15.020745724589146 0 0 0
9 7 7.280591232212273 3.055874469194425 14.892883990860106 0 0 0
33 7 4.824044313950779 1.529496472793103 16.982811853777154 0 0 0
34 7 7.351818416359872 1.7052564908892625 16.94660957571161 0 0 0
38 5 6.070839959463403 3.7358079978194993 16.97040455928018 0 0 0
4 6 8.630571835021957 0.9645129116150659 14.946135978522065 0 0 0
5 7 11.0184036714715 1.2464178965324 14.461785255319706 0 0 0
10 7 9.802772937088486 3.3730109312223595 14.722807840030946 0 0 0
35 7 9.915752484821677 1.7073388533699474 16.904841255137146 0 0 0
39 7 8.630130067887212 3.8580680227623114 16.814445629313997 0 0 0
40 7 11.06644811778644 3.946842276310654 16.96505629179301 0 0 0
11 7 1.1291540251790504 5.426693620430195 15.026069474672033 0 0 0
12 7 3.5471971837075875 5.140292306390682 15.12192064090308 0 0 0
16 4 0.21048856756344386 7.667360017661083 14.612202798430388 0 0 0
17 7 2.423084149862935 7.499290399657986 15.091546678428164 0 0 0
41 7 12.311204492214337 6.103964511576905 17.12825916059367 -1 0 0
42 7 2.367533379684325 6.069469398445284 17.112169360267362 0 0 0
46 7 0.8131930489462756 8.407710723939624 16.8604807632056 0 0 0
47 7 3.8107026475808983 8.003689898561035 17.027199605228752 0 0 0
13 7 6.0410587045644695 5.1799088225500665 15.008544181386437 0 0 0
18 7 4.890299593968804 7.296129802427402 14.977148850949204 0 0 0
19 2 6.838125738297052 6.969134185481262 15.316506166918522 0 0 0
43 7 4.849349135854858 5.805014864133648 17.077263302065123 0 0 0
44 7 7.337572132357212 5.874399479034546 17.023561578372103 0 0 0
48 7 6.22049310441979 7.986781859460624 17.01831794871821 0 0 0
14 7 8.569147486184693 5.632645700317435 14.893675047209694 0 0 0
15 6 11.04237211291806 5.632789350814752 15.085709961982682 0 0 0
20 7 10.222795700486301 7.651470846369809 13.989578560085747 0 0 0
45 7 9.802603353532968 6.104909614596775 17.17994699054395 0 0 0
49 7 8.46508944062362 7.852168608659082 16.022504999466328 0 0 0
50 7 10.900987273318686 8.110860290068999 16.21491655491606 0 0 0
21 2 1.543559706714585 9.467206410055361 15.210670528147933 0 0 0
22 7 3.612074353514656 9.506360868698176 14.919197672335486 0 0 0
26 7 0.3095780133552553 10.796647497644427 16.829685923387817 0 0 0
27 7 2.027285679250603 11.471136123260255 15.151363904025542 0 0 0
51 3 11.615839617828557 9.364839159465038 17.49965169936232 -1 0 0
52 7 2.6091406726291546 10.075250337141215 17.04346120698591 0 0 0
56 2 0.9221565818090636 12.69918871210055 16.354744623803672 0 0 0
57 7 3.698851107266828 12.220085730279289 16.92976742958217 0 0 0
23 7 6.579861833725869 9.080578113791585 14.851542944413298 0 0 0
28 7 4.812659593270355 11.603979724911996 14.819086154127577 0 0 0
29 6 7.369003653319583 11.492697849582076 14.917413451917744 0 0 0
53 7 5.123425365785633 10.10488881901971 16.7795785338 0 0 0
54 7 7.689229714424048 10.038224505355107 16.921998035826686 0 0 0
58 6 6.289786486168821 12.333019732169754 17.012546484238364 0 0 0
24 7 9.047091172430564 9.661635573847821 14.656331084882975 0 0 0
25 7 11.940076310006216 9.872945082943755 14.711502910509761 0 0 0
30 7 9.918660570952854 11.850893420762805 14.578992094400887 0 0 0
55 7 10.238813925253615 10.402726910457927 16.64653227467158 0 0 0
59 7 8.838078837546336 12.365380733792845 16.890968414012075 0 0 0
60 7 11.293931502229539 12.617122145418696 16.350913907667156 0 0 0
61 6 0.10029676468195162 12.908504181811661 18.576551116022582 0 -1 0
62 7 2.558171664090789 0.03066596543865476 19.14391810867843 0 0 0
66 6 1.3487564710057343 2.226306150634545 19.066871207763743 0 0 0
67 5 3.793189843757583 2.178964476990342 19.105059651336667 0 0 0
91 4 1.3600509655835107 0.7818358952085814 21.253306274192813 0 0 0
92 7 3.7909440050596097 0.7376694989377942 21.133666519763658 0 0 0
96 7 0.07845296733094143 2.8609024396728793 21.177574224199983 0 0 0
97 7 2.600393524223721 2.858906582198683 21.20989953215855 0 0 0
63 5 5.009709860089238 0.1146058395246772 19.064502300748227 0 0 0
64 7 7.492274957074934 0.10469025740197871 19.093836832956494 0 0 0
68 7 6.18784546631371 2.1719744917633923 19.05050784609769 0 0 0
93 7 6.318215905344396 0.7366798481176029 21.20788247069219 0 0 0
98 7 5.043153713476981 2.873314530201812 21.15289066014209 0 0 0
99 5 7.497892715035429 2.8400303711093184 21.14318110067978 0 0 0
65 7 10.07671633086788 0.10089809114113238 18.965418734651585 0 0 0
69 7 8.727720666044126 2.183273903821247 18.96367776893203 0 0 0
70 7 11.286975207905998 2.287095211443101 18.90854839442665 0 0 0
94 7 8.773916512894987 0.7496803290795055 21.179224899780376 0 0 0
95 7 11.359447738761812 0.7206482737662713 21.031831583036908 0 0 0
100 6 10.0412966452394 2.837407621975137 21.020292944917006 0 0 0
71 1 12.324679544866678 4.451258484863806 19.196146821671828 -1 0 0
72 7 2.445049368821071 4.417637646335383 19.117005593121906 0 0 0
76 7 1.1625238805195695 6.4939732040841 19.19078406104067 0 0 0
77 7 3.755518183784005 6.495056538200756 19.144901066645673 0 0 0
101 7 1.2052609818580422 5.027215731080049 21.232831129982007 0 0 0
102 6 3.7347694594311855 5.043224747196526 21.22698061518436 0 0 0
106 7 12.438623670439574 7.133870736675192 21.274314772650275 -1 0 0
107 7 2.469143550840886 7.167911405568234 21.238221015192796 0 0 0
73 7 4.936667450267352 4.3060187662251925 19.077036831637066 0 0 0
74 6 7.465708144736617 4.312452563794762 19.026868443764755 0 0 0
78 7 6.166939044941138 6.52042974044289 19.105740815012634 0 0 0
103 7 6.275161932784783 5.053785075390602 21.157066924495705 0 0 0
108 7 5.015997960910754 7.217974216978157 21.207882915916034 0 0 0
109 7 7.4233019296815925 7.262232637136727 21.240301042623397 0 0 0
75 5 9.857830675895887 4.361268154222578 19.011081478266675 0 0 0
79 7 8.61004707935814 6.513839003024974 19.286231408284547 0 0 0
80 7 11.089251764304693 6.506669217244311 19.283934369524836 0 0 0
104 7 8.735618842890455 5.058062199079595 21.21648139256857 0 0 0
105 3 10.085677574947761 4.419643502320129 22.26317508585981 0 0 0
110 7 9.898408811150516 7.190506650814593 21.272196029273477 0 0 0
81 4 12.366722270148843 8.57982976042513 19.18871060153537 -1 0 0
82 6 2.429820373283564 8.533512477027063 19.0246931120051 0 0 0
86 7 1.3006947986277795 10.754018082761608 19.171019454772185 0 0 0
87 1 3.8426702805045454 10.877057460899138 19.009909232985144 0 0 0
111 7 1.197982315084265 9.330940736934677 21.217110407526974 0 0 0
112 6 3.7445924385498 9.335954703619874 21.23909591671378 0 0 0
116 1 0.05534417483872792 11.54527703214728 21.177119259282883 0 0 0
117 7 2.518747509575919 11.536586725236655 21.175499224911533 0 0 0
83 7 4.965344844259752 8.725097480122743 19.03355709143428 0 0 0
84 7 7.41936740045714 8.635341335862655 19.011710450869213 0 0 0
88 7 6.271847370977309 10.818731164999102 19.022187044119285 0 0 0
113 7 6.237520811783996 9.393721695005903 21.034566232791725 0 0 0
118 7 5.038274851955846 11.556331880594255 21.143568105159577 0 0 0
119 4 7.4689686236133195 11.572428547708979 21.077611483172888 0 0 0
85 6 9.825879110499212 8.511797309042132 18.45023991410549 0 0 0
89 6 8.779593668102015 10.867212820326817 18.980322532107778 0 0 0
90 4 11.28186294532997 10.805363808329608 18.892094055542984 0 0 0
114 7 8.703906000884396 9.340210298744424 20.934685481225415 0 0 0
115 6 11.116961896929602 9.287473634066089 21.168468062455013 0 0 0
120 7 10.015745600974837 11.55468975544807 21.123425370939803 0 0 0
121 7 0.08032746809811768 1.4052909699925886 23.257329168345766 0 0 0
122 7 2.568756654051096 1.4022341598950152 23.317645532652477 0 0 0
126 6 1.3517288782887842 3.6016844383815965 23.26089389228744 0 0 0
127 7 3.8528785635811817 3.5864409029976976 23.365913576629495 0 0 0
152 7 2.6538083024584513 0.008677181136778634 25.375655138816203 0 0 0
156 1 1.4861156357710616 2.137982421136224 25.502335101294957 0 0 0
157 7 3.974506409722963 2.135879983850591 25.444435659308322 0 0 0
162 7 2.603407101737324 4.265546362197921 25.427912298327495 0 0 0
123 7 5.009682124695672 1.4281688425791634 23.200474593561797 0 0 0
124 7 7.415046935188715 1.5189530437973215 23.48004701375084 0 0 0
128 7 6.3075378976459975 3.6646121221071906 23.171286976640378 0 0 0
153 7 5.199574000804243 0.06297299407774203 25.331093322269105 0 0 0
154 7 7.610930720739783 0.008878033739060966 25.459446260584606 0 0 0
158 2 5.800045010178786 2.479950919539587 24.644030096896156 0 0 0
163 7 5.120009946069247 4.248666855039035 25.422774567301754 0 0 0
164 5 7.4795545201029405 4.061032334412208 25.344233270461526 0 0 0
125 7 10.063815968389639 1.4435536723618352 23.30174426734893 0 0 0
129 7 8.759226825489321 3.5610392074414143 23.329510467562258 0 0 0
130 4 11.362148116256474 3.6402464880126897 23.383161755069683 0 0 0
155 4 10.135070769322992 0.07132913493596872 25.519595551311202 0 0 0
159 7 8.889043635978624 2.104755924004241 25.423601534072105 0 0 0
160 7 11.412614449398212 2.1664954217798953 25.39238202603585 0 0 0
165 7 10.069687043116927 4.22906831644417 25.39768274530621 0 0 0
131 7 0.07528017520577342 5.791481871840173 23.38565057109823 0 0 0
132 7 2.5484669148925385 5.79390379246556 23.36500834637476 0 0 0
136 7 1.3126073683436792 7.919722431527345 23.29620559256324 0 0 0
137 7 3.788581569111517 7.961305716673676 23.321807253076766 0 0 0
161 4 0.11482246014123666 4.350325492837597 25.453878702349986 0 0 0
166 7 1.3426566623040066 6.421405942943939 25.423826401089215 0 0 0
167 7 3.814505558867327 6.433558237008967 25.448639232446183 0 0 0
133 6 5.072848513227117 5.847638742417994 23.38473123456357 0 0 0
134 7 7.5629132727658455 5.783914124011928 23.301694055974796 0 0 0
138 7 6.31636125830839 7.9927365538567425 23.33925129124882 0 0 0
168 7 6.370109561835436 6.391654838846149 25.429921916074807 0 0 0
173 7 5.11771054156675 8.54958050633214 25.353559470722697 0 0 0
135 7 10.067648921436037 5.844441689986989 23.373358871527184 0 0 0
139 4 8.703272220850874 7.953178296952056 23.212197452220703 0 0 0
140 4 11.291868624044342 7.905709880611279 23.295038947000524 0 0 0
169 7 8.778623665716594 6.340264088141425 25.371080901391263 0 0 0
170 7 11.295592611217906 6.416971141580502 25.434396504616444 0 0 0
175 6 9.89804223781205 8.573479293140837 25.501210590981685 0 0 0
141 7 0.025352004167575926 10.090344876108269 23.328618809282734 0 0 0
142 7 2.507085040486541 10.10461675040688 23.299275890774883 0 0 0
146 7 1.3049290283520327 12.238927103584716 23.314416606833053 0 0 0
147 7 3.8190977723926722 12.23849863981269 23.23061537531427 0 0 0
151 4 0.09886292244192216 12.88353749864511 25.371438659476606 0 -1 0
171 6 0.11762443433643942 8.626438987495716 25.410900172744046 0 0 0
172 7 2.6278562749349805 8.607916360914487 25.39567917152365 0 0 0
176 7 1.3486665838053042 10.809699322708802 25.43246122385651 0 0 0
177 6 3.8903269604316195 10.81250812149401 25.31541469506922 0 0 0
143 7 5.078504040936135 10.107031485549053 23.23474410258756 0 0 0
144 7 7.513829741972796 10.09386196017763 22.904403661173745 0 0 0
148 4 6.2343795121837005 12.27824433391914 23.261659612253702 0 0 0
178 6 6.6485544230481635 10.522237634312326 25.238628377852674 0 0 0
145 7 10.000990551518921 10.094795923716086 23.300009027359124 0 0 0
149 6 8.725660936022972 12.294475310483607 23.291442588463315 0 0 0
150 7 11.262911056035414 12.233464585231951 23.33372656175088 0 0 0
174 3 8.423488842280408 9.510453538555561 24.405969237891632 0 0 0
179 5 9.016307390117996 10.934433078792122 25.559797475190592 0 0 0
180 5 11.348363102029252 10.882793827958894 25.48179752469888 0 0 0
181 7 1.3912946148526852 0.6671811351539236 27.48581760093335 0 0 0
182 7 3.8802144250215354 0.7016536099530272 27.444985164722063 0 0 0
186 7 0.1763484943911393 2.863629942448296 27.479550276466146 0 0 0
187 7 2.66438276992579 2.851303164116053 27.563804435236996 0 0 0
211 7 0.21270930253985684 1.4485750909015696 29.57986879860155 0 0 0
212 7 2.7137344171436744 1.361536509190821 29.579789795508045 0 0 0
216 7 1.4147226942568976 3.5561871429908134 29.583820916241816 0 0 0
217 4 3.828886648531647 3.5701429452695232 29.599540086072714 0 0 0
183 7 6.3190674328081595 0.7165554023284878 27.56998392172144 0 0 0
188 7 5.089321530133332 2.8714723961843296 27.5754493230025 0 0 0
189 7 7.604974235001099 2.7940474131287076 27.44854527875933 0 0 0
213 5 5.140957891850564 1.4227445785722332 29.600693883729853 0 0 0
214 7 7.623255535005898 1.356041733176613 29.58435959974575 0 0 0
218 7 6.371281796689694 3.5335865490798826 29.54009277407305 0 0 0
184 7 8.899357903284425 0.7245997838731535 27.550780972475813 0 0 0
185 4 11.391874371908616 0.7280537837199424 27.51860905192744 0 0 0
190 7 10.154173493403613 2.838991915725925 27.475101124922485 0 0 0
215 7 10.132351276974488 1.4095844372961919 29.61961467237195 0 0 0
219 7 8.845440348799977 3.5153956160973663 29.518707599236862 0 0 0
220 7 11.3748398326839 3.564709154064394 29.51173040323634 0 0 0
191 7 1.3954444791027274 5.010067386551027 27.46894920341602 0 0 0
192 7 3.838268298415233 4.986405623132277 27.487077493213 0 0 0
197 7 2.584584806471718 7.1902109618175665 27.48097895614493 0 0 0
221 7 0.12539935863143464 5.730990182463526 29.564690104446868 0 0 0
222 7 2.595757284947725 5.7262369025670905 29.55266489197898 0 0 0
226 7 1.3673761650852823 7.90396090142652 29.550283134752878 0 0 0
227 7 3.8657790100508285 7.908634453175553 29.476260459804625 0 0 0
193 7 6.376897890919737 4.972713191252437 27.413293475305256 0 0 0
198 7 5.108847245588577 7.16791764925724 27.418657444256294 0 0 0
199 7 7.622309361122053 7.189796125082083 27.44491266673049 0 0 0
223 6 5.159644981202718 5.715677704527283 29.492779117256905 0 0 0
224 7 7.651440960782531 5.738903293168047 29.576871777803326 0 0 0
228 7 6.398611083663185 7.909448083809289 29.49654517021064 0 0 0
194 6 8.853331155701332 5.002932049626905 27.482201087069534 0 0 0
195 7 11.366614539289586 5.002246338135698 27.49795977578441 0 0 0
196 7 0.1412442572299256 7.1658860454959905 27.487736637705257 0 0 0
200 7 10.127317760551403 7.165062990320652 27.52700879236876 0 0 0
225 7 10.107502386210422 5.7461607972992566 29.595513785338643 0 0 0
229 7 8.851615435587624 7.88784165203263 29.514574972341297 0 0 0
230 7 11.373118480443868 7.936199995657636 29.514070463403357 0 0 0
201 5 1.3823782311946906 9.330340451509912 27.51502981145922 0 0 0
202 7 3.8775552690546107 9.31598326360392 27.396196096568723 0 0 0
206 4 0.19173905176218956 11.485374410891337 27.518064542171512 0 0 0
207 7 2.615213400892115 11.460973371480227 27.45249740401579 0 0 0
231 7 0.16722984907871705 10.083431412165462 29.562060324439877 0 0 0
232 7 2.635402422289274 10.025554389512765 29.43463814901801 0 0 0
236 7 1.4731668513864251 12.186756879563301 29.55601196269211 0 0 0
203 7 6.377100612714232 9.28787421784238 27.407316507802364 0 0 0
208 7 5.146825714777839 11.49670399259798 27.35315366600624 0 0 0
209 6 7.596062152860351 11.532606113755655 27.631667221448943 0 0 0
233 7 5.151536819123162 10.050707889242355 29.341901459523097 0 0 0
234 7 7.6072608771077315 10.089546655610912 29.65599849409381 0 0 0
238 7 6.22621735724353 12.236636023173856 29.68068935128582 0 0 0
204 7 8.842348849664129 9.373355149954595 27.604072342241963 0 0 0
205 7 11.350966117041256 9.424258814961478 27.53096447636339 0 0 0
210 7 10.160779152530138 11.562031215120482 27.566685615007913 0 0 0
235 7 10.089909979607695 10.18305779941394 29.586408033417733 0 0 0
239 4 8.888375833080921 12.259319515955529 29.723773382559006 0 0 0
240 7 11.398559014127397 12.27279519347182 29.552077979078142 0 0 0
237 3 4.036483893342868 0.3028860329015768 30.559962070259072 0 1 0
241 7 0.20287240564378242 0.10725652007246575 31.628975623158922 0 0 0
242 7 2.569004232047549 0.1486038459389651 31.740038755485035 0 0 0
246 4 1.3461964943502962 2.2499499214758854 31.65950192903891 0 0 0
247 7 3.885737657416026 2.155356981666038 31.641994300846598 0 0 0
276 7 0.1820904611906441 3.0065829252199303 33.732227323179146 0 0 0
243 7 5.173352190503722 12.909863780903073 32.10064369348271 0 -1 0
244 7 7.6323338483387015 0.009047376323270767 31.710034662824913 0 0 0
248 7 6.413727051488727 2.1549116568895577 31.642575063510765 0 0 0
279 7 7.735016490132934 3.0528378873215796 33.72603021545859 0 0 0
249 7 8.85702759814778 2.1110517623980414 31.67399298282603 0 0 0
250 7 11.388068590712274 2.1486596792811636 31.65187645001581 0 0 0
255 1 10.1098014366292 4.229508122881269 31.49496923143457 0 0 0
275 4 11.448234871164697 0.8109032895855858 33.70930807242407 0 0 0
251 7 0.1511536074068115 4.334187450609357 31.643969899888333 0 0 0
252 7 2.6368628825691665 4.324408379111408 31.665997746141485 0 0 0
256 7 1.3339143045594033 6.509895463511927 31.632599722071618 0 0 0
257 6 3.7962074240447574 6.505970991383073 31.663660774707576 0 0 0
253 7 5.117782880871075 4.31449596235543 31.62245426859361 0 0 0
254 7 7.627483343377224 4.3190072064972895 31.586828421712642 0 0 0
258 7 6.358089753203847 6.499949456896853 31.620846205564618 0 0 0
264 7 7.596102920723867 8.585999410666911 31.614911986719093 0 0 0
283 7 6.385646675669792 5.1092694767860785 33.66632287718416 0 0 0
289 7 7.640325909710685 7.194433736074501 33.70933498508016 0 0 0
259 4 8.82815366170547 6.471275904527088 31.62133716831785 0 0 0
260 7 11.320385826746646 6.5014695311471 31.585965810154015 0 0 0
284 5 8.893380541529778 5.127734059732399 33.5765577992868 0 0 0
290 7 10.090262536971974 7.271615572210971 33.589443525761745 0 0 0
261 7 0.1814182456662417 8.720033032173403 31.64792530234556 0 0 0
262 7 2.6671973735549708 8.725583893871148 31.53308952526178 0 0 0
266 7 1.5669943040029666 10.84080205049203 31.570898463735535 0 0 0
267 4 3.921037792048452 11.287582928928616 30.85455131301089 0 0 0
292 7 3.9628537214390187 9.382013576594986 33.50241335462541 0 0 0
326 7 0.5119940852037805 11.666240535580307 33.672969182743145 0 0 0
263 1 5.098316140339452 8.765497579987933 31.4273127856474 0 0 0
268 7 6.266217365081498 10.768802772379054 31.578432759000563 0 0 0
245 7 10.114975943763516 12.896176143221652 31.865606087760092 0 -1 0
265 6 10.107363714703299 8.693876343329915 31.533308631708472 0 0 0
269 7 8.779749350346757 10.810824536253088 31.74016942556607 0 0 0
270 7 11.430730017730443 10.917052072439533 31.607075422894304 0 0 0
294 7 8.775712330779406 9.29833702383698 33.686464959715586 0 0 0
296 3 11.078572365634725 11.844287836218399 33.32606579752893 -1 0 0
271 7 1.4812410834703251 0.9159238941613941 33.773767051751584 0 0 0
272 7 3.9263157871225256 0.9678855502898185 33.92396528882883 0 0 0
277 7 2.6484064371859257 3.0902317760830016 33.79523823774903 0 0 0
301 7 0.19876031516289433 1.5651195354596057 35.755122974295034 0 0 0
302 7 2.62474677042384 1.6809726135036172 35.85790959594037 0 0 0
306 4 1.4247737018088609 3.8462738315023426 35.954663231793 0 0 0
307 7 4.004062782043027 3.7430223262310958 35.831441545584326 0 0 0
273 7 6.469616949717423 0.9854731549124464 33.89926119979338 0 0 0
278 1 5.223624058501036 3.0064348958108997 33.71882918841252 0 0 0
303 7 5.253399824643633 1.6778688542961504 35.93864380004338 0 0 0
304 4 7.770804037837467 1.6459552922752396 35.92240985709075 0 0 0
308 7 6.536877457832653 3.7161762388425728 35.796219555878174 0 0 0
274 7 8.84423728939574 0.9113653852633294 33.83672579045767 0 0 0
280 7 10.209366036774027 3.0062302070448843 33.702542960599715 0 0 0
305 7 10.233532859923002 1.5746842232278717 35.722744521816225 0 0 0
309 7 9.02835451228572 3.684555028800393 35.7749087840457 0 0 0
310 4 11.596949246116816 3.9569487509195027 35.857173396456886 0 0 0
335 5 9.90756447682555 12.919498824716143 37.38575173686323 0 -1 0
281 7 1.3287119048459426 5.193823951336359 33.85647436724225 0 0 0
282 4 3.852355883680334 5.143355086449291 33.76671565378265 0 0 0
286 7 0.09893468797856042 7.292532002020659 33.61911750033127 0 0 0
287 7 2.6370474198755267 7.2974370547377845 33.743183422097175 0 0 0
312 7 2.735460331687977 5.803176744404933 35.78124869400225 0 0 0
316 7 1.2182582791716579 7.61790395630313 35.78492775489223 0 0 0
317 7 3.9400799492962753 8.074330492639744 35.72761268035404 0 0 0
288 7 5.188983386493148 7.277956898037461 33.663267882067665 0 0 0
313 7 5.271665067397135 5.925020052351116 35.71107318340453 0 0 0
314 7 7.728802629498472 5.83035914982805 35.739091633319006 0 0 0
318 4 6.558306993569037 8.127873114092878 35.796038301517555 0 0 0
285 4 11.351328109680159 5.166969061562306 33.62752347779623 0 0 0
311 2 12.377797193491816 6.013803297785527 35.31672144125428 -1 0 0
315 7 10.140512368708158 5.822905493542299 35.5747117736087 0 0 0
319 7 8.957863759970664 7.988465565052148 35.81971273255646 0 0 0
320 7 11.352925011648422 7.947411821690806 35.58714896339347 0 0 0
355 3 10.446365922777456 7.915176589076074 37.27211664183222 0 0 0
291 7 1.4717860272419916 9.436752912073889 33.72950320031997 0 0 0
297 6 3.0295300224882262 11.585638447599877 33.66839391050785 0 0 0
321 6 0.21322866733369325 10.081857272928639 35.90653312456449 0 0 0
322 7 2.707965313725187 10.21097588676167 35.75773336297598 0 0 0
327 6 3.9254549674667256 12.518038054743396 36.10845436543399 0 0 0
356 4 1.4072084876545488 12.372335663756255 35.84074305225067 0 0 0
293 4 6.460138117702913 9.324172546598234 33.64416038736864 0 0 0
298 2 5.204632955489673 12.30357816118989 34.20714465591538 0 0 0
299 7 6.991195217067251 11.586875282766922 33.678968810828685 0 0 0
323 6 5.239626679359614 10.252165834255937 35.55947655719454 0 0 0
324 7 7.91544309855247 10.3655858325294 35.70369992103959 0 0 0
328 7 6.477933583978498 12.533059314169485 35.91250199324154 0 0 0
295 6 11.27556313550509 9.711045410211662 33.75470356584276 0 0 0
300 7 9.381208479847519 11.557286652004235 34.15463357172551 0 0 0
325 7 10.255325883795173 9.858213821906045 37.02396047511432 0 0 0
329 3 9.533106321302906 11.416100388972184 36.191363603180484 0 0 0
330 4 11.259909182694933 12.085895167505642 35.5631613967431 0 0 0
332 7 2.4892606501704067 0.11896819553841817 38.03445304083603 0 0 0
336 7 1.339383781102564 2.2021513109345863 37.82977931483057 0 0 0
337 7 3.8821618143800474 2.2112867627969295 37.861560348824476 0 0 0
333 7 5.222765425149899 0.18119325038974077 38.11738464936717 0 0 0
334 7 7.654677365391088 0.0814572495013999 38.01012055229335 0 0 0
338 7 6.53765384184993 2.2766801339764746 37.90056000556573 0 0 0
339 7 8.998691390695416 2.2043072889944684 37.853594635647745 0 0 0
340 7 11.375781867300633 2.211789937886886 37.72317151337922 0 0 0
342 7 2.72055513108621 4.309696038682426 37.92033590153905 0 0 0
346 7 1.5256738041482685 6.4281291252175325 37.996064569926524 0 0 0
347 6 3.9739055465945277 6.491243421264044 37.760417929992045 0 0 0
343 7 5.31165523745097 4.444105550949481 37.831944346711545 0 0 0
344 7 7.841379872146763 4.454371441450982 37.84267924602199 0 0 0
348 6 6.667512863048186 6.678748148050885 37.81291807955887 0 0 0
341 7 0.22088633622452186 4.269366774271662 38.06608052211857 0 0 0
345 4 10.22968709239222 4.352975385189503 37.805185360013674 0 0 0
349 7 9.246662219211702 6.645924461187178 37.862075151881086 0 0 0
350 7 11.689553669905502 6.289661202765991 37.29394491796908 0 0 0
352 6 2.505374310337204 8.67964388995064 37.68313705063047 0 0 0
357 7 3.86463980661984 10.827175500621113 37.96026144838528 0 0 0
360 7 1.407574023010976 10.918452605447074 37.883431629933916 1 0 0
353 7 5.143991748102923 8.713379899623694 37.819856504995066 0 0 0
354 7 7.9458780167931025 8.977632749002035 37.81275397586431 0 0 0
358 6 6.41284211254609 10.871657963167067 37.77423594050964 0 0 0
361 8 6.056698136625263 10.735938089613292 41.5079766512139 0 0 0
362 8 6.807601723289008 10.80719633383999 41.416757436742294 0 0 0
331 7 12.395450843813778 12.895298668517173 37.61525671934666 -1 -1 0
351 7 12.252953044909653 8.578590682469725 37.83532097516476 -1 0 0
359 2 8.605684947385317 11.177250591815865 37.415993837648344 0 0 0

Velocities

1 0 0 0
2 0 0 0
6 0 0 0
7 0 0 0
31 0 0 0
32 0 0 0
36 0 0 0
37 0 0 0
3 0 0 0
8 0 0 0
9 0 0 0
33 0 0 0
34 0 0 0
38 0 0 0
4 0 0 0
5 0 0 0
10 0 0 0
35 0 0 0
39 0 0 0
40 0 0 0
11 0 0 0
12 0 0 0
16 0 0 0
17 0 0 0
41 0 0 0
42 0 0 0
46 0 0 0
47 0 0 0
13 0 0 0
18 0 0 0
19 0 0 0
43 0 0 0
44 0 0 0
48 0 0 0
14 0 0 0
15 0 0 0
20 0 0 0
45 0 0 0
49 0 0 0
50 0 0 0
21 0 0 0
22 0 0 0
26 0 0 0
27 0 0 0
51 0 0 0
52 0 0 0
56 0 0 0
57 0 0 0
23 0 0 0
28 0 0 0
29 0 0 0
53 0 0 0
54 0 0 0
58 0 0 0
24 0 0 0
25 0 0 0
30 0 0 0
55 0 0 0
59 0 0 0
60 0 0 0
61 0 0 0
62 0 0 0
66 0 0 0
67 0 0 0
91 0 0 0
92 0 0 0
96 0 0 0
97 0 0 0
63 0 0 0
64 0 0 0
68 0 0 0
93 0 0 0
98 0 0 0
99 0 0 0
65 0 0 0
69 0 0 0
70 0 0 0
94 0 0 0
95 0 0 0
100 0 0 0
71 0 0 0
72 0 0 0
76 0 0 0
77 0 0 0
101 0 0 0
102 0 0 0
106 0 0 0
107 0 0 0
73 0 0 0
74 0 0 0
78 0 0 0
103 0 0 0
108 0 0 0
109 0 0 0
75 0 0 0
79 0 0 0
80 0 0 0
104 0 0 0
105 0 0 0
110 0 0 0
81 0 0 0
82 0 0 0
86 0 0 0
87 0 0 0
111 0 0 0
112 0 0 0
116 0 0 0
117 0 0 0
83 0 0 0
84 0 0 0
88 0 0 0
113 0 0 0
118 0 0 0
119 0 0 0
85 0 0 0
89 0 0 0
90 0 0 0
114 0 0 0
115 0 0 0
120 0 0 0
121 0 0 0
122 0 0 0
126 0 0 0
127 0 0 0
152 0 0 0
156 0 0 0
157 0 0 0
162 0 0 0
123 0 0 0
124 0 0 0
128 0 0 0
153 0 0 0
154 0 0 0
158 0 0 0
163 0 0 0
164 0 0 0
125 0 0 0
129 0 0 0
130 0 0 0
155 0 0 0
159 0 0 0
160 0 0 0
165 0 0 0
131 0 0 0
132 0 0 0
136 0 0 0
137 0 0 0
161 0 0 0
166 0 0 0
167 0 0 0
133 0 0 0
134 0 0 0
138 0 0 0
168 0 0 0
173 0 0 0
135 0 0 0
139 0 0 0
140 0 0 0
169 0 0 0
170 0 0 0
175 0 0 0
141 0 0 0
142 0 0 0
146 0 0 0
147 0 0 0
151 0 0 0
171 0 0 0
172 0 0 0
176 0 0 0
177 0 0 0
143 0 0 0
144 0 0 0
148 0 0 0
178 0 0 0
145 0 0 0
149 0 0 0
150 0 0 0
174 0 0 0
179 0 0 0
180 0 0 0
181 0 0 0
182 0 0 0
186 0 0 0
187 0 0 0
211 0 0 0
212 0 0 0
216 0 0 0
217 0 0 0
183 0 0 0
188 0 0 0
189 0 0 0
213 0 0 0
214 0 0 0
218 0 0 0
184 0 0 0
185 0 0 0
190 0 0 0
215 0 0 0
219 0 0 0
220 0 0 0
191 0 0 0
192 0 0 0
197 0 0 0
221 0 0 0
222 0 0 0
226 0 0 0
227 0 0 0
193 0 0 0
198 0 0 0
199 0 0 0
223 0 0 0
224 0 0 0
228 0 0 0
194 0 0 0
195 0 0 0
196 0 0 0
200 0 0 0
225 0 0 0
229 0 0 0
230 0 0 0
201 0 0 0
202 0 0 0
206 0 0 0
207 0 0 0
231 0 0 0
232 0 0 0
236 0 0 0
203 0 0 0
208 0 0 0
209 0 0 0
233 0 0 0
234 0 0 0
238 0 0 0
204 0 0 0
205 0 0 0
210 0 0 0
235 0 0 0
239 0 0 0
240 0 0 0
237 0 0 0
241 0 0 0
242 0 0 0
246 0 0 0
247 0 0 0
276 0 0 0
243 0 0 0
244 0 0 0
248 0 0 0
279 0 0 0
249 0 0 0
250 0 0 0
255 0 0 0
275 0 0 0
251 0 0 0
252 0 0 0
256 0 0 0
257 0 0 0
253 0 0 0
254 0 0 0
258 0 0 0
264 0 0 0
283 0 0 0
289 0 0 0
259 0 0 0
260 0 0 0
284 0 0 0
290 0 0 0
261 0 0 0
262 0 0 0
266 0 0 0
267 0 0 0
292 0 0 0
326 0 0 0
263 0 0 0
268 0 0 0
245 0 0 0
265 0 0 0
269 0 0 0
270 0 0 0
294 0 0 0
296 0 0 0
271 0 0 0
272 0 0 0
277 0 0 0
301 0 0 0
302 0 0 0
306 0 0 0
307 0 0 0
273 0 0 0
278 0 0 0
303 0 0 0
304 0 0 0
308 0 0 0
274 0 0 0
280 0 0 0
305 0 0 0
309 0 0 0
310 0 0 0
335 0 0 0
281 0 0 0
282 0 0 0
286 0 0 0
287 0 0 0
312 0 0 0
316 0 0 0
317 0 0 0
288 0 0 0
313 0 0 0
314 0 0 0
318 0 0 0
285 0 0 0
311 0 0 0
315 0 0 0
319 0 0 0
320 0 0 0
355 0 0 0
291 0 0 0
297 0 0 0
321 0 0 0
322 0 0 0
327 0 0 0
356 0 0 0
293 0 0 0
298 0 0 0
299 0 0 0
323 0 0 0
324 0 0 0
328 0 0 0
295 0 0 0
300 0 0 0
325 0 0 0
329 0 0 0
330 0 0 0
332 0 0 0
336 0 0 0
337 0 0 0
333 0 0 0
334 0 0 0
338 0 0 0
339 0 0 0
340 0 0 0
342 0 0 0
346 0 0 0
347 0 0 0
343 0 0 0
344 0 0 0
348 0 0 0
341 0 0 0
345 0 0 0
349 0 0 0
350 0 0 0
352 0 0 0
357 0 0 0
360 0 0 0
353 0 0 0
354 0 0 0
358 0 0 0
361 0 0 0
362 0 0 0
331 0 0 0
351 0 0 0
359 0 0 0
