LAMMPS data file via write_data, version 11 Feb 2026, timestep = 365, units = metal

362 atoms
8 atom types

0 12.447907776 xlo xhi
0 12.9362452296 ylo yhi
0 52.3600831054 zlo zhi

Masses

1 26.9815
2 10.811
3 12.011
4 51.9961
5 55.845
6 95.95999999999999
7 58.6934
8 1.008

Atoms # atomic/kk

1 7 1.1390277565522933 1.4111585617163456 14.171250686515027 0 0 0
2 7 3.602689462421662 1.07680471347645 14.664827325815894 0 0 0
6 7 12.366082568200337 3.4629218005949984 14.817191921859056 -1 0 0
7 7 2.421901536478598 3.281577850164936 14.986533940863321 0 0 0
31 6 0.1263085195913512 1.5736506511585302 16.5401067358365 0 0 0
32 7 2.5990604013237832 1.6921427321401628 16.910018073745917 0 0 0
36 7 1.213793503236569 3.863006397980157 17.024333869065476 0 0 0
37 7 3.7045792191287603 3.844136711488866 17.05172276263036 0 0 0
3 5 6.070752970295427 0.9537426673165952 14.90727995040554 0 0 0
8 7 4.922937115692301 3.1341026859647916 15.005463466275799 0 0 0
9 7 7.384632194585222 3.16224257937348 14.915759137186381 0 0 0
33 7 4.979710587841491 1.6718138862773821 16.949695076537616 0 0 0
34 7 7.404329428127566 1.776025021289875 16.974649843310146 0 0 0
38 5 6.172874572352052 3.866892558394614 16.983725627533563 0 0 0
4 6 8.63481111566074 1.003576101062897 14.995521475589484 0 0 0
5 7 11.04397814515029 1.2599623647061515 14.59687375589194 0 0 0
10 7 9.907289461500698 3.397391980421799 14.775655791093818 0 0 0
35 7 9.9796823067108 1.6693496331424047 16.938533803521164 0 0 0
39 7 8.72492810912838 3.8697074470984796 16.856764568934178 0 0 0
40 7 11.184789462644616 3.81373489516986 16.995081948474688 0 0 0
11 7 1.2291170171262558 5.5019697735963415 15.075219381144127 0 0 0
12 7 3.7175812914191666 5.323199470057635 15.086114566464273 0 0 0
16 4 0.46363070423258274 7.8194902124518295 14.79445223892466 0 0 0
17 7 2.647110187278485 7.502084415059245 15.148507103235447 0 0 0
41 7 12.436441050186225 6.005153692564468 17.221250291232845 -1 0 0
42 7 2.4480523397675933 6.13442846799476 17.136152829934176 0 0 0
46 7 0.7889729989392049 9.3741816405172 16.869740210978915 0 0 0
47 7 3.880735350850681 8.204773547550115 17.058332390091437 0 0 0
13 7 6.172961452398527 5.312525378321816 15.029047266136105 0 0 0
18 7 5.073985797467329 7.4859301449891005 15.063517779592441 0 0 0
19 2 7.054005063783681 7.025970567988295 15.384347769091416 0 0 0
43 7 4.946869032666538 5.969849877225181 17.08948382822075 0 0 0
44 7 7.47125487017172 5.9474674092966815 17.082667820163856 0 0 0
48 7 6.340968669385052 8.06197677751711 17.044550886046586 0 0 0
14 7 8.69842464835965 5.665675949425557 14.960351016306936 0 0 0
15 6 11.174851155489225 5.611432603944071 15.179507040404461 0 0 0
20 7 10.439673037016897 7.676776447439949 14.179602850878066 0 0 0
45 7 9.917714782918427 6.045517466135973 17.247740774766317 0 0 0
49 7 8.710828346870654 7.928938028533896 16.064587653601652 0 0 0
50 7 11.17968134427302 7.997965954639009 16.44869189605573 0 0 0
21 2 1.1596780205866746 10.485275092042459 15.207728672925649 0 0 0
22 7 2.9641423116152743 9.871866634406915 15.639777504911113 0 0 0
26 7 0.12238056315390805 12.211425157580637 14.905255984472413 0 0 0
27 7 2.476604674981832 11.815117553120297 14.458602988111002 0 0 0
51 3 11.514042945104901 9.377241815442089 17.65722971764997 -1 0 0
52 7 1.3446605860113443 11.871559320959435 16.983802226357813 0 0 0
56 2 1.9081993126470542 0.3275878122423618 15.603935101550926 0 1 0
57 7 3.7481406940679807 12.443709866094203 16.60435430010014 0 0 0
23 7 6.9158849235492905 9.012588477888462 14.77400685334291 0 0 0
28 7 4.953938854579528 11.79392631600632 14.601975775801476 0 0 0
29 6 7.481690480362634 11.499515026403651 14.91599262071645 0 0 0
53 7 5.330146127526569 10.128936272321173 16.322013702678937 0 0 0
54 7 7.727852952678005 10.060855791819439 16.94159447386225 0 0 0
58 6 6.313801244652988 12.373707768535466 16.94963220308261 0 0 0
24 7 9.205529218417634 9.745314732310488 14.537194649026212 0 0 0
25 7 11.757070647157887 9.881503609323854 14.785830677800567 0 0 0
30 7 10.056038155257998 11.952123954909705 14.7566741695854 0 0 0
55 7 10.1795773549047 10.282950389644487 16.676528785355757 0 0 0
59 7 8.830952013480479 12.388064905581878 16.95678715500933 0 0 0
60 7 11.237166767650335 12.47403982721508 16.877673500479016 0 0 0
61 6 0.04203664976432667 0.005682643969958606 18.989556862469975 0 0 0
62 7 2.5817958746010534 12.861137762631717 19.032998667863286 0 -1 0
66 6 1.3873440921952562 2.172798949017926 19.047784280239384 0 0 0
67 5 3.825338029641754 2.176605183115445 19.072018936775176 0 0 0
91 4 1.3554049556975027 0.7558917844479934 21.294554829372515 0 0 0
92 7 3.7476169111088877 0.7311841075637149 21.049972067213762 0 0 0
96 7 0.07646138572338354 2.8038749246901937 21.181742019025897 0 0 0
97 7 2.587048621680283 2.8566893281360817 21.19367576727648 0 0 0
63 5 4.9510140041702915 0.059889020539218525 18.956411490995254 0 0 0
64 7 7.435919209729531 0.08912199565107759 19.095980675670326 0 0 0
68 7 6.189170396789822 2.165782529167204 19.074625486071675 0 0 0
93 7 6.2541043048797755 0.7264299695708265 21.168184974389106 0 0 0
98 7 5.019989995420523 2.8806504466480085 21.14812116096133 0 0 0
99 5 7.473590757930824 2.821998707994789 21.163625054052112 0 0 0
65 7 9.996062781452407 0.08721565622883896 19.0907641186546 0 0 0
69 7 8.732783219737858 2.160888221471058 18.98979489606705 0 0 0
70 7 11.281376210259674 2.2451005856236717 18.948461615450906 0 0 0
94 7 8.708272516489037 0.7204621097541424 21.230829571280434 0 0 0
95 7 11.298841898736374 0.6773871026008821 21.19400855146431 0 0 0
100 6 10.02523131161513 2.7914232540851813 21.04922812741478 0 0 0
71 1 12.377940792534869 4.385062461337805 19.180685940789775 -1 0 0
72 7 2.478085523236524 4.3958949493724955 19.101576717009035 0 0 0
76 7 1.1943785718287758 6.441658517437774 19.254633066591808 0 0 0
77 7 3.7781828522598158 6.514252674117769 19.159824191769808 0 0 0
101 7 1.1986508893105667 4.993312923101855 21.25392786684978 0 0 0
102 6 3.7240557731823887 5.04940645925435 21.22436342370798 0 0 0
106 7 12.429520729875037 7.1038606347347955 21.310552784401285 -1 0 0
107 7 2.46278127741111 7.1797612089481895 21.22741148080955 0 0 0
73 7 4.970194463275942 4.323352927842855 19.08170824992855 0 0 0
74 6 7.4960246951107266 4.292269017146276 19.049120169436307 0 0 0
78 7 6.190748682668561 6.5261120528884815 19.134511966174244 0 0 0
103 7 6.269455236209335 5.054070372648154 21.170455137899992 0 0 0
108 7 5.005955410357314 7.235571134795539 21.22153011072942 0 0 0
109 7 7.413637479933298 7.255620253952297 21.259585833099642 0 0 0
75 5 9.902981062953573 4.312333490682692 19.02788800071018 0 0 0
79 7 8.61977790625839 6.478997794245365 19.317611919397685 0 0 0
80 7 11.107917979868391 6.4274030504037185 19.352623868998364 0 0 0
104 7 8.7351244936469 5.030165250293402 21.237933691351056 0 0 0
105 3 10.078762884579811 4.378974818341512 22.282598642685652 0 0 0
110 7 9.884598705743203 7.173214375317475 21.296310130614295 0 0 0
81 4 12.33695792426803 8.47996832435267 19.19556876236031 -1 0 0
82 6 2.353141305010325 8.496056907936543 18.91046203495598 0 0 0
86 7 1.275971229538003 10.69727695842395 19.1562624729935 0 0 0
87 1 3.65920293279863 10.722499231263798 18.260104941389386 0 0 0
111 7 1.1739419614492346 9.296642921073692 21.19098579907556 0 0 0
112 6 3.6959314865924213 9.362713967723455 21.138152505457114 0 0 0
116 1 0.03130704852121848 11.49370977949459 21.292514373352464 0 0 0
117 7 2.4647606949299377 11.535311252370967 21.14011628982374 0 0 0
83 7 4.9404397225820125 8.740037649778706 19.07823416873943 0 0 0
84 7 7.391743340653442 8.646772513785896 19.08035515512791 0 0 0
88 7 6.15673607044966 10.808293143263471 18.924701724921682 0 0 0
113 7 6.20824883250344 9.416208281672326 21.03001795196791 0 0 0
118 7 4.958270277199655 11.547644294616425 21.037256908997037 0 0 0
119 4 7.393814183953345 11.543189627111042 21.069414586063587 0 0 0
85 6 9.781914719947803 8.48037185025209 18.535812407064306 0 0 0
89 6 8.725587136427134 10.857109336280649 19.033044368152208 0 0 0
90 4 11.26647817826205 10.827944238979224 18.933475872271977 0 0 0
114 7 8.693952533083552 9.323181937396669 20.987533730726152 0 0 0
115 6 11.10328200037981 9.259081757640404 21.17055501643122 0 0 0
120 7 9.98009680105669 11.52349268418424 21.176906899533638 0 0 0
121 7 0.0719622651363275 1.380413702466938 23.30795403435079 0 0 0
122 7 2.563222266855691 1.3921353547491992 23.327847650938462 0 0 0
126 6 1.3428827846097202 3.5750417380231063 23.2639024690991 0 0 0
127 7 3.8382818452392535 3.578752065973556 23.359831663328947 0 0 0
152 7 2.6412065652761916 12.928912832284151 25.37248377138474 0 -1 0
156 1 1.4676326838610538 2.118586417770722 25.513397380942585 0 0 0
157 7 3.953608277114771 2.1250920791152415 25.442139295148415 0 0 0
162 7 2.586318819952788 4.250914425819162 25.426323756856583 0 0 0
123 7 4.98009169248365 1.4173640214416239 23.160609546868855 0 0 0
124 7 7.381475528068602 1.4886252239345747 23.484470262457148 0 0 0
128 7 6.29112046606848 3.6525073364609355 23.18138520065732 0 0 0
153 7 5.184495372741645 0.05969023754293792 25.291472960671598 0 0 0
154 7 7.587173042864431 12.92805588546133 25.47394852213905 0 -1 0
158 2 5.763176940669268 2.445972154374747 24.626882918639343 0 0 0
163 7 5.105550193709692 4.232250839289651 25.419227631341645 0 0 0
164 5 7.464928865528394 4.050346785797464 25.357396111662908 0 0 0
125 7 10.030971530835034 1.4149318056772893 23.352716590828326 0 0 0
129 7 8.738856406764958 3.533506603170392 23.345082444613418 0 0 0
130 4 11.354682047964495 3.6036901007899327 23.40007297056117 0 0 0
155 4 10.10698990377903 0.04927459316563466 25.55667532203215 0 0 0
159 7 8.857057569916114 2.0859649560835 25.444989863438995 0 0 0
160 7 11.388700835901027 2.1413654316714257 25.41881478119965 0 0 0
165 7 10.053079985261364 4.204044540974191 25.409384833040246 0 0 0
131 7 0.058217587857438996 5.75766204695495 23.402218067694907 0 0 0
132 7 2.5296869398514787 5.785719132069942 23.358741867048277 0 0 0
136 7 1.2898530967198107 7.89926281643782 23.30351959576632 0 0 0
137 7 3.7635362020102443 7.966909920122944 23.27677789526263 0 0 0
161 4 0.09641789497527653 4.326279848329532 25.467210222814572 0 0 0
166 7 1.3245133853439786 6.400334829443383 25.429100589138802 0 0 0
167 7 3.7948267199587935 6.42422614322465 25.441310857507315 0 0 0
133 6 5.052015205164823 5.844977168890073 23.38568299881438 0 0 0
134 7 7.546385928821893 5.764282040271854 23.31275412249758 0 0 0
138 7 6.296996669563215 7.982349885721037 23.339435425837753 0 0 0
168 7 6.352220429687984 6.381386055045395 25.431221919051367 0 0 0
173 7 5.091191300521387 8.539712403003936 25.330868675829375 0 0 0
135 7 10.0513800580554 5.810668406113351 23.38588524193749 0 0 0
139 4 8.680848554447795 7.9279662643002755 23.242953241096053 0 0 0
140 4 11.268640592915636 7.875243316060547 23.316841330955288 0 0 0
169 7 8.76273428352242 6.316704521738483 25.381312598716423 0 0 0
170 7 11.276029389448613 6.393059114494199 25.447219863958228 0 0 0
175 6 9.871581364351377 8.552582437129496 25.523241323533668 0 0 0
141 7 0.0064074017233348044 10.052558278987 23.342961365179693 0 0 0
142 7 2.4823753326683544 10.09093784893742 23.253652071005693 0 0 0
146 7 1.2887353617233432 12.219907458812997 23.349323776634012 0 0 0
147 7 3.7928214305687065 12.229100304076713 23.178897624058635 0 0 0
151 4 0.07898109836148465 12.85970417140835 25.41416246969848 0 -1 0
171 6 0.0959691243808739 8.599114241395538 25.429258715980957 0 0 0
172 7 2.6091485090543793 8.594051620476668 25.37475334843616 0 0 0
176 7 1.328562601053976 10.783786013883395 25.431051139522758 0 0 0
177 6 3.8657491606921837 10.801499712534003 25.27275289932528 0 0 0
143 7 5.041109323147886 10.09032692039099 23.180202545814673 0 0 0
144 7 7.4914490168764605 10.074395038229934 22.918718521728376 0 0 0
148 4 6.198827974856063 12.255547624556662 23.184008974527163 0 0 0
178 6 6.603453384780323 10.528326270437905 25.21953583116518 0 0 0
145 7 9.98197752714719 10.05949617083254 23.314995030003463 0 0 0
149 6 8.694128446894643 12.257598078777763 23.32913065678158 0 0 0
150 7 11.233299298629069 12.202814998026273 23.404755257471763 0 0 0
174 3 8.399865025345656 9.494756439981765 24.4228442350921 0 0 0
179 5 8.984432718308327 10.907818835582654 25.582917553620412 0 0 0
180 5 11.322286033603792 10.851875236729448 25.50661058023821 0 0 0
181 7 1.3781854904831607 0.6500375761815929 27.496303931353143 0 0 0
182 7 3.8644131998232445 0.6879300293275455 27.4355977456207 0 0 0
186 7 0.15998403511059858 2.842411934218117 27.493547372381308 0 0 0
187 7 2.6484089073482906 2.8376623689074694 27.567525419527886 0 0 0
211 7 0.1994283470204103 1.4292180520349886 29.59224160936122 0 0 0
212 7 2.700795091767041 1.3451407898239287 29.582330182061945 0 0 0
216 7 1.3997391863626854 3.5392304223977655 29.591276841578658 0 0 0
217 4 3.8126868076681917 3.5578699547049677 29.600666644648776 0 0 0
183 7 6.2974324644428075 0.7004669279026083 27.571996287747332 0 0 0
188 7 5.0709454260257045 2.8589708822797903 27.576488750488387 0 0 0
189 7 7.582804447427815 2.7781764446201036 27.46190229761986 0 0 0
213 5 5.123038825175085 1.412002296484031 29.602272943429966 0 0 0
214 7 7.601316043735175 1.3398574898324809 29.593570089980002 0 0 0
218 7 6.352003247695132 3.5218070746122736 29.543771250486213 0 0 0
184 7 8.874166428997217 0.7042948466869653 27.568729019272155 0 0 0
185 4 11.37258685670882 0.7074105134610124 27.54168122383194 0 0 0
190 7 10.133605740250411 2.8166906963015226 27.490453113673496 0 0 0
215 7 10.114023662695692 1.3886767078251558 29.633878349516 0 0 0
219 7 8.827358200616697 3.496428729900764 29.52930575727096 0 0 0
220 7 11.358795327655578 3.543380740459257 29.523128828791425 0 0 0
191 7 1.379399511432882 4.991239612798399 27.473925077627072 0 0 0
192 7 3.8217099237556753 4.975124050592863 27.483198514403558 0 0 0
197 7 2.567205721702685 7.178107368315754 27.476339920215125 0 0 0
221 7 0.10881233060445283 5.711365944944304 29.57472207205091 0 0 0
222 7 2.579443374394594 5.713183551773766 29.553144805149266 0 0 0
226 7 1.3524084747080873 7.888054128587828 29.55439519763239 0 0 0
227 7 3.8494201829151455 7.899093430899183 29.468644590605315 0 0 0
193 7 6.357983382910307 4.960814525993542 27.413869654993224 0 0 0
198 7 5.090794667921734 7.159017403718818 27.41155682588223 0 0 0
199 7 7.610071602842198 7.174294487889534 27.448402400857667 0 0 0
223 6 5.141367647216664 5.7063828167052835 29.490370015381373 0 0 0
224 7 7.6329548219508565 5.7240038891254885 29.580739265745258 0 0 0
228 7 6.382840565618577 7.899008650264477 29.491847922024782 0 0 0
194 6 8.836229547840443 4.981868471603887 27.4929879359129 0 0 0
195 7 11.349265753798663 4.978857211289368 27.509842297153966 0 0 0
196 7 0.124462930254556 7.1422872697256725 27.5008435029922 0 0 0
200 7 10.112323377507337 7.142593604737213 27.54213815949882 0 0 0
225 7 10.090218735801221 5.725568313830503 29.606762982533436 0 0 0
229 7 8.835283343871223 7.868715461121168 29.52763215181798 0 0 0
230 7 11.357040356721475 7.916477884840074 29.528576946334912 0 0 0
201 5 1.3674218552988238 9.310487824218708 27.51636874815923 0 0 0
202 7 3.8604774606994696 9.30665212490384 27.375672307855368 0 0 0
206 4 0.17600297806553578 11.462509480229336 27.527554863650444 0 0 0
207 7 2.599518536268691 11.442772783397924 27.439089982782882 0 0 0
231 7 0.15432845463103545 10.06464745025798 29.572241300324947 0 0 0
232 7 2.622269902032908 10.012243019274651 29.428443893239553 0 0 0
236 7 1.4623013518648083 12.168530571090397 29.55765187227596 0 0 0
203 7 6.363212507957797 9.271617570005153 27.387957992466053 0 0 0
208 7 5.126294103284651 11.486315340837564 27.319945368039342 0 0 0
209 6 7.570494226827545 11.510690938838852 27.64153005671883 0 0 0
233 7 5.138091906927439 10.041750859428086 29.323204712270197 0 0 0
234 7 7.589944152553643 10.074863919337819 29.66642055681272 0 0 0
238 7 6.200045128910839 12.22295443583353 29.68190594982193 0 0 0
204 7 8.827322867392855 9.354620006468267 27.626063693881385 0 0 0
205 7 11.333699524126843 9.401560356466295 27.54995291141083 0 0 0
210 7 10.139731985041077 11.539545165801728 27.587927429544276 0 0 0
235 7 10.074125674595043 10.165417075586655 29.605420164212827 0 0 0
239 4 8.86734855326898 12.240549295683978 29.735992454978472 0 0 0
240 7 11.385459847978623 12.252884668989516 29.566155839380052 0 0 0
237 3 4.023456742845243 0.28128818521100785 30.55647327861737 0 1 0
241 7 0.1911247634400617 0.08855552256404083 31.639534274101397 0 0 0
242 7 2.5585640195980175 0.13257717575638037 31.742718267971537 0 0 0
246 4 1.3333336160319662 2.232928814444728 31.66730336071798 0 0 0
247 7 3.868534752513368 2.1437873110794334 31.644530823946408 0 0 0
276 7 0.1662895055871735 2.9862627404198765 33.740315958603986 0 0 0
243 7 5.155777766763088 12.896097287401407 32.102328763652224 0 -1 0
244 7 7.6148387542264135 12.929743385254344 31.714867447246153 0 -1 0
248 7 6.395191018079241 2.1408730157040132 31.64731523980736 0 0 0
279 7 7.716508998047725 3.0345504937635397 33.72581795036286 0 0 0
249 7 8.839724435451798 2.0928580806988415 31.682420009153077 0 0 0
250 7 11.373676838432269 2.128294608263486 31.662385777543385 0 0 0
255 1 10.093966152209017 4.208988923241549 31.502735698936828 0 0 0
275 4 11.432651707522988 0.7895362497317312 33.720830377147834 0 0 0
251 7 0.13592632031410481 4.315283390616011 31.652892576819916 0 0 0
252 7 2.6208326783852702 4.312186575680291 31.670397534340164 0 0 0
256 7 1.3175028447378891 6.493721730912294 31.638679421347483 0 0 0
257 6 3.780145706577308 6.49559114502615 31.662338247044584 0 0 0
253 7 5.100293716884724 4.303044151431852 31.622784416844492 0 0 0
254 7 7.609110519996552 4.303352178210249 31.589082678399183 0 0 0
258 7 6.340437561904071 6.487743422945269 31.620159202090473 0 0 0
264 7 7.578284456381103 8.571531662786583 31.62287359650207 0 0 0
283 7 6.367257522296936 5.094050947956532 33.66614255483057 0 0 0
289 7 7.62039039409618 7.179733001023214 33.713572354231886 0 0 0
259 4 8.81026834433058 6.453121734190796 31.628787267128487 0 0 0
260 7 11.302917963179578 6.482163251626001 31.595590756791673 0 0 0
284 5 8.874537535891152 5.1103907231993455 33.57496356876291 0 0 0
290 7 10.071194271775699 7.252301630969403 33.599452204472634 0 0 0
261 7 0.16597939598208206 8.701977687895093 31.65498636082547 0 0 0
262 7 2.6526250776042746 8.71327477803296 31.531512707161575 0 0 0
266 7 1.5525566668741642 10.82617644611069 31.57533239288903 0 0 0
267 4 3.907377348256799 11.26839869243869 30.853354492800335 0 0 0
292 7 3.947631311170899 9.365984435574696 33.50290121778425 0 0 0
326 7 0.495708106005049 11.64599297126512 33.68337797791807 0 0 0
263 1 5.0823471767234425 8.755475994252738 31.41932926616039 0 0 0
268 7 6.2484519978535 10.756445892541864 31.582388702152496 0 0 0
245 7 10.100459304579493 12.877450263330287 31.874758502161413 0 -1 0
265 6 10.090051392502525 8.675051612654647 31.54826435899377 0 0 0
269 7 8.763209787252727 10.793873635651318 31.755544851606047 0 0 0
270 7 11.41782842260209 10.898384562926546 31.619125964778803 0 0 0
294 7 8.756042480856406 9.279875922754519 33.70232148503106 0 0 0
296 3 11.062823020639447 11.82447649519836 33.33685509810961 -1 0 0
271 7 1.4663842826783167 0.8963871032629249 33.78042599795322 0 0 0
272 7 3.912183744442449 0.9504048447547603 33.92758542023591 0 0 0
277 7 2.632642011813906 3.073507505623768 33.79846818583292 0 0 0
301 7 0.18294377472008796 1.546665249363213 35.76553923944136 0 0 0
302 7 2.6095830241635376 1.663019953658341 35.86275351958816 0 0 0
306 4 1.4119194617007842 3.8262168663402054 35.96332587618703 0 0 0
307 7 3.9890017353978084 3.726192117114454 35.83372391580048 0 0 0
273 7 6.451946518577979 0.9674811422486507 33.90555261027075 0 0 0
278 1 5.206087983441911 2.990660520610159 33.72026731342825 0 0 0
303 7 5.238798996343133 1.6611197099594741 35.94454576475328 0 0 0
304 4 7.754476640470031 1.6294184795103137 35.928492499753965 0 0 0
308 7 6.5180813459302165 3.699620860008588 35.793817221262536 0 0 0
274 7 8.827152306647525 0.8915432114134044 33.843381155694274 0 0 0
280 7 10.193131357665743 2.986154771545351 33.708159733014 0 0 0
305 7 10.217932531188561 1.5592479873130616 35.731879087876464 0 0 0
309 7 9.007342126366556 3.664490497529922 35.77145866048752 0 0 0
310 4 11.586447872672366 3.9402351699239166 35.86588860427154 0 0 0
335 5 9.895425745255064 12.909914928031634 37.39548248009204 0 -1 0
281 7 1.3098156666989036 5.176167230092409 33.86543250897683 0 0 0
282 4 3.835562775782826 5.1294544763642165 33.76723546092458 0 0 0
286 7 0.07953146741613902 7.275265657232415 33.625550159393924 0 0 0
287 7 2.6197994789191856 7.280175560918712 33.74555177639457 0 0 0
312 7 2.721811793445689 5.78440340200503 35.7858566261095 0 0 0
316 7 1.1994949081786777 7.5931980478383085 35.789004175517626 0 0 0
317 7 3.921247884262164 8.0563650175597 35.73173205850608 0 0 0
288 7 5.172026833584957 7.263675689463099 33.664118549403476 0 0 0
313 7 5.255324811482692 5.911410278692808 35.71348801616814 0 0 0
314 7 7.710767097631639 5.810069463318104 35.735947509477334 0 0 0
318 4 6.5438932372743785 8.115660105327349 35.80405200231495 0 0 0
285 4 11.332659825070238 5.1470223191806985 33.6339757726456 0 0 0
311 2 12.35505300710734 5.996102284740331 35.32173874257317 -1 0 0
315 7 10.122474410080931 5.803105419613138 35.57891360989348 0 0 0
319 7 8.942179142603859 7.961405641861837 35.83537393826472 0 0 0
320 7 11.33386497482384 7.927182960817138 35.59714693771795 0 0 0
355 3 10.426471108238582 7.892873760158468 37.28481296253156 0 0 0
291 7 1.456453739061506 9.418891183864384 33.73117876198789 0 0 0
297 6 3.0141266043916124 11.56879609861779 33.672583304211294 0 0 0
321 6 0.19920694444527873 10.057271816646892 35.91067952370435 0 0 0
322 7 2.689289247172601 10.192028654658095 35.75984577126429 0 0 0
327 6 3.910610932546762 12.50064408120583 36.10857080254217 0 0 0
356 4 1.388215951980878 12.35393401302212 35.84983644428362 0 0 0
293 4 6.438622215135822 9.31400385976661 33.64831240267769 0 0 0
298 2 5.191790545281163 12.279487859476358 34.207321657982604 0 0 0
299 7 6.984297329109029 11.572323207309338 33.6828272185838 0 0 0
323 6 5.222044938355199 10.23263938870655 35.575815333193304 0 0 0
324 7 7.901398801558325 10.350956856486617 35.717609500218884 0 0 0
328 7 6.4571230233548516 12.513185695745447 35.91779413169097 0 0 0
295 6 11.256553066319016 9.691477987567945 33.76491117695029 0 0 0
300 7 9.370033902277875 11.538800312254478 34.17098842806044 0 0 0
325 7 10.242309866253175 9.8356076004133 37.033150740814165 0 0 0
329 3 9.520395999277346 11.39741048140121 36.207475205459666 0 0 0
330 4 11.248261700889186 12.068665152570597 35.58013325087365 0 0 0
332 7 2.4744276248577766 0.09809293242128833 38.03639179887031 0 0 0
336 7 1.3258439852745576 2.1832595462275783 37.83810501395896 0 0 0
337 7 3.8674206722588926 2.19323111376628 37.86673214582705 0 0 0
333 7 5.206895396760698 0.16239118471954794 38.120793954182176 0 0 0
334 7 7.639820108889966 0.06865237191715362 38.00637106070405 0 0 0
338 7 6.521837419311614 2.26385092984269 37.90510380203834 0 0 0
339 7 8.981724112797856 2.1938894126430677 37.86613319307426 0 0 0
340 7 11.359485999024608 2.196252861496609 37.737229359559144 0 0 0
342 7 2.708246994779598 4.289529999012207 37.927065331721096 0 0 0
346 7 1.510460300802956 6.402467442285677 38.00134486482828 0 0 0
347 6 3.9588531285332618 6.471897035228267 37.76606217468248 0 0 0
343 7 5.298572580464267 4.429392118035939 37.83291430163585 0 0 0
344 7 7.822364944481321 4.436761877741094 37.82879720579824 0 0 0
348 6 6.659820239389014 6.664014993706358 37.812007254729764 0 0 0
361 8 9.13325617253683 4.3579825916606785 41.74727144724228 0 0 0
341 7 0.20999523562376954 4.249120568812394 38.07402997357266 0 0 0
345 4 10.21706837417928 4.330665846205545 37.78919796687016 0 0 0
349 7 9.237722527846262 6.621481482551854 37.89456868053352 0 0 0
350 7 11.673630948725307 6.268962019038255 37.30147578831346 0 0 0
362 8 9.878122060919557 4.246820177423884 41.63393585198503 0 0 0
352 6 2.482399621652201 8.655798082572936 37.684442649955514 0 0 0
357 7 3.8362704378961268 10.80200271695898 37.95264575890712 0 0 0
360 7 1.381007877509951 10.898710393983116 37.890813262327484 1 0 0
353 7 5.12167523702986 8.690645695238503 37.825992106192146 0 0 0
354 7 7.945805057774511 8.951770181488927 37.82155510645398 0 0 0
358 6 6.407517029696162 10.85167126834205 37.79174752972452 0 0 0
331 7 12.3820217667162 12.88273431005067 37.63005858267062 -1 -1 0
351 7 12.236012857354737 8.558086374100416 37.84325909834247 -1 0 0
359 2 8.590241445496586 11.164472010058661 37.429810781586745 0 0 0

Velocities

1 0 0 0
2 0 0 0
6 0 0 0
7 0 0 0
31 0 0 0
32 0 0 0
36 0 0 0
37 0 0 0
3 0 0 0
8 0 0 0
9 0 0 0
33 0 0 0
34 0 0 0
38 0 0 0
4 0 0 0
5 0 0 0
10 0 0 0
35 0 0 0
39 0 0 0
40 0 0 0
11 0 0 0
12 0 0 0
16 0 0 0
17 0 0 0
41 0 0 0
42 0 0 0
46 0 0 0
47 0 0 0
13 0 0 0
18 0 0 0
19 0 0 0
43 0 0 0
44 0 0 0
48 0 0 0
14 0 0 0
15 0 0 0
20 0 0 0
45 0 0 0
49 0 0 0
50 0 0 0
21 0 0 0
22 0 0 0
26 0 0 0
27 0 0 0
51 0 0 0
52 0 0 0
56 0 0 0
57 0 0 0
23 0 0 0
28 0 0 0
29 0 0 0
53 0 0 0
54 0 0 0
58 0 0 0
24 0 0 0
25 0 0 0
30 0 0 0
55 0 0 0
59 0 0 0
60 0 0 0
61 0 0 0
62 0 0 0
66 0 0 0
67 0 0 0
91 0 0 0
92 0 0 0
96 0 0 0
97 0 0 0
63 0 0 0
64 0 0 0
68 0 0 0
93 0 0 0
98 0 0 0
99 0 0 0
65 0 0 0
69 0 0 0
70 0 0 0
94 0 0 0
95 0 0 0
100 0 0 0
71 0 0 0
72 0 0 0
76 0 0 0
77 0 0 0
101 0 0 0
102 0 0 0
106 0 0 0
107 0 0 0
73 0 0 0
74 0 0 0
78 0 0 0
103 0 0 0
108 0 0 0
109 0 0 0
75 0 0 0
79 0 0 0
80 0 0 0
104 0 0 0
105 0 0 0
110 0 0 0
81 0 0 0
82 0 0 0
86 0 0 0
87 0 0 0
111 0 0 0
112 0 0 0
116 0 0 0
117 0 0 0
83 0 0 0
84 0 0 0
88 0 0 0
113 0 0 0
118 0 0 0
119 0 0 0
85 0 0 0
89 0 0 0
90 0 0 0
114 0 0 0
115 0 0 0
120 0 0 0
121 0 0 0
122 0 0 0
126 0 0 0
127 0 0 0
152 0 0 0
156 0 0 0
157 0 0 0
162 0 0 0
123 0 0 0
124 0 0 0
128 0 0 0
153 0 0 0
154 0 0 0
158 0 0 0
163 0 0 0
164 0 0 0
125 0 0 0
129 0 0 0
130 0 0 0
155 0 0 0
159 0 0 0
160 0 0 0
165 0 0 0
131 0 0 0
132 0 0 0
136 0 0 0
137 0 0 0
161 0 0 0
166 0 0 0
167 0 0 0
133 0 0 0
134 0 0 0
138 0 0 0
168 0 0 0
173 0 0 0
135 0 0 0
139 0 0 0
140 0 0 0
169 0 0 0
170 0 0 0
175 0 0 0
141 0 0 0
142 0 0 0
146 0 0 0
147 0 0 0
151 0 0 0
171 0 0 0
172 0 0 0
176 0 0 0
177 0 0 0
143 0 0 0
144 0 0 0
148 0 0 0
178 0 0 0
145 0 0 0
149 0 0 0
150 0 0 0
174 0 0 0
179 0 0 0
180 0 0 0
181 0 0 0
182 0 0 0
186 0 0 0
187 0 0 0
211 0 0 0
212 0 0 0
216 0 0 0
217 0 0 0
183 0 0 0
188 0 0 0
189 0 0 0
213 0 0 0
214 0 0 0
218 0 0 0
184 0 0 0
185 0 0 0
190 0 0 0
215 0 0 0
219 0 0 0
220 0 0 0
191 0 0 0
192 0 0 0
197 0 0 0
221 0 0 0
222 0 0 0
226 0 0 0
227 0 0 0
193 0 0 0
198 0 0 0
199 0 0 0
223 0 0 0
224 0 0 0
228 0 0 0
194 0 0 0
195 0 0 0
196 0 0 0
200 0 0 0
225 0 0 0
229 0 0 0
230 0 0 0
201 0 0 0
202 0 0 0
206 0 0 0
207 0 0 0
231 0 0 0
232 0 0 0
236 0 0 0
203 0 0 0
208 0 0 0
209 0 0 0
233 0 0 0
234 0 0 0
238 0 0 0
204 0 0 0
205 0 0 0
210 0 0 0
235 0 0 0
239 0 0 0
240 0 0 0
237 0 0 0
241 0 0 0
242 0 0 0
246 0 0 0
247 0 0 0
276 0 0 0
243 0 0 0
244 0 0 0
248 0 0 0
279 0 0 0
249 0 0 0
250 0 0 0
255 0 0 0
275 0 0 0
251 0 0 0
252 0 0 0
256 0 0 0
257 0 0 0
253 0 0 0
254 0 0 0
258 0 0 0
264 0 0 0
283 0 0 0
289 0 0 0
259 0 0 0
260 0 0 0
284 0 0 0
290 0 0 0
261 0 0 0
262 0 0 0
266 0 0 0
267 0 0 0
292 0 0 0
326 0 0 0
263 0 0 0
268 0 0 0
245 0 0 0
265 0 0 0
269 0 0 0
270 0 0 0
294 0 0 0
296 0 0 0
271 0 0 0
272 0 0 0
277 0 0 0
301 0 0 0
302 0 0 0
306 0 0 0
307 0 0 0
273 0 0 0
278 0 0 0
303 0 0 0
304 0 0 0
308 0 0 0
274 0 0 0
280 0 0 0
305 0 0 0
309 0 0 0
310 0 0 0
335 0 0 0
281 0 0 0
282 0 0 0
286 0 0 0
287 0 0 0
312 0 0 0
316 0 0 0
317 0 0 0
288 0 0 0
313 0 0 0
314 0 0 0
318 0 0 0
285 0 0 0
311 0 0 0
315 0 0 0
319 0 0 0
320 0 0 0
355 0 0 0
291 0 0 0
297 0 0 0
321 0 0 0
322 0 0 0
327 0 0 0
356 0 0 0
293 0 0 0
298 0 0 0
299 0 0 0
323 0 0 0
324 0 0 0
328 0 0 0
295 0 0 0
300 0 0 0
325 0 0 0
329 0 0 0
330 0 0 0
332 0 0 0
336 0 0 0
337 0 0 0
333 0 0 0
334 0 0 0
338 0 0 0
339 0 0 0
340 0 0 0
342 0 0 0
346 0 0 0
347 0 0 0
343 0 0 0
344 0 0 0
348 0 0 0
361 0 0 0
341 0 0 0
345 0 0 0
349 0 0 0
350 0 0 0
362 0 0 0
352 0 0 0
357 0 0 0
360 0 0 0
353 0 0 0
354 0 0 0
358 0 0 0
331 0 0 0
351 0 0 0
359 0 0 0
