LAMMPS data file via write_data, version 11 Feb 2026, timestep = 361, units = metal

362 atoms
8 atom types

0 12.447907776 xlo xhi
0 12.9362452296 ylo yhi
0 52.3600831054 zlo zhi

Masses

1 26.9815
2 10.811
3 12.011
4 51.9961
5 55.845
6 95.95999999999999
7 58.6934
8 1.008

Atoms # atomic/kk

1 7 1.1850290647794974 0.9523983785354259 14.433583329950723 0 0 0
2 7 3.641667207771716 0.8360049700151032 14.80551390909915 0 0 0
6 7 12.381705187426686 3.30048379683147 14.829202145131653 -1 0 0
7 7 2.3956499018840205 3.068844850837035 14.982628012996715 0 0 0
31 6 0.15009772244901387 1.509475364670078 16.654386055996145 0 0 0
32 7 2.60282160377429 1.5940423272130788 16.950633685436053 0 0 0
36 7 1.2143234348750602 3.841561021162763 16.989723448202312 0 0 0
37 7 3.690708198305397 3.7698732078759982 17.038686915881808 0 0 0
3 5 6.0909591870079565 0.8743873244332239 14.93568870038671 0 0 0
8 7 4.893748988517784 3.0431041506562413 14.993629637405451 0 0 0
9 7 7.3813472952071955 3.079221041766303 14.901756753272538 0 0 0
33 7 4.995391520678673 1.6296396551526442 16.971332039401535 0 0 0
34 7 7.427210135504571 1.752816358399784 16.970336514019746 0 0 0
38 5 6.166799256253013 3.8144004074794133 16.963064970394626 0 0 0
4 6 8.683757708481162 0.9243639918797962 15.00288456892494 0 0 0
5 7 11.134927763901462 1.0656235424973828 14.706878111015318 0 0 0
10 7 9.918591042676361 3.219586498247532 14.767103871098733 0 0 0
35 7 9.982752252936754 1.6608482007313876 16.964042116248674 0 0 0
39 7 8.717459153537249 3.856224009570265 16.82960772368182 0 0 0
40 7 11.193465341157198 3.783624810426942 17.00815483969979 0 0 0
11 7 1.1844674651154392 5.406385520017378 15.004921687916104 0 0 0
12 7 3.6081986786649662 5.237014862450428 15.081222645648417 0 0 0
16 4 0.15609693869727148 7.543188642939493 14.656101197407212 0 0 0
17 7 2.3495170219981976 7.638288870382126 15.121389900509579 0 0 0
41 7 12.390341139410143 6.045320437423762 17.136244314755 -1 0 0
42 7 2.403160684875812 6.0855897308314795 17.071443021290847 0 0 0
46 7 0.687821603552161 8.899325104200432 16.732203093225912 0 0 0
47 7 3.80039709514515 8.107457427633285 16.97565036586107 0 0 0
13 7 6.108775461466855 5.230644071237076 15.001383690733183 0 0 0
18 7 4.911909544285619 7.321001459932256 14.96388617039242 0 0 0
19 2 6.869347716130622 7.023009059001402 15.331050659585676 0 0 0
43 7 4.9008002945240925 5.897636641288071 17.0632022680294 0 0 0
44 7 7.395111096670168 5.930347285626775 17.047265895920376 0 0 0
48 7 6.227623284337854 8.031905015451708 17.012787053346727 0 0 0
14 7 8.608334754955408 5.595566465316413 14.944845559468105 0 0 0
15 6 11.086966350486444 5.456185439568501 15.147932700838348 0 0 0
20 7 10.231907548099551 7.499758881134948 14.07460551323381 0 0 0
45 7 9.853989599039602 6.024611145122744 17.222656589485204 0 0 0
49 7 8.51250484091052 7.898277512564613 15.992610169046642 0 0 0
50 7 10.935792568641991 7.97729954992506 16.29582536982169 0 0 0
21 2 1.6086350283280983 9.750274501828944 15.111398766092604 0 0 0
22 7 3.744732840977203 9.481416237841795 14.879319044989382 0 0 0
26 7 0.498987389033269 11.692514985960322 15.65403690699764 0 0 0
27 7 2.5834735476962845 11.506356023234694 14.64441806475326 0 0 0
51 3 11.478327176293007 9.300055847003925 17.55759806051235 -1 0 0
52 7 2.5397891752689126 10.322911296306124 16.88913914557899 0 0 0
56 2 2.0140256210928658 12.931138572451944 15.937719410948707 0 0 0
57 7 3.787364865262202 12.352793558655982 16.819564475847677 0 0 0
23 7 6.6102381650128255 9.120343263145003 14.843691545663226 0 0 0
28 7 5.085003907588726 11.579217674394922 14.757101763255315 0 0 0
29 6 7.597286161457038 11.475196011987526 14.938199863494175 0 0 0
53 7 5.119638794844497 10.170241373663265 16.78918011350714 0 0 0
54 7 7.638842988389782 10.042386102119256 16.96947975748507 0 0 0
58 6 6.362271867063447 12.365157921287445 16.99264100446031 0 0 0
24 7 9.147157840415368 9.631460666586438 14.495210688169493 0 0 0
25 7 11.86151217178091 9.7323454502567 14.67494001730345 0 0 0
30 7 10.166108774589878 11.823612071632814 14.794720069252245 0 0 0
55 7 10.124079927978354 10.24716346964864 16.63284051103662 0 0 0
59 7 8.838102575845854 12.353743004908473 16.992001844397677 0 0 0
60 7 11.191782853959763 12.460314424898959 16.93509554087393 0 0 0
61 6 0.025958695090486122 0.047430628605523675 18.988607568626648 0 0 0
62 7 2.538320497522162 0.06575552947566089 19.05034611384998 0 0 0
66 6 1.3728251693164821 2.245250632657286 19.052103478143128 0 0 0
67 5 3.833875862632048 2.222577921889446 19.079439856071758 0 0 0
91 4 1.3542958847101045 0.7775179960524843 21.305442523548436 0 0 0
92 7 3.7590459712111386 0.7534128393116023 21.081799659840925 0 0 0
96 7 0.07793012732563386 2.845226223691562 21.18515985169786 0 0 0
97 7 2.5934919403426315 2.8765556997122266 21.19340823050395 0 0 0
63 5 5.006918207743041 0.13768135770590312 19.01712451142112 0 0 0
64 7 7.466214135088678 0.1157467111416278 19.136506314221187 0 0 0
68 7 6.212992234515596 2.1993982083209227 19.076087958790662 0 0 0
93 7 6.272307722041053 0.747751229206481 21.200657202593174 0 0 0
98 7 5.0274462261082835 2.8940175087617903 21.14899956093267 0 0 0
99 5 7.484547813961312 2.8416443086520227 21.163632469423845 0 0 0
65 7 9.992685703847782 0.09019979889465078 19.124119575024235 0 0 0
69 7 8.742048666173524 2.1871755178880057 18.996440654265427 0 0 0
70 7 11.270821363691894 2.2836825100425684 18.9837489981528 0 0 0
94 7 8.725764615056622 0.7460109806557841 21.258371548019653 0 0 0
95 7 11.314354250503516 0.7015563923357194 21.205001771562888 0 0 0
100 6 10.028318280248198 2.8154598626964056 21.06943215151477 0 0 0
71 1 12.381802513325443 4.446059958228889 19.145333666106314 -1 0 0
72 7 2.4740217718708277 4.447940444275024 19.06652116431344 0 0 0
76 7 1.1898500861463006 6.510571942721388 19.1860335289975 0 0 0
77 7 3.7491626682352295 6.551264826226339 19.11505410187818 0 0 0
101 7 1.2042300831841217 5.028254690547137 21.212897432359934 0 0 0
102 6 3.72664728676764 5.066958944804667 21.192965152058786 0 0 0
106 7 12.441936864565704 7.138379856049733 21.271197089544803 -1 0 0
107 7 2.463377500100019 7.201692103491865 21.1847687707278 0 0 0
73 7 4.965013348424622 4.3440491830993055 19.05994365147285 0 0 0
74 6 7.4994622989077095 4.316264997089692 19.02247872798067 0 0 0
78 7 6.16459227064745 6.534626093642765 19.1093041569035 0 0 0
103 7 6.273808379160414 5.057595238715965 21.154473597262506 0 0 0
108 7 5.005935304797134 7.232365758367682 21.19764770078179 0 0 0
109 7 7.410408854982092 7.255482955287575 21.25468495914897 0 0 0
75 5 9.901389099851635 4.33722981376122 19.030539092444037 0 0 0
79 7 8.601564505093565 6.488775236443222 19.311193579647238 0 0 0
80 7 11.105753322006567 6.461062904142333 19.31449600738862 0 0 0
104 7 8.733849948538605 5.043132108347551 21.23482662754863 0 0 0
105 3 10.081248359628942 4.411029319989089 22.2877106197688 0 0 0
110 7 9.888365259698183 7.178319511346083 21.282260525851893 0 0 0
81 4 12.34912528433298 8.54042318795924 19.170956086557656 -1 0 0
82 6 2.3615885614967533 8.58762357566787 18.86366506133416 0 0 0
86 7 1.2212452770550617 10.786606535331595 19.035880031738397 0 0 0
87 1 3.784868608966666 10.907791965583584 18.919623952916567 0 0 0
111 7 1.188735441796138 9.340823219929339 21.143117178081617 0 0 0
112 6 3.7214491187574907 9.352212457606216 21.199039568233225 0 0 0
116 1 0.029526315058123347 11.50063717583419 21.23315455556466 0 0 0
117 7 2.4681590463357486 11.55482050834655 21.07824583196079 0 0 0
83 7 4.926065450756995 8.754773493765214 19.02583336911684 0 0 0
84 7 7.375428055624737 8.635087792542501 19.045744420699148 0 0 0
88 7 6.225838236325472 10.842358494980957 19.020149061550104 0 0 0
113 7 6.215617580624946 9.404546392658022 21.039214866847406 0 0 0
118 7 4.987443290844844 11.564830015149086 21.098723257858822 0 0 0
119 4 7.424050475664922 11.572704903569521 21.104270537433063 0 0 0
85 6 9.776053375446702 8.472650725424417 18.52702201778068 0 0 0
89 6 8.738735681845968 10.846267122592268 19.041785496122472 0 0 0
90 4 11.246246833192325 10.801388684167462 18.84116609307499 0 0 0
114 7 8.682626352200051 9.320812854462991 20.977393955098115 0 0 0
115 6 11.096299849700365 9.272707974242723 21.14978905707091 0 0 0
120 7 9.98776509711338 11.538032911206678 21.175609079856056 0 0 0
121 7 0.07882388772416156 1.414126083606914 23.314894498835464 0 0 0
122 7 2.56700067825264 1.4195486876875791 23.330461050151648 0 0 0
126 6 1.3490346140403526 3.6123211523649785 23.251575505197938 0 0 0
127 7 3.8441099962544194 3.6026855828308 23.350802068259423 0 0 0
152 7 2.6431848360391097 0.01807388195115937 25.36965163222494 0 0 0
156 1 1.4733036219882274 2.1499116856809137 25.506953191416063 0 0 0
157 7 3.958745023883608 2.149287439785686 25.441623934125726 0 0 0
162 7 2.5939741100951452 4.277835553157203 25.416544774976572 0 0 0
123 7 4.988605533921612 1.4372137323699252 23.180584722570764 0 0 0
124 7 7.3948901749344795 1.5116869134434259 23.496352641002076 0 0 0
128 7 6.299177236698388 3.667920057548016 23.177648379410805 0 0 0
153 7 5.188219949054199 0.08085926855384933 25.310808481164948 0 0 0
154 7 7.59797562831963 0.010292863495766543 25.48127764607256 0 0 0
158 2 5.776119921709806 2.475697985549011 24.636585341160462 0 0 0
163 7 5.107841824310699 4.25710840195721 25.41586408660898 0 0 0
164 5 7.4648845663024375 4.06569708696969 25.35872368760963 0 0 0
125 7 10.041578331577506 1.4373256229986797 23.368792928348647 0 0 0
129 7 8.746915151819621 3.558767241672406 23.354616382815177 0 0 0
130 4 11.36038416575604 3.636929549574291 23.406338603453502 0 0 0
155 4 10.122872212910831 0.07372048018455886 25.55996072473454 0 0 0
159 7 8.865047877723573 2.10843138399128 25.453689750545585 0 0 0
160 7 11.395895474890338 2.169974681199799 25.422584345220454 0 0 0
165 7 10.056788647979953 4.22895511500031 25.413665946731395 0 0 0
131 7 0.06608196103251682 5.791496644443524 23.37652172517934 0 0 0
132 7 2.5373594612491464 5.8122231964935684 23.331101398889682 0 0 0
136 7 1.3033426165164113 7.930245543343927 23.270437373368914 0 0 0
137 7 3.7749552450435284 7.975184281244811 23.295319415325157 0 0 0
161 4 0.10349143945228159 4.355580095769741 25.456680751744923 0 0 0
166 7 1.334015202245658 6.427443537700763 25.408511840039004 0 0 0
167 7 3.8022492609851852 6.445331148169157 25.432898220207285 0 0 0
133 6 5.058918387940587 5.854173258026396 23.371026155008 0 0 0
134 7 7.550886139155788 5.781895323167736 23.30966002310959 0 0 0
138 7 6.297132992210025 7.994770726019068 23.334116760464436 0 0 0
168 7 6.353651885156686 6.401368150532108 25.4248662099971 0 0 0
173 7 5.102427374388664 8.562348065481046 25.340211882481547 0 0 0
135 7 10.056080970820325 5.840942548987909 23.387381200930697 0 0 0
139 4 8.68656416953269 7.94743440033023 23.232715209511667 0 0 0
140 4 11.281957040279918 7.898723801835088 23.292231559151364 0 0 0
169 7 8.764303054903172 6.337933590036958 25.380675341644583 0 0 0
170 7 11.285921551459756 6.416412439094981 25.437768359988695 0 0 0
175 6 9.884358767888784 8.569331133656027 25.513884649693686 0 0 0
141 7 0.01847441983931112 10.078347399147233 23.309290436062426 0 0 0
142 7 2.4891769358737474 10.120786744794962 23.252278522122896 0 0 0
146 7 1.2925662063000838 12.244319605669261 23.32371385027541 0 0 0
147 7 3.7907144539802564 12.248253676458248 23.184475480301483 0 0 0
151 4 0.08964954930742332 12.888129775359184 25.404749935628338 0 -1 0
171 6 0.10561507380377867 8.625020322071077 25.40182462450364 0 0 0
172 7 2.6155579603620684 8.620117734688398 25.373262266107133 0 0 0
176 7 1.3342944489436503 10.81110227560967 25.41841443680513 0 0 0
177 6 3.8730151322849555 10.827057471130772 25.284947855205775 0 0 0
143 7 5.055094441324336 10.115870277682172 23.2092501278883 0 0 0
144 7 7.49392743994063 10.08702525703537 22.92152624722822 0 0 0
148 4 6.21348716225346 12.280178606618225 23.233291658516695 0 0 0
178 6 6.625406833508154 10.541274147426499 25.235579782199952 0 0 0
145 7 9.994318911163623 10.076271294507844 23.308008087638253 0 0 0
149 6 8.714154315200384 12.27215106879147 23.341410422601374 0 0 0
150 7 11.250588184950985 12.224658200404923 23.39075523581597 0 0 0
174 3 8.413995199778235 9.51590475188713 24.419084012504463 0 0 0
179 5 9.002113825886804 10.925863943281895 25.583108744168413 0 0 0
180 5 11.334147709173246 10.87544034098379 25.492570075012427 0 0 0
181 7 1.3840970949966722 0.6772238661302684 27.491705129766913 0 0 0
182 7 3.8689483102412128 0.7106346270250028 27.438643444164537 0 0 0
186 7 0.1675486482319505 2.870232342268003 27.490150986124302 0 0 0
187 7 2.6546922277356897 2.8626706165548743 27.563341026169155 0 0 0
211 7 0.2053010531922873 1.455039729787475 29.589507653384413 0 0 0
212 7 2.7056766911507952 1.3694257343873388 29.581099926210573 0 0 0
216 7 1.405980059053068 3.5644114272753074 29.586612131787202 0 0 0
217 4 3.818493042880203 3.5797305195740456 29.598743987520244 0 0 0
183 7 6.304960802498278 0.7208317476717406 27.576396709294176 0 0 0
188 7 5.077665556822724 2.880428054192013 27.57452897603843 0 0 0
189 7 7.588997271107207 2.7991480560666893 27.465636389621675 0 0 0
213 5 5.128405924613937 1.4320100042187283 29.602994707000285 0 0 0
214 7 7.60831428436133 1.3610793950409474 29.595905596030722 0 0 0
218 7 6.35699932850709 3.542400023773876 29.54401175472051 0 0 0
184 7 8.88408779498428 0.7262060408861932 27.57272460870438 0 0 0
185 4 11.381492954829824 0.7325647963640273 27.54054092399549 0 0 0
190 7 10.14061770199848 2.840758034774531 27.493786406157064 0 0 0
215 7 10.121241317689696 1.4126173967351503 29.63548352180897 0 0 0
219 7 8.832584134317901 3.518663148694659 29.53027620275187 0 0 0
220 7 11.365424047888338 3.5689660274349273 29.520931642836125 0 0 0
191 7 1.3859052347125977 5.018459855680831 27.463423919019842 0 0 0
192 7 3.8272012013386982 4.997485291480056 27.47996652489434 0 0 0
197 7 2.573469872496467 7.2006350812712965 27.46865410996243 0 0 0
221 7 0.11538047670634095 5.737050401975299 29.56560626158522 0 0 0
222 7 2.584993834969017 5.735943331410488 29.548409641813954 0 0 0
226 7 1.3574979788138282 7.911320220394429 29.545182152999917 0 0 0
227 7 3.8542296482791025 7.919596906427894 29.467278901855792 0 0 0
193 7 6.36293615257032 4.9823117300016095 27.411871726254716 0 0 0
198 7 5.095081913368706 7.17797665363937 27.410936840727896 0 0 0
199 7 7.6115917956214005 7.193467989711861 27.446779041868293 0 0 0
223 6 5.1464744298675615 5.72624484602795 29.490014145535884 0 0 0
224 7 7.637889197287393 5.744262183138106 29.58137821668643 0 0 0
228 7 6.38778027619445 7.917313417580097 29.4945558516037 0 0 0
194 6 8.840775426349156 5.00369946655245 27.493916007271572 0 0 0
195 7 11.35575580971948 5.0044038684362455 27.504687884809993 0 0 0
196 7 0.13122291250224077 7.169561315656266 27.484225472579787 0 0 0
200 7 10.117185894519205 7.163673365808309 27.53554778461672 0 0 0
225 7 10.096011568339792 5.7485020075034186 29.603067882836243 0 0 0
229 7 8.840257901292304 7.889326111197481 29.522774084998858 0 0 0
230 7 11.363062305679625 7.9397589037037735 29.518132711731152 0 0 0
201 5 1.370731264785753 9.335177438776451 27.50527522866687 0 0 0
202 7 3.86528129604206 9.327892284019931 27.378644595479496 0 0 0
206 4 0.18103559639891342 11.48886275318436 27.518166465060755 0 0 0
207 7 2.602034347038545 11.46748396738638 27.437163358481243 0 0 0
231 7 0.1582611669775992 10.088501001569162 29.562518586185398 0 0 0
232 7 2.625042407804279 10.034732612165921 29.42418005043399 0 0 0
236 7 1.4664478987124088 12.19319274183279 29.553710128738256 0 0 0
203 7 6.367559071724838 9.291753579103966 27.39877715886262 0 0 0
208 7 5.13331857771522 11.505597492791242 27.33257464095412 0 0 0
209 6 7.5811551321426425 11.532141108364138 27.644637416985358 0 0 0
233 7 5.1416848514144915 10.060249003609876 29.330004769869543 0 0 0
234 7 7.596461322073219 10.093651812527908 29.666001553026923 0 0 0
238 7 6.208161534290942 12.242786787974428 29.68443166448263 0 0 0
204 7 8.83277135931617 9.373502553894827 27.618650862853265 0 0 0
205 7 11.341513574353332 9.423521389310455 27.53496329485188 0 0 0
210 7 10.1499981274004 11.561836173083606 27.58427772407354 0 0 0
235 7 10.080637574379002 10.186134641995924 29.596937810757858 0 0 0
239 4 8.876123992732092 12.262062342113328 29.735646497573775 0 0 0
240 7 11.391675882743558 12.276686111764992 29.561741439836627 0 0 0
237 3 4.026727143619029 0.3024139415924231 30.554950207268746 0 1 0
241 7 0.19537833146369987 0.11236245652466666 31.635363221881683 0 0 0
242 7 2.5620619487852823 0.15521043049290442 31.740509642868446 0 0 0
246 4 1.339003629726547 2.2569853398988595 31.665192042790952 0 0 0
247 7 3.8737869637104487 2.1659082027068917 31.6442287803234 0 0 0
276 7 0.17214106107234584 3.010904961504836 33.73729951298811 0 0 0
243 7 5.160125632943153 12.916383198392898 32.099534219881264 0 -1 0
244 7 7.6206829868575205 0.014572400747512884 31.714823230910998 0 0 0
248 7 6.400040150000689 2.1620487364634555 31.647581838955677 0 0 0
279 7 7.7209662558350365 3.05633214449293 33.72846369970401 0 0 0
249 7 8.844952489542193 2.1158624527452314 31.683145608572367 0 0 0
250 7 11.379800789733734 2.1534294845626905 31.66146387818034 0 0 0
255 1 10.09900365872543 4.232115887777582 31.500033042931527 0 0 0
275 4 11.438669989667245 0.8130070624738395 33.71664893544755 0 0 0
251 7 0.14243585926894214 4.339836232346481 31.64734153499197 0 0 0
252 7 2.6266180681493334 4.334479890725133 31.667953294640345 0 0 0
256 7 1.3237217642105357 6.517255400050983 31.632199372509614 0 0 0
257 6 3.785649583346818 6.516561489172945 31.66071688104091 0 0 0
253 7 5.105820642982701 4.324054536890196 31.62421190764982 0 0 0
254 7 7.613743494890205 4.324176646499342 31.590191503542794 0 0 0
258 7 6.346159086578788 6.5068614414779375 31.62222541257323 0 0 0
264 7 7.5843109302964695 8.590969415327939 31.62227528180372 0 0 0
283 7 6.37379703764082 5.11522835140555 33.67061455026496 0 0 0
289 7 7.627188136152683 7.200640503452538 33.716119031492596 0 0 0
259 4 8.815809654637242 6.47508690603018 31.626592887417683 0 0 0
260 7 11.30981063053841 6.506041617732202 31.588771536691315 0 0 0
284 5 8.878777633159624 5.133367650547085 33.572399987576176 0 0 0
290 7 10.07801839240731 7.275697490578398 33.59268659468419 0 0 0
261 7 0.17173343971474933 8.725374128876952 31.64677802442367 0 0 0
262 7 2.6584307290358566 8.736094313948726 31.527474576356447 0 0 0
266 7 1.5559927827232733 10.848608650910172 31.569925724407664 0 0 0
267 4 3.910016591538374 11.289266349041206 30.852921154295657 0 0 0
292 7 3.953419282426999 9.387426198316023 33.50143875508078 0 0 0
326 7 0.5014516028385703 11.669682131195026 33.67868537935783 0 0 0
263 1 5.088487489088357 8.774186364337059 31.4214807786949 0 0 0
268 7 6.254006054484344 10.775813758536646 31.58285541477646 0 0 0
245 7 10.105900093231377 12.90068295283803 31.871982208215535 0 -1 0
265 6 10.096155675819599 8.69740002033875 31.540144165985197 0 0 0
269 7 8.769826775265704 10.815548442086358 31.751309627344604 0 0 0
270 7 11.422609126908059 10.921388460252688 31.612234523698017 0 0 0
294 7 8.762667331144904 9.30337743494751 33.69567522536178 0 0 0
296 3 11.069028023225998 11.847723829409505 33.33106569211134 -1 0 0
271 7 1.4720830253272517 0.9203340806177672 33.777808853264276 0 0 0
272 7 3.9174863195196994 0.9724803885151098 33.92570711229896 0 0 0
277 7 2.6386283190812683 3.097362520392015 33.79882108847143 0 0 0
301 7 0.18836640485074177 1.5697481377399987 35.76098592838327 0 0 0
302 7 2.6146675379147535 1.6873539842207426 35.86182110845541 0 0 0
306 4 1.4151318451647812 3.852017333367295 35.96721758190832 0 0 0
307 7 3.9951641567155294 3.7502366991327083 35.83596693026873 0 0 0
273 7 6.455927461366287 0.9878683032676391 33.90157256418539 0 0 0
278 1 5.212367638887452 3.0128196307545734 33.72353321308922 0 0 0
303 7 5.243873528093801 1.684684315787781 35.9428815875871 0 0 0
304 4 7.7574054688255805 1.6513976972039952 35.920815283332836 0 0 0
308 7 6.526100643511881 3.7242916251158174 35.80301709750278 0 0 0
274 7 8.832253181894437 0.9137927445777769 33.84108749259206 0 0 0
280 7 10.198166626488856 3.0111635386525477 33.707591327516965 0 0 0
305 7 10.223530283710645 1.5816351247096783 35.72679530404264 0 0 0
309 7 9.011722015081062 3.688327031902631 35.77340927487827 0 0 0
310 4 11.592464514780442 3.9639478633819003 35.86554752386448 0 0 0
335 5 9.902892384899374 12.931748089032727 37.39631308465119 0 -1 0
281 7 1.3164280847818326 5.199286653037989 33.86304363648605 0 0 0
282 4 3.842124246442549 5.151611863613693 33.76687305646846 0 0 0
286 7 0.08675958779630888 7.298755227563653 33.618658395309346 0 0 0
287 7 2.626006492093564 7.302683561877402 33.74260066671666 0 0 0
312 7 2.728136329983583 5.807207129050757 35.78428438380607 0 0 0
316 7 1.206318886447814 7.61592434802077 35.785227168265905 0 0 0
317 7 3.9267836568319616 8.078299612765502 35.730489814982626 0 0 0
288 7 5.178133193634298 7.284650334118996 33.66448187235438 0 0 0
313 7 5.262086183724677 5.934217322608505 35.71530909407819 0 0 0
314 7 7.719362159736416 5.833570842374041 35.746095051228636 0 0 0
318 4 6.550358146979434 8.136820591694356 35.805611526857625 0 0 0
285 4 11.339834966922378 5.170388885114862 33.62681080414925 0 0 0
311 2 12.361393363460365 6.019938448662416 35.313781790411745 -1 0 0
315 7 10.129795455291003 5.8261841602933755 35.569923438976794 0 0 0
319 7 8.950536427831816 7.990083961890486 35.82408294908544 0 0 0
320 7 11.34196918290749 7.950645653797129 35.590317634176955 0 0 0
355 3 10.434590881158673 7.920302813868285 37.27654235017199 0 0 0
291 7 1.462027793654001 9.441760529661034 33.72608923849276 0 0 0
297 6 3.0194545033498636 11.590258898186264 33.66884888381991 0 0 0
321 6 0.20469676095929357 10.081114737654712 35.9050697260522 0 0 0
322 7 2.69439872690287 10.21368567644175 35.756730356155614 0 0 0
327 6 3.914969056320857 12.523245053843011 36.105048284370405 0 0 0
356 4 1.3940295430360439 12.37666132251737 35.84550960324817 0 0 0
293 4 6.44528183828659 9.33425867322364 33.64915284574111 0 0 0
298 2 5.196420432267092 12.29957849779696 34.203706627603125 0 0 0
299 7 6.990045049923936 11.593159554067592 33.681443874738285 0 0 0
323 6 5.2272607885289535 10.254339291801214 35.574285273292205 0 0 0
324 7 7.907541723484792 10.374070522724354 35.71369307902863 0 0 0
328 7 6.460311017268911 12.535555432968943 35.91476464354085 0 0 0
295 6 11.263214540534403 9.71473191108922 33.75777997245236 0 0 0
300 7 9.376943905466684 11.561341742233694 34.16697290301261 0 0 0
325 7 10.249747363605122 9.86286244903104 37.029763433592294 0 0 0
329 3 9.525600698883261 11.422878044945325 36.203382623706716 0 0 0
330 4 11.254090432959906 12.09327014107989 35.57630334496096 0 0 0
332 7 2.478768074532497 0.12087412585981064 38.03272842739862 0 0 0
336 7 1.3284380283284603 2.205792889026236 37.83730679010718 0 0 0
337 7 3.8720157525278474 2.215665378288481 37.866406898953514 0 0 0
333 7 5.211730523335099 0.18373575493172795 38.117119271858854 0 0 0
334 7 7.645224208552378 0.09023412309844897 38.00184972226105 0 0 0
338 7 6.528157845438637 2.2847111367770405 37.903719476742616 0 0 0
339 7 8.986233365727712 2.2129101980989385 37.850061143760605 0 0 0
340 7 11.363540284098724 2.219107022932452 37.73087236842516 0 0 0
342 7 2.7104998704948517 4.311379029800773 37.92975055293719 0 0 0
346 7 1.5137955335996842 6.4218791657192265 38.001084499847025 0 0 0
347 6 3.962291865710494 6.49342391198649 37.76575145333339 0 0 0
343 7 5.303915008496278 4.451617920770635 37.837021151825546 0 0 0
344 7 7.835264000169014 4.459558148707667 37.856114926654584 0 0 0
348 6 6.661331470909399 6.68499638643156 37.817306484479744 0 0 0
341 7 0.20665936460194012 4.266714691146064 38.086269982438544 0 0 0
345 4 10.219632760934523 4.359800668158157 37.77956464117211 0 0 0
349 7 9.241843722066625 6.646479533526852 37.87136221041463 0 0 0
350 7 11.681645942945567 6.289248564913629 37.29374435343065 0 0 0
361 8 10.003759593967658 3.384725456853411 41.65526946336943 0 0 0
362 8 10.107626991253081 4.136729664118087 41.58421317298104 0 0 0
352 6 2.486494528461037 8.677200153309307 37.682112713015144 0 0 0
357 7 3.8406893157210855 10.824128798456105 37.948949527388365 0 0 0
360 7 1.3857077133534952 10.92095168538423 37.88619658791256 1 0 0
353 7 5.125687090262583 8.712980244434114 37.8255654030177 0 0 0
354 7 7.953350458422086 8.974003212828343 37.816412747190974 0 0 0
358 6 6.413739198445597 10.872967351850752 37.78861625926725 0 0 0
331 7 12.387541015714989 12.906664777238442 37.62590372128325 -1 -1 0
351 7 12.240710070048607 8.57995361961707 37.83759251452118 -1 0 0
359 2 8.59657924131066 11.187210841980868 37.42624008995064 0 0 0

Velocities

1 0 0 0
2 0 0 0
6 0 0 0
7 0 0 0
31 0 0 0
32 0 0 0
36 0 0 0
37 0 0 0
3 0 0 0
8 0 0 0
9 0 0 0
33 0 0 0
34 0 0 0
38 0 0 0
4 0 0 0
5 0 0 0
10 0 0 0
35 0 0 0
39 0 0 0
40 0 0 0
11 0 0 0
12 0 0 0
16 0 0 0
17 0 0 0
41 0 0 0
42 0 0 0
46 0 0 0
47 0 0 0
13 0 0 0
18 0 0 0
19 0 0 0
43 0 0 0
44 0 0 0
48 0 0 0
14 0 0 0
15 0 0 0
20 0 0 0
45 0 0 0
49 0 0 0
50 0 0 0
21 0 0 0
22 0 0 0
26 0 0 0
27 0 0 0
51 0 0 0
52 0 0 0
56 0 0 0
57 0 0 0
23 0 0 0
28 0 0 0
29 0 0 0
53 0 0 0
54 0 0 0
58 0 0 0
24 0 0 0
25 0 0 0
30 0 0 0
55 0 0 0
59 0 0 0
60 0 0 0
61 0 0 0
62 0 0 0
66 0 0 0
67 0 0 0
91 0 0 0
92 0 0 0
96 0 0 0
97 0 0 0
63 0 0 0
64 0 0 0
68 0 0 0
93 0 0 0
98 0 0 0
99 0 0 0
65 0 0 0
69 0 0 0
70 0 0 0
94 0 0 0
95 0 0 0
100 0 0 0
71 0 0 0
72 0 0 0
76 0 0 0
77 0 0 0
101 0 0 0
102 0 0 0
106 0 0 0
107 0 0 0
73 0 0 0
74 0 0 0
78 0 0 0
103 0 0 0
108 0 0 0
109 0 0 0
75 0 0 0
79 0 0 0
80 0 0 0
104 0 0 0
105 0 0 0
110 0 0 0
81 0 0 0
82 0 0 0
86 0 0 0
87 0 0 0
111 0 0 0
112 0 0 0
116 0 0 0
117 0 0 0
83 0 0 0
84 0 0 0
88 0 0 0
113 0 0 0
118 0 0 0
119 0 0 0
85 0 0 0
89 0 0 0
90 0 0 0
114 0 0 0
115 0 0 0
120 0 0 0
121 0 0 0
122 0 0 0
126 0 0 0
127 0 0 0
152 0 0 0
156 0 0 0
157 0 0 0
162 0 0 0
123 0 0 0
124 0 0 0
128 0 0 0
153 0 0 0
154 0 0 0
158 0 0 0
163 0 0 0
164 0 0 0
125 0 0 0
129 0 0 0
130 0 0 0
155 0 0 0
159 0 0 0
160 0 0 0
165 0 0 0
131 0 0 0
132 0 0 0
136 0 0 0
137 0 0 0
161 0 0 0
166 0 0 0
167 0 0 0
133 0 0 0
134 0 0 0
138 0 0 0
168 0 0 0
173 0 0 0
135 0 0 0
139 0 0 0
140 0 0 0
169 0 0 0
170 0 0 0
175 0 0 0
141 0 0 0
142 0 0 0
146 0 0 0
147 0 0 0
151 0 0 0
171 0 0 0
172 0 0 0
176 0 0 0
177 0 0 0
143 0 0 0
144 0 0 0
148 0 0 0
178 0 0 0
145 0 0 0
149 0 0 0
150 0 0 0
174 0 0 0
179 0 0 0
180 0 0 0
181 0 0 0
182 0 0 0
186 0 0 0
187 0 0 0
211 0 0 0
212 0 0 0
216 0 0 0
217 0 0 0
183 0 0 0
188 0 0 0
189 0 0 0
213 0 0 0
214 0 0 0
218 0 0 0
184 0 0 0
185 0 0 0
190 0 0 0
215 0 0 0
219 0 0 0
220 0 0 0
191 0 0 0
192 0 0 0
197 0 0 0
221 0 0 0
222 0 0 0
226 0 0 0
227 0 0 0
193 0 0 0
198 0 0 0
199 0 0 0
223 0 0 0
224 0 0 0
228 0 0 0
194 0 0 0
195 0 0 0
196 0 0 0
200 0 0 0
225 0 0 0
229 0 0 0
230 0 0 0
201 0 0 0
202 0 0 0
206 0 0 0
207 0 0 0
231 0 0 0
232 0 0 0
236 0 0 0
203 0 0 0
208 0 0 0
209 0 0 0
233 0 0 0
234 0 0 0
238 0 0 0
204 0 0 0
205 0 0 0
210 0 0 0
235 0 0 0
239 0 0 0
240 0 0 0
237 0 0 0
241 0 0 0
242 0 0 0
246 0 0 0
247 0 0 0
276 0 0 0
243 0 0 0
244 0 0 0
248 0 0 0
279 0 0 0
249 0 0 0
250 0 0 0
255 0 0 0
275 0 0 0
251 0 0 0
252 0 0 0
256 0 0 0
257 0 0 0
253 0 0 0
254 0 0 0
258 0 0 0
264 0 0 0
283 0 0 0
289 0 0 0
259 0 0 0
260 0 0 0
284 0 0 0
290 0 0 0
261 0 0 0
262 0 0 0
266 0 0 0
267 0 0 0
292 0 0 0
326 0 0 0
263 0 0 0
268 0 0 0
245 0 0 0
265 0 0 0
269 0 0 0
270 0 0 0
294 0 0 0
296 0 0 0
271 0 0 0
272 0 0 0
277 0 0 0
301 0 0 0
302 0 0 0
306 0 0 0
307 0 0 0
273 0 0 0
278 0 0 0
303 0 0 0
304 0 0 0
308 0 0 0
274 0 0 0
280 0 0 0
305 0 0 0
309 0 0 0
310 0 0 0
335 0 0 0
281 0 0 0
282 0 0 0
286 0 0 0
287 0 0 0
312 0 0 0
316 0 0 0
317 0 0 0
288 0 0 0
313 0 0 0
314 0 0 0
318 0 0 0
285 0 0 0
311 0 0 0
315 0 0 0
319 0 0 0
320 0 0 0
355 0 0 0
291 0 0 0
297 0 0 0
321 0 0 0
322 0 0 0
327 0 0 0
356 0 0 0
293 0 0 0
298 0 0 0
299 0 0 0
323 0 0 0
324 0 0 0
328 0 0 0
295 0 0 0
300 0 0 0
325 0 0 0
329 0 0 0
330 0 0 0
332 0 0 0
336 0 0 0
337 0 0 0
333 0 0 0
334 0 0 0
338 0 0 0
339 0 0 0
340 0 0 0
342 0 0 0
346 0 0 0
347 0 0 0
343 0 0 0
344 0 0 0
348 0 0 0
341 0 0 0
345 0 0 0
349 0 0 0
350 0 0 0
361 0 0 0
362 0 0 0
352 0 0 0
357 0 0 0
360 0 0 0
353 0 0 0
354 0 0 0
358 0 0 0
331 0 0 0
351 0 0 0
359 0 0 0
