LAMMPS data file via write_data, version 11 Feb 2026, timestep = 655, units = metal

362 atoms
8 atom types

0 12.447907776 xlo xhi
0 12.9362452296 ylo yhi
0 52.3600831054 zlo zhi

Masses

1 26.9815
2 10.811
3 12.011
4 51.9961
5 55.845
6 95.95999999999999
7 58.6934
8 1.008

Atoms # atomic/kk

1 7 1.1456108159773088 1.4112930143860736 14.172713493232228 0 0 0
2 7 3.6093019343842365 1.0769777229654796 14.666388151294118 0 0 0
6 7 12.37268812122315 3.4630057041350253 14.818734896925248 -1 0 0
7 7 2.4284849546966303 3.2816277586806493 14.988134671770213 0 0 0
31 6 0.13292517731667672 1.5737402686911253 16.541630900129775 0 0 0
32 7 2.60563136148884 1.692173682677996 16.911685986089797 0 0 0
36 7 1.2203781380966723 3.863070924494667 17.025925405391693 0 0 0
37 7 3.711200471570899 3.844216571613619 17.053178460027947 0 0 0
3 5 6.0774070991664475 0.9538799191253159 14.9086538765543 0 0 0
8 7 4.929577426260347 3.1342249867253718 15.006898267211113 0 0 0
9 7 7.391287046835832 3.162329188891678 14.917226480572284 0 0 0
33 7 4.986322627624655 1.6719090060618524 16.95109958534512 0 0 0
34 7 7.410973793252307 1.7760952837694997 16.976118344288754 0 0 0
38 5 6.179537533828214 3.866976902474355 16.985184160174274 0 0 0
4 6 8.641448847357767 1.0036684867461756 14.996979023401547 0 0 0
5 7 11.050614394642784 1.2600403628787926 14.598406433023904 0 0 0
10 7 9.913927362699376 3.39745948307484 14.777147755138433 0 0 0
35 7 9.986311304205264 1.6694109630129406 16.940060002978914 0 0 0
39 7 8.731559881039617 3.8697777269754745 16.85826652400603 0 0 0
40 7 11.191395157844084 3.8138291271637788 16.996630611118352 0 0 0
11 7 1.2357160925073176 5.502025804568975 15.07671865280676 0 0 0
12 7 3.724175061131488 5.323257509199323 15.087510334998607 0 0 0
16 4 0.47025965309047213 7.819549535228409 14.795678336463837 0 0 0
17 7 2.653714073250971 7.502157520228336 15.14979420311218 0 0 0
41 7 12.443014681189853 6.005251717528087 17.222757279283147 -1 0 0
42 7 2.454656161718823 6.134550797592108 17.13754011580705 0 0 0
46 7 0.7955370122482064 9.374275242168581 16.870907917564377 0 0 0
47 7 3.887435684058481 8.204795032166624 17.05948630419736 0 0 0
13 7 6.179605661194788 5.312548255455492 15.030441500484391 0 0 0
18 7 5.0806400902036515 7.485881999885173 15.064723172197949 0 0 0
19 2 7.060652410744558 7.026001109725493 15.385622445543941 0 0 0
43 7 4.953516319351119 5.969908459307318 17.090834281036855 0 0 0
44 7 7.477916516877202 5.947580215126756 17.084053880006415 0 0 0
48 7 6.347609394355372 8.062038605908413 17.045757417153048 0 0 0
14 7 8.705054158660607 5.665672574833193 14.961732313581425 0 0 0
15 6 11.181459907109398 5.6115067073249 15.180981562577244 0 0 0
20 7 10.446331266943762 7.676768024169262 14.180820328910874 0 0 0
45 7 9.92431027398703 6.045594820422886 17.249214642377982 0 0 0
49 7 8.71747777585937 7.928994922434854 16.065743569007378 0 0 0
50 7 11.186317130569556 7.997999102435726 16.449868885041873 0 0 0
21 2 1.166303329491152 10.485406655237815 15.208967313917526 0 0 0
22 7 2.9707394594497973 9.87202793947794 15.641165026628268 0 0 0
26 7 0.1289883676943736 12.211521782479439 14.906550331653058 0 0 0
27 7 2.4832348485774585 11.815311251592533 14.459973694125987 0 0 0
51 3 11.5206150525972 9.377293544944996 17.658386190524926 -1 0 0
52 7 1.351235607605585 11.871658625282572 16.985101246290025 0 0 0
56 2 1.914827719468817 0.32774986399834866 15.60537237414205 0 1 0
57 7 3.75474651331316 12.443743421036945 16.60577275581876 0 0 0
23 7 6.922481896031039 9.012662588171251 14.775278389124173 0 0 0
28 7 4.9605654093068186 11.794089937187433 14.60332674024804 0 0 0
29 6 7.488330528856672 11.49956377695306 14.917280194046926 0 0 0
53 7 5.336767473085199 10.129041078736636 16.323330947388556 0 0 0
54 7 7.734486964998529 10.060885228666319 16.942863952009418 0 0 0
58 6 6.320433832904035 12.37380238612063 16.95091096220854 0 0 0
24 7 9.21215309714961 9.745367499053524 14.538308715783877 0 0 0
25 7 11.763717066448587 9.881582504500201 14.786977581577883 0 0 0
30 7 10.062641059622234 11.952209949761707 14.75791482925637 0 0 0
55 7 10.186185553897722 10.28301037661533 16.677651629873175 0 0 0
59 7 8.837584791224861 12.388089474794068 16.958101189061807 0 0 0
60 7 11.243778087423825 12.474092680509479 16.8789518102341 0 0 0
61 6 0.048638460035456695 0.005756219870754576 18.990901049163497 0 0 0
62 7 2.588373966812111 12.8612969460528 19.03427419826783 0 -1 0
66 6 1.393908938770309 2.172890201289617 19.049551450750222 0 0 0
67 5 3.8319528107332372 2.1767916294020706 19.07349442017794 0 0 0
91 4 1.3618751693806734 0.7559975727371296 21.296166753322417 0 0 0
92 7 3.7541073154960127 0.7313422560631283 21.051274149853338 0 0 0
96 7 0.08297117480613747 2.804021686906579 21.18350395098056 0 0 0
97 7 2.5935878281716245 2.8568230886698696 21.195367095494298 0 0 0
63 5 4.9576420663659535 0.06003874844925032 18.95771077376524 0 0 0
64 7 7.442542287390361 0.08922548004549498 19.09723198374445 0 0 0
68 7 6.195808354451898 2.1659368761290363 19.076040157283753 0 0 0
93 7 6.260688530780182 0.7265334339316367 21.169438044380847 0 0 0
98 7 5.026588519325824 2.88079521561969 21.149557984148 0 0 0
99 5 7.480192139267729 2.822136615955896 21.1651173962707 0 0 0
65 7 10.00269470708918 0.08728326110837678 19.092052584978276 0 0 0
69 7 8.739426495087713 2.1610324674888264 18.991327865212163 0 0 0
70 7 11.287981302999704 2.2452172490702806 18.950072954997793 0 0 0
94 7 8.7149257792504 0.720575121136049 21.232002723649007 0 0 0
95 7 11.305440100351657 0.6774673062500207 21.195476754067414 0 0 0
100 6 10.031835372031455 2.7915887657149088 21.050909952504266 0 0 0
71 1 12.384503304886236 4.385189876875151 19.18227076543588 -1 0 0
72 7 2.484711836065731 4.395958735344471 19.103047686010424 0 0 0
76 7 1.201001057514195 6.441670035308555 19.256068776520838 0 0 0
77 7 3.784824232894284 6.514324800472168 19.16115050173145 0 0 0
101 7 1.2052708402495955 4.99335994191542 21.255493751524046 0 0 0
102 6 3.730665660309764 5.049516605497464 21.225743939723873 0 0 0
106 7 12.436135829740143 7.1038612770253495 21.311933422414505 -1 0 0
107 7 2.469395688780973 7.179844492612325 21.228649000717112 0 0 0
73 7 4.9768478437974135 4.323477147964751 19.083129256551967 0 0 0
74 6 7.502687866243418 4.292431488053281 19.05060123206648 0 0 0
78 7 6.197406120035138 6.52616876757048 19.135869283397852 0 0 0
103 7 6.276083863526582 5.054151205637917 21.1719340217929 0 0 0
108 7 5.012561329603461 7.235682180258979 21.22277620731888 0 0 0
109 7 7.42020779911713 7.25566258579185 21.26101264584726 0 0 0
75 5 9.909608297846644 4.312446430938699 19.029484431472316 0 0 0
79 7 8.626460968759297 6.479102236935915 19.31921674037615 0 0 0
80 7 11.114446391545233 6.427585371356746 19.354150412853517 0 0 0
104 7 8.741732814551625 5.030184513949897 21.239618372875512 0 0 0
105 3 10.085344451295038 4.379048019782099 22.28441538981662 0 0 0
110 7 9.891215829528814 7.173069868018519 21.298133992880622 0 0 0
81 4 12.343559753468494 8.479946719890103 19.19666590238395 -1 0 0
82 6 2.3597135474604936 8.49603825656506 18.911450927698162 0 0 0
86 7 1.2825705910683454 10.697306821457694 19.157439253106357 0 0 0
87 1 3.665851286399756 10.722624731264576 18.261640649234412 0 0 0
111 7 1.180518904493741 9.296628900599773 21.192051015205102 0 0 0
112 6 3.7024873029638434 9.362811621327827 21.139080619533395 0 0 0
116 1 0.03786146967389482 11.493682113621402 21.29370568318341 0 0 0
117 7 2.471271476276303 11.535430352950458 21.141253289167167 0 0 0
83 7 4.947098763497628 8.74005982557499 19.079350463837628 0 0 0
84 7 7.398349086863126 8.646789749367771 19.081580949110602 0 0 0
88 7 6.163364815307753 10.808360556479814 18.92591564774708 0 0 0
113 7 6.214846428245144 9.416281207792174 21.03115560878824 0 0 0
118 7 4.964814646773094 11.547776238492842 21.03840353265078 0 0 0
119 4 7.40039828975222 11.543258468275846 21.070597258302666 0 0 0
85 6 9.788409711168216 8.480414724325692 18.536813607880077 0 0 0
89 6 8.73220574939966 10.857139098817875 19.03431499237407 0 0 0
90 4 11.273104933881955 10.827991587697946 18.934602949944324 0 0 0
114 7 8.70060980912214 9.323076327256581 20.98870832238039 0 0 0
115 6 11.109887791076817 9.258958934472442 21.17159588970089 0 0 0
120 7 9.986758950506845 11.523467521548847 21.178051546392272 0 0 0
121 7 0.07836072218560974 1.3805129917243124 23.309738539856486 0 0 0
122 7 2.5696490939428998 1.3923390675484277 23.32942147262096 0 0 0
126 6 1.3493108567973844 3.575148037442725 23.265660297090825 0 0 0
127 7 3.8448095180197988 3.5789299566372894 23.361321910243557 0 0 0
152 7 2.647568994752654 12.929129073094806 25.373842441730172 0 -1 0
156 1 1.4739025389476317 2.118768746683603 25.515364669470724 0 0 0
157 7 3.9600316603456056 2.1253583398639524 25.44358904661059 0 0 0
162 7 2.592789204640386 4.251055095638567 25.427857783335046 0 0 0
123 7 4.9865919978753235 1.417533602061761 23.161855978206624 0 0 0
124 7 7.388082830813197 1.4887375805363667 23.485552258584654 0 0 0
128 7 6.297712610867306 3.6526473186128636 23.18296117015454 0 0 0
153 7 5.190970686425372 0.059964014662629024 25.292495425833962 0 0 0
154 7 7.593798702653561 12.928153232544538 25.474546774328424 0 -1 0
158 2 5.769563377319171 2.4460155183264924 24.628230518420985 0 0 0
163 7 5.11213708986333 4.2324641276981705 25.420652597035577 0 0 0
164 5 7.471473756593217 4.050418758204473 25.35921636932158 0 0 0
125 7 10.037463143969575 1.4149542690453614 23.354308913158523 0 0 0
129 7 8.745462825804042 3.533638416716848 23.346952591846367 0 0 0
130 4 11.361092459619588 3.6037580050182565 23.40213302509662 0 0 0
155 4 10.11361915830192 0.04920048650778427 25.557751897298413 0 0 0
159 7 8.863574714404585 2.086137005474127 25.44669724961999 0 0 0
160 7 11.395122012574104 2.141501743287179 25.420964385161298 0 0 0
165 7 10.059521469868324 4.204067239378819 25.411818664699542 0 0 0
131 7 0.06468188648850844 5.757690083228937 23.403876193966386 0 0 0
132 7 2.536190979223284 5.785808418921889 23.36008183876633 0 0 0
136 7 1.2963969696115105 7.899271745529508 23.304701856097335 0 0 0
137 7 3.770055093251708 7.967038386996025 23.27784861665897 0 0 0
161 4 0.10282111369643533 4.326373884783034 25.46930096874144 0 0 0
166 7 1.3310403932928148 6.400324454675974 25.43055486168818 0 0 0
167 7 3.8013126411089777 6.424365429723124 25.442494605750163 0 0 0
133 6 5.058558122003834 5.845152469509232 23.386991415690066 0 0 0
134 7 7.552920874151699 5.76431848580372 23.314403368185687 0 0 0
138 7 6.3035186748192675 7.982522992800832 23.34070089992724 0 0 0
168 7 6.3586943453457705 6.381654805537549 25.43259314194217 0 0 0
173 7 5.097555890848591 8.53991597390669 25.331894991936277 0 0 0
135 7 10.057835986984148 5.810624005623157 23.38788979933965 0 0 0
139 4 8.687320561540266 7.927769019884641 23.244417658194497 0 0 0
140 4 11.275141793123113 7.8751506053996 23.318201111248587 0 0 0
169 7 8.76915203029582 6.316482444365083 25.383353498391834 0 0 0
170 7 11.282481028736989 6.392904986364545 25.449126359550522 0 0 0
175 6 9.87801491572422 8.552326721138906 25.524663250674138 0 0 0
141 7 0.012939862298598972 10.052456810353863 23.344006139377743 0 0 0
142 7 2.4888701463169993 10.091018209351065 23.254578955588862 0 0 0
146 7 1.295213974023138 12.219984482801388 23.35059065588132 0 0 0
147 7 3.7992823085976286 12.229319237468141 23.180008225652696 0 0 0
151 4 0.08543642338857464 12.859699812993007 25.415581941618345 0 -1 0
171 6 0.10236880103580769 8.598936852563584 25.43036072376399 0 0 0
172 7 2.6155864841884218 8.594097949447317 25.375721848113784 0 0 0
176 7 1.3350345601598137 10.783751926428502 25.43199762789137 0 0 0
177 6 3.872095200631198 10.80167951272893 25.2736146575015 0 0 0
143 7 5.047608975066103 10.090487339131478 23.18113620418921 0 0 0
144 7 7.498134196283931 10.074374022305882 22.91980442578002 0 0 0
148 4 6.205383293380253 12.255639731180192 23.185143954059722 0 0 0
178 6 6.6099411146083344 10.528300480879508 25.220309356702764 0 0 0
145 7 9.988537407557926 10.059276600897206 23.31611143837834 0 0 0
149 6 8.700742152809553 12.257564765401414 23.329982270382782 0 0 0
150 7 11.23985066503225 12.202725271671017 23.405994705318932 0 0 0
174 3 8.406387489102746 9.494455852109631 24.424020216610323 0 0 0
179 5 8.991077183475475 10.907727502071188 25.583643144148144 0 0 0
180 5 11.328889079688519 10.851707739489514 25.50773081341143 0 0 0
181 7 1.3843561518263716 0.6502583476788585 27.497986878198052 0 0 0
182 7 3.8708015855876066 0.6881901947018919 27.436790193605344 0 0 0
186 7 0.16625182724815785 2.842714280073269 27.496191411579225 0 0 0
187 7 2.6549033739774304 2.83811533609592 27.569078570086642 0 0 0
211 7 0.20546894025036402 1.4298937983823707 29.594889266204223 0 0 0
212 7 2.7064396269336815 1.346129236744156 29.58322289670781 0 0 0
216 7 1.4063408406106694 3.5396431587298474 29.593675260347883 0 0 0
217 4 3.8196357857415477 3.5584975759314554 29.601701366557847 0 0 0
183 7 6.304056737351233 0.700906671625999 27.572455519876083 0 0 0
188 7 5.077793900587595 2.8593508914132735 27.57793095561289 0 0 0
189 7 7.589881296817983 2.7787664642666465 27.464104364434366 0 0 0
213 5 5.1292642894789635 1.4122076392555742 29.603198726875323 0 0 0
214 7 7.607993444690452 1.3405484920465922 29.593938806716064 0 0 0
218 7 6.359098994441205 3.522906454988793 29.54541903292445 0 0 0
184 7 8.880910395707852 0.704468802333082 27.56952584470601 0 0 0
185 4 11.379114224186825 0.7074668910159608 27.543290686184957 0 0 0
190 7 10.140123128391531 2.8170614147430295 27.493164840942846 0 0 0
215 7 10.120606770707324 1.3890092867097246 29.63535075196774 0 0 0
219 7 8.834280768268403 3.4976542305591747 29.532789032377384 0 0 0
220 7 11.364861643025806 3.5440319994845852 29.526824405120582 0 0 0
191 7 1.3859501682953737 4.991379902851834 27.475715246983675 0 0 0
192 7 3.8283716455522456 4.975482331422329 27.484449736713593 0 0 0
197 7 2.573732032961947 7.178242480933092 27.477538140027942 0 0 0
221 7 0.1153399232888564 5.711476869988539 29.57672462168676 0 0 0
222 7 2.586224521685697 5.713472954889754 29.554567974891057 0 0 0
226 7 1.3588756965977544 7.888159495476866 29.55541553179471 0 0 0
227 7 3.8557617747113953 7.899526642385962 29.469685089417677 0 0 0
193 7 6.364691315001933 4.961228900575392 27.415381560723645 0 0 0
198 7 5.097216945628711 7.1594258244236055 27.412582115365367 0 0 0
199 7 7.6165346310997695 7.1743857912428615 27.450124284804 0 0 0
223 6 5.1480423867824 5.707319432072161 29.491412964494764 0 0 0
224 7 7.639499264057069 5.724351950421077 29.583541105893524 0 0 0
228 7 6.38927229713729 7.899480639924962 29.49291750407033 0 0 0
194 6 8.84285342469918 4.9822569941079164 27.49570765006307 0 0 0
195 7 11.355736522616406 4.978983598125184 27.51238287190239 0 0 0
196 7 0.13098845556213468 7.142212930409054 27.50230095588213 0 0 0
200 7 10.118903548352094 7.142619435714593 27.54414486711977 0 0 0
225 7 10.096780962688772 5.725745409216592 29.610071498732513 0 0 0
229 7 8.84186118329962 7.868518491452006 29.529497397573248 0 0 0
230 7 11.363799939532404 7.916074027098206 29.530434904258758 0 0 0
201 5 1.3737428897770503 9.310432170980354 27.517028936982484 0 0 0
202 7 3.86684185538217 9.30686657820787 27.376521497937087 0 0 0
206 4 0.1826607753677366 11.46230414938925 27.52874903893321 0 0 0
207 7 2.6059218514313054 11.44299527388458 27.44001527463427 0 0 0
231 7 0.16080816256197422 10.064379345858548 29.573520371889146 0 0 0
232 7 2.627969876120559 10.012025828788722 29.42878564418568 0 0 0
236 7 1.4691249703835303 12.168740493934434 29.559179317178902 0 0 0
203 7 6.369726270473246 9.271787227756766 27.388872630121718 0 0 0
208 7 5.132747738443354 11.486520213175563 27.32060889909492 0 0 0
209 6 7.577028470636939 11.510810303087917 27.64146287116835 0 0 0
233 7 5.144320883373015 10.042008717294948 29.323869210394747 0 0 0
234 7 7.596350036734081 10.07511256715173 29.666563010292876 0 0 0
238 7 6.206671904442458 12.223170699356327 29.681544934807167 0 0 0
204 7 8.833883980663122 9.354445922663997 27.62729785788751 0 0 0
205 7 11.34025786414696 9.401294754592922 27.551273367882334 0 0 0
210 7 10.146418911676705 11.539400679709988 27.588730525257862 0 0 0
235 7 10.080738263240354 10.16533284732344 29.606390180918247 0 0 0
239 4 8.873980695972465 12.240757570830821 29.73523002856034 0 0 0
240 7 11.392328426043576 12.252834930497318 29.56702647021272 0 0 0
237 3 4.027726244875035 0.2808625823979581 30.55499636837096 0 1 0
241 7 0.19700267532025173 0.08897283560718891 31.641622779065393 0 0 0
242 7 2.5643273804329243 0.13348667645872356 31.74380522819024 0 0 0
246 4 1.3386871008787646 2.2337692978891206 31.67082664213604 0 0 0
247 7 3.8743126870163884 2.1449197958757145 31.644651622023655 0 0 0
276 7 0.17123681363829102 2.987751902584224 33.74384703311956 0 0 0
243 7 5.160725269790242 12.89606121796101 32.0997347580692 0 -1 0
244 7 7.621078432785298 12.930004726236877 31.7134477335096 0 -1 0
248 7 6.401741110588516 2.142085620918215 31.646415719021203 0 0 0
279 7 7.724089702290021 3.035591804973163 33.73092671579164 0 0 0
249 7 8.846147185235488 2.0947105966539303 31.683447160895906 0 0 0
250 7 11.379121767723548 2.129443468978997 31.665911227021034 0 0 0
255 1 10.100419735342312 4.210824909919899 31.508895063051934 0 0 0
275 4 11.436774476092564 0.7890014649903437 33.72185316445164 0 0 0
251 7 0.14254596057017474 4.316037724212843 31.655748157978177 0 0 0
252 7 2.628150234266759 4.312587873690318 31.67230518542692 0 0 0
256 7 1.324282240948263 6.494508477675325 31.639099727319373 0 0 0
257 6 3.7868931188184547 6.496386229989341 31.663641633509645 0 0 0
253 7 5.107662367579684 4.304637640673238 31.62338637192018 0 0 0
254 7 7.616695188378604 4.305258544072588 31.5939530203862 0 0 0
258 7 6.346784423443585 6.488726135463029 31.62229084469462 0 0 0
264 7 7.584723224919386 8.57178158377292 31.623170574811624 0 0 0
283 7 6.374294764716278 5.094960928442884 33.66925121688698 0 0 0
289 7 7.627252134286844 7.180078999454042 33.71603240507181 0 0 0
259 4 8.816392146012458 6.453452595178855 31.632342244099913 0 0 0
260 7 11.30955387304755 6.481879030245354 31.599020268388877 0 0 0
284 5 8.881890947412964 5.110954431291173 33.58642371535627 0 0 0
290 7 10.078145127496816 7.252592204049605 33.601403414862034 0 0 0
261 7 0.17254759366521194 8.701560459012374 31.6572035171276 0 0 0
262 7 2.6590481106959203 8.714158984396978 31.532344808080214 0 0 0
266 7 1.5585226258765041 10.826617487261196 31.57683655770754 0 0 0
267 4 3.912045401130917 11.26856508746035 30.852613935050456 0 0 0
292 7 3.9542402408134207 9.36555760303797 33.50396165023349 0 0 0
326 7 0.5027340082311773 11.646692415015123 33.686201964091815 0 0 0
263 1 5.088622810292216 8.756145283359993 31.420106542760053 0 0 0
268 7 6.2547037743155025 10.756915326786707 31.582263507872682 0 0 0
245 7 10.108011068357719 12.877182694569113 31.87176654804634 0 -1 0
265 6 10.096867818212392 8.674953247485599 31.549417707760576 0 0 0
269 7 8.76982029856424 10.794773964658278 31.754640752417615 0 0 0
270 7 11.424768143955621 10.897615854150475 31.62003327156059 0 0 0
294 7 8.762202081916035 9.282557056619508 33.69911657977353 0 0 0
296 3 11.070449816544304 11.824169753987157 33.33619749308935 -1 0 0
271 7 1.471513343105364 0.8973294869929433 33.78232956625847 0 0 0
272 7 3.9143687605412474 0.9491779344866841 33.92404014825932 0 0 0
277 7 2.637812257213591 3.074219633905521 33.80213727095324 0 0 0
301 7 0.1887241494586541 1.5476896537115137 35.76570236501186 0 0 0
302 7 2.617080947892361 1.6658841283024475 35.86742130862049 0 0 0
306 4 1.4098517208266312 3.83155957770654 35.96349316369015 0 0 0
307 7 3.9926657093080666 3.73004238415641 35.83715181443179 0 0 0
273 7 6.4575794834890905 0.9672181260874982 33.89815779115225 0 0 0
278 1 5.210285133274185 2.9910655719436665 33.71619228750831 0 0 0
303 7 5.236146376936366 1.6628052454739621 35.92743205726798 0 0 0
304 4 7.762318965512776 1.6305284055352707 35.908363845805944 0 0 0
308 7 6.522538530573835 3.7035795227254438 35.79316835000936 0 0 0
274 7 8.834510951035979 0.8905108860265758 33.83618361463947 0 0 0
280 7 10.198122064521824 2.9874360061310044 33.71528277130569 0 0 0
305 7 10.220053409235653 1.55383649192295 35.73214380285831 0 0 0
309 7 9.015120686668578 3.6667642657705373 35.78612753217161 0 0 0
310 4 11.582743149326062 3.9364758596094385 35.86973794598069 0 0 0
335 5 9.904108009078815 12.901516991210078 37.401204178999556 0 -1 0
281 7 1.3190718246728224 5.176798457713862 33.862373279100964 0 0 0
282 4 3.843540144122455 5.130259223410493 33.76893621933294 0 0 0
286 7 0.0875664502100012 7.273796990618339 33.627716748861566 0 0 0
287 7 2.627171041353962 7.281201705516639 33.74567415437933 0 0 0
312 7 2.726166787855623 5.785399247457553 35.78436857336452 0 0 0
316 7 1.208808103705968 7.597305034557021 35.78875978867428 0 0 0
317 7 3.926006193655679 8.056924618983453 35.73333717186074 0 0 0
288 7 5.1789032852486745 7.263672651485155 33.666898885762464 0 0 0
313 7 5.260749214550033 5.911494788843804 35.71712530754239 0 0 0
314 7 7.7178890790392005 5.813689492197679 35.74575191565353 0 0 0
318 4 6.550668687146488 8.116562130865193 35.80615888424264 0 0 0
285 4 11.341946123035068 5.147387843181018 33.64085754723644 0 0 0
311 2 12.368299980905466 5.992572420258357 35.329728710034665 -1 0 0
315 7 10.129654516462589 5.802205857112098 35.58446412958044 0 0 0
319 7 8.951047085714995 7.97001299777309 35.82619847991974 0 0 0
320 7 11.343848625602776 7.925313776108647 35.59810416747765 0 0 0
355 3 10.431951872728314 7.8959792207420385 37.28173334610568 0 0 0
291 7 1.463150042575378 9.419109161075582 33.7332888357545 0 0 0
297 6 3.0207114167187856 11.56795054923544 33.67258953376247 0 0 0
321 6 0.20664856700028816 10.058432646115874 35.91295697977108 0 0 0
322 7 2.6973334510484857 10.194521474602436 35.76257052315267 0 0 0
327 6 3.918989088845549 12.501279335518014 36.10975795992067 0 0 0
356 4 1.3973513792272587 12.356477713521233 35.85190526240448 0 0 0
293 4 6.445042191745707 9.314228516497886 33.6482421891197 0 0 0
298 2 5.197652124012598 12.281295064415522 34.207126855058114 0 0 0
299 7 6.991145634832397 11.572572686022108 33.68259779727335 0 0 0
323 6 5.229116190387108 10.232991029440443 35.57502720163007 0 0 0
324 7 7.907237301271655 10.35303477612034 35.71609723238001 0 0 0
328 7 6.462962871055458 12.517677212762072 35.91509104596644 0 0 0
295 6 11.263961711109431 9.691599631545639 33.76691362369082 0 0 0
300 7 9.378078723202862 11.540361801569778 34.171862306978674 0 0 0
325 7 10.249467056518814 9.839653209103531 37.03577682892158 0 0 0
329 3 9.524776802706288 11.397398061263182 36.20636839937656 0 0 0
330 4 11.255708190318835 12.069562941210677 35.5837165598498 0 0 0
332 7 2.4844365797739463 0.10394336295507735 38.038890248608666 0 0 0
336 7 1.3297567123100251 2.185285252110208 37.83907969686753 0 0 0
337 7 3.881503187300238 2.1984877678636163 37.87426789957145 0 0 0
333 7 5.2141609849533275 0.168681725212873 38.126495105362984 0 0 0
334 7 7.645088930696473 0.07010827265252732 38.00273902394831 0 0 0
338 7 6.527225590669891 2.2552804362170527 37.863186739723375 0 0 0
361 8 6.477917241465374 2.7968470106616476 41.467509514572896 0 0 0
362 8 6.333019866671904 2.0516131353115594 41.48602201137942 0 0 0
339 7 8.976906954455771 2.183137083257759 37.86293627786198 0 0 0
340 7 11.358940532222853 2.1911947046844262 37.73308712198369 0 0 0
342 7 2.7089732647089306 4.288379319899036 37.92852859650454 0 0 0
346 7 1.51190212637224 6.403353688570323 37.99527544412515 0 0 0
347 6 3.960771772893064 6.470383645364352 37.76734149414715 0 0 0
343 7 5.300753843220382 4.427835946430688 37.83487527017108 0 0 0
344 7 7.823250688519729 4.434831108006704 37.85135046024853 0 0 0
348 6 6.655803158134883 6.665510219654564 37.81757967823258 0 0 0
341 7 0.20572883689615754 4.248316697104057 38.07643684332839 0 0 0
345 4 10.212174395370791 4.329889047136511 37.81632545166448 0 0 0
349 7 9.232586915155482 6.6237910849087065 37.869062616458 0 0 0
350 7 11.672127714736309 6.2686233602089345 37.307911614871834 0 0 0
352 6 2.488079544248204 8.65786829104656 37.686790527700325 0 0 0
357 7 3.844244064046163 10.806041077314777 37.955194408858226 0 0 0
360 7 1.3901323208600078 10.902428242009503 37.89148667527387 1 0 0
353 7 5.124744785025409 8.69398816695939 37.82671267045958 0 0 0
354 7 7.9491437365042295 8.954323352686155 37.81891865108362 0 0 0
358 6 6.412368763173034 10.855664633516966 37.790958276105044 0 0 0
331 7 12.390494649583221 12.883877392693579 37.632184680245686 -1 -1 0
351 7 12.241681037441143 8.557960742857622 37.84411841566034 -1 0 0
359 2 8.594669446498981 11.164090201776505 37.43106256740182 0 0 0

Velocities

1 0 0 0
2 0 0 0
6 0 0 0
7 0 0 0
31 0 0 0
32 0 0 0
36 0 0 0
37 0 0 0
3 0 0 0
8 0 0 0
9 0 0 0
33 0 0 0
34 0 0 0
38 0 0 0
4 0 0 0
5 0 0 0
10 0 0 0
35 0 0 0
39 0 0 0
40 0 0 0
11 0 0 0
12 0 0 0
16 0 0 0
17 0 0 0
41 0 0 0
42 0 0 0
46 0 0 0
47 0 0 0
13 0 0 0
18 0 0 0
19 0 0 0
43 0 0 0
44 0 0 0
48 0 0 0
14 0 0 0
15 0 0 0
20 0 0 0
45 0 0 0
49 0 0 0
50 0 0 0
21 0 0 0
22 0 0 0
26 0 0 0
27 0 0 0
51 0 0 0
52 0 0 0
56 0 0 0
57 0 0 0
23 0 0 0
28 0 0 0
29 0 0 0
53 0 0 0
54 0 0 0
58 0 0 0
24 0 0 0
25 0 0 0
30 0 0 0
55 0 0 0
59 0 0 0
60 0 0 0
61 0 0 0
62 0 0 0
66 0 0 0
67 0 0 0
91 0 0 0
92 0 0 0
96 0 0 0
97 0 0 0
63 0 0 0
64 0 0 0
68 0 0 0
93 0 0 0
98 0 0 0
99 0 0 0
65 0 0 0
69 0 0 0
70 0 0 0
94 0 0 0
95 0 0 0
100 0 0 0
71 0 0 0
72 0 0 0
76 0 0 0
77 0 0 0
101 0 0 0
102 0 0 0
106 0 0 0
107 0 0 0
73 0 0 0
74 0 0 0
78 0 0 0
103 0 0 0
108 0 0 0
109 0 0 0
75 0 0 0
79 0 0 0
80 0 0 0
104 0 0 0
105 0 0 0
110 0 0 0
81 0 0 0
82 0 0 0
86 0 0 0
87 0 0 0
111 0 0 0
112 0 0 0
116 0 0 0
117 0 0 0
83 0 0 0
84 0 0 0
88 0 0 0
113 0 0 0
118 0 0 0
119 0 0 0
85 0 0 0
89 0 0 0
90 0 0 0
114 0 0 0
115 0 0 0
120 0 0 0
121 0 0 0
122 0 0 0
126 0 0 0
127 0 0 0
152 0 0 0
156 0 0 0
157 0 0 0
162 0 0 0
123 0 0 0
124 0 0 0
128 0 0 0
153 0 0 0
154 0 0 0
158 0 0 0
163 0 0 0
164 0 0 0
125 0 0 0
129 0 0 0
130 0 0 0
155 0 0 0
159 0 0 0
160 0 0 0
165 0 0 0
131 0 0 0
132 0 0 0
136 0 0 0
137 0 0 0
161 0 0 0
166 0 0 0
167 0 0 0
133 0 0 0
134 0 0 0
138 0 0 0
168 0 0 0
173 0 0 0
135 0 0 0
139 0 0 0
140 0 0 0
169 0 0 0
170 0 0 0
175 0 0 0
141 0 0 0
142 0 0 0
146 0 0 0
147 0 0 0
151 0 0 0
171 0 0 0
172 0 0 0
176 0 0 0
177 0 0 0
143 0 0 0
144 0 0 0
148 0 0 0
178 0 0 0
145 0 0 0
149 0 0 0
150 0 0 0
174 0 0 0
179 0 0 0
180 0 0 0
181 0 0 0
182 0 0 0
186 0 0 0
187 0 0 0
211 0 0 0
212 0 0 0
216 0 0 0
217 0 0 0
183 0 0 0
188 0 0 0
189 0 0 0
213 0 0 0
214 0 0 0
218 0 0 0
184 0 0 0
185 0 0 0
190 0 0 0
215 0 0 0
219 0 0 0
220 0 0 0
191 0 0 0
192 0 0 0
197 0 0 0
221 0 0 0
222 0 0 0
226 0 0 0
227 0 0 0
193 0 0 0
198 0 0 0
199 0 0 0
223 0 0 0
224 0 0 0
228 0 0 0
194 0 0 0
195 0 0 0
196 0 0 0
200 0 0 0
225 0 0 0
229 0 0 0
230 0 0 0
201 0 0 0
202 0 0 0
206 0 0 0
207 0 0 0
231 0 0 0
232 0 0 0
236 0 0 0
203 0 0 0
208 0 0 0
209 0 0 0
233 0 0 0
234 0 0 0
238 0 0 0
204 0 0 0
205 0 0 0
210 0 0 0
235 0 0 0
239 0 0 0
240 0 0 0
237 0 0 0
241 0 0 0
242 0 0 0
246 0 0 0
247 0 0 0
276 0 0 0
243 0 0 0
244 0 0 0
248 0 0 0
279 0 0 0
249 0 0 0
250 0 0 0
255 0 0 0
275 0 0 0
251 0 0 0
252 0 0 0
256 0 0 0
257 0 0 0
253 0 0 0
254 0 0 0
258 0 0 0
264 0 0 0
283 0 0 0
289 0 0 0
259 0 0 0
260 0 0 0
284 0 0 0
290 0 0 0
261 0 0 0
262 0 0 0
266 0 0 0
267 0 0 0
292 0 0 0
326 0 0 0
263 0 0 0
268 0 0 0
245 0 0 0
265 0 0 0
269 0 0 0
270 0 0 0
294 0 0 0
296 0 0 0
271 0 0 0
272 0 0 0
277 0 0 0
301 0 0 0
302 0 0 0
306 0 0 0
307 0 0 0
273 0 0 0
278 0 0 0
303 0 0 0
304 0 0 0
308 0 0 0
274 0 0 0
280 0 0 0
305 0 0 0
309 0 0 0
310 0 0 0
335 0 0 0
281 0 0 0
282 0 0 0
286 0 0 0
287 0 0 0
312 0 0 0
316 0 0 0
317 0 0 0
288 0 0 0
313 0 0 0
314 0 0 0
318 0 0 0
285 0 0 0
311 0 0 0
315 0 0 0
319 0 0 0
320 0 0 0
355 0 0 0
291 0 0 0
297 0 0 0
321 0 0 0
322 0 0 0
327 0 0 0
356 0 0 0
293 0 0 0
298 0 0 0
299 0 0 0
323 0 0 0
324 0 0 0
328 0 0 0
295 0 0 0
300 0 0 0
325 0 0 0
329 0 0 0
330 0 0 0
332 0 0 0
336 0 0 0
337 0 0 0
333 0 0 0
334 0 0 0
338 0 0 0
361 0 0 0
362 0 0 0
339 0 0 0
340 0 0 0
342 0 0 0
346 0 0 0
347 0 0 0
343 0 0 0
344 0 0 0
348 0 0 0
341 0 0 0
345 0 0 0
349 0 0 0
350 0 0 0
352 0 0 0
357 0 0 0
360 0 0 0
353 0 0 0
354 0 0 0
358 0 0 0
331 0 0 0
351 0 0 0
359 0 0 0
