LAMMPS data file via write_data, version 11 Feb 2026, timestep = 342, units = metal

362 atoms
8 atom types

0 12.447907776 xlo xhi
0 12.9362452296 ylo yhi
0 52.3600831054 zlo zhi

Masses

1 26.9815
2 10.811
3 12.011
4 51.9961
5 55.845
6 95.95999999999999
7 58.6934
8 1.008

Atoms # atomic/kk

1 7 1.1370283888907253 1.399429000387091 14.173703813920207 0 0 0
2 7 3.6007347457842096 1.0650913987181958 14.667420789267311 0 0 0
6 7 12.364107186738629 3.451138299292025 14.819713354789243 -1 0 0
7 7 2.4199098388085134 3.269741832248614 14.989150929251872 0 0 0
31 6 0.12434436587161705 1.5618875557335126 16.542634711806674 0 0 0
32 7 2.5970519323535335 1.680305833616463 16.912713446771356 0 0 0
36 7 1.211792128470426 3.851225938420866 17.02690696847149 0 0 0
37 7 3.7026224027975543 3.8323343123440528 17.054207216840215 0 0 0
3 5 6.068813761453554 0.9419751992683623 14.909741964305644 0 0 0
8 7 4.9209926812272675 3.1223214736339813 15.007959109176433 0 0 0
9 7 7.382685305718666 3.150443428919359 14.91825811348482 0 0 0
33 7 4.9777372829764035 1.6600262804513226 16.95219624713108 0 0 0
34 7 7.402372118021292 1.7642108305570348 16.97716479299731 0 0 0
38 5 6.170951362583384 3.8550931476110537 16.986224721722426 0 0 0
4 6 8.63286230078663 0.9918203753403587 14.998004132964871 0 0 0
5 7 11.042021748209033 1.248180109047126 14.599419944654633 0 0 0
10 7 9.905329459289344 3.385602546507296 14.778153255730508 0 0 0
35 7 9.977722421776653 1.657563521983856 16.941077949974503 0 0 0
39 7 8.722956376527256 3.8579057273321786 16.859282818821335 0 0 0
40 7 11.1828016687536 3.8019924952950315 16.997596524869216 0 0 0
11 7 1.2271492084993962 5.490161451652124 15.077658678579454 0 0 0
12 7 3.715607837372684 5.311361203464561 15.08850949620782 0 0 0
16 4 0.4617051865795171 7.807715288999321 14.796650423424586 0 0 0
17 7 2.645149131650884 7.49028816548035 15.150790819798408 0 0 0
41 7 12.434445630541104 5.993414968348091 17.223653442411226 -1 0 0
42 7 2.446109461434328 6.122646485920269 17.138494393086283 0 0 0
46 7 0.7869237546965026 9.362467039933291 16.871870325947935 0 0 0
47 7 3.878865336538755 8.192911448005237 17.06050674088278 0 0 0
13 7 6.1710250389152455 5.300657674048128 15.031458540474778 0 0 0
18 7 5.072059092974966 7.473984122199788 15.065746301667247 0 0 0
19 2 7.052049984912359 7.014133062722042 15.38662586349821 0 0 0
43 7 4.944942353382434 5.958014668477327 17.091854719860752 0 0 0
44 7 7.469325732628517 5.935703001175187 17.085051606773952 0 0 0
48 7 6.339022681062739 8.050151472526434 17.046795548717327 0 0 0
14 7 8.696464383086761 5.6538142363781905 14.962717427941081 0 0 0
15 6 11.17288569971587 5.599645874546536 15.181900892180593 0 0 0
20 7 10.437754082997886 7.664916968711421 14.181765428654037 0 0 0
45 7 9.91571089458896 6.0337344901399055 17.250121913706227 0 0 0
49 7 8.7088727074345 7.917151972153101 16.0666798212213 0 0 0
50 7 11.17771620708446 7.98614169311038 16.45080689180708 0 0 0
21 2 1.1577208509184729 10.473564154679984 15.209946986497943 0 0 0
22 7 2.962149043090934 9.860159438018346 15.642189633033803 0 0 0
26 7 0.12040276888662702 12.199667353239628 14.907536718464721 0 0 0
27 7 2.4746595389131754 11.803452434357597 14.460997941801063 0 0 0
51 3 11.511955552402618 9.36548053677417 17.659261158464005 -1 0 0
52 7 1.342639031284454 11.859839406742795 16.986111330105338 0 0 0
56 2 1.9062426193629114 0.31590628971802415 15.606375041994827 0 1 0
57 7 3.7461529562648304 12.431875287473304 16.60682891852911 0 0 0
23 7 6.913839157757805 9.000828695582653 14.77631739051062 0 0 0
28 7 4.951972828231277 11.782178639958609 14.604405971982134 0 0 0
29 6 7.479737526392625 11.487695537475195 14.918351937025285 0 0 0
53 7 5.328150809386561 10.117168255944557 16.324439539761876 0 0 0
54 7 7.725861483471957 10.049001483369228 16.943924459622444 0 0 0
58 6 6.311821867070435 12.361912832849661 16.952008708368634 0 0 0
24 7 9.203527588555918 9.733507726039054 14.539188828138155 0 0 0
25 7 11.755126061753417 9.86973463100002 14.787924404729687 0 0 0
30 7 10.054027315066694 11.940356424266417 14.758879541171037 0 0 0
55 7 10.17751564261849 10.271156160629031 16.678545040422637 0 0 0
59 7 8.828978187960564 12.376237742016517 16.959111776952216 0 0 0
60 7 11.23517000697026 12.462240042647613 16.87990815136166 0 0 0
61 6 0.04003986303304932 12.930221587302054 18.991881921194608 0 -1 0
62 7 2.5797761278155 12.849476258143984 19.035358751693117 0 -1 0
66 6 1.385314530937213 2.1610803332037856 19.050541150552778 0 0 0
67 5 3.823366807811443 2.164906262209713 19.07457899032935 0 0 0
91 4 1.3532927409326672 0.7441771291613551 21.297212848348565 0 0 0
92 7 3.7455432159541435 0.7194474953545447 21.052407362774762 0 0 0
96 7 0.07437681045305003 2.792216592178122 21.184454914467576 0 0 0
97 7 2.5850312799264494 2.844940434391077 21.19636747712153 0 0 0
63 5 4.949060372078775 0.048160767970478816 18.958862985162895 0 0 0
64 7 7.433953266089076 0.0773789073288186 19.098292947528805 0 0 0
68 7 6.187220582788126 2.1540436644350986 19.077158613323476 0 0 0
93 7 6.252144598667612 0.71463823186065 21.170663243952973 0 0 0
98 7 5.018015132546521 2.868875385461247 21.15070385723893 0 0 0
99 5 7.471595853925316 2.8103105455024515 21.16619689292373 0 0 0
65 7 9.994108157106952 0.07546719854523627 19.093009684546843 0 0 0
69 7 8.730830703793128 2.1492033090753626 18.992340643324503 0 0 0
70 7 11.279372831376374 2.233423500577594 18.951076475488108 0 0 0
94 7 8.706360831753711 0.7087875190304004 21.232958071644905 0 0 0
95 7 11.296836550972525 0.6656999496128956 21.196468555762415 0 0 0
100 6 10.023216357876906 2.779800412975971 21.051903440973323 0 0 0
71 1 12.375911593663787 4.37338076323016 19.18320538923362 -1 0 0
72 7 2.4761523340628626 4.3841028662592985 19.104048093005684 0 0 0
76 7 1.1924534926992707 6.429830160604376 19.256932292420977 0 0 0
77 7 3.7762430317378577 6.502459408677884 19.162162522477818 0 0 0
101 7 1.1967259139796624 4.981514414559906 21.256354978126446 0 0 0
102 6 3.7221204533331043 5.037611481994705 21.226785292430517 0 0 0
106 7 12.42758224045888 7.092039896539866 21.312659022076588 -1 0 0
107 7 2.460846843884329 7.167966496526205 21.229560100425072 0 0 0
73 7 4.968264532284962 4.311576572932839 19.08418612873861 0 0 0
74 6 7.494081670649736 4.280567530522181 19.051645848116667 0 0 0
78 7 6.188800771171799 6.514292910694585 19.136907253606005 0 0 0
103 7 6.267476872788874 5.042270263215828 21.17301900126235 0 0 0
108 7 5.003974431435152 7.223781950798954 21.22389099275575 0 0 0
109 7 7.411580592931264 7.243804474070522 21.261998982130237 0 0 0
75 5 9.901003123875284 4.300637775074553 19.030464893824796 0 0 0
79 7 8.617846104585682 6.467250251264731 19.32013461184029 0 0 0
80 7 11.105855551907073 6.4157661841613365 19.354979128033037 0 0 0
104 7 8.733087306323018 5.018405324379972 21.24061938077917 0 0 0
105 3 10.076656229583143 4.367237768004146 22.285419200667594 0 0 0
110 7 9.882634206698565 7.161301449223071 21.29891855851212 0 0 0
81 4 12.334996540994807 8.468104819157675 19.197458026399907 -1 0 0
82 6 2.3511507565015823 8.484226780228498 18.912445429201767 0 0 0
86 7 1.2739644940940478 10.685502032947552 19.158426913634614 0 0 0
87 1 3.6572919382971385 10.71082393320675 18.26276488080133 0 0 0
111 7 1.1719418187910913 9.284805372338234 21.192956960898243 0 0 0
112 6 3.693898687143484 9.350930503666802 21.14021042070389 0 0 0
116 1 0.029247390875767634 11.481916544573235 21.29465673935693 0 0 0
117 7 2.462677664132844 11.523570727524838 21.142316835648117 0 0 0
83 7 4.938487220455574 8.728196771141285 19.080417376555662 0 0 0
84 7 7.389731510963653 8.634949625757583 19.082643280964305 0 0 0
88 7 6.1547673296565115 10.79650022507738 18.927029775745655 0 0 0
113 7 6.2062076359805705 9.40440560705458 21.032234917222645 0 0 0
118 7 4.956252287148633 11.535904285545323 21.039629696538043 0 0 0
119 4 7.391808540973943 11.531430364142892 21.071610433809532 0 0 0
85 6 9.779761662725788 8.468584501328591 18.537726570857686 0 0 0
89 6 8.723629241541197 10.845299248475383 19.0353164714007 0 0 0
90 4 11.264533858349592 10.816194127863318 18.935461728733532 0 0 0
114 7 8.691970518169754 9.311299198633463 20.98976212563716 0 0 0
115 6 11.101304822142453 9.247202359491176 21.172320556356922 0 0 0
120 7 9.978154942171816 11.511718275571216 21.17896817770789 0 0 0
121 7 0.06972814188526279 1.3687395965237088 23.310731449624736 0 0 0
122 7 2.5610645757502217 1.380472811344884 23.330526276099885 0 0 0
126 6 1.3407376609177615 3.563314504524852 23.266560859650003 0 0 0
127 7 3.8362345128053223 3.566990519450685 23.362473776937325 0 0 0
152 7 2.639047610636035 12.917299381154345 25.375001422618922 0 -1 0
156 1 1.4653989178887243 2.1069623531518324 25.51626921208182 0 0 0
157 7 3.951565168769131 2.113396596785265 25.44501460529578 0 0 0
162 7 2.58426653273584 4.2391197452904015 25.42887410163303 0 0 0
123 7 4.977969741485683 1.405601280071824 23.16309433626271 0 0 0
124 7 7.3794632351748985 1.4769295432642187 23.486678920195107 0 0 0
128 7 6.289080001150076 3.6407864890417323 23.184088049636905 0 0 0
153 7 5.182338687755039 0.047990643251674896 25.29389000572638 0 0 0
154 7 7.585092931641576 12.916319526746609 25.475738070481334 0 -1 0
158 2 5.76098301929174 2.43413169542305 24.6293478528363 0 0 0
163 7 5.103487619590104 4.220380870036701 25.42202583674722 0 0 0
164 5 7.462731203786911 4.038476848570404 25.360493098007773 0 0 0
125 7 10.028758564371428 1.4032280559320218 23.35538951426773 0 0 0
129 7 8.736795786854037 3.521870831590565 23.348032695800093 0 0 0
130 4 11.352454613197612 3.591956627590551 23.403065568232506 0 0 0
155 4 10.104794487895225 0.03759892051325776 25.558798238535097 0 0 0
159 7 8.85471425801043 2.0743770986598977 25.448002215017233 0 0 0
160 7 11.386369313907375 2.1297279031528564 25.421907022844902 0 0 0
165 7 10.05083258981096 4.192227883147847 25.412735844890467 0 0 0
131 7 0.05606807641859272 5.745853967438435 23.404464485752943 0 0 0
132 7 2.527631213812702 5.773913412825891 23.36099793181935 0 0 0
136 7 1.2878592293037996 7.887425012669545 23.30546527836627 0 0 0
137 7 3.7614929670730546 7.9551195762272275 23.278922144497354 0 0 0
161 4 0.09423052247623302 4.314531076882927 25.469900605854527 0 0 0
166 7 1.322454932836596 6.388443930808917 25.43116073006947 0 0 0
167 7 3.792689995532842 6.412312273031264 25.443634489810023 0 0 0
133 6 5.04994522829595 5.833211364062617 23.388156893564556 0 0 0
134 7 7.544254170671636 5.7524593094294945 23.315480757361353 0 0 0
138 7 6.2949421603077385 7.970609954040284 23.341928683128373 0 0 0
168 7 6.349982086084928 6.369388624971242 25.433890984516538 0 0 0
173 7 5.088930839806283 8.527751249225878 25.333168358607033 0 0 0
135 7 10.049172201568878 5.798906975513251 23.388728646333494 0 0 0
139 4 8.678652981294274 7.915894621201671 23.245170551401184 0 0 0
140 4 11.266661815452329 7.86337881805423 23.318784375352465 0 0 0
169 7 8.760522273279014 6.304588317624765 25.384320447162093 0 0 0
170 7 11.27395772628337 6.381073925722383 25.44964568074684 0 0 0
175 6 9.869691229928998 8.540441719957721 25.52502212830343 0 0 0
141 7 0.004314581608057259 10.040711450860334 23.344794251982577 0 0 0
142 7 2.4802639982831214 10.079181999480234 23.25564979662732 0 0 0
146 7 1.286549527307947 12.2081965286354 23.351670594006254 0 0 0
147 7 3.7906348002131525 12.217420091261245 23.181174214553725 0 0 0
151 4 0.07676205634485876 12.848006414025825 25.41671284669979 0 -1 0
171 6 0.09392559758847284 8.587186518249137 25.430974600409925 0 0 0
172 7 2.607010869689288 8.582237641537326 25.37665521439541 0 0 0
176 7 1.3264083822033426 10.772033448059895 25.43298610818047 0 0 0
177 6 3.8635459525599165 10.789753268885718 25.274788007620767 0 0 0
143 7 5.038982925848929 10.078549714454468 23.182325230667495 0 0 0
144 7 7.489395700804216 10.062621016890237 22.92084341974218 0 0 0
148 4 6.196682720790948 12.24376430612932 23.18653513271845 0 0 0
178 6 6.601330087990901 10.516137004404657 25.221585150481335 0 0 0
145 7 9.979847359004532 10.0474740287641 23.31677803254712 0 0 0
149 6 8.692042069870533 12.245831835588852 23.330936800351076 0 0 0
150 7 11.23114922051624 12.191014370698184 23.406968448777796 0 0 0
174 3 8.39769074636359 9.48241483114157 24.42485789238263 0 0 0
179 5 8.982474939282664 10.895935259762494 25.584147930014986 0 0 0
180 5 11.320244571016502 10.839964344777563 25.508337087501562 0 0 0
181 7 1.3758298002319072 0.6385915635228933 27.498951006109106 0 0 0
182 7 3.8623314224638308 0.6762226014384494 27.438350031073025 0 0 0
186 7 0.1575719906527362 2.8309307810944953 27.49671164762169 0 0 0
187 7 2.646401351788265 2.8261107644083783 27.57029677885976 0 0 0
211 7 0.19678562360611068 1.4180936243147007 29.595263406284975 0 0 0
212 7 2.6984775763603754 1.3339640175007959 29.584796109710556 0 0 0
216 7 1.3976112665474032 3.527722063041868 29.593859944436016 0 0 0
217 4 3.8111560303480307 3.546282068794445 29.603687613455392 0 0 0
183 7 6.295473239407891 0.6889416164217353 27.574236567198263 0 0 0
188 7 5.0691373964210396 2.847283092039842 27.579932946136292 0 0 0
189 7 7.580992158386391 2.7668537228582326 27.465848221223897 0 0 0
213 5 5.121253860876511 1.4002413673558982 29.60561925694743 0 0 0
214 7 7.599234354413453 1.3288988709682346 29.59628637083082 0 0 0
218 7 6.350292141505493 3.5105105621876116 29.548012585835306 0 0 0
184 7 8.872040622197582 0.6928167564214215 27.57107762397951 0 0 0
185 4 11.370221593656124 0.6958926039696269 27.544471811913624 0 0 0
190 7 10.131296561832892 2.80519369897029 27.494299420890446 0 0 0
215 7 10.111401365132679 1.3773347543199248 29.6374704135695 0 0 0
219 7 8.8254273954096 3.4855501635094788 29.534390522292785 0 0 0
220 7 11.35612933644373 3.5321732767144445 29.527239266303308 0 0 0
191 7 1.3772909831250502 4.9795301602738595 27.47626467047018 0 0 0
192 7 3.819702488079063 4.963359154025553 27.485807826830058 0 0 0
197 7 2.564940212671206 7.166382088639888 27.478195082587447 0 0 0
221 7 0.10664956395052265 5.699626984365842 29.57679961038901 0 0 0
222 7 2.577442601782282 5.70169615185994 29.55510582152393 0 0 0
226 7 1.3500126711048979 7.876699209875937 29.555616853297604 0 0 0
227 7 3.846887975527871 7.887255104961826 29.47055267325894 0 0 0
193 7 6.355780581017149 4.949009647905778 27.417004052699955 0 0 0
198 7 5.088400028345365 7.147034487551246 27.414027080695213 0 0 0
199 7 7.607577138887321 7.162107465277791 27.451111353465997 0 0 0
223 6 5.139172613372844 5.694571340005361 29.49348538146175 0 0 0
224 7 7.63060635499951 5.711768449188754 29.584843076826736 0 0 0
228 7 6.380357615368041 7.886677565704706 29.49394004254586 0 0 0
194 6 8.833987450190554 4.970161401872454 27.496666898879063 0 0 0
195 7 11.347008491979466 4.967099764881757 27.51278740858896 0 0 0
196 7 0.122304666013205 7.130397583189346 27.50262883439792 0 0 0
200 7 10.110154268382004 7.1306540566147545 27.544424521939312 0 0 0
225 7 10.088021257358623 5.713733792541701 29.61029016845829 0 0 0
229 7 8.832937209690494 7.8563877281368715 29.52951282997971 0 0 0
230 7 11.355116856736055 7.904212578019902 29.530373100290333 0 0 0
201 5 1.3650107301044307 9.298883662303828 27.517925803601454 0 0 0
202 7 3.858109107746938 9.294870830005857 27.377577934249153 0 0 0
206 4 0.1737635683607626 11.450808674520442 27.529583761649636 0 0 0
207 7 2.597230452566633 11.431246887467791 27.440982637426362 0 0 0
231 7 0.15169932902705172 10.052860036387687 29.574318510751223 0 0 0
232 7 2.6195631127323518 10.00059267970845 29.42980616316932 0 0 0
236 7 1.4598526825261808 12.157100537002986 29.559714522479407 0 0 0
203 7 6.360878694864165 9.25960059259744 27.390119612572395 0 0 0
208 7 5.12411341012839 11.474500412757349 27.321959123711085 0 0 0
209 6 7.568445515122442 11.498903752160679 27.642375877056807 0 0 0
233 7 5.135404740840206 10.029758360593837 29.325136722845105 0 0 0
234 7 7.587266343338865 10.06269601820063 29.66663710730999 0 0 0
238 7 6.198065540934239 12.211147759929457 29.682845502514724 0 0 0
204 7 8.82505709674573 9.342434386314528 27.627374469312617 0 0 0
205 7 11.331559553317675 9.38961432838196 27.5516697934085 0 0 0
210 7 10.13761937770749 11.527814033434924 27.589231930549005 0 0 0
235 7 10.071761287943522 10.153782413655863 29.60617116898731 0 0 0
239 4 8.865035311082401 12.229246695764886 29.736363642359898 0 0 0
240 7 11.382971192615202 12.241273340312176 29.56799960347053 0 0 0
237 3 4.020133732018953 0.2690692998958479 30.557695677573314 0 1 0
241 7 0.18804149327564523 0.077185500976758 31.641591450225157 0 0 0
242 7 2.5556925880713197 0.12116847496288478 31.74464151831237 0 0 0
246 4 1.3304392660660036 2.22162644956051 31.670924356098553 0 0 0
247 7 3.866494497800133 2.132498520256532 31.647370243328353 0 0 0
276 7 0.1632895248126354 2.9760299273019384 33.74406296949595 0 0 0
243 7 5.152564402535542 12.884208800117998 32.10296944696678 0 -1 0
244 7 7.6120000167145765 12.918817850575468 31.715175455617654 0 -1 0
248 7 6.3930415389329855 2.1298920746085526 31.650651283127146 0 0 0
279 7 7.713858708083224 3.024022939647479 33.735763515156286 0 0 0
249 7 8.83713864869849 2.0828777963679617 31.6873876093447 0 0 0
250 7 11.370596929070157 2.1175874334189317 31.66616839908814 0 0 0
255 1 10.092059305149661 4.198962451039565 31.509300120230485 0 0 0
275 4 11.428757234714743 0.7778475440957876 33.72183968935511 0 0 0
251 7 0.13392693124116797 4.304094407464006 31.655563347265492 0 0 0
252 7 2.6195534927548474 4.300386625563305 31.6718668547359 0 0 0
256 7 1.3156997702236484 6.483111931667249 31.63845850659234 0 0 0
257 6 3.7784017849824765 6.483598195903007 31.6649371301897 0 0 0
253 7 5.099226268790855 4.291758750326761 31.627303660250146 0 0 0
254 7 7.607873065777552 4.292509255647707 31.596166136458702 0 0 0
258 7 6.338241370837497 6.47558288153804 31.624685499818206 0 0 0
264 7 7.575431798698817 8.559393389285797 31.623258911274004 0 0 0
283 7 6.3675522352026235 5.08356461841547 33.67429040457059 0 0 0
289 7 7.618762984945678 7.168868197274159 33.716438278671994 0 0 0
259 4 8.807729914091865 6.4414937731899755 31.631857998301232 0 0 0
260 7 11.300975001915678 6.469993216638226 31.598789999716978 0 0 0
284 5 8.873956395256208 5.098084993008613 33.58521082892581 0 0 0
290 7 10.06948670612932 7.240978161727349 33.59937226800991 0 0 0
261 7 0.1634316004848751 8.690208205221422 31.657622529984994 0 0 0
262 7 2.650211474348705 8.70172156039416 31.53264047208057 0 0 0
266 7 1.5499140463968566 10.814449199708584 31.576956981682763 0 0 0
267 4 3.9042037095432196 11.256280974886813 30.85499626029297 0 0 0
292 7 3.9458220674812137 9.35555413574978 33.50300257100144 0 0 0
326 7 0.4934041850910113 11.634415790089554 33.6848043242518 0 0 0
263 1 5.079978321351201 8.743212789786039 31.420857071197542 0 0 0
268 7 6.245971321225243 10.744693800651264 31.583153046324327 0 0 0
245 7 10.09726509391804 12.86597561655072 31.876126334460483 0 -1 0
265 6 10.088034204307293 8.663539940450129 31.548413290957484 0 0 0
269 7 8.76050764117625 10.783222520547513 31.753519582821284 0 0 0
270 7 11.414853918810735 10.886561083502901 31.62109890887047 0 0 0
294 7 8.75246976326199 9.271658621705065 33.69623491870802 0 0 0
296 3 11.060918487926175 11.812515051036312 33.33814908674516 -1 0 0
271 7 1.4632727911675574 0.8853664586328088 33.78199453650489 0 0 0
272 7 3.9087856073774345 0.9392891841613907 33.929028112817306 0 0 0
277 7 2.6303596058588643 3.062598115099312 33.801912682391766 0 0 0
301 7 0.1780074124692646 1.5343101367507543 35.76554940946896 0 0 0
302 7 2.605365485925256 1.6541611675686798 35.86466907453938 0 0 0
306 4 1.4011961803859585 3.819364533350194 35.96088347082452 0 0 0
307 7 3.985575426045233 3.7174904988076296 35.840541871419866 0 0 0
273 7 6.446901778209586 0.9558203836602223 33.90564882196445 0 0 0
278 1 5.204317086460345 2.9802440210594954 33.72497669133617 0 0 0
303 7 5.234182859475897 1.6518615890347008 35.94578839428153 0 0 0
304 4 7.744792778669413 1.6202573473285573 35.924816950078515 0 0 0
308 7 6.514393920223354 3.692199087094811 35.80659948547853 0 0 0
274 7 8.82158675920164 0.8799090664170688 33.84479151952008 0 0 0
280 7 10.189716955444233 2.9753848568687413 33.71529885156872 0 0 0
305 7 10.210336898858047 1.54337636226424 35.732620055751475 0 0 0
309 7 9.0050929906611 3.6553420882975503 35.784001739111964 0 0 0
310 4 11.573667173783274 3.9247465055086055 35.87001776825175 0 0 0
335 5 9.892648089931305 12.891174887980805 37.39710357860872 0 -1 0
281 7 1.311769551496897 5.16476293988932 33.85830833589769 0 0 0
282 4 3.8347183814041044 5.117470498886751 33.769906693721616 0 0 0
286 7 0.07936705841473712 7.261269972632696 33.627053698429506 0 0 0
287 7 2.6199311271574235 7.270295661084164 33.74584078806627 0 0 0
312 7 2.714913385675346 5.773656808725705 35.78261646557406 0 0 0
316 7 1.2008301867292024 7.587620575657189 35.78735219936354 0 0 0
317 7 3.9215950039723033 8.045742996886236 35.73167425062636 0 0 0
288 7 5.171102655489084 7.252128246350611 33.66889053420302 0 0 0
313 7 5.249685365048104 5.89894754353588 35.7155977321551 0 0 0
314 7 7.710038662307019 5.803930017990064 35.743927463653634 0 0 0
318 4 6.544049031905007 8.104010924351362 35.80092461679528 0 0 0
285 4 11.334617384392804 5.135697863916714 33.64129865876498 0 0 0
311 2 12.364537328675938 5.9791196598290846 35.33047029875019 -1 0 0
315 7 10.120805068748844 5.790484438126719 35.581931042871844 0 0 0
319 7 8.945029052460717 7.961636389391802 35.81888148249087 0 0 0
320 7 11.336662050399948 7.911144121016776 35.59696123853527 0 0 0
355 3 10.420184747454336 7.883593600691398 37.277956785009906 0 0 0
291 7 1.454063639589966 9.407196514897336 33.73294198848233 0 0 0
297 6 3.0111330406151446 11.557287201898852 33.67451196031941 0 0 0
321 6 0.1970702563827815 10.045829995839942 35.91348596107715 0 0 0
322 7 2.686681729928123 10.179901651175799 35.7620088112862 0 0 0
327 6 3.9060932706903997 12.490028801735074 36.109188229698624 0 0 0
356 4 1.3852157681896653 12.342748459262914 35.85173205042992 0 0 0
293 4 6.435140987228003 9.304944827441776 33.64841607932651 0 0 0
298 2 5.188085859693906 12.266664102194177 34.20758145386952 0 0 0
299 7 6.982090189055264 11.562445168118487 33.683178162465495 0 0 0
323 6 5.21877196184122 10.221207333343994 35.577227616525555 0 0 0
324 7 7.897280885009387 10.339956169911057 35.71471364587933 0 0 0
328 7 6.450960040618153 12.502515382032614 35.91824690203232 0 0 0
295 6 11.254582520643199 9.679281892422539 33.76736899417544 0 0 0
300 7 9.367658336666928 11.528130465272993 34.17150003484004 0 0 0
325 7 10.239864113155345 9.825425656396307 37.031924855819895 0 0 0
329 3 9.515887293415256 11.385191505037094 36.20528728698919 0 0 0
330 4 11.246267876105009 12.056599606558507 35.58110733412053 0 0 0
332 7 2.472324016901395 0.08716538666563386 38.03823163124918 0 0 0
336 7 1.3195955587112131 2.1712647256949875 37.83763028282563 0 0 0
337 7 3.864125535089359 2.182459436015129 37.86930865669506 0 0 0
333 7 5.203362859257061 0.1488803454324469 38.12143128554557 0 0 0
334 7 7.636411521459844 0.05539896289646439 38.00478663189186 0 0 0
338 7 6.515110026761008 2.2523437741762358 37.90804538586976 0 0 0
339 7 8.974933417975773 2.176455769746708 37.858396633102394 0 0 0
340 7 11.352884402938479 2.180282926097794 37.73393414367326 0 0 0
342 7 2.698876728165222 4.276003866426211 37.92567920890861 0 0 0
346 7 1.4977500078211616 6.389801685310967 37.992169743048734 0 0 0
347 6 3.9485471577555367 6.460367365453259 37.7661772166969 0 0 0
343 7 5.294078219986789 4.421955905142631 37.849791767554734 0 0 0
344 7 7.818850296203796 4.426405861698594 37.855258008874756 0 0 0
348 6 6.642775419023083 6.6456219023270195 37.818815362346186 0 0 0
361 8 6.353935895643967 6.7240668206090275 41.251670188870136 0 0 0
362 8 7.107790899622892 6.736795059399715 41.35635675007998 0 0 0
341 7 0.19857882284461295 4.236760785934928 38.07513488932327 0 0 0
345 4 10.207301918438924 4.321844957290444 37.814806377742805 0 0 0
349 7 9.216167959672635 6.613249807991575 37.86050926252224 0 0 0
350 7 11.65833092965337 6.258313606727774 37.30896885195511 0 0 0
352 6 2.481744041327247 8.64105548547109 37.685548909299975 0 0 0
357 7 3.8373022289046097 10.786529856904567 37.951983947304505 0 0 0
360 7 1.3819571187428528 10.886625680489594 37.89207064626039 1 0 0
353 7 5.129757917454875 8.674131413794834 37.82634882969741 0 0 0
354 7 7.938136800709929 8.934160248799797 37.81412266978561 0 0 0
358 6 6.406974532064087 10.8384054902041 37.79398463493654 0 0 0
331 7 12.379464715242372 12.869771580332296 37.632161403589386 -1 -1 0
351 7 12.232917557939164 8.5457308803385 37.84340614859686 -1 0 0
359 2 8.588761009072787 11.145428151660203 37.43020584417296 0 0 0

Velocities

1 0 0 0
2 0 0 0
6 0 0 0
7 0 0 0
31 0 0 0
32 0 0 0
36 0 0 0
37 0 0 0
3 0 0 0
8 0 0 0
9 0 0 0
33 0 0 0
34 0 0 0
38 0 0 0
4 0 0 0
5 0 0 0
10 0 0 0
35 0 0 0
39 0 0 0
40 0 0 0
11 0 0 0
12 0 0 0
16 0 0 0
17 0 0 0
41 0 0 0
42 0 0 0
46 0 0 0
47 0 0 0
13 0 0 0
18 0 0 0
19 0 0 0
43 0 0 0
44 0 0 0
48 0 0 0
14 0 0 0
15 0 0 0
20 0 0 0
45 0 0 0
49 0 0 0
50 0 0 0
21 0 0 0
22 0 0 0
26 0 0 0
27 0 0 0
51 0 0 0
52 0 0 0
56 0 0 0
57 0 0 0
23 0 0 0
28 0 0 0
29 0 0 0
53 0 0 0
54 0 0 0
58 0 0 0
24 0 0 0
25 0 0 0
30 0 0 0
55 0 0 0
59 0 0 0
60 0 0 0
61 0 0 0
62 0 0 0
66 0 0 0
67 0 0 0
91 0 0 0
92 0 0 0
96 0 0 0
97 0 0 0
63 0 0 0
64 0 0 0
68 0 0 0
93 0 0 0
98 0 0 0
99 0 0 0
65 0 0 0
69 0 0 0
70 0 0 0
94 0 0 0
95 0 0 0
100 0 0 0
71 0 0 0
72 0 0 0
76 0 0 0
77 0 0 0
101 0 0 0
102 0 0 0
106 0 0 0
107 0 0 0
73 0 0 0
74 0 0 0
78 0 0 0
103 0 0 0
108 0 0 0
109 0 0 0
75 0 0 0
79 0 0 0
80 0 0 0
104 0 0 0
105 0 0 0
110 0 0 0
81 0 0 0
82 0 0 0
86 0 0 0
87 0 0 0
111 0 0 0
112 0 0 0
116 0 0 0
117 0 0 0
83 0 0 0
84 0 0 0
88 0 0 0
113 0 0 0
118 0 0 0
119 0 0 0
85 0 0 0
89 0 0 0
90 0 0 0
114 0 0 0
115 0 0 0
120 0 0 0
121 0 0 0
122 0 0 0
126 0 0 0
127 0 0 0
152 0 0 0
156 0 0 0
157 0 0 0
162 0 0 0
123 0 0 0
124 0 0 0
128 0 0 0
153 0 0 0
154 0 0 0
158 0 0 0
163 0 0 0
164 0 0 0
125 0 0 0
129 0 0 0
130 0 0 0
155 0 0 0
159 0 0 0
160 0 0 0
165 0 0 0
131 0 0 0
132 0 0 0
136 0 0 0
137 0 0 0
161 0 0 0
166 0 0 0
167 0 0 0
133 0 0 0
134 0 0 0
138 0 0 0
168 0 0 0
173 0 0 0
135 0 0 0
139 0 0 0
140 0 0 0
169 0 0 0
170 0 0 0
175 0 0 0
141 0 0 0
142 0 0 0
146 0 0 0
147 0 0 0
151 0 0 0
171 0 0 0
172 0 0 0
176 0 0 0
177 0 0 0
143 0 0 0
144 0 0 0
148 0 0 0
178 0 0 0
145 0 0 0
149 0 0 0
150 0 0 0
174 0 0 0
179 0 0 0
180 0 0 0
181 0 0 0
182 0 0 0
186 0 0 0
187 0 0 0
211 0 0 0
212 0 0 0
216 0 0 0
217 0 0 0
183 0 0 0
188 0 0 0
189 0 0 0
213 0 0 0
214 0 0 0
218 0 0 0
184 0 0 0
185 0 0 0
190 0 0 0
215 0 0 0
219 0 0 0
220 0 0 0
191 0 0 0
192 0 0 0
197 0 0 0
221 0 0 0
222 0 0 0
226 0 0 0
227 0 0 0
193 0 0 0
198 0 0 0
199 0 0 0
223 0 0 0
224 0 0 0
228 0 0 0
194 0 0 0
195 0 0 0
196 0 0 0
200 0 0 0
225 0 0 0
229 0 0 0
230 0 0 0
201 0 0 0
202 0 0 0
206 0 0 0
207 0 0 0
231 0 0 0
232 0 0 0
236 0 0 0
203 0 0 0
208 0 0 0
209 0 0 0
233 0 0 0
234 0 0 0
238 0 0 0
204 0 0 0
205 0 0 0
210 0 0 0
235 0 0 0
239 0 0 0
240 0 0 0
237 0 0 0
241 0 0 0
242 0 0 0
246 0 0 0
247 0 0 0
276 0 0 0
243 0 0 0
244 0 0 0
248 0 0 0
279 0 0 0
249 0 0 0
250 0 0 0
255 0 0 0
275 0 0 0
251 0 0 0
252 0 0 0
256 0 0 0
257 0 0 0
253 0 0 0
254 0 0 0
258 0 0 0
264 0 0 0
283 0 0 0
289 0 0 0
259 0 0 0
260 0 0 0
284 0 0 0
290 0 0 0
261 0 0 0
262 0 0 0
266 0 0 0
267 0 0 0
292 0 0 0
326 0 0 0
263 0 0 0
268 0 0 0
245 0 0 0
265 0 0 0
269 0 0 0
270 0 0 0
294 0 0 0
296 0 0 0
271 0 0 0
272 0 0 0
277 0 0 0
301 0 0 0
302 0 0 0
306 0 0 0
307 0 0 0
273 0 0 0
278 0 0 0
303 0 0 0
304 0 0 0
308 0 0 0
274 0 0 0
280 0 0 0
305 0 0 0
309 0 0 0
310 0 0 0
335 0 0 0
281 0 0 0
282 0 0 0
286 0 0 0
287 0 0 0
312 0 0 0
316 0 0 0
317 0 0 0
288 0 0 0
313 0 0 0
314 0 0 0
318 0 0 0
285 0 0 0
311 0 0 0
315 0 0 0
319 0 0 0
320 0 0 0
355 0 0 0
291 0 0 0
297 0 0 0
321 0 0 0
322 0 0 0
327 0 0 0
356 0 0 0
293 0 0 0
298 0 0 0
299 0 0 0
323 0 0 0
324 0 0 0
328 0 0 0
295 0 0 0
300 0 0 0
325 0 0 0
329 0 0 0
330 0 0 0
332 0 0 0
336 0 0 0
337 0 0 0
333 0 0 0
334 0 0 0
338 0 0 0
339 0 0 0
340 0 0 0
342 0 0 0
346 0 0 0
347 0 0 0
343 0 0 0
344 0 0 0
348 0 0 0
361 0 0 0
362 0 0 0
341 0 0 0
345 0 0 0
349 0 0 0
350 0 0 0
352 0 0 0
357 0 0 0
360 0 0 0
353 0 0 0
354 0 0 0
358 0 0 0
331 0 0 0
351 0 0 0
359 0 0 0
