LAMMPS data file via write_data, version 11 Feb 2026, timestep = 408, units = metal

362 atoms
8 atom types

0 12.447907776 xlo xhi
0 12.9362452296 ylo yhi
0 52.3600831054 zlo zhi

Masses

1 26.9815
2 10.811
3 12.011
4 51.9961
5 55.845
6 95.95999999999999
7 58.6934
8 1.008

Atoms # atomic/kk

1 7 1.1432398421720276 1.3993658632661585 14.173115582752356 0 0 0
2 7 3.6069815118612327 1.0649638184734727 14.66683084861353 0 0 0
6 7 12.370321337024308 3.4510590243416197 14.819142030509907 -1 0 0
7 7 2.4261500472538273 3.2696739651546194 14.988482846556538 0 0 0
31 6 0.13057006558675782 1.5617885724858784 16.542076278046107 0 0 0
32 7 2.6032852958150676 1.6802231284885942 16.91206230953791 0 0 0
36 7 1.2180121623841431 3.851177877444826 17.026221687689286 0 0 0
37 7 3.7088523689162045 3.8322437464696764 17.053551279719755 0 0 0
3 5 6.075073252430605 0.9418527731183586 14.909195030822751 0 0 0
8 7 4.9272406457648 3.1222117830669935 15.007350527276682 0 0 0
9 7 7.388942106697615 3.150305453354738 14.917731167557292 0 0 0
33 7 4.983973170265858 1.6599316976543173 16.95159360500117 0 0 0
34 7 7.40862870274816 1.7641006266340435 16.976670876766157 0 0 0
38 5 6.17721172881872 3.8549721483394537 16.985659249769466 0 0 0
4 6 8.639110940294655 0.9917015425256641 14.997521265703298 0 0 0
5 7 11.048242822942095 1.248090238217947 14.59887539637415 0 0 0
10 7 9.911556251976032 3.3855040155559264 14.777621261594165 0 0 0
35 7 9.983950154382232 1.6574466823153888 16.94059821846129 0 0 0
39 7 8.72920304565928 3.8577919677559107 16.85876687407709 0 0 0
40 7 11.189024306209472 3.8018939754046137 16.997064709342748 0 0 0
11 7 1.2333774415752468 5.490120477005646 15.076995733804207 0 0 0
12 7 3.7218442205402518 5.311297167077054 15.08785826373072 0 0 0
16 4 0.46793926493951293 7.807652337894248 14.796087990849282 0 0 0
17 7 2.6514119996751058 7.49028396981745 15.15011288662804 0 0 0
41 7 12.440667036310966 5.993366156194094 17.22306312530859 -1 0 0
42 7 2.4523223579486872 6.122585170293015 17.137806581089418 0 0 0
46 7 0.7930151605936253 9.362443663474478 16.871265656677654 0 0 0
47 7 3.8851870405102122 8.192711987741978 17.059812833305827 0 0 0
13 7 6.177309917067671 5.3005001127837525 15.030873319652306 0 0 0
18 7 5.078364818788178 7.473774457413262 15.065091830506638 0 0 0
19 2 7.05831364747102 7.013999279187226 15.386038297654261 0 0 0
43 7 4.951217457960255 5.957869623942897 17.091226433010686 0 0 0
44 7 7.475599933219769 5.935589592464778 17.084500531569365 0 0 0
48 7 6.345302903011846 8.05002328608418 17.046201120067558 0 0 0
14 7 8.702714329624415 5.653689329833579 14.962162841127615 0 0 0
15 6 11.179110131641034 5.599554268076333 15.181360077273379 0 0 0
20 7 10.4439986299218 7.664798252258256 14.181164893481462 0 0 0
45 7 9.921959133751555 6.033624720490907 17.24962601386336 0 0 0
49 7 8.715110262993841 7.917048121917545 16.066072123413967 0 0 0
50 7 11.183904309551048 7.986055966598937 16.45021585301398 0 0 0
21 2 1.1639067760525479 10.473474778018865 15.209338191751586 0 0 0
22 7 2.96830404223295 9.860203591655843 15.64190975817854 0 0 0
26 7 0.12661183034656331 12.19957983259378 14.906884722786929 0 0 0
27 7 2.480886933073115 11.803332399793998 14.46038552658213 0 0 0
51 3 11.518086639188333 9.365395653301652 17.658697236745958 -1 0 0
52 7 1.3488360540133228 11.859793959214334 16.985459690774153 0 0 0
56 2 1.9124698158303362 0.3158150976359011 15.605732271275109 0 1 0
57 7 3.7523661769726395 12.43173177453035 16.606273849333032 0 0 0
23 7 6.920032345084428 9.000768323329552 14.77581235183057 0 0 0
28 7 4.958232471298366 11.782052261085113 14.60389217617159 0 0 0
29 6 7.485981923138588 11.487567251717936 14.917865044715489 0 0 0
53 7 5.3343732781648665 10.117098462546844 16.32403608602284 0 0 0
54 7 7.732091402371283 10.048885292365942 16.943455894355925 0 0 0
58 6 6.318075416156352 12.361837865996076 16.951503482386567 0 0 0
24 7 9.20974771230293 9.733387736950574 14.538564823709063 0 0 0
25 7 11.761320603671072 9.869644247827683 14.787286844376682 0 0 0
30 7 10.06023651654784 11.940245344103374 14.758296188760724 0 0 0
55 7 10.18370007619905 10.271072776100421 16.677943362210346 0 0 0
59 7 8.835204530630666 12.376121919241895 16.958637766823912 0 0 0
60 7 11.241387351020688 12.462127719059804 16.879285383517196 0 0 0
61 6 0.046204435254946816 12.930177141206984 18.99122111179751 0 -1 0
62 7 2.5859427898959484 12.849550296246086 19.034655052567295 0 -1 0
66 6 1.3914576623680528 2.161091841538191 19.04983587641074 0 0 0
67 5 3.8295519948993335 2.16490686165131 19.073902515441393 0 0 0
91 4 1.3594624676596294 0.7441656364682242 21.29648876556645 0 0 0
92 7 3.7517482926570316 0.7194564237848691 21.05170774389465 0 0 0
96 7 0.08052860890928205 2.792193633633375 21.183832727812543 0 0 0
97 7 2.591183315116515 2.8449455382395827 21.195623514169842 0 0 0
63 5 4.955270748969928 0.04814557982529444 18.958251467656382 0 0 0
64 7 7.440177604464439 0.07727780396473637 19.097851868551636 0 0 0
68 7 6.19343550854345 2.1539698060628516 19.076595064573024 0 0 0
93 7 6.258345591417818 0.7145805013577118 21.17012067813331 0 0 0
98 7 5.024203507531271 2.8688487739786175 21.15004943353658 0 0 0
99 5 7.477803922965046 2.8101537904372176 21.165758812309946 0 0 0
65 7 10.000295813364403 0.07535266765856073 19.09255097609701 0 0 0
69 7 8.73704745904106 2.1490908626611334 18.991905322991915 0 0 0
70 7 11.285525257268844 2.2333724122276823 18.950602839298256 0 0 0
94 7 8.712551242031646 0.7086301289648212 21.232652669267516 0 0 0
95 7 11.303038216064174 0.6656050836315678 21.195905116794734 0 0 0
100 6 10.029389886311332 2.7796867230302076 21.051503368302473 0 0 0
71 1 12.382104839075184 4.373380952545947 19.182560484925883 -1 0 0
72 7 2.4823292245104835 4.3841096602088765 19.103330099562484 0 0 0
76 7 1.1986417563943466 6.429848454952835 19.25629712554825 0 0 0
77 7 3.7824575536725895 6.502447391349132 19.161431648260077 0 0 0
101 7 1.2028966773352463 4.981520837888566 21.255679316397465 0 0 0
102 6 3.7282958390887737 5.037603238516474 21.226022060620892 0 0 0
106 7 12.433801327926032 7.092046797929539 21.312123949606846 -1 0 0
107 7 2.4670627924549566 7.167989289210091 21.228796182214 0 0 0
73 7 4.974480270907744 4.311519252291467 19.083537000226535 0 0 0
74 6 7.500319893594219 4.280460237320478 19.05112375119084 0 0 0
78 7 6.195053380911904 6.514171674930626 19.13630577973362 0 0 0
103 7 6.273699109663575 5.0421348295555095 21.172439652401145 0 0 0
108 7 5.0101962293012745 7.223722999549198 21.223119378312134 0 0 0
109 7 7.417822267125933 7.243622774033748 21.261500447936886 0 0 0
75 5 9.907210228777556 4.3005524113752935 19.030003213414385 0 0 0
79 7 8.624116990326337 6.467136915363419 19.319702273933252 0 0 0
80 7 11.112041769535203 6.415761888571749 19.354524897499132 0 0 0
104 7 8.739280179049153 5.018242853522536 21.24018626700901 0 0 0
105 3 10.082808521963262 4.367142877587076 22.28505228604374 0 0 0
110 7 9.888852269622312 7.161081188405131 21.298676635540104 0 0 0
81 4 12.341182884519686 8.468081091664368 19.19689468166408 -1 0 0
82 6 2.357349642858638 8.484210443113621 18.911588216579197 0 0 0
86 7 1.2801606033994124 10.685483389418408 19.157714524414516 0 0 0
87 1 3.6636102120563514 10.710906549664337 18.262510330096703 0 0 0
111 7 1.1781734193635538 9.284790998341789 21.19221266041481 0 0 0
112 6 3.7001373810667415 9.350919742263313 21.139398823390493 0 0 0
116 1 0.03545860158421289 11.481822877761335 21.293932142844298 0 0 0
117 7 2.4689199665008474 11.52357056428006 21.141516702405426 0 0 0
83 7 4.9447619109855605 8.728129099012136 19.079706757646406 0 0 0
84 7 7.395950992050019 8.634808419839286 19.082132245115897 0 0 0
88 7 6.161041700397979 10.796432259649706 18.926521162814588 0 0 0
113 7 6.212469447762095 9.40430405899594 21.031681476861436 0 0 0
118 7 4.96249635902748 11.535873641091907 21.038964537409974 0 0 0
119 4 7.398035709685303 11.53131056552435 21.0712023010996 0 0 0
85 6 9.785894356491719 8.468486501347808 18.53708290941141 0 0 0
89 6 8.729834014540602 10.845171371880651 19.03488984068884 0 0 0
90 4 11.2706952256736 10.816110247147712 18.934898513319325 0 0 0
114 7 8.698183599834474 9.31110129930047 20.989304575723907 0 0 0
115 6 11.107470180744382 9.247060517680673 21.17181708537225 0 0 0
120 7 9.984339626390911 11.51156798659117 21.17856103496314 0 0 0
121 7 0.07592050094455667 1.3686991109023152 23.310106749168774 0 0 0
122 7 2.5672468833432407 1.3805250453858386 23.329718671768365 0 0 0
126 6 1.3468757551024066 3.563331452444398 23.265838392359466 0 0 0
127 7 3.842385767046343 3.567022735796021 23.36162438283057 0 0 0
152 7 2.6452874282619367 12.91741176419441 25.37411200376102 0 -1 0
156 1 1.4714497670877211 2.1070231084587916 25.515496772199562 0 0 0
157 7 3.957640111183973 2.1135330595569455 25.444151278954525 0 0 0
162 7 2.5904072787489243 4.239203850519865 25.42793695948741 0 0 0
123 7 4.984213852348955 1.4056526143138133 23.162438607506143 0 0 0
124 7 7.385689245158991 1.4767512063133077 23.48657505586063 0 0 0
128 7 6.295294529114022 3.6406057327596764 23.1835628680503 0 0 0
153 7 5.1887504107215365 0.04829756921795663 25.293274944278824 0 0 0
154 7 7.591485067363844 12.915999549724027 25.47566277025028 0 -1 0
158 2 5.767352692322793 2.4338564632349176 24.628964550855915 0 0 0
163 7 5.109734229910679 4.220423506729247 25.421129315619925 0 0 0
164 5 7.468938171092377 4.037910330420052 25.360044610759946 0 0 0
125 7 10.034980542263776 1.4030300881711435 23.35494338844042 0 0 0
129 7 8.74304165355659 3.5216603550563663 23.347696120545532 0 0 0
130 4 11.358619288889244 3.591865257583781 23.402676741333163 0 0 0
155 4 10.11113941031934 0.03721120091635724 25.5583274258015 0 0 0
159 7 8.861144194165698 2.0740571484594694 25.447725641384533 0 0 0
160 7 11.39256862973407 2.129613757328247 25.42143184173133 0 0 0
165 7 10.057031421951473 4.19203413195077 25.412634895265008 0 0 0
131 7 0.06220194286426101 5.745834796518019 23.403942501292384 0 0 0
132 7 2.5337939930559807 5.773946618399428 23.360181688787584 0 0 0
136 7 1.2940790719581563 7.887440855463303 23.3047521376952 0 0 0
137 7 3.7677208940958447 7.955104957588196 23.278104249345965 0 0 0
161 4 0.10032143373700496 4.314531157865625 25.46940777659623 0 0 0
166 7 1.3286779071852728 6.388533091462325 25.43040357247048 0 0 0
167 7 3.7989511257210484 6.41242362836084 25.44267991314163 0 0 0
133 6 5.056161621547922 5.833146263780956 23.387337713697587 0 0 0
134 7 7.550492175386003 5.752244676493791 23.315053599992456 0 0 0
138 7 6.301106543259831 7.970489610899463 23.341146917527322 0 0 0
168 7 6.356233659618623 6.369448645939192 25.43312436361771 0 0 0
173 7 5.095232639585066 8.527862060094217 25.332340825681175 0 0 0
135 7 10.055308605781866 5.798713400700082 23.388537548305163 0 0 0
139 4 8.684803128469815 7.915711483865394 23.244885860089386 0 0 0
140 4 11.272767567170014 7.863252341506392 23.318399136934456 0 0 0
169 7 8.766650900643914 6.304168801714267 25.38424295125768 0 0 0
170 7 11.280138659267973 6.380984435571527 25.449396062848287 0 0 0
175 6 9.87562925399677 8.540093517250519 25.52486627150882 0 0 0
141 7 0.010542396193037738 10.040626506932046 23.344041709566554 0 0 0
142 7 2.4865634810694863 10.07920585776903 23.254833801699004 0 0 0
146 7 1.2928140042011995 12.208184142820212 23.350818156629607 0 0 0
147 7 3.796897578082395 12.21749044443033 23.180399684837738 0 0 0
151 4 0.0830320289998729 12.847912181757195 25.415853795409486 0 -1 0
171 6 0.10013363543911118 8.587148103627362 25.430289037273358 0 0 0
172 7 2.613331904703912 8.582378713210403 25.37581389518536 0 0 0
176 7 1.3326734288357096 10.77201699594734 25.432018214116308 0 0 0
177 6 3.869897606626053 10.789959949677124 25.273981447689522 0 0 0
143 7 5.045235490244922 10.078519401837562 23.181576995989264 0 0 0
144 7 7.4956441826061395 10.062442051350661 22.92042905014038 0 0 0
148 4 6.202935908785851 12.243693455232584 23.18594438439152 0 0 0
178 6 6.607460542842201 10.516298920764134 25.221075493345953 0 0 0
145 7 9.986050908881658 10.047255822659826 23.31645972948707 0 0 0
149 6 8.698289119346834 12.24560129473524 23.330713167979233 0 0 0
150 7 11.237403283756672 12.19086411766108 23.40629059208713 0 0 0
174 3 8.403878334091553 9.482306534467336 24.424521771863787 0 0 0
179 5 8.988572446358477 10.89550688430311 25.584122553099576 0 0 0
180 5 11.326384755453514 10.839750869002259 25.507604309671617 0 0 0
181 7 1.3820251042564031 0.6387210262781817 27.498023149590338 0 0 0
182 7 3.8686503387023703 0.676325400225748 27.43741238502609 0 0 0
186 7 0.16369198943542143 2.8310049906151584 27.49628326545398 0 0 0
187 7 2.6526357286193085 2.826241714396511 27.569281460412725 0 0 0
211 7 0.2030066402136129 1.4183248899620553 29.59456453879854 0 0 0
212 7 2.704849234571255 1.3341147408350709 29.583592106819044 0 0 0
216 7 1.4038163721284944 3.5279564651420396 29.59301870817925 0 0 0
217 4 3.8174641970468732 3.546445894339102 29.602202730981052 0 0 0
183 7 6.3019517273913 0.6887129985880539 27.57389937186993 0 0 0
188 7 5.075673077925624 2.8472583486553744 27.57886333662381 0 0 0
189 7 7.587659651488274 2.7666064359021387 27.46559580526345 0 0 0
213 5 5.1276631188837385 1.4002906890669518 29.604554427501334 0 0 0
214 7 7.60581132040193 1.3285715719366153 29.59588481319759 0 0 0
218 7 6.356928663992328 3.510492906768772 29.54713838325222 0 0 0
184 7 8.87848468071833 0.6923893217474086 27.570759216463447 0 0 0
185 4 11.376482768268495 0.6957326766644302 27.543596948406115 0 0 0
190 7 10.137637634881656 2.8050475354273865 27.494206328508724 0 0 0
215 7 10.11792182311304 1.377133180195087 29.636954531010197 0 0 0
219 7 8.831954669811491 3.4854259455843817 29.534655461849432 0 0 0
220 7 11.362246356979187 3.5323141417091275 29.5274709516605 0 0 0
191 7 1.3835319635319274 4.979605874449726 27.475353253158232 0 0 0
192 7 3.8260960564930926 4.9633979766981575 27.48456388101819 0 0 0
197 7 2.57144519704774 7.166517459186001 27.477181059829764 0 0 0
221 7 0.11300270168245989 5.699778245658644 29.576478111189466 0 0 0
222 7 2.583827843903328 5.701833637827438 29.553578671419608 0 0 0
226 7 1.3568935766595747 7.876751072788444 29.554619489252115 0 0 0
227 7 3.8537344889393634 7.8877554040135065 29.469446043693345 0 0 0
193 7 6.3623694054068 4.9489112037623775 27.416039245741043 0 0 0
198 7 5.094824077232618 7.147187908593591 27.41301502315446 0 0 0
199 7 7.613853352382216 7.161862250272715 27.450960508148995 0 0 0
223 6 5.145774108141037 5.6947039378406314 29.49191666394564 0 0 0
224 7 7.637100400979777 5.711596446861454 29.58493348541729 0 0 0
228 7 6.386807717800072 7.886933003752792 29.493817557088693 0 0 0
194 6 8.840451453019229 4.969969603169746 27.49688132863571 0 0 0
195 7 11.353276773474155 4.967095086404226 27.512747719156536 0 0 0
196 7 0.12868053803259752 7.130402009486445 27.50207400067539 0 0 0
200 7 10.116389492654392 7.1304517981622055 27.54443731322141 0 0 0
225 7 10.094317943985669 5.71363367446855 29.610886449294412 0 0 0
229 7 8.83907364381324 7.855970524250305 29.52986731816763 0 0 0
230 7 11.361528993205415 7.904050512906167 29.529929951960955 0 0 0
201 5 1.3715372102407966 9.298867613107944 27.51694375498114 0 0 0
202 7 3.8646175878421167 9.295144702066 27.376726819118204 0 0 0
206 4 0.18002124788394208 11.450751867410164 27.528433185350085 0 0 0
207 7 2.6034780636169486 11.431442468905875 27.43994474346167 0 0 0
231 7 0.15840959503210222 10.052775717414777 29.572856807865776 0 0 0
232 7 2.6262226179103236 10.001107133733282 29.428789629992963 0 0 0
236 7 1.4660152341410626 12.157358394617166 29.55859718326693 0 0 0
203 7 6.367260202167947 9.259503814034309 27.389587468751788 0 0 0
208 7 5.130442795580396 11.47459029016667 27.3213713486902 0 0 0
209 6 7.574678786914494 11.498477204310193 27.642598412387596 0 0 0
233 7 5.142170951271958 10.029944841977986 29.324689780302617 0 0 0
234 7 7.593833612011874 10.062582553075384 29.667442065003797 0 0 0
238 7 6.20447913893044 12.210989771420829 29.683082800500213 0 0 0
204 7 8.831243732568874 9.342007215004562 27.627567957068532 0 0 0
205 7 11.337816977332368 9.389389909564379 27.550987754489377 0 0 0
210 7 10.143858477059831 11.527399421268603 27.58882111526065 0 0 0
235 7 10.078173358590595 10.153238949381551 29.605893570293347 0 0 0
239 4 8.871448435540591 12.228732643785106 29.736153568051314 0 0 0
240 7 11.3894198155208 12.241231101932906 29.566789237457527 0 0 0
237 3 4.026612108623671 0.26917461177683716 30.55674351961417 0 1 0
241 7 0.19407613998995474 0.07745481077180563 31.640709055720762 0 0 0
242 7 2.561782339913145 0.12155645458782185 31.743191495539904 0 0 0
246 4 1.3365575345762306 2.2220206144166292 31.669640995090926 0 0 0
247 7 3.8727050910005567 2.1328223868607328 31.64587996415185 0 0 0
276 7 0.1690051431264116 2.975997926426949 33.743450710775136 0 0 0
243 7 5.159192251286889 12.884582145694345 32.102000595675996 0 -1 0
244 7 7.6186092471839055 12.918348812594125 31.715131196723355 0 -1 0
248 7 6.399646867884049 2.1299319450842122 31.649544219820893 0 0 0
279 7 7.721174290699911 3.0232842454840623 33.73443637335131 0 0 0
249 7 8.843836658149709 2.082217900404717 31.686934657122645 0 0 0
250 7 11.37679511511794 2.1176588462027044 31.66623487668571 0 0 0
255 1 10.09787556947124 4.199004816239392 31.51060426594313 0 0 0
275 4 11.433909655814558 0.7765480545425306 33.721676785352095 0 0 0
251 7 0.14001731655213046 4.304270570422541 31.655466711975066 0 0 0
252 7 2.6257230641425164 4.300937004099175 31.670476113001104 0 0 0
256 7 1.322157831565862 6.482959179134326 31.63798436125087 0 0 0
257 6 3.784753089954461 6.4842532837622775 31.66260618427433 0 0 0
253 7 5.105554504895826 4.291924144102925 31.625326538066513 0 0 0
254 7 7.614545524707074 4.292631190386741 31.596362727507493 0 0 0
258 7 6.344565882622718 6.4757065355249726 31.62350561694133 0 0 0
264 7 7.581642566229758 8.559310864313723 31.62447620569206 0 0 0
283 7 6.372937551392806 5.083274197532807 33.6718124845776 0 0 0
289 7 7.624779578402169 7.168587601269761 33.71770682654467 0 0 0
259 4 8.813662901549725 6.441204558066259 31.633372991213886 0 0 0
260 7 11.307390461795205 6.470026391112027 31.599188680843532 0 0 0
284 5 8.878880217693613 5.098141726670972 33.5897976834836 0 0 0
290 7 10.07597553411738 7.240408008406698 33.60122248646867 0 0 0
261 7 0.17045121557321594 8.689647799456791 31.65570867427013 0 0 0
262 7 2.657381972362987 8.702510499370549 31.53134689703964 0 0 0
266 7 1.556177499468771 10.81484024051286 31.575785888942427 0 0 0
267 4 3.910960106755682 11.256403266852768 30.85448025970044 0 0 0
292 7 3.9518490088181517 9.355240935449789 33.503159979116276 0 0 0
326 7 0.49942602455228063 11.635219712830988 33.68385168005244 0 0 0
263 1 5.086929182946055 8.74386642233759 31.42100141792328 0 0 0
268 7 6.252762079609333 10.744715113075877 31.584021445173846 0 0 0
245 7 10.103947683371546 12.865791208728153 31.874623783771828 0 -1 0
265 6 10.094064913136119 8.662610138646793 31.54851248388993 0 0 0
269 7 8.76760368577329 10.782985452837027 31.754263477318972 0 0 0
270 7 11.421758337840712 10.886438657492835 31.618932528261265 0 0 0
294 7 8.759627027860004 9.271167090813082 33.69715492738495 0 0 0
296 3 11.067401581279414 11.81125521365019 33.33588659813966 -1 0 0
271 7 1.4690166454586158 0.8856342706169241 33.780648874429126 0 0 0
272 7 3.9146885201549986 0.9397025487080932 33.927246874595184 0 0 0
277 7 2.635943776567922 3.063009525900884 33.79928048378626 0 0 0
301 7 0.1835087219417036 1.5354553065856347 35.764470019773256 0 0 0
302 7 2.610193704098366 1.655073810002734 35.86206756982665 0 0 0
306 4 1.406762171007711 3.819944029616318 35.961131186008025 0 0 0
307 7 3.9903356676346458 3.717207938314922 35.83535183945341 0 0 0
273 7 6.453483453086346 0.9556577746479462 33.90494934022889 0 0 0
278 1 5.210571341248947 2.9800286429926035 33.72264573603719 0 0 0
303 7 5.240082682679034 1.652795866899786 35.943613797667425 0 0 0
304 4 7.753230401517794 1.6193107749265414 35.92381079087397 0 0 0
308 7 6.521940055135109 3.691675026785761 35.80165769127587 0 0 0
274 7 8.828650317687206 0.8784053096521598 33.84429281509658 0 0 0
280 7 10.196012605052848 2.9745504288781035 33.71620998060769 0 0 0
305 7 10.216292101411668 1.541727265666003 35.73469337080239 0 0 0
309 7 9.01258258084668 3.6555721490446897 35.78504713869607 0 0 0
310 4 11.580885605365372 3.9258640600667194 35.869133607264615 0 0 0
335 5 9.90076991744501 12.885050904915209 37.3996187896621 0 -1 0
281 7 1.3168933692850078 5.16506278239871 33.85965301933303 0 0 0
282 4 3.8414697919084073 5.118258263285344 33.76737125415796 0 0 0
286 7 0.08631945666574885 7.262074235917571 33.627032486330776 0 0 0
287 7 2.6250987633791008 7.269899166794229 33.74414787961622 0 0 0
312 7 2.7219114591176776 5.773496153097409 35.781526006374875 0 0 0
316 7 1.2089527563994442 7.590314382837868 35.78754549820351 0 0 0
317 7 3.922490906984864 8.045325247861038 35.732523744791926 0 0 0
288 7 5.175793808039366 7.2524983283063476 33.666016864149285 0 0 0
313 7 5.257224557935995 5.901094392986649 35.716014979377626 0 0 0
314 7 7.714146312592826 5.804675177441858 35.74831387276901 0 0 0
318 4 6.5466457661748905 8.10462562213998 35.807469747960326 0 0 0
285 4 11.340213114276406 5.135913558840481 33.64201393672256 0 0 0
311 2 12.367480921834183 5.983097624106778 35.330889086852274 -1 0 0
315 7 10.126691662575974 5.790753269944704 35.584586085508484 0 0 0
319 7 8.950357873794566 7.9603494747036185 35.82458794671529 0 0 0
320 7 11.34243379469719 7.913461206285154 35.59783915540371 0 0 0
355 3 10.424128904410844 7.8892464285945945 37.27724038864822 0 0 0
291 7 1.461403060660025 9.408104662820316 33.73007981091168 0 0 0
297 6 3.0174251626137276 11.55766486244827 33.67300396251273 0 0 0
321 6 0.20365137018428067 10.046848680048436 35.908974177854425 0 0 0
322 7 2.6921418394836345 10.182816315392508 35.76124694522 0 0 0
327 6 3.9116352266013745 12.492542428176687 36.108630170271546 0 0 0
356 4 1.3909476934364866 12.34458332364937 35.85064366629967 0 0 0
293 4 6.442469666501165 9.302743758856831 33.651579384832225 0 0 0
298 2 5.194356656096264 12.266999890370398 34.206701695753004 0 0 0
299 7 6.989114468664591 11.561884712788357 33.68374396038916 0 0 0
323 6 5.222701603422887 10.221930911436992 35.5761366423186 0 0 0
324 7 7.9020502013038705 10.342169981783044 35.715346254997236 0 0 0
328 7 6.455606657075832 12.50262023121599 35.91837703317724 0 0 0
295 6 11.262806453668242 9.67771714053739 33.76337201232579 0 0 0
300 7 9.376243364933703 11.527066066576351 34.172789321722746 0 0 0
325 7 10.25242000546846 9.834591256686332 37.05338250321639 0 0 0
329 3 9.521551559543218 11.382120434616064 36.20703074880306 0 0 0
330 4 11.252666662087396 12.058220272544041 35.583148540011365 0 0 0
332 7 2.4760202773703965 0.08804375724738439 38.037723004236106 0 0 0
336 7 1.3257967895403253 2.172859577445817 37.8367474722251 0 0 0
337 7 3.867861154581508 2.181327461192281 37.86670173848626 0 0 0
333 7 5.210122070798356 0.15147943897155716 38.120063570003715 0 0 0
334 7 7.643488827070329 0.053034236315601245 38.00327189645719 0 0 0
338 7 6.5228923356384785 2.250079406251578 37.90448461781277 0 0 0
339 7 8.98206252171934 2.173557318285509 37.85935999223654 0 0 0
340 7 11.359998167417707 2.182352552552823 37.73389177895269 0 0 0
342 7 2.7050189156577242 4.277013370188721 37.925850103388434 0 0 0
346 7 1.5080672306344243 6.393017595258286 37.993622307238205 0 0 0
347 6 3.9544178130536105 6.458617199173387 37.76475173183622 0 0 0
343 7 5.295254640079236 4.414470139692909 37.83764616942286 0 0 0
344 7 7.825915980142907 4.426712670782273 37.8513097499775 0 0 0
348 6 6.648536964969705 6.650416317257504 37.82145460103902 0 0 0
341 7 0.2055624489160646 4.238794999171221 38.07610478490018 0 0 0
345 4 10.212221356626946 4.322062946028141 37.817913215948224 0 0 0
349 7 9.227324801244983 6.61632321806596 37.87075777603706 0 0 0
350 7 11.665822399785952 6.259066870020686 37.310209037934634 0 0 0
361 8 10.256032406541195 8.765769580358379 41.434719167505406 0 0 0
362 8 9.860164323475848 9.406877556027592 41.329394335010875 0 0 0
352 6 2.4847422979878493 8.648860444011655 37.68819360195818 0 0 0
357 7 3.8381317780513693 10.794906759230873 37.95375698512546 0 0 0
360 7 1.3816552757116074 10.889496874444696 37.89287826483833 1 0 0
353 7 5.1191720060445345 8.681091383605063 37.82890090966864 0 0 0
354 7 7.945804226473143 8.93774262708498 37.80893826352141 0 0 0
358 6 6.408865159195603 10.837408639052596 37.793108423010686 0 0 0
331 7 12.385133528405175 12.872912377393353 37.63221534365964 -1 -1 0
351 7 12.24575634753182 8.54297198898662 37.836479534297595 -1 0 0
359 2 8.592772967702315 11.146249430644321 37.43297142297004 0 0 0

Velocities

1 0 0 0
2 0 0 0
6 0 0 0
7 0 0 0
31 0 0 0
32 0 0 0
36 0 0 0
37 0 0 0
3 0 0 0
8 0 0 0
9 0 0 0
33 0 0 0
34 0 0 0
38 0 0 0
4 0 0 0
5 0 0 0
10 0 0 0
35 0 0 0
39 0 0 0
40 0 0 0
11 0 0 0
12 0 0 0
16 0 0 0
17 0 0 0
41 0 0 0
42 0 0 0
46 0 0 0
47 0 0 0
13 0 0 0
18 0 0 0
19 0 0 0
43 0 0 0
44 0 0 0
48 0 0 0
14 0 0 0
15 0 0 0
20 0 0 0
45 0 0 0
49 0 0 0
50 0 0 0
21 0 0 0
22 0 0 0
26 0 0 0
27 0 0 0
51 0 0 0
52 0 0 0
56 0 0 0
57 0 0 0
23 0 0 0
28 0 0 0
29 0 0 0
53 0 0 0
54 0 0 0
58 0 0 0
24 0 0 0
25 0 0 0
30 0 0 0
55 0 0 0
59 0 0 0
60 0 0 0
61 0 0 0
62 0 0 0
66 0 0 0
67 0 0 0
91 0 0 0
92 0 0 0
96 0 0 0
97 0 0 0
63 0 0 0
64 0 0 0
68 0 0 0
93 0 0 0
98 0 0 0
99 0 0 0
65 0 0 0
69 0 0 0
70 0 0 0
94 0 0 0
95 0 0 0
100 0 0 0
71 0 0 0
72 0 0 0
76 0 0 0
77 0 0 0
101 0 0 0
102 0 0 0
106 0 0 0
107 0 0 0
73 0 0 0
74 0 0 0
78 0 0 0
103 0 0 0
108 0 0 0
109 0 0 0
75 0 0 0
79 0 0 0
80 0 0 0
104 0 0 0
105 0 0 0
110 0 0 0
81 0 0 0
82 0 0 0
86 0 0 0
87 0 0 0
111 0 0 0
112 0 0 0
116 0 0 0
117 0 0 0
83 0 0 0
84 0 0 0
88 0 0 0
113 0 0 0
118 0 0 0
119 0 0 0
85 0 0 0
89 0 0 0
90 0 0 0
114 0 0 0
115 0 0 0
120 0 0 0
121 0 0 0
122 0 0 0
126 0 0 0
127 0 0 0
152 0 0 0
156 0 0 0
157 0 0 0
162 0 0 0
123 0 0 0
124 0 0 0
128 0 0 0
153 0 0 0
154 0 0 0
158 0 0 0
163 0 0 0
164 0 0 0
125 0 0 0
129 0 0 0
130 0 0 0
155 0 0 0
159 0 0 0
160 0 0 0
165 0 0 0
131 0 0 0
132 0 0 0
136 0 0 0
137 0 0 0
161 0 0 0
166 0 0 0
167 0 0 0
133 0 0 0
134 0 0 0
138 0 0 0
168 0 0 0
173 0 0 0
135 0 0 0
139 0 0 0
140 0 0 0
169 0 0 0
170 0 0 0
175 0 0 0
141 0 0 0
142 0 0 0
146 0 0 0
147 0 0 0
151 0 0 0
171 0 0 0
172 0 0 0
176 0 0 0
177 0 0 0
143 0 0 0
144 0 0 0
148 0 0 0
178 0 0 0
145 0 0 0
149 0 0 0
150 0 0 0
174 0 0 0
179 0 0 0
180 0 0 0
181 0 0 0
182 0 0 0
186 0 0 0
187 0 0 0
211 0 0 0
212 0 0 0
216 0 0 0
217 0 0 0
183 0 0 0
188 0 0 0
189 0 0 0
213 0 0 0
214 0 0 0
218 0 0 0
184 0 0 0
185 0 0 0
190 0 0 0
215 0 0 0
219 0 0 0
220 0 0 0
191 0 0 0
192 0 0 0
197 0 0 0
221 0 0 0
222 0 0 0
226 0 0 0
227 0 0 0
193 0 0 0
198 0 0 0
199 0 0 0
223 0 0 0
224 0 0 0
228 0 0 0
194 0 0 0
195 0 0 0
196 0 0 0
200 0 0 0
225 0 0 0
229 0 0 0
230 0 0 0
201 0 0 0
202 0 0 0
206 0 0 0
207 0 0 0
231 0 0 0
232 0 0 0
236 0 0 0
203 0 0 0
208 0 0 0
209 0 0 0
233 0 0 0
234 0 0 0
238 0 0 0
204 0 0 0
205 0 0 0
210 0 0 0
235 0 0 0
239 0 0 0
240 0 0 0
237 0 0 0
241 0 0 0
242 0 0 0
246 0 0 0
247 0 0 0
276 0 0 0
243 0 0 0
244 0 0 0
248 0 0 0
279 0 0 0
249 0 0 0
250 0 0 0
255 0 0 0
275 0 0 0
251 0 0 0
252 0 0 0
256 0 0 0
257 0 0 0
253 0 0 0
254 0 0 0
258 0 0 0
264 0 0 0
283 0 0 0
289 0 0 0
259 0 0 0
260 0 0 0
284 0 0 0
290 0 0 0
261 0 0 0
262 0 0 0
266 0 0 0
267 0 0 0
292 0 0 0
326 0 0 0
263 0 0 0
268 0 0 0
245 0 0 0
265 0 0 0
269 0 0 0
270 0 0 0
294 0 0 0
296 0 0 0
271 0 0 0
272 0 0 0
277 0 0 0
301 0 0 0
302 0 0 0
306 0 0 0
307 0 0 0
273 0 0 0
278 0 0 0
303 0 0 0
304 0 0 0
308 0 0 0
274 0 0 0
280 0 0 0
305 0 0 0
309 0 0 0
310 0 0 0
335 0 0 0
281 0 0 0
282 0 0 0
286 0 0 0
287 0 0 0
312 0 0 0
316 0 0 0
317 0 0 0
288 0 0 0
313 0 0 0
314 0 0 0
318 0 0 0
285 0 0 0
311 0 0 0
315 0 0 0
319 0 0 0
320 0 0 0
355 0 0 0
291 0 0 0
297 0 0 0
321 0 0 0
322 0 0 0
327 0 0 0
356 0 0 0
293 0 0 0
298 0 0 0
299 0 0 0
323 0 0 0
324 0 0 0
328 0 0 0
295 0 0 0
300 0 0 0
325 0 0 0
329 0 0 0
330 0 0 0
332 0 0 0
336 0 0 0
337 0 0 0
333 0 0 0
334 0 0 0
338 0 0 0
339 0 0 0
340 0 0 0
342 0 0 0
346 0 0 0
347 0 0 0
343 0 0 0
344 0 0 0
348 0 0 0
341 0 0 0
345 0 0 0
349 0 0 0
350 0 0 0
361 0 0 0
362 0 0 0
352 0 0 0
357 0 0 0
360 0 0 0
353 0 0 0
354 0 0 0
358 0 0 0
331 0 0 0
351 0 0 0
359 0 0 0
