LAMMPS data file via write_data, version 11 Feb 2026, timestep = 299, units = metal

362 atoms
8 atom types

0 12.447907776 xlo xhi
0 12.9362452296 ylo yhi
0 52.3600831054 zlo zhi

Masses

1 26.9815
2 10.811
3 12.011
4 51.9961
5 55.845
6 95.95999999999999
7 58.6934
8 1.008

Atoms # atomic/kk

1 7 1.1140498266654877 0.8206214639291323 14.645844249428874 0 0 0
2 7 3.552485306361648 0.7362991435489529 14.874527272120398 0 0 0
6 7 12.264329847613945 3.4763545972201535 14.646742305496192 -1 0 0
7 7 2.2247664168668684 2.96959398525811 15.110854032218626 0 0 0
31 6 12.391638530214902 1.8876549848020217 16.489481249596935 -1 0 0
32 7 2.306111989164601 1.2527092173860261 16.93475000689084 0 0 0
36 7 1.135606050582458 3.967463774076778 17.066800303168396 0 0 0
37 7 3.568618206590482 3.644987212941166 17.097191555157956 0 0 0
3 5 6.013186978158301 0.8654160740945358 14.941027342925043 0 0 0
8 7 4.778321860609075 2.983809068414775 15.024494487569378 0 0 0
9 7 7.2841876101719265 3.060801528007588 14.89643083627059 0 0 0
33 7 4.827656749135558 1.5343689487953331 16.986551732830147 0 0 0
34 7 7.355416139358706 1.7101137066976737 16.950083764382814 0 0 0
38 5 6.074485254067725 3.7406876492367727 16.97407398919021 0 0 0
4 6 8.634166396105648 0.9694768425810234 14.949502549328676 0 0 0
5 7 11.022047771219723 1.2513343579535232 14.465320930470675 0 0 0
10 7 9.806422117689149 3.3779307024654623 14.726354035063915 0 0 0
35 7 9.919432178406774 1.7122108336155248 16.908217433763035 0 0 0
39 7 8.63375904567686 3.8629508838134066 16.817989614252767 0 0 0
40 7 11.07012580840549 3.951735445010376 16.968565626913417 0 0 0
11 7 1.1328544322072869 5.431467723081265 15.02986482084053 0 0 0
12 7 3.550905000299656 5.145134090587659 15.125636330201797 0 0 0
16 4 0.21425783728819495 7.672205196999483 14.615520461972048 0 0 0
17 7 2.4267972791963346 7.504025132031421 15.095063849669238 0 0 0
41 7 12.314885667796597 6.108777519810218 17.13187705828187 -1 0 0
42 7 2.3712407772227273 6.074271239289764 17.115874046877657 0 0 0
46 7 0.8169513141422955 8.412478453299281 16.863825259037625 0 0 0
47 7 3.814374554582738 8.008466940722979 17.03074305407574 0 0 0
13 7 6.044725662217992 5.184780041498447 15.012187291036005 0 0 0
18 7 4.8939675982542 7.300933493546243 14.980689883666026 0 0 0
19 2 6.841809818745063 6.974023068951168 15.320000599383226 0 0 0
43 7 4.8530473240138 5.809860732503392 17.080963238319203 0 0 0
44 7 7.341262996448702 5.879338251645698 17.02709526462829 0 0 0
48 7 6.2241435442141775 7.991672311626972 17.021781510060517 0 0 0
14 7 8.572853869496361 5.637559619231903 14.89718890118578 0 0 0
15 6 11.04613278528194 5.637672304993363 15.08918526963364 0 0 0
20 7 10.226511842992968 7.656336526321617 13.99296242340937 0 0 0
45 7 9.806249985915708 6.109810278066713 17.18332923841116 0 0 0
49 7 8.468767690221602 7.857127178348762 16.02586915695828 0 0 0
50 7 10.9047228245085 8.115639539791893 16.21823114436146 0 0 0
21 2 1.5472568592740576 9.472051464822137 15.214118102067596 0 0 0
22 7 3.615732353025014 9.511143099956403 14.922652596647671 0 0 0
26 7 0.3133320659526623 10.80143429137798 16.832936599398565 0 0 0
27 7 2.0310609245148448 11.47599142480098 15.154814794919494 0 0 0
51 3 11.619529263010147 9.369668873692802 17.50284654555994 -1 0 0
52 7 2.6128515526228653 10.08003243266353 17.046946014488476 0 0 0
56 2 0.9260170752815499 12.704069473212822 16.358246238862993 0 0 0
57 7 3.7023665074351277 12.224961037917453 16.9334370703074 0 0 0
23 7 6.58340926555658 9.085453866065844 14.854951857722954 0 0 0
28 7 4.816163084616077 11.608884157436588 14.822635566144909 0 0 0
29 6 7.372559105020796 11.497638563204392 14.92074759276677 0 0 0
53 7 5.126996508441576 10.10973104870075 16.783065820565717 0 0 0
54 7 7.69281602706333 10.04311718851867 16.925281108798657 0 0 0
58 6 6.293324225457103 12.337868326649497 17.0159377119657 0 0 0
24 7 9.050605790108868 9.666559209002816 14.659507386261998 0 0 0
25 7 11.943738295304827 9.877770530815265 14.714780523158183 0 0 0
30 7 9.922256310499806 11.855845122102904 14.582337489076554 0 0 0
55 7 10.242457057231874 10.40751858391596 16.649672475071586 0 0 0
59 7 8.841730727873879 12.370222874789144 16.894178874445576 0 0 0
60 7 11.297675566390886 12.62193888770159 16.354322333002802 0 0 0
61 6 0.1041121630308076 12.913435632895416 18.57989434002647 0 -1 0
62 7 2.5618493426105564 0.035519383264613784 19.147700365622505 0 0 0
66 6 1.3524255893866892 2.2311501084892185 19.070884478654428 0 0 0
67 5 3.7968445655906824 2.183825170734977 19.10895715479866 0 0 0
91 4 1.363740207269474 0.78668481687963 21.257191342862292 0 0 0
92 7 3.794565053073935 0.7424757234173684 21.137501915609633 0 0 0
96 7 0.0821783143993229 2.8658618686879156 21.181472431376182 0 0 0
97 7 2.6040750892434374 2.863748667636887 21.21405992839166 0 0 0
63 5 5.013395010368811 0.11945547533716727 19.068204030621242 0 0 0
64 7 7.495934921512466 0.10965845682398176 19.096996169005482 0 0 0
68 7 6.1915010271084165 2.176885631169774 19.054138117887664 0 0 0
93 7 6.321957142297908 0.7415291794903063 21.21142807981235 0 0 0
98 7 5.046827508695474 2.878118857996948 21.156730558016893 0 0 0
99 5 7.501560115029256 2.8451220646377724 21.146575662411493 0 0 0
65 7 10.080468881033452 0.10586451910398002 18.96849222583564 0 0 0
69 7 8.73141104271114 2.188332731188496 18.9669963328524 0 0 0
70 7 11.290707533557882 2.2920565648287043 18.911999556275532 0 0 0
94 7 8.777749559945429 0.7548611052083647 21.18190606692094 0 0 0
95 7 11.36319103888227 0.7257327074103993 21.03507455645764 0 0 0
100 6 10.04505302958738 2.8426859604148085 21.02367451249113 0 0 0
71 1 12.32827580229273 4.45613895130679 19.200061560507876 -1 0 0
72 7 2.4487591865208125 4.422423034241426 19.12096102058923 0 0 0
76 7 1.1662307711795024 6.498690845168537 19.19440788221611 0 0 0
77 7 3.759219821376749 6.49982971223458 19.14871185771274 0 0 0
101 7 1.20897652861023 5.0320387563242726 21.23679728068675 0 0 0
102 6 3.7384910548445163 5.048017888194637 21.23100314276257 0 0 0
106 7 12.442280523656825 7.13862461312146 21.27770669680643 -1 0 0
107 7 2.47284962633561 7.172637328121045 21.2418807113035 0 0 0
73 7 4.940324425084025 4.310879797907833 19.08084448085482 0 0 0
74 6 7.469325310288366 4.317459408628861 19.030447663298457 0 0 0
78 7 6.170576359344101 6.525368720782319 19.109341872308747 0 0 0
103 7 6.278760875274672 5.058781388998899 21.160748594451423 0 0 0
108 7 5.019668329052847 7.222810513648975 21.211762882056377 0 0 0
109 7 7.4268606840200135 7.267278941219177 21.24369626256498 0 0 0
75 5 9.861483909228209 4.366306346357455 19.01451255370063 0 0 0
79 7 8.61365983356697 6.518829053411267 19.289596215955548 0 0 0
80 7 11.092890951168677 6.511612773892658 19.287288520239677 0 0 0
104 7 8.73920104018276 5.063185848030351 21.220004388972047 0 0 0
105 3 10.089331510805025 4.424824027897986 22.26668255414315 0 0 0
110 7 9.902063819930895 7.19553135657845 21.27541412077552 0 0 0
81 4 12.370433615000113 8.584591200839723 19.1918567311988 -1 0 0
82 6 2.433491756835604 8.538238397015364 19.02818986622948 0 0 0
86 7 1.3043605362333883 10.758797063435477 19.17436427055019 0 0 0
87 1 3.84629483410643 10.881869316969839 19.013521531799046 0 0 0
111 7 1.2016241839993795 9.335669832208481 21.220411537655597 0 0 0
112 6 3.7482093793469087 9.340682008835742 21.24271245884359 0 0 0
116 1 0.05899503350977887 11.550200680547244 21.180266853069433 0 0 0
117 7 2.5223428871144336 11.541313525134896 21.179037396464516 0 0 0
83 7 4.96896588311875 8.72991704999164 19.03709893342514 0 0 0
84 7 7.422993299643615 8.640311772394028 19.01509463986788 0 0 0
88 7 6.275453919378097 10.823604390472196 19.02556079703509 0 0 0
113 7 6.2410588321424765 9.398644856895737 21.037972810078013 0 0 0
118 7 5.041870974778733 11.561180789491306 21.147215664867122 0 0 0
119 4 7.472613162980784 11.577428627762181 21.080643698463494 0 0 0
85 6 9.829494599975312 8.516709506190933 18.45345736903441 0 0 0
89 6 8.78327205575214 10.872151267181982 18.983455908333838 0 0 0
90 4 11.285571874808024 10.810281960100644 18.895144391610135 0 0 0
114 7 8.707527422907033 9.345272147435365 20.93797005503029 0 0 0
115 6 11.12065834400775 9.292400583719775 21.171368790081335 0 0 0
120 7 10.019479796141345 11.559739549342005 21.12627234437608 0 0 0
121 7 0.0838647172527714 1.4102816346343012 23.261011847512094 0 0 0
122 7 2.5722618071989602 1.4070589635869732 23.321729139789717 0 0 0
126 6 1.3553612158987693 3.606596920039433 23.265106785478693 0 0 0
127 7 3.856548860961866 3.5912407283833425 23.370230344684174 0 0 0
152 7 2.6571197483359414 0.013291096939843374 25.379534559903565 0 0 0
156 1 1.489785353899845 2.142868062961691 25.506722187204282 0 0 0
157 7 3.9782144164263675 2.140460567258221 25.448635169866005 0 0 0
162 7 2.6070313720711606 4.270318321109318 25.432521588367134 0 0 0
123 7 5.013167731970452 1.4328615254437438 23.204274516765103 0 0 0
124 7 7.418585678728773 1.5240913278157755 23.482761931199605 0 0 0
128 7 6.311132111922473 3.66976372114581 23.174856029991528 0 0 0
153 7 5.202638515540876 0.0670203820109836 25.334590243382465 0 0 0
154 7 7.614229419345119 0.013886862408109263 25.46169778923798 0 0 0
158 2 5.8030490573845395 2.4854737848296002 24.647244754303912 0 0 0
163 7 5.123436812074067 4.253469883141408 25.42719574218519 0 0 0
164 5 7.483058947681335 4.066877005098998 25.347739015054053 0 0 0
125 7 10.067413903563109 1.4487757703167878 23.304867297414614 0 0 0
129 7 8.762788474580615 3.566268377172411 23.332909934151505 0 0 0
130 4 11.365763095134747 3.6454598477370466 23.386737536248905 0 0 0
155 4 10.138542924790006 0.07673265606875457 25.522034129462114 0 0 0
159 7 8.892279744595736 2.110160905030861 25.42656428310893 0 0 0
160 7 11.416205251129323 2.1718387225895888 25.395922917201506 0 0 0
165 7 10.073138920604443 4.234360410566724 25.40112646988387 0 0 0
131 7 0.07899801867519851 5.796476300720428 23.389517836979152 0 0 0
132 7 2.552178099537271 5.798700243752046 23.369130879419117 0 0 0
136 7 1.3163410847208805 7.924478124895882 23.299631372910024 0 0 0
137 7 3.79222906738931 7.966103463218278 23.325616489112537 0 0 0
161 4 0.11850362341996674 4.355362872884485 25.458089055085154 0 0 0
166 7 1.346320443715005 6.4260489082592605 25.428035248423328 0 0 0
167 7 3.818052770567406 6.438142046425979 25.45308076162268 0 0 0
133 6 5.076461719169228 5.8525817756517045 23.388904074133404 0 0 0
134 7 7.566400014944008 5.789049853301704 23.305283345694424 0 0 0
138 7 6.3200582979461055 7.997790605029805 23.3432040295379 0 0 0
168 7 6.373505328090498 6.396367703932675 25.434168889571716 0 0 0
173 7 5.121089620025069 8.554021187124977 25.35755668451503 0 0 0
135 7 10.071242515629908 5.849635589214396 23.376840490723104 0 0 0
139 4 8.706820433434256 7.958055863727721 23.21510999136669 0 0 0
140 4 11.295586227338047 7.910691782420818 23.29800487644937 0 0 0
169 7 8.782033000392977 6.345738600040166 25.374419182242494 0 0 0
170 7 11.299086333313562 6.4218828069382345 25.437956655212332 0 0 0
175 6 9.90202213146311 8.57860380735447 25.503772268706662 0 0 0
141 7 0.028890638923606608 10.095175390592907 23.33165554629545 0 0 0
142 7 2.5105694445101645 10.109314123253364 23.30274948031762 0 0 0
146 7 1.3083889714542558 12.243725888479837 23.317925014558657 0 0 0
147 7 3.8224636386594852 12.243183405382752 23.23434932838364 0 0 0
151 4 0.10234518633882367 12.88853176477606 25.37472701450482 0 -1 0
171 6 0.12125721427653209 8.631080743366073 25.41388569745131 0 0 0
172 7 2.6313706546969557 8.6123053289519 25.399459579178636 0 0 0
176 7 1.352166896755086 10.814363402953292 25.435753673175856 0 0 0
177 6 3.893560958990204 10.816836495638272 25.31913385651115 0 0 0
143 7 5.081974459847061 10.111879339688581 23.238404152823467 0 0 0
144 7 7.517318956883744 10.099052880388031 22.907575052516865 0 0 0
148 4 6.237804306096508 12.283103096996964 23.265276355391148 0 0 0
178 6 6.652183601054264 10.526272890399463 25.242039632575988 0 0 0
145 7 10.004410261059027 10.099744281382431 23.30259064613254 0 0 0
149 6 8.729149936924811 12.29976715141684 23.293770627275425 0 0 0
150 7 11.266401930946849 12.238465405153205 23.336614715520838 0 0 0
174 3 8.426893259113625 9.514855076602883 24.408877566012674 0 0 0
179 5 9.020035018227976 10.939780327737251 25.561434572382247 0 0 0
180 5 11.352092883874057 10.887806660741571 25.484257469111714 0 0 0
181 7 1.3944917621129111 0.6719299984471986 27.489765898930393 0 0 0
182 7 3.883281230259434 0.7062349855100346 27.448947586998028 0 0 0
186 7 0.17981553443795903 2.8688207745828462 27.48385726973042 0 0 0
187 7 2.6676884972192036 2.8563094416077117 27.568514653414557 0 0 0
211 7 0.21578402895911367 1.4537274660394952 29.58401805351163 0 0 0
212 7 2.715977349862994 1.3672292194784337 29.583864966583675 0 0 0
216 7 1.41824428384299 3.5613395729708266 29.589248542033694 0 0 0
217 4 3.83227640467417 3.57541888643527 29.605190228521263 0 0 0
183 7 6.32202992820313 0.7215334956958345 27.57209950165892 0 0 0
188 7 5.09220595642779 2.876479720736358 27.580126147503307 0 0 0
189 7 7.6078947969919675 2.7994573402752727 27.45168579025215 0 0 0
213 5 5.144275216604927 1.4277900712338556 29.604086807872267 0 0 0
214 7 7.626097065162112 1.3621411068311797 29.585828717389823 0 0 0
218 7 6.374162760376076 3.5389732218491052 29.54453420883627 0 0 0
184 7 8.902571444363097 0.729957826453356 27.552798356451937 0 0 0
185 4 11.395252583322312 0.7334172406517576 27.5214613383018 0 0 0
190 7 10.1574809887108 2.8443531277237586 27.478431010799255 0 0 0
215 7 10.13537208640327 1.4149117683662462 29.622021526923668 0 0 0
219 7 8.848580690916412 3.5212911996693537 29.521697019953372 0 0 0
220 7 11.377977427376797 3.5700228946256187 29.515667419775554 0 0 0
191 7 1.3990121690507897 5.015043637035587 27.473924290397644 0 0 0
192 7 3.8415837975271563 4.991376579523383 27.4922543654806 0 0 0
197 7 2.5879968854520157 7.194711941424859 27.485774757049878 0 0 0
221 7 0.12869095318031498 5.735758213227022 29.568599650719964 0 0 0
222 7 2.5995423022786923 5.730878920141622 29.55900638756776 0 0 0
226 7 1.3702842184811959 7.908219102279809 29.554318270130093 0 0 0
227 7 3.868840772153523 7.912743857708229 29.48159590396904 0 0 0
193 7 6.379849168443966 4.9776482655757155 27.41786002235395 0 0 0
198 7 5.112091419448949 7.172551731544555 27.42341504293487 0 0 0
199 7 7.6251411880536715 7.194694966652923 27.448901304730942 0 0 0
223 6 5.162941456934674 5.72064393599652 29.498318665031817 0 0 0
224 7 7.654407148058249 5.744385514238533 29.580495866679218 0 0 0
228 7 6.401497743183054 7.91444573015885 29.501563948626586 0 0 0
194 6 8.856368376303035 5.0082863722787305 27.48533537525641 0 0 0
195 7 11.369851889088254 5.007430551931023 27.501770774525482 0 0 0
196 7 0.14449479686281338 7.17074761857236 27.49126612470526 0 0 0
200 7 10.130273493535725 7.170338045155951 27.530038117511488 0 0 0
225 7 10.110324709234591 5.751869740779179 29.598734929367303 0 0 0
229 7 8.854025083143307 7.8934720463686405 29.517604742737916 0 0 0
230 7 11.375897479907605 7.941317040387232 29.51680652547781 0 0 0
201 5 1.385659375568367 9.334705824634952 27.518001446169485 0 0 0
202 7 3.8808519666089634 9.32011050058445 27.400175138016788 0 0 0
206 4 0.195365408652396 11.490191098689259 27.521025162976017 0 0 0
207 7 2.618619018977707 11.465286491951245 27.456260811305125 0 0 0
231 7 0.17057790452709534 10.087973459715363 29.564214119243307 0 0 0
232 7 2.6382197397985205 10.028877435892403 29.43785958144957 0 0 0
236 7 1.477436925647181 12.191468180627727 29.55966638469495 0 0 0
203 7 6.380418896219231 9.292413480903809 27.41108280219507 0 0 0
208 7 5.1500513484586 11.500997288864545 27.35666222088196 0 0 0
209 6 7.599609641218493 11.537536805236757 27.633380246636307 0 0 0
233 7 5.154859260367165 10.054676928508036 29.345290634099403 0 0 0
234 7 7.610992442703832 10.09456047842662 29.658589646290483 0 0 0
238 7 6.229787755951409 12.24117905182089 29.68172095574178 0 0 0
204 7 8.845551245450721 9.378355877134478 27.6061912561131 0 0 0
205 7 11.35433138865078 9.429194131087758 27.533404966737937 0 0 0
210 7 10.164476681793992 11.567319701620962 27.568361297023177 0 0 0
235 7 10.0931739935346 10.188665880509635 29.58785961331048 0 0 0
239 4 8.891821286181766 12.264697749641227 29.72415948165346 0 0 0
240 7 11.40244498172263 12.278100738945573 29.554192672526924 0 0 0
237 3 4.03792587260872 0.30938053580981045 30.56249264205799 0 1 0
241 7 0.20622349287107306 0.11169759181830353 31.63338495140945 0 0 0
242 7 2.5725214924216147 0.15211818046830367 31.744757182764346 0 0 0
246 4 1.349663076120888 2.2540501943148956 31.664202338322905 0 0 0
247 7 3.888805793352274 2.1598471502348784 31.646143313262066 0 0 0
276 7 0.18385545614641066 3.0072329372140043 33.73450278797075 0 0 0
243 7 5.177888144643265 12.913913552644148 32.09988660875892 0 -1 0
244 7 7.635961383411066 0.016196507647988495 31.707241782781082 0 0 0
248 7 6.416175665661973 2.16074769665388 31.646214336204533 0 0 0
279 7 7.734995331899791 3.057203531740383 33.72824240004714 0 0 0
249 7 8.859965910718111 2.1177416334313808 31.67563012977663 0 0 0
250 7 11.39073087374552 2.1535503687853157 31.655274129754815 0 0 0
255 1 10.112601156309681 4.235841924979963 31.49834933528002 0 0 0
275 4 11.448352821615488 0.8124334340224333 33.71260529730136 0 0 0
251 7 0.1543790252627287 4.338819264928867 31.648683726161916 0 0 0
252 7 2.6407601639580993 4.3289694227581474 31.67354008069845 0 0 0
256 7 1.3380289317877425 6.513624607659968 31.636666394573584 0 0 0
257 6 3.800851797000043 6.510560759918059 31.671194262517023 0 0 0
253 7 5.120474398815129 4.319921771529929 31.628716408770117 0 0 0
254 7 7.6301247655842195 4.3249822445032295 31.590173141604367 0 0 0
258 7 6.36138843547916 6.505830140789085 31.626526419270565 0 0 0
264 7 7.597793743197461 8.592811094755254 31.619806502642817 0 0 0
283 7 6.388509560240574 5.11451680845952 33.67090098964575 0 0 0
289 7 7.642721115965011 7.203305949579002 33.715144257906275 0 0 0
259 4 8.830382169465407 6.477697773431774 31.624565813511182 0 0 0
260 7 11.32367171889321 6.5068255959754495 31.588757975206782 0 0 0
284 5 8.894189952074194 5.1342064210717515 33.57898153069642 0 0 0
290 7 10.093840849457727 7.2778552549088635 33.58974158743284 0 0 0
261 7 0.18376589706600285 8.723861031160805 31.65088664886707 0 0 0
262 7 2.6704745662247618 8.729812161518893 31.53786627612643 0 0 0
266 7 1.5698830993178832 10.844831067528709 31.57283121901966 0 0 0
267 4 3.923528317591818 11.294054107160706 30.853320327136117 0 0 0
292 7 3.965518827054341 9.380467367682366 33.51027174545435 0 0 0
326 7 0.515578446935128 11.668425688262865 33.67701980846444 0 0 0
263 1 5.100674177483829 8.771173861349054 31.43227276408933 0 0 0
268 7 6.269464191295939 10.774147088102529 31.58027037834688 0 0 0
245 7 10.118877587305803 12.901618896191613 31.86530305730081 0 -1 0
265 6 10.109112400424943 8.700033596510522 31.5348600345952 0 0 0
269 7 8.783905460246652 10.818473768892169 31.742156944648038 0 0 0
270 7 11.434530449735977 10.921194097006351 31.608076698550235 0 0 0
294 7 8.777293777920583 9.3088942084488 33.68656311912627 0 0 0
296 3 11.084378199281641 11.847202907493509 33.325395220695356 -1 0 0
271 7 1.4849190964924748 0.9176319003089335 33.77828644381095 0 0 0
272 7 3.9307005958873162 0.967185586406463 33.92482583281055 0 0 0
277 7 2.652063091480424 3.091967704801394 33.8010291671296 0 0 0
301 7 0.20010692116297546 1.5644819905972898 35.75790983694779 0 0 0
302 7 2.6288402489998592 1.679688544569347 35.863972963807385 0 0 0
306 4 1.4250837909882503 3.841908218856526 35.958279159925034 0 0 0
307 7 4.002841362124508 3.7470534498649353 35.84222461030411 0 0 0
273 7 6.468020017261197 0.9886908854959878 33.9026561500696 0 0 0
278 1 5.223016262181177 3.011807766722817 33.7247204945587 0 0 0
303 7 5.25261798488405 1.6821697709996943 35.94437132655702 0 0 0
304 4 7.7678599451563235 1.6531386221836317 35.917258584584076 0 0 0
308 7 6.534927706616783 3.7241772003027136 35.800160274097564 0 0 0
274 7 8.843535173592711 0.9148605739738805 33.83466984510699 0 0 0
280 7 10.210569157516202 3.011867211401226 33.70505514753239 0 0 0
305 7 10.231788273249967 1.579841479531092 35.72296298705932 0 0 0
309 7 9.02612784193104 3.6916270771719244 35.77556734668073 0 0 0
310 4 11.599913771424374 3.9600123013370525 35.85600008927606 0 0 0
335 5 9.91639406307737 12.926829871291975 37.38879772989688 0 -1 0
281 7 1.3316193515904102 5.194164616700549 33.86189354193285 0 0 0
282 4 3.8534271083278706 5.149868252485912 33.779193802930905 0 0 0
286 7 0.10528907601754385 7.294675995544313 33.6217610164074 0 0 0
287 7 2.64149038306839 7.2985575136433125 33.750394582582025 0 0 0
312 7 2.730205085060385 5.806040676957746 35.79149529250582 0 0 0
316 7 1.2280709929597322 7.6280162377827345 35.79005967619097 0 0 0
317 7 3.942486578649473 8.065654646892982 35.73236135890473 0 0 0
288 7 5.193869138197286 7.281585623983182 33.67219880931237 0 0 0
313 7 5.270293945256194 5.930927331537854 35.719247641017425 0 0 0
314 7 7.727340697926114 5.84190372952498 35.74687787457292 0 0 0
318 4 6.568384842749167 8.136476215526724 35.80444912911658 0 0 0
285 4 11.355599857463465 5.17169328287222 33.6304460859652 0 0 0
311 2 12.388844205469603 6.0169505906364735 35.319018145279145 -1 0 0
315 7 10.14038627184687 5.826507614586208 35.574439709856065 0 0 0
319 7 8.96985760499911 7.997458270107515 35.8108347859278 0 0 0
320 7 11.362057243793146 7.947751315654412 35.58765135305722 0 0 0
355 3 10.45170715210001 7.9176402393021394 37.27128355014254 0 0 0
291 7 1.4745351582668766 9.438736461907933 33.73087538818364 0 0 0
297 6 3.033497846583531 11.5842437268987 33.670829170421285 0 0 0
321 6 0.2165746064838648 10.080303548852642 35.90985640967135 0 0 0
322 7 2.7039971795731192 10.202221973315496 35.760321504875826 0 0 0
327 6 3.928419974906725 12.514804299742794 36.10067466002919 0 0 0
356 4 1.4083261006964662 12.371924231880012 35.84449248621397 0 0 0
293 4 6.459732389250122 9.337067745296544 33.65089087956347 0 0 0
298 2 5.212432312384428 12.29417871150871 34.20126326441924 0 0 0
299 7 7.008411986375087 11.596378220325565 33.675804190616574 0 0 0
323 6 5.238964526036094 10.247463847685397 35.57633010649014 0 0 0
324 7 7.9208415228478435 10.374972683329833 35.708270006434205 0 0 0
328 7 6.472837488083585 12.532860923210837 35.91199731475785 0 0 0
295 6 11.27879915936845 9.715020575927754 33.75668656771112 0 0 0
300 7 9.393362510719784 11.564277599112483 34.16360412780084 0 0 0
325 7 10.26538213643099 9.860843534140997 37.02882662977427 0 0 0
329 3 9.540188716132755 11.418562583515046 36.198550622846774 0 0 0
330 4 11.269564829867605 12.09382423296834 35.57395644798838 0 0 0
332 7 2.4935012911145815 0.12014937496074869 38.02939893570097 0 0 0
336 7 1.340762169739423 2.2055959046602016 37.83383752823314 0 0 0
337 7 3.8820912622564774 2.218661159743882 37.87191941424655 0 0 0
333 7 5.2236963695816145 0.18052775340997423 38.1131263637901 0 0 0
334 7 7.6603164474856 0.08724672136146013 37.997973740969016 0 0 0
338 7 6.538967668778361 2.27812254697439 37.90104348296689 0 0 0
339 7 8.998289664565789 2.21157513481772 37.85051595397571 0 0 0
340 7 11.375733900265017 2.218495235463085 37.72259946914203 0 0 0
342 7 2.7147713087752634 4.319372977383646 37.93122063215032 0 0 0
346 7 1.5152199950929568 6.441295808418526 38.020719375287996 0 0 0
347 6 3.9756371964785573 6.493522365111716 37.77638624145551 0 0 0
361 8 3.883952236055617 6.408787186029991 40.62031863543668 0 0 0
343 7 5.311599291101078 4.440285952650897 37.840143645859094 0 0 0
344 7 7.837415543435909 4.460358746010355 37.84502534504209 0 0 0
348 6 6.653929582880864 6.685074181250892 37.8211420193208 0 0 0
362 8 4.215091488675338 6.905714025834336 41.06309464313036 0 0 0
341 7 0.22056224681687053 4.274768630378349 38.06682512846891 0 0 0
345 4 10.226321312258863 4.358414680111778 37.80386621851219 0 0 0
349 7 9.242276442116344 6.649894068741789 37.849643162772786 0 0 0
350 7 11.689942404860687 6.290875775579795 37.29143304142937 0 0 0
352 6 2.513329609477128 8.674431950923992 37.69324254665149 0 0 0
357 7 3.8561479686773175 10.82545841095333 37.9530459955743 0 0 0
360 7 1.4022125793749511 10.917675486949804 37.88524386961748 1 0 0
353 7 5.1370531949123475 8.713066595509467 37.825183604011514 0 0 0
354 7 7.9687803811923015 8.972000627663553 37.81008182031119 0 0 0
358 6 6.430488127675004 10.872792653911226 37.78751087272346 0 0 0
331 7 12.402192647557161 12.904941682329891 37.62537974666265 -1 -1 0
351 7 12.258067028247764 8.578910347254496 37.839867865438556 -1 0 0
359 2 8.613164295398542 11.181299288255131 37.42436410339799 0 0 0

Velocities

1 0 0 0
2 0 0 0
6 0 0 0
7 0 0 0
31 0 0 0
32 0 0 0
36 0 0 0
37 0 0 0
3 0 0 0
8 0 0 0
9 0 0 0
33 0 0 0
34 0 0 0
38 0 0 0
4 0 0 0
5 0 0 0
10 0 0 0
35 0 0 0
39 0 0 0
40 0 0 0
11 0 0 0
12 0 0 0
16 0 0 0
17 0 0 0
41 0 0 0
42 0 0 0
46 0 0 0
47 0 0 0
13 0 0 0
18 0 0 0
19 0 0 0
43 0 0 0
44 0 0 0
48 0 0 0
14 0 0 0
15 0 0 0
20 0 0 0
45 0 0 0
49 0 0 0
50 0 0 0
21 0 0 0
22 0 0 0
26 0 0 0
27 0 0 0
51 0 0 0
52 0 0 0
56 0 0 0
57 0 0 0
23 0 0 0
28 0 0 0
29 0 0 0
53 0 0 0
54 0 0 0
58 0 0 0
24 0 0 0
25 0 0 0
30 0 0 0
55 0 0 0
59 0 0 0
60 0 0 0
61 0 0 0
62 0 0 0
66 0 0 0
67 0 0 0
91 0 0 0
92 0 0 0
96 0 0 0
97 0 0 0
63 0 0 0
64 0 0 0
68 0 0 0
93 0 0 0
98 0 0 0
99 0 0 0
65 0 0 0
69 0 0 0
70 0 0 0
94 0 0 0
95 0 0 0
100 0 0 0
71 0 0 0
72 0 0 0
76 0 0 0
77 0 0 0
101 0 0 0
102 0 0 0
106 0 0 0
107 0 0 0
73 0 0 0
74 0 0 0
78 0 0 0
103 0 0 0
108 0 0 0
109 0 0 0
75 0 0 0
79 0 0 0
80 0 0 0
104 0 0 0
105 0 0 0
110 0 0 0
81 0 0 0
82 0 0 0
86 0 0 0
87 0 0 0
111 0 0 0
112 0 0 0
116 0 0 0
117 0 0 0
83 0 0 0
84 0 0 0
88 0 0 0
113 0 0 0
118 0 0 0
119 0 0 0
85 0 0 0
89 0 0 0
90 0 0 0
114 0 0 0
115 0 0 0
120 0 0 0
121 0 0 0
122 0 0 0
126 0 0 0
127 0 0 0
152 0 0 0
156 0 0 0
157 0 0 0
162 0 0 0
123 0 0 0
124 0 0 0
128 0 0 0
153 0 0 0
154 0 0 0
158 0 0 0
163 0 0 0
164 0 0 0
125 0 0 0
129 0 0 0
130 0 0 0
155 0 0 0
159 0 0 0
160 0 0 0
165 0 0 0
131 0 0 0
132 0 0 0
136 0 0 0
137 0 0 0
161 0 0 0
166 0 0 0
167 0 0 0
133 0 0 0
134 0 0 0
138 0 0 0
168 0 0 0
173 0 0 0
135 0 0 0
139 0 0 0
140 0 0 0
169 0 0 0
170 0 0 0
175 0 0 0
141 0 0 0
142 0 0 0
146 0 0 0
147 0 0 0
151 0 0 0
171 0 0 0
172 0 0 0
176 0 0 0
177 0 0 0
143 0 0 0
144 0 0 0
148 0 0 0
178 0 0 0
145 0 0 0
149 0 0 0
150 0 0 0
174 0 0 0
179 0 0 0
180 0 0 0
181 0 0 0
182 0 0 0
186 0 0 0
187 0 0 0
211 0 0 0
212 0 0 0
216 0 0 0
217 0 0 0
183 0 0 0
188 0 0 0
189 0 0 0
213 0 0 0
214 0 0 0
218 0 0 0
184 0 0 0
185 0 0 0
190 0 0 0
215 0 0 0
219 0 0 0
220 0 0 0
191 0 0 0
192 0 0 0
197 0 0 0
221 0 0 0
222 0 0 0
226 0 0 0
227 0 0 0
193 0 0 0
198 0 0 0
199 0 0 0
223 0 0 0
224 0 0 0
228 0 0 0
194 0 0 0
195 0 0 0
196 0 0 0
200 0 0 0
225 0 0 0
229 0 0 0
230 0 0 0
201 0 0 0
202 0 0 0
206 0 0 0
207 0 0 0
231 0 0 0
232 0 0 0
236 0 0 0
203 0 0 0
208 0 0 0
209 0 0 0
233 0 0 0
234 0 0 0
238 0 0 0
204 0 0 0
205 0 0 0
210 0 0 0
235 0 0 0
239 0 0 0
240 0 0 0
237 0 0 0
241 0 0 0
242 0 0 0
246 0 0 0
247 0 0 0
276 0 0 0
243 0 0 0
244 0 0 0
248 0 0 0
279 0 0 0
249 0 0 0
250 0 0 0
255 0 0 0
275 0 0 0
251 0 0 0
252 0 0 0
256 0 0 0
257 0 0 0
253 0 0 0
254 0 0 0
258 0 0 0
264 0 0 0
283 0 0 0
289 0 0 0
259 0 0 0
260 0 0 0
284 0 0 0
290 0 0 0
261 0 0 0
262 0 0 0
266 0 0 0
267 0 0 0
292 0 0 0
326 0 0 0
263 0 0 0
268 0 0 0
245 0 0 0
265 0 0 0
269 0 0 0
270 0 0 0
294 0 0 0
296 0 0 0
271 0 0 0
272 0 0 0
277 0 0 0
301 0 0 0
302 0 0 0
306 0 0 0
307 0 0 0
273 0 0 0
278 0 0 0
303 0 0 0
304 0 0 0
308 0 0 0
274 0 0 0
280 0 0 0
305 0 0 0
309 0 0 0
310 0 0 0
335 0 0 0
281 0 0 0
282 0 0 0
286 0 0 0
287 0 0 0
312 0 0 0
316 0 0 0
317 0 0 0
288 0 0 0
313 0 0 0
314 0 0 0
318 0 0 0
285 0 0 0
311 0 0 0
315 0 0 0
319 0 0 0
320 0 0 0
355 0 0 0
291 0 0 0
297 0 0 0
321 0 0 0
322 0 0 0
327 0 0 0
356 0 0 0
293 0 0 0
298 0 0 0
299 0 0 0
323 0 0 0
324 0 0 0
328 0 0 0
295 0 0 0
300 0 0 0
325 0 0 0
329 0 0 0
330 0 0 0
332 0 0 0
336 0 0 0
337 0 0 0
333 0 0 0
334 0 0 0
338 0 0 0
339 0 0 0
340 0 0 0
342 0 0 0
346 0 0 0
347 0 0 0
361 0 0 0
343 0 0 0
344 0 0 0
348 0 0 0
362 0 0 0
341 0 0 0
345 0 0 0
349 0 0 0
350 0 0 0
352 0 0 0
357 0 0 0
360 0 0 0
353 0 0 0
354 0 0 0
358 0 0 0
331 0 0 0
351 0 0 0
359 0 0 0
