LAMMPS data file via write_data, version 11 Feb 2026, timestep = 383, units = metal

362 atoms
8 atom types

0 12.447907776 xlo xhi
0 12.9362452296 ylo yhi
0 52.3600831054 zlo zhi

Masses

1 26.9815
2 10.811
3 12.011
4 51.9961
5 55.845
6 95.95999999999999
7 58.6934
8 1.008

Atoms # atomic/kk

1 7 1.1453513208647774 1.4036337685083446 14.17111439813169 0 0 0
2 7 3.609063273121547 1.069246428726655 14.664723228777186 0 0 0
6 7 12.372424833674408 3.455335428991632 14.817125449887346 -1 0 0
7 7 2.4282597965147255 3.273998319983192 14.98638572839837 0 0 0
31 6 0.13266575708580006 1.5660486275905623 16.54004347959607 0 0 0
32 7 2.605403844968167 1.6845383435180192 16.90992519084165 0 0 0
36 7 1.2201322384066662 3.8554430678239586 17.02417018701096 0 0 0
37 7 3.710963356802711 3.836544535379936 17.051495190690733 0 0 0
3 5 6.07716940176646 0.946153530225647 14.907091734038094 0 0 0
8 7 4.929340540451425 3.1265161060441025 15.005275854882225 0 0 0
9 7 7.391051088529313 3.154604967343307 14.915674567958431 0 0 0
33 7 4.986084332090843 1.6642166655117698 16.949485193819264 0 0 0
34 7 7.410739489609002 1.7683851881790014 16.974579876664812 0 0 0
38 5 6.179311488703753 3.859264778951111 16.983605725497053 0 0 0
4 6 8.641203105523173 0.9959515909559523 14.995447583995285 0 0 0
5 7 11.050347985587416 1.2523648501691198 14.596816534403102 0 0 0
10 7 9.913663216653447 3.3897702470329425 14.775596618696122 0 0 0
35 7 9.986047594147015 1.6617115290693056 16.938515734977248 0 0 0
39 7 8.731309762782338 3.8620770378986093 16.856730434554883 0 0 0
40 7 11.191133444265002 3.8061398332341834 16.995052400244667 0 0 0
11 7 1.2354687612869328 5.494405168219543 15.075015161432978 0 0 0
12 7 3.7239432547996296 5.3156198889627495 15.085859494194377 0 0 0
16 4 0.47001519987370494 7.8119027457039625 14.79413024712689 0 0 0
17 7 2.6534981505131796 7.494565465077815 15.148151298050378 0 0 0
41 7 12.442770026878648 5.997610748989716 17.221114266346692 -1 0 0
42 7 2.4544071072850038 6.126889736525906 17.13584817078241 0 0 0
46 7 0.795188319868762 9.366656259739187 16.86934593708224 0 0 0
47 7 3.887242911212342 8.197054573657864 17.057875717937712 0 0 0
13 7 6.179393172677221 5.304823127790495 15.028868457061254 0 0 0
18 7 5.080445059479893 7.478141307318189 15.063131552045279 0 0 0
19 2 7.060420195974221 7.018289065651081 15.384075694506073 0 0 0
43 7 4.95330369912653 5.962193380238058 17.089232852958254 0 0 0
44 7 7.477691540995493 5.9398790635502765 17.08252273663423 0 0 0
48 7 6.347389882934502 8.054331285384993 17.044215104347245 0 0 0
14 7 8.7048096413666 5.657971638716144 14.960189411320076 0 0 0
15 6 11.181199359315542 5.603823264227267 15.17940552735938 0 0 0
20 7 10.446085536205942 7.66907844837167 14.179243692199615 0 0 0
45 7 9.924074638736345 6.037893927037181 17.247687384409627 0 0 0
49 7 8.717229805942079 7.9213035355959915 16.06417944248307 0 0 0
50 7 11.186030531209905 7.990332041090094 16.448304197349476 0 0 0
21 2 1.166017442062399 10.477727493216614 15.207398828218558 0 0 0
22 7 2.9704386523639505 9.864449646391712 15.639822950902808 0 0 0
26 7 0.12871911597422983 12.203847458496089 14.90494132679005 0 0 0
27 7 2.4829733260543736 11.807582906778963 14.458355856626588 0 0 0
51 3 11.520281843094585 9.369630261246263 17.656839159996668 -1 0 0
52 7 1.3509466898252258 11.864032987415962 16.983500494630746 0 0 0
56 2 1.9145668588681817 0.320046518036546 15.603721564491774 0 1 0
57 7 3.754472269366841 12.436044052732942 16.604183605898598 0 0 0
23 7 6.922220626865981 9.00499038751022 14.773772947527998 0 0 0
28 7 4.960329583433229 11.786363790859914 14.601792866069337 0 0 0
29 6 7.488085710004028 11.491845405786897 14.915791134003818 0 0 0
53 7 5.336520606674601 10.12136061613328 16.321868281000135 0 0 0
54 7 7.734231928936656 10.053182721298118 16.94139963543583 0 0 0
58 6 6.320187486067498 12.366115241430972 16.949401784485584 0 0 0
24 7 9.211900817332289 9.737665066336916 14.5367302057481 0 0 0
25 7 11.763435090118932 9.873906396105022 14.785391534620445 0 0 0
30 7 10.062378517915572 11.944510801359154 14.756365297527989 0 0 0
55 7 10.185891524855617 10.275344259048065 16.67609195991887 0 0 0
59 7 8.837321295408861 12.38039665506866 16.956618363946564 0 0 0
60 7 11.243515770095664 12.466403386991626 16.87737814325736 0 0 0
61 6 0.04832180682790081 12.934363614574028 18.989322001991496 0 -1 0
62 7 2.588073013869858 12.853716511658778 19.03262327318909 0 -1 0
66 6 1.3935863800005674 2.16528397003318 19.047707514152894 0 0 0
67 5 3.831663523837907 2.169138442814982 19.071780358432115 0 0 0
91 4 1.3615898054595008 0.7483610790922867 21.294428813742982 0 0 0
92 7 3.7538656131443022 0.7236941694360165 21.049598082768885 0 0 0
96 7 0.08266034428726593 2.7963449468717285 21.181748338235998 0 0 0
97 7 2.5933027822232577 2.8491765643762212 21.19348258391757 0 0 0
63 5 4.9573700758395525 0.052382684405741044 18.956117544810866 0 0 0
64 7 7.442283101207473 0.08151511813269148 19.095770226206618 0 0 0
68 7 6.195541977989559 2.1582402897889774 19.07445657833119 0 0 0
93 7 6.260418070362706 0.7188387356547841 21.16789204234882 0 0 0
98 7 5.026316883309085 2.8731209564262095 21.147901421695188 0 0 0
99 5 7.479913788857957 2.814374170377442 21.16363717095297 0 0 0
65 7 10.002398525056376 0.07957745446560531 19.090592467918658 0 0 0
69 7 8.73915090960749 2.153317994595995 18.989824846724154 0 0 0
70 7 11.287641488245965 2.2375574880364364 18.948523748223373 0 0 0
94 7 8.714630523266118 0.7128131127812259 21.230657653346505 0 0 0
95 7 11.305143681029065 0.6697608137732453 21.19394734830786 0 0 0
100 6 10.031514063986794 2.7838451295915614 21.049422795377854 0 0 0
71 1 12.38423173131045 4.377571375536634 19.180541865735645 -1 0 0
72 7 2.484422822322136 4.388352680047056 19.10129240930834 0 0 0
76 7 1.2007299707870203 6.434094094514279 19.254383346530272 0 0 0
77 7 3.784555494295412 6.5067078657787665 19.159462759189836 0 0 0
101 7 1.2049772626760746 4.985742939529134 21.253691575036648 0 0 0
102 6 3.7303807972483454 5.041870560791533 21.223991331854485 0 0 0
106 7 12.43590108628054 7.096275410280095 21.31031513920032 -1 0 0
107 7 2.469137438786145 7.1722416819770665 21.226941594200447 0 0 0
73 7 4.976580592628845 4.315797962051736 19.081480515860488 0 0 0
74 6 7.502428830939733 4.28472027148534 19.049073542134483 0 0 0
78 7 6.197154725365088 6.51845990445633 19.134320507513614 0 0 0
103 7 6.275815416251081 5.046410192550191 21.17037929177554 0 0 0
108 7 5.012297966014495 7.228000545233524 21.22114142271903 0 0 0
109 7 7.419950259072316 7.2479014260905785 21.25956427367032 0 0 0
75 5 9.909326536329688 4.3047652825115765 19.027978157415284 0 0 0
79 7 8.6262186367263 6.471400032611344 19.317749604957097 0 0 0
80 7 11.114175041871384 6.419954859070671 19.35262417413042 0 0 0
104 7 8.74142455118019 5.022446016364925 21.238137458032853 0 0 0
105 3 10.085007898132043 4.371327707815001 22.282936431875108 0 0 0
110 7 9.890966221064868 7.165301828010984 21.296743553043097 0 0 0
81 4 12.34328143271447 8.472333787357854 19.195104464414243 -1 0 0
82 6 2.3594537430762568 8.488451939176002 18.90975257038308 0 0 0
86 7 1.28229070013458 10.689699818433814 19.155806948139663 0 0 0
87 1 3.665657054013072 10.71506689382497 18.260239921979384 0 0 0
111 7 1.1802694778107088 9.289026822303363 21.190400797651122 0 0 0
112 6 3.7022413022188627 9.355171330634263 21.13747323240303 0 0 0
116 1 0.037590092051908414 11.486011150484895 21.292095315269048 0 0 0
117 7 2.4710276595718144 11.52780784683884 21.139587912514603 0 0 0
83 7 4.946854762010185 8.73240383870607 19.077761641169875 0 0 0
84 7 7.398077395855816 8.639069650573262 19.080101539787258 0 0 0
88 7 6.1631389848420035 10.80068230716829 18.924423921099795 0 0 0
113 7 6.214608543326694 9.408567613795592 21.029666130226925 0 0 0
118 7 4.964577437714092 11.540097773723494 21.03680575009784 0 0 0
119 4 7.400144988908706 11.535528667137285 21.069182298061843 0 0 0
85 6 9.788086102273198 8.4727254676925 18.53522640867788 0 0 0
89 6 8.731936419724407 10.849424260003714 19.032880496814936 0 0 0
90 4 11.272802436464257 10.820316011818308 18.933080755956254 0 0 0
114 7 8.700337715898778 9.31531205429916 20.987259425983236 0 0 0
115 6 11.109591062020456 9.251257211827385 21.170095465945916 0 0 0
120 7 9.986464046934604 11.515742132019414 21.176654510320454 0 0 0
121 7 0.07810580878322575 1.372842956452525 23.308078704932335 0 0 0
122 7 2.569439137136148 1.384713619139682 23.327559098937748 0 0 0
126 6 1.3490332314186975 3.5675021476368616 23.263728380657856 0 0 0
127 7 3.844537923791376 3.5712637074433835 23.359438074630514 0 0 0
152 7 2.647427080324797 12.921595767126233 25.371995028860816 0 -1 0
156 1 1.4735854883879766 2.1111344020167686 25.51328925500813 0 0 0
157 7 3.95979067683065 2.117717528714873 25.441795430320866 0 0 0
162 7 2.5925402482955104 4.243387533242821 25.425770342385267 0 0 0
123 7 4.986403446976344 1.4098863278704346 23.16022914038442 0 0 0
124 7 7.387855112025383 1.4809355545871772 23.48434063226049 0 0 0
128 7 6.29746030383826 3.6448384154859395 23.18143308977739 0 0 0
153 7 5.190926673546867 0.05244697704082735 25.290942694592225 0 0 0
154 7 7.59361456154122 12.920278030071616 25.473484142252687 0 -1 0
158 2 5.769592791352142 2.4380294890988266 24.626813950208817 0 0 0
163 7 5.111958179292019 4.2246986610618675 25.41883291013954 0 0 0
164 5 7.471233824939777 4.042351407864177 25.35779127408083 0 0 0
125 7 10.037171331771555 1.4071759425530999 23.35284935502759 0 0 0
129 7 8.745205227553837 3.525834731299053 23.345516081531066 0 0 0
130 4 11.36079687839272 3.5960042397984537 23.400566469434494 0 0 0
155 4 10.113342602993354 0.04135395743296254 25.556376488904263 0 0 0
159 7 8.863333313192882 2.0782585654310326 25.445416191950756 0 0 0
160 7 11.394736435032348 2.133713217389878 25.419333584701974 0 0 0
165 7 10.059226234592295 4.1962651265811175 25.41042815320819 0 0 0
131 7 0.06435374392227924 5.750026724978671 23.402088916896655 0 0 0
132 7 2.5359021720266934 5.778182339581726 23.358229520978917 0 0 0
136 7 1.2961368281387093 7.8916762994671386 23.303034813516238 0 0 0
137 7 3.769812737020837 7.959386695492777 23.276204693968218 0 0 0
161 4 0.10248241072510739 4.318677283357674 25.467331964301092 0 0 0
166 7 1.3307672962610027 6.392795852241815 25.428582362964523 0 0 0
167 7 3.8010678123740553 6.416754038245292 25.440628870186718 0 0 0
133 6 5.058301343479981 5.837425567616781 23.385274322859434 0 0 0
134 7 7.552665807128839 5.756509340284833 23.31299042374968 0 0 0
138 7 6.303236504861256 7.97477974006202 23.339187547125373 0 0 0
168 7 6.358415430029566 6.373927259624291 25.431004895769597 0 0 0
173 7 5.097310108624118 8.532287918275056 25.330377684069344 0 0 0
135 7 10.057513970903733 5.802856454097015 23.3864936250891 0 0 0
139 4 8.687041734938035 7.919990131436019 23.243054163596906 0 0 0
140 4 11.274865992912675 7.867451727695482 23.31671439467648 0 0 0
169 7 8.76887698611744 6.308556336131715 25.38212601437165 0 0 0
170 7 11.2822578766005 6.385269267603047 25.44755587738825 0 0 0
175 6 9.877712300404534 8.54449702682521 25.523319063846696 0 0 0
141 7 0.012685346019521522 10.044816320202957 23.342370400811333 0 0 0
142 7 2.4886488895533296 10.083418051405168 23.25294038763223 0 0 0
146 7 1.2949833218591646 12.212375253519967 23.34889374697591 0 0 0
147 7 3.7990931548154734 12.221688544699715 23.178330635371204 0 0 0
151 4 0.08516449930809698 12.852052576644851 25.414046572902837 0 -1 0
171 6 0.10217101015669132 8.591411094026036 25.42878142903311 0 0 0
172 7 2.6153845741423045 8.586658662631406 25.374035822263213 0 0 0
176 7 1.3347535072664571 10.776234672023696 25.43029376237183 0 0 0
177 6 3.871920912878461 10.79416849305646 25.271961501554546 0 0 0
143 7 5.047388258645013 10.082795677296236 23.179565095388085 0 0 0
144 7 7.497890683738377 10.066601598840112 22.91839820788965 0 0 0
148 4 6.205175664547306 12.247902933027762 23.18357651876841 0 0 0
178 6 6.6096480622766345 10.520608680294538 25.218929294239164 0 0 0
145 7 9.988262196316862 10.051509341621722 23.314728965806214 0 0 0
149 6 8.700494088320054 12.249761389643277 23.328753697624386 0 0 0
150 7 11.239613403846198 12.195017644672117 23.404486396532988 0 0 0
174 3 8.406099924174734 9.48668171323315 24.42265330489546 0 0 0
179 5 8.990694776752344 10.899819086597802 25.58244236375682 0 0 0
180 5 11.328523299133023 10.843931192029698 25.50615692958407 0 0 0
181 7 1.3842646367045506 0.6427728984856186 27.496044366968224 0 0 0
182 7 3.870910300828418 0.6804378108697396 27.434969815420263 0 0 0
186 7 0.1659427924442263 2.8350151114717743 27.494062545015332 0 0 0
187 7 2.6548943259447397 2.8302118550933595 27.566964213711902 0 0 0
211 7 0.20554274152155474 1.4221198809807694 29.592449935402062 0 0 0
212 7 2.7078308173099184 1.3369856197572236 29.581229459120884 0 0 0
216 7 1.4062466542134378 3.5317824554427433 29.590493310680504 0 0 0
217 4 3.8197678485153546 3.5502257635332484 29.59907139133496 0 0 0
183 7 6.3041931126099975 0.692981217579054 27.57152887362143 0 0 0
188 7 5.078054972830571 2.8513274667043005 27.576082916209003 0 0 0
189 7 7.589953077087521 2.770913664874684 27.463055676010764 0 0 0
213 5 5.129649392130158 1.4040368774341168 29.602205907994367 0 0 0
214 7 7.607962557262841 1.3327167420834862 29.593150026552106 0 0 0
218 7 6.359068423396344 3.5149270211613675 29.54420706462411 0 0 0
184 7 8.880734235865821 0.6965616342579345 27.56839929494838 0 0 0
185 4 11.37876100756091 0.6996997864496205 27.54177468418951 0 0 0
190 7 10.139860508826933 2.809232974588996 27.491858167877453 0 0 0
215 7 10.120193793125027 1.3812708851968682 29.634432012854987 0 0 0
219 7 8.834185726381607 3.4897886058614023 29.5321011683581 0 0 0
220 7 11.364620263901969 3.5364094740430096 29.5249845752595 0 0 0
191 7 1.3857276615166259 4.9837334356803185 27.473230846888665 0 0 0
192 7 3.8283410802770623 4.967563737915413 27.4821453690057 0 0 0
197 7 2.5736056337848243 7.170873537075824 27.475321720420155 0 0 0
221 7 0.11522865835145525 5.704094210559242 29.57443747653331 0 0 0
222 7 2.586098025152066 5.70630222490219 29.55107730276718 0 0 0
226 7 1.3589956980228262 7.881305721376002 29.55323849640269 0 0 0
227 7 3.8558049047154785 7.892457559473937 29.467766572110857 0 0 0
193 7 6.364622503578547 4.953319253217112 27.413671908710842 0 0 0
198 7 5.096961147755232 7.151734557228462 27.4108940974989 0 0 0
199 7 7.61629645833466 7.1664472265044115 27.448801785082388 0 0 0
223 6 5.147861500258819 5.699409932737825 29.489337726195014 0 0 0
224 7 7.639259679317912 5.716232323008566 29.582379516594777 0 0 0
228 7 6.3891692648099045 7.891539315858819 29.491589635973423 0 0 0
194 6 8.842765811756465 4.974367934332374 27.494634683556914 0 0 0
195 7 11.355534564710233 4.9713162955854795 27.51063767693454 0 0 0
196 7 0.13087241366006244 7.1347426089248325 27.500535299282003 0 0 0
200 7 10.1187268720019 7.134860427514058 27.542836969616676 0 0 0
225 7 10.096638592341312 5.718056415601845 29.608812480343506 0 0 0
229 7 8.84149974042144 7.860601189856456 29.528316315696966 0 0 0
230 7 11.363743212257559 7.908370522483368 29.52905957300509 0 0 0
201 5 1.3736663478250906 9.303208420939209 27.515512810472867 0 0 0
202 7 3.8666506124594857 9.299574050352748 27.37497453173883 0 0 0
206 4 0.18215688020698345 11.454817234327006 27.52706320895954 0 0 0
207 7 2.605543355194776 11.435687089369177 27.43805209526087 0 0 0
231 7 0.1605717443227871 10.05700003215116 29.57223447021167 0 0 0
232 7 2.628134514137316 10.005674311422606 29.427465009440883 0 0 0
236 7 1.4677562521340028 12.161142792808588 29.557095328102616 0 0 0
203 7 6.369464384980168 9.263948751088416 27.387575862477384 0 0 0
208 7 5.132603085708809 11.478804469481283 27.3190957682401 0 0 0
209 6 7.576686758458406 11.502799315053537 27.640581269285647 0 0 0
233 7 5.144200392644943 10.0342575745758 29.322915664174662 0 0 0
234 7 7.595961937793838 10.06703453918635 29.66561525940167 0 0 0
238 7 6.206074838956426 12.215232790981744 29.68112303798459 0 0 0
204 7 8.833576926367144 9.346496103309585 27.626041772922715 0 0 0
205 7 11.340093090517367 9.393605819488863 27.54986646704384 0 0 0
210 7 10.146037790350828 11.531520384862892 27.587317086764838 0 0 0
235 7 10.080439226363044 10.157422660984627 29.60493473439072 0 0 0
239 4 8.87320946696002 12.232749521389348 29.733820309708513 0 0 0
240 7 11.39140490420052 12.245149694923175 29.56566500610275 0 0 0
237 3 4.030220598262854 0.2694232655821165 30.552711415843795 0 1 0
241 7 0.1970218411209559 0.08122438691158758 31.638970553806047 0 0 0
242 7 2.5658366897955482 0.12501276992269916 31.7402452715996 0 0 0
246 4 1.3397107249894442 2.226103863901484 31.667302048717314 0 0 0
247 7 3.875256969907612 2.1373244649597956 31.64246543865147 0 0 0
276 7 0.1713931757715257 2.9814598281254616 33.73976723255833 0 0 0
243 7 5.162253973829909 12.888815270277604 32.09889267905904 0 -1 0
244 7 7.621034654319932 12.922622298317526 31.712720836078056 0 -1 0
248 7 6.40233390716456 2.13439540215385 31.646059822623716 0 0 0
279 7 7.723161835594661 3.02870450180545 33.73161543542512 0 0 0
249 7 8.84631724101033 2.0870027796844646 31.683808260725186 0 0 0
250 7 11.37964712066776 2.121976874902199 31.663518509019685 0 0 0
255 1 10.10060835090488 4.20354109676854 31.507991964503642 0 0 0
275 4 11.433766358325347 0.7811357000914375 33.71764879321624 0 0 0
251 7 0.14270471319660752 4.308744220604014 31.652604969709767 0 0 0
252 7 2.628453730414727 4.30583696153986 31.66631039977355 0 0 0
256 7 1.3241553471919734 6.488026832250521 31.6358510217888 0 0 0
257 6 3.7865834531393983 6.488783326746252 31.66054894504127 0 0 0
253 7 5.107832854483747 4.297045286021036 31.62182397318636 0 0 0
254 7 7.616800577282497 4.297351882781235 31.59346530799876 0 0 0
258 7 6.346456151985669 6.480745322675329 31.62084089322216 0 0 0
264 7 7.584362483220906 8.564105602730583 31.622821203774084 0 0 0
283 7 6.3745877299273355 5.088835677666939 33.66866555965534 0 0 0
289 7 7.626324831708007 7.173698160713762 33.71472801523641 0 0 0
259 4 8.815760317659517 6.445820228340174 31.63091498298182 0 0 0
260 7 11.309429849868096 6.474080673623367 31.597887199998755 0 0 0
284 5 8.88158391356913 5.1030796742630296 33.586213090222586 0 0 0
290 7 10.077648822408841 7.244604002279955 33.59980856430803 0 0 0
261 7 0.17246911428139858 8.694669527654419 31.655550676347314 0 0 0
262 7 2.659499512449045 8.707339905709905 31.53012011846108 0 0 0
266 7 1.5582007141163823 10.819493422836125 31.57636324828596 0 0 0
267 4 3.913226081093481 11.257380092275064 30.85623648611338 0 0 0
292 7 3.9541186106962014 9.364311826975449 33.500308474346994 0 0 0
326 7 0.4997754865223205 11.639334573374118 33.68506025522449 0 0 0
263 1 5.089665917108709 8.747745842462223 31.41934603521431 0 0 0
268 7 6.255738730743174 10.748850096544139 31.582273094573807 0 0 0
245 7 10.105956870683942 12.869802760254862 31.871263614466546 0 -1 0
265 6 10.096619649325618 8.66702794858676 31.54796096892296 0 0 0
269 7 8.769907958066623 10.787002038858729 31.75333661322175 0 0 0
270 7 11.423856088720692 10.8903120523443 31.618867275802074 0 0 0
294 7 8.76159099714337 9.275298481063642 33.69800010734657 0 0 0
296 3 11.06823722130065 11.815978788480498 33.335006450959646 -1 0 0
271 7 1.4696875856285028 0.8893019853755867 33.77450529071932 0 0 0
272 7 3.9171681113131083 0.9432464986772415 33.9223053471652 0 0 0
277 7 2.638715943330744 3.067833694004222 33.791820843588425 0 0 0
301 7 0.18247405573428935 1.5374668367605153 35.756441891346995 0 0 0
302 7 2.6109584617797577 1.660256473133902 35.84832578330993 0 0 0
306 4 1.409069214175273 3.826991817241632 35.95898956702277 0 0 0
307 7 3.992392488648133 3.7229886953198315 35.830740960072255 0 0 0
273 7 6.455438469760624 0.9608770958295394 33.901450953572066 0 0 0
278 1 5.212965442272333 2.9855821411595587 33.716355730357186 0 0 0
303 7 5.2424136860681925 1.6596467107471993 35.9362655154339 0 0 0
304 4 7.754388655953107 1.625419027565006 35.92109883134494 0 0 0
308 7 6.52385736036716 3.6976713431107555 35.79838583028519 0 0 0
274 7 8.82992940749879 0.8839833092712988 33.8400647041724 0 0 0
280 7 10.19822503188989 2.9795892915334865 33.71298606156914 0 0 0
305 7 10.215612583875398 1.546461320300962 35.73036535219935 0 0 0
309 7 9.014786452363461 3.6603558296728353 35.781737099736056 0 0 0
310 4 11.584873200704022 3.9302169522383834 35.87015116678579 0 0 0
335 5 9.901530079729394 12.894088879557287 37.39748546131874 0 -1 0
281 7 1.321486272497435 5.170162978192224 33.85537177688202 0 0 0
282 4 3.843764542487065 5.123934216802055 33.76559120884184 0 0 0
286 7 0.0881740306618474 7.266621057106309 33.62536140877954 0 0 0
287 7 2.628220438898018 7.276223601781992 33.742516451174225 0 0 0
312 7 2.7254141401079592 5.778891815803015 35.780979651691375 0 0 0
316 7 1.2109122803628098 7.592487313770209 35.786145857872796 0 0 0
317 7 3.9233731063472423 8.051804045870131 35.7314047226573 0 0 0
288 7 5.17763836752506 7.25930884716765 33.663911174615585 0 0 0
313 7 5.260086840560956 5.907224219990302 35.713698357643445 0 0 0
314 7 7.716939661401323 5.808926308331811 35.74433125671324 0 0 0
318 4 6.549395983407394 8.110719478231122 35.80565885372641 0 0 0
285 4 11.343002444014571 5.139433371571347 33.640693066384536 0 0 0
311 2 12.373900536641397 5.984880589658367 35.325241040604396 -1 0 0
315 7 10.12885156942211 5.794902656805738 35.58362162515868 0 0 0
319 7 8.951111805346358 7.963149789617371 35.824187773112946 0 0 0
320 7 11.344879136534956 7.9150965345846735 35.5962535419215 0 0 0
355 3 10.434683595845067 7.887926247715287 37.27948246149926 0 0 0
291 7 1.4627225778585013 9.412755905059734 33.73184608343516 0 0 0
297 6 3.0164797381355566 11.564771290812448 33.67622510229512 0 0 0
321 6 0.20488266752599513 10.049600414235123 35.910462143399876 0 0 0
322 7 2.69391848976871 10.189827982193473 35.763579241271025 0 0 0
327 6 3.913572696642395 12.502209994982927 36.11077526694423 0 0 0
356 4 1.393270937791426 12.34923794986374 35.85368761910668 0 0 0
293 4 6.444071153566241 9.30876205653013 33.64976206088783 0 0 0
298 2 5.195394699012725 12.27228980357133 34.20631807399508 0 0 0
299 7 6.989729772884561 11.56743172827202 33.68224986103827 0 0 0
323 6 5.224624544557517 10.228395354942348 35.57640898123202 0 0 0
324 7 7.904967652347327 10.34730639769863 35.71445380219336 0 0 0
328 7 6.456685686684902 12.51013067457582 35.9170167730344 0 0 0
295 6 11.262433281568155 9.683473342516116 33.765559427699166 0 0 0
300 7 9.376486915013492 11.533347279915375 34.170275183700035 0 0 0
325 7 10.250485648773525 9.831002824641175 37.03336092914996 0 0 0
329 3 9.523976680745132 11.388224649314571 36.20545406612283 0 0 0
330 4 11.253960720431138 12.062239524585783 35.581842019505196 0 0 0
332 7 2.4796727814341866 0.08670450100305177 38.04564290196241 0 0 0
336 7 1.3258570785186559 2.1703671690316306 37.817995816085485 0 0 0
337 7 3.8677698835860617 2.181653883939252 37.851808542196366 0 0 0
361 8 2.145135827671203 2.313659546276171 41.75305199706913 0 0 0
362 8 2.9017342807043005 2.22547290319122 41.7518770922296 0 0 0
333 7 5.209281031590992 0.15627726340794826 38.126239141390066 0 0 0
334 7 7.643395483593521 0.058840180287716815 38.0021734127841 0 0 0
338 7 6.5218675240852075 2.2539982274141446 37.9008719606412 0 0 0
339 7 8.982912430767838 2.1796984864236997 37.85643937877328 0 0 0
340 7 11.361379981034512 2.1826969663298823 37.73038317534855 0 0 0
342 7 2.708857183410077 4.278714716522232 37.92233989451316 0 0 0
346 7 1.5138632035105861 6.394515371572695 37.99679327571405 0 0 0
347 6 3.9590539967297587 6.462588572882884 37.76404612137448 0 0 0
343 7 5.298545013487131 4.420277710379481 37.835557822582146 0 0 0
344 7 7.828049852569889 4.431964526673342 37.84767556011655 0 0 0
348 6 6.654999535865787 6.658972415949192 37.81660826942341 0 0 0
341 7 0.21152796348472006 4.2348823106381035 38.082788554329014 0 0 0
345 4 10.217833050809103 4.32492809523724 37.81616721654663 0 0 0
349 7 9.235400787320112 6.618138555845106 37.86759054046353 0 0 0
350 7 11.678244512036864 6.255626011234179 37.30336650826719 0 0 0
352 6 2.485795708203269 8.651009853780351 37.68669619711438 0 0 0
357 7 3.8388239111812776 10.79919291328853 37.9534304160204 0 0 0
360 7 1.3817331038499066 10.892306607823448 37.89398484523504 1 0 0
353 7 5.120972076852954 8.68610081951456 37.82637344562966 0 0 0
354 7 7.950739676693087 8.94721697698566 37.816925460986816 0 0 0
358 6 6.410771910011326 10.844509275857774 37.789414023120926 0 0 0
331 7 12.388240784380368 12.878201152897857 37.63267148203282 -1 -1 0
351 7 12.240728084518082 8.547739771027835 37.84265304963793 -1 0 0
359 2 8.596520764262833 11.149924561648138 37.43161687296439 0 0 0

Velocities

1 0 0 0
2 0 0 0
6 0 0 0
7 0 0 0
31 0 0 0
32 0 0 0
36 0 0 0
37 0 0 0
3 0 0 0
8 0 0 0
9 0 0 0
33 0 0 0
34 0 0 0
38 0 0 0
4 0 0 0
5 0 0 0
10 0 0 0
35 0 0 0
39 0 0 0
40 0 0 0
11 0 0 0
12 0 0 0
16 0 0 0
17 0 0 0
41 0 0 0
42 0 0 0
46 0 0 0
47 0 0 0
13 0 0 0
18 0 0 0
19 0 0 0
43 0 0 0
44 0 0 0
48 0 0 0
14 0 0 0
15 0 0 0
20 0 0 0
45 0 0 0
49 0 0 0
50 0 0 0
21 0 0 0
22 0 0 0
26 0 0 0
27 0 0 0
51 0 0 0
52 0 0 0
56 0 0 0
57 0 0 0
23 0 0 0
28 0 0 0
29 0 0 0
53 0 0 0
54 0 0 0
58 0 0 0
24 0 0 0
25 0 0 0
30 0 0 0
55 0 0 0
59 0 0 0
60 0 0 0
61 0 0 0
62 0 0 0
66 0 0 0
67 0 0 0
91 0 0 0
92 0 0 0
96 0 0 0
97 0 0 0
63 0 0 0
64 0 0 0
68 0 0 0
93 0 0 0
98 0 0 0
99 0 0 0
65 0 0 0
69 0 0 0
70 0 0 0
94 0 0 0
95 0 0 0
100 0 0 0
71 0 0 0
72 0 0 0
76 0 0 0
77 0 0 0
101 0 0 0
102 0 0 0
106 0 0 0
107 0 0 0
73 0 0 0
74 0 0 0
78 0 0 0
103 0 0 0
108 0 0 0
109 0 0 0
75 0 0 0
79 0 0 0
80 0 0 0
104 0 0 0
105 0 0 0
110 0 0 0
81 0 0 0
82 0 0 0
86 0 0 0
87 0 0 0
111 0 0 0
112 0 0 0
116 0 0 0
117 0 0 0
83 0 0 0
84 0 0 0
88 0 0 0
113 0 0 0
118 0 0 0
119 0 0 0
85 0 0 0
89 0 0 0
90 0 0 0
114 0 0 0
115 0 0 0
120 0 0 0
121 0 0 0
122 0 0 0
126 0 0 0
127 0 0 0
152 0 0 0
156 0 0 0
157 0 0 0
162 0 0 0
123 0 0 0
124 0 0 0
128 0 0 0
153 0 0 0
154 0 0 0
158 0 0 0
163 0 0 0
164 0 0 0
125 0 0 0
129 0 0 0
130 0 0 0
155 0 0 0
159 0 0 0
160 0 0 0
165 0 0 0
131 0 0 0
132 0 0 0
136 0 0 0
137 0 0 0
161 0 0 0
166 0 0 0
167 0 0 0
133 0 0 0
134 0 0 0
138 0 0 0
168 0 0 0
173 0 0 0
135 0 0 0
139 0 0 0
140 0 0 0
169 0 0 0
170 0 0 0
175 0 0 0
141 0 0 0
142 0 0 0
146 0 0 0
147 0 0 0
151 0 0 0
171 0 0 0
172 0 0 0
176 0 0 0
177 0 0 0
143 0 0 0
144 0 0 0
148 0 0 0
178 0 0 0
145 0 0 0
149 0 0 0
150 0 0 0
174 0 0 0
179 0 0 0
180 0 0 0
181 0 0 0
182 0 0 0
186 0 0 0
187 0 0 0
211 0 0 0
212 0 0 0
216 0 0 0
217 0 0 0
183 0 0 0
188 0 0 0
189 0 0 0
213 0 0 0
214 0 0 0
218 0 0 0
184 0 0 0
185 0 0 0
190 0 0 0
215 0 0 0
219 0 0 0
220 0 0 0
191 0 0 0
192 0 0 0
197 0 0 0
221 0 0 0
222 0 0 0
226 0 0 0
227 0 0 0
193 0 0 0
198 0 0 0
199 0 0 0
223 0 0 0
224 0 0 0
228 0 0 0
194 0 0 0
195 0 0 0
196 0 0 0
200 0 0 0
225 0 0 0
229 0 0 0
230 0 0 0
201 0 0 0
202 0 0 0
206 0 0 0
207 0 0 0
231 0 0 0
232 0 0 0
236 0 0 0
203 0 0 0
208 0 0 0
209 0 0 0
233 0 0 0
234 0 0 0
238 0 0 0
204 0 0 0
205 0 0 0
210 0 0 0
235 0 0 0
239 0 0 0
240 0 0 0
237 0 0 0
241 0 0 0
242 0 0 0
246 0 0 0
247 0 0 0
276 0 0 0
243 0 0 0
244 0 0 0
248 0 0 0
279 0 0 0
249 0 0 0
250 0 0 0
255 0 0 0
275 0 0 0
251 0 0 0
252 0 0 0
256 0 0 0
257 0 0 0
253 0 0 0
254 0 0 0
258 0 0 0
264 0 0 0
283 0 0 0
289 0 0 0
259 0 0 0
260 0 0 0
284 0 0 0
290 0 0 0
261 0 0 0
262 0 0 0
266 0 0 0
267 0 0 0
292 0 0 0
326 0 0 0
263 0 0 0
268 0 0 0
245 0 0 0
265 0 0 0
269 0 0 0
270 0 0 0
294 0 0 0
296 0 0 0
271 0 0 0
272 0 0 0
277 0 0 0
301 0 0 0
302 0 0 0
306 0 0 0
307 0 0 0
273 0 0 0
278 0 0 0
303 0 0 0
304 0 0 0
308 0 0 0
274 0 0 0
280 0 0 0
305 0 0 0
309 0 0 0
310 0 0 0
335 0 0 0
281 0 0 0
282 0 0 0
286 0 0 0
287 0 0 0
312 0 0 0
316 0 0 0
317 0 0 0
288 0 0 0
313 0 0 0
314 0 0 0
318 0 0 0
285 0 0 0
311 0 0 0
315 0 0 0
319 0 0 0
320 0 0 0
355 0 0 0
291 0 0 0
297 0 0 0
321 0 0 0
322 0 0 0
327 0 0 0
356 0 0 0
293 0 0 0
298 0 0 0
299 0 0 0
323 0 0 0
324 0 0 0
328 0 0 0
295 0 0 0
300 0 0 0
325 0 0 0
329 0 0 0
330 0 0 0
332 0 0 0
336 0 0 0
337 0 0 0
361 0 0 0
362 0 0 0
333 0 0 0
334 0 0 0
338 0 0 0
339 0 0 0
340 0 0 0
342 0 0 0
346 0 0 0
347 0 0 0
343 0 0 0
344 0 0 0
348 0 0 0
341 0 0 0
345 0 0 0
349 0 0 0
350 0 0 0
352 0 0 0
357 0 0 0
360 0 0 0
353 0 0 0
354 0 0 0
358 0 0 0
331 0 0 0
351 0 0 0
359 0 0 0
