LAMMPS data file via write_data, version 11 Feb 2026, timestep = 330, units = metal

362 atoms
8 atom types

0 12.447907776 xlo xhi
0 12.9362452296 ylo yhi
0 52.3600831054 zlo zhi

Masses

1 26.9815
2 10.811
3 12.011
4 51.9961
5 55.845
6 95.95999999999999
7 58.6934
8 1.008

Atoms # atomic/kk

1 7 1.1507697504194638 1.405798531336877 14.174259337763077 0 0 0
2 7 3.6145018073024064 1.071416992942457 14.668013243344534 0 0 0
6 7 12.377850221786812 3.457499371289339 14.820320144492895 -1 0 0
7 7 2.433662296223156 3.2760782837195164 14.989771514030274 0 0 0
31 6 0.1381148624401215 1.5682396692956126 16.54321438555538 0 0 0
32 7 2.6108132232948895 1.6866243110042027 16.913300583292482 0 0 0
36 7 1.2255378745636216 3.85760930668201 17.027502493097682 0 0 0
37 7 3.716366276485087 3.838661094477093 17.05485682111286 0 0 0
3 5 6.082574502327582 0.9482769799738321 14.91041843870507 0 0 0
8 7 4.934742095905041 3.1286365725005263 15.008629826684862 0 0 0
9 7 7.396440483934709 3.156742206792017 14.918947951486293 0 0 0
33 7 4.991496990732759 1.6663418649655886 16.952856338353026 0 0 0
34 7 7.416133852189238 1.770505976108105 16.977847404675874 0 0 0
38 5 6.184717147626896 3.8613938750533796 16.986915553361307 0 0 0
4 6 8.646617881446819 0.9981334012175103 14.998670553110305 0 0 0
5 7 11.055765890330331 1.2544896713909401 14.600041805345448 0 0 0
10 7 9.919079483079129 3.391911610434582 14.778835468962281 0 0 0
35 7 9.991479159765893 1.6638828071464862 16.941737966365228 0 0 0
39 7 8.736709943118628 3.8642207751351525 16.859973473756018 0 0 0
40 7 11.196553684832574 3.8083447010680365 16.998240952436582 0 0 0
11 7 1.2409077908265025 5.496529414907393 15.078270047413982 0 0 0
12 7 3.7293468044843188 5.317712491289249 15.089166339813453 0 0 0
16 4 0.47544545563223367 7.814037395572836 14.797203537103464 0 0 0
17 7 2.658893031695258 7.496692372262113 15.151427656091093 0 0 0
41 7 0.0002797075015283923 5.999810518438083 17.224280166409223 0 0 0
42 7 2.459859129255582 6.129028122216089 17.139122455198468 0 0 0
46 7 0.8006221976003918 9.36877493510236 16.872385408638536 0 0 0
47 7 3.8927076638799223 8.19921650561221 17.061098936972492 0 0 0
13 7 6.184786380873431 5.306935358526888 15.032134499568157 0 0 0
18 7 5.085838674664658 7.480236194474081 15.066365113748795 0 0 0
19 2 7.065805243632075 7.0204192419381215 15.387261540678788 0 0 0
43 7 4.958722219834577 5.96431560331048 17.092516491569743 0 0 0
44 7 7.483106232128542 5.942021174150984 17.085723817306693 0 0 0
48 7 6.35282107846281 8.056455129573378 17.047438121405044 0 0 0
14 7 8.710217456706456 5.660095216358246 14.963375435745657 0 0 0
15 6 11.186631323096542 5.605983582013958 15.182539863241548 0 0 0
20 7 10.451496921544702 7.671201848111676 14.182298479142084 0 0 0
45 7 9.92947177579508 6.0400775088091025 17.250789469585882 0 0 0
49 7 8.72262729700243 7.923462241712703 16.067231515895756 0 0 0
50 7 11.191427661724006 7.992480195858637 16.451327851831373 0 0 0
21 2 1.1714645615875554 10.479873148939026 15.210466922883684 0 0 0
22 7 2.975893639210073 9.8665982549813 15.642964124695673 0 0 0
26 7 0.13416132653705878 12.205991599316903 14.907991781374683 0 0 0
27 7 2.488424768597474 11.809776034675512 14.46155468428793 0 0 0
51 3 11.525660103450209 9.371815617918166 17.659783529686514 -1 0 0
52 7 1.3564144498165345 11.866144390957174 16.9865584110325 0 0 0
56 2 1.9200001961617343 0.3222621605678759 15.60689994681062 0 1 0
57 7 3.75991269379308 12.438184901877115 16.607436501700338 0 0 0
23 7 6.92756513940126 9.007145407037552 14.776965870556184 0 0 0
28 7 4.965743003627251 11.788483403884081 14.60505251704044 0 0 0
29 6 7.493489032324899 11.493970118909207 14.919016316764152 0 0 0
53 7 5.341930581686893 10.123498266083315 16.325123955568507 0 0 0
54 7 7.739627566860751 10.055287108495383 16.94460711295221 0 0 0
58 6 6.3255832734786495 12.368221624113653 16.9526824194623 0 0 0
24 7 9.217261682232518 9.739794996142912 14.539691210022404 0 0 0
25 7 11.768872067079952 9.876065106901441 14.788420879404454 0 0 0
30 7 10.067738374917205 11.946662943975623 14.759369559142758 0 0 0
55 7 10.191239639311133 10.27749134276969 16.67904344343834 0 0 0
59 7 8.84272484010004 12.382522476667216 16.959728411945996 0 0 0
60 7 11.248906185338727 12.46856562255645 16.880324322301124 0 0 0
61 6 0.0537782543299394 0.0003633113034546719 18.992207037139732 0 0 0
62 7 2.5935111459777573 12.855913972983753 19.035844559905467 0 -1 0
66 6 1.3990265604760594 2.1675144600666254 19.051080809172916 0 0 0
67 5 3.837100256345182 2.1712873956000696 19.0751869187892 0 0 0
91 4 1.3670421445653615 0.7505562589184696 21.29758540366811 0 0 0
92 7 3.7593042118025997 0.7258115205531823 21.052976150283744 0 0 0
96 7 0.08811688994053084 2.798645197165485 21.185004729572494 0 0 0
97 7 2.598751949058302 2.8513381508610633 21.19693250923781 0 0 0
63 5 4.962818714999923 0.05451562563761008 18.959509810096723 0 0 0
64 7 7.447708479141737 0.08370848195779731 19.098971585672615 0 0 0
68 7 6.2009735896678695 2.160384914664031 19.077837552377 0 0 0
93 7 6.265923138393762 0.7209604344873926 21.17137822383497 0 0 0
98 7 5.03174943581683 2.8752148849791395 21.151347580809446 0 0 0
99 5 7.4853396210779355 2.816621136111243 21.166903927166647 0 0 0
65 7 10.00785325952414 0.08180129610829313 19.093539345613237 0 0 0
69 7 8.744584482978455 2.1555607708521434 18.993021133072943 0 0 0
70 7 11.293094107315369 2.2398216011397283 18.95173484529629 0 0 0
94 7 8.72014172798249 0.7151272542528903 21.233564354238176 0 0 0
95 7 11.310604435404795 0.672093279563574 21.19684582459235 0 0 0
100 6 10.036959400192424 2.7862464928410886 21.052588491006784 0 0 0
71 1 12.38962987433935 4.379817326068106 19.183801105220546 -1 0 0
72 7 2.489874870459554 4.390522586536881 19.104666210537545 0 0 0
76 7 1.2061743028491334 6.436256396542429 19.257553431182945 0 0 0
77 7 3.790003142180642 6.508839426935022 19.162783450974537 0 0 0
101 7 1.2104339515898535 4.9879547654128915 21.256978459553995 0 0 0
102 6 3.7358496367468126 5.043988610354185 21.22741714113895 0 0 0
106 7 12.441334921506371 7.098494263477526 21.313309017332813 -1 0 0
107 7 2.4746157015578967 7.174359647052413 21.230120626140152 0 0 0
73 7 4.982004305004624 4.317925752364717 19.084847236007217 0 0 0
74 6 7.5078310938559625 4.286923206635101 19.05235155646717 0 0 0
78 7 6.202574816986883 6.520615361967621 19.137580362821176 0 0 0
103 7 6.281194035564121 5.0485853074099785 21.173720882299023 0 0 0
108 7 5.017744343992567 7.230114739568375 21.224525901238017 0 0 0
109 7 7.425334151123939 7.250099256695758 21.26272541169112 0 0 0
75 5 9.914737480555342 4.307035206834083 19.03114067500521 0 0 0
79 7 8.631630992852209 6.473621791582993 19.320861742449278 0 0 0
80 7 11.11956942550688 6.422215404460708 19.355685634899395 0 0 0
104 7 8.746748505228124 5.024767614301655 21.24135559370618 0 0 0
105 3 10.090311056292503 4.373696486414364 22.28616233941929 0 0 0
110 7 9.896391980851527 7.1675704476371 21.299789415747075 0 0 0
81 4 12.348723311546385 8.474505670249082 19.198008096282376 -1 0 0
82 6 2.3649034989224957 8.490599933213913 18.91290836492719 0 0 0
86 7 1.2877050533541552 10.691884384675314 19.158840561842048 0 0 0
87 1 3.671129902344077 10.717235443284425 18.263517314333388 0 0 0
111 7 1.185720896998446 9.291193617126083 21.193378095457277 0 0 0
112 6 3.707691907346508 9.357269956872013 21.140755310517804 0 0 0
116 1 0.04300718242272606 11.488266186897452 21.29494267062555 0 0 0
117 7 2.4764870309320246 11.529914939165042 21.142692733216723 0 0 0
83 7 4.9522828671576224 8.734526461701412 19.08103077643713 0 0 0
84 7 7.403481937275798 8.641271771882723 19.083355897565482 0 0 0
88 7 6.16854905798855 10.802833927117792 18.927723428915044 0 0 0
113 7 6.219995068592216 9.410731359696912 21.032950583736937 0 0 0
118 7 4.970045831614641 11.542252522572708 21.040275364210686 0 0 0
119 4 7.405579681110534 11.537738735442282 21.07232241157021 0 0 0
85 6 9.79343268148951 8.474943522671634 18.538206984464104 0 0 0
89 6 8.737373420007856 10.851610269085429 19.036004258530955 0 0 0
90 4 11.278245648618011 10.82255884499098 18.93593415945142 0 0 0
114 7 8.705700504575333 9.317598183042378 20.990514302682122 0 0 0
115 6 11.115004792558459 9.253529904540155 21.17288369496497 0 0 0
120 7 9.991895525616192 11.518044378350806 21.179573408691336 0 0 0
121 7 0.08347056263691197 1.3751249807063832 23.311095004384274 0 0 0
122 7 2.574750517273475 1.3868632552251143 23.330956022273476 0 0 0
126 6 1.3544390505279602 3.5697602194749294 23.26713005380759 0 0 0
127 7 3.8499408670759103 3.5733703682595523 23.363038944408174 0 0 0
152 7 2.6527128782881646 12.923640540115402 25.37533314202079 0 -1 0
156 1 1.478999519873139 2.1133451708267286 25.51669180695218 0 0 0
157 7 3.9651769827205166 2.119722694942409 25.445453514565546 0 0 0
162 7 2.5979401985015076 4.245511954910631 25.42942358460837 0 0 0
123 7 4.991694776149429 1.4119466798736864 23.163743628909362 0 0 0
124 7 7.393158973984382 1.4831919655346366 23.48752866326505 0 0 0
128 7 6.302807179383518 3.647064791960755 23.184766104866323 0 0 0
153 7 5.196046477003557 0.054304089171131664 25.294553160459813 0 0 0
154 7 7.598805164470098 12.922317638370076 25.476583321009088 0 -1 0
158 2 5.774724642005611 2.440421840285302 24.630082109501 0 0 0
163 7 5.1172089368019895 4.226723105544587 25.422607029146512 0 0 0
164 5 7.476470221291342 4.044649522444501 25.361157123174312 0 0 0
125 7 10.042534568410016 1.4095386313987366 23.355819961870598 0 0 0
129 7 8.750537891584269 3.528145340847166 23.348739055277893 0 0 0
130 4 11.366187359232276 3.5984174410873746 23.403679092934638 0 0 0
155 4 10.118559547429676 0.04367193841582951 25.559053687004987 0 0 0
159 7 8.86854388049215 2.08049670516187 25.448503880426863 0 0 0
160 7 11.400056351405578 2.1361374509187225 25.422197440252496 0 0 0
165 7 10.06448161406263 4.198591791444487 25.413598832747553 0 0 0
131 7 0.06976875475383694 5.752338094041807 23.4051953401053 0 0 0
132 7 2.541364661020743 5.78033136624571 23.361609080264603 0 0 0
136 7 1.3016477513130247 7.8938517833942115 23.305992175059828 0 0 0
137 7 3.7752727244988673 7.961463320937364 23.279513742910517 0 0 0
161 4 0.10785864466025331 4.320989827767392 25.47060856414015 0 0 0
166 7 1.3362216515936762 6.394906569924846 25.431798229252863 0 0 0
167 7 3.8064743596794246 6.418642332418331 25.444283445225665 0 0 0
133 6 5.0637021345642745 5.8395523935307585 23.38883172776832 0 0 0
134 7 7.557981695189977 5.758722798506936 23.31630860167341 0 0 0
138 7 6.308682554069144 7.976925224467596 23.342609038052938 0 0 0
168 7 6.363723041128157 6.375732213024051 25.434686761497975 0 0 0
173 7 5.102701643532919 8.534036185821302 25.333856225863883 0 0 0
135 7 10.062830590046984 5.8052327413111255 23.389688118788303 0 0 0
139 4 8.692333078077228 7.922131105926068 23.245966682168888 0 0 0
140 4 11.280299699750225 7.869740198651552 23.3195006021779 0 0 0
169 7 8.774134378543025 6.310830575951037 25.38538432149502 0 0 0
170 7 11.287643388181976 6.387487279035456 25.45056715533285 0 0 0
175 6 9.883247925476782 8.5466368043793 25.525970756664286 0 0 0
141 7 0.018035951834751394 10.047050507035124 23.345091199524656 0 0 0
142 7 2.494079523750614 10.085546399788395 23.25608054265231 0 0 0
146 7 1.3003174308334466 12.214548217260486 23.35189037065847 0 0 0
147 7 3.804368709472502 12.223770103125258 23.181715497397256 0 0 0
151 4 0.0905282204388659 12.854322271443381 25.416764993712082 0 -1 0
171 6 0.10769158337464065 8.593567900778373 25.43139293164142 0 0 0
172 7 2.6208766060187916 8.58859168374353 25.37724738636949 0 0 0
176 7 1.3401931191833711 10.778334073005128 25.43308555109243 0 0 0
177 6 3.877337603747014 10.796096848202023 25.275372131828245 0 0 0
143 7 5.052745763021589 10.084867691995568 23.182936771333562 0 0 0
144 7 7.503135310300091 10.068964017989588 22.92167019168432 0 0 0
148 4 6.210392582715493 12.250054369839432 23.187275676213552 0 0 0
178 6 6.614912551642383 10.522372120069857 25.22246081741306 0 0 0
145 7 9.9934818909245 10.053706178901109 23.317500344128877 0 0 0
149 6 8.705776029450407 12.252157740894871 23.33160846228469 0 0 0
150 7 11.244896537028046 12.197315718293135 23.407159793719277 0 0 0
174 3 8.411281365181452 9.48849559704942 24.42567655481834 0 0 0
179 5 8.995964217566295 10.901982769471395 25.58492682491937 0 0 0
180 5 11.333881363187402 10.846201877279324 25.50839929296583 0 0 0
181 7 1.3894469511919083 0.6449669251718656 27.499208972142643 0 0 0
182 7 3.875974421595906 0.6824757398743423 27.438729202407437 0 0 0
186 7 0.17112996164162705 2.837426009025145 27.49713535504523 0 0 0
187 7 2.6600467405014876 2.8324013553785004 27.570664697919547 0 0 0
211 7 0.2105171133653675 1.424827688382546 29.59517570081463 0 0 0
212 7 2.712463527899032 1.3400555729777572 29.585197437135964 0 0 0
216 7 1.4112794825188022 3.5344689049818165 29.593942781047904 0 0 0
217 4 3.8247329853163534 3.552546068807386 29.603952733645983 0 0 0
183 7 6.309177376181428 0.6949176827091453 27.574792840657842 0 0 0
188 7 5.08288664875339 2.8534605218668285 27.580218699333805 0 0 0
189 7 7.594830400994988 2.7729025716251456 27.466229745545697 0 0 0
213 5 5.135048922048511 1.40653479668952 29.60574366901564 0 0 0
214 7 7.613088907084674 1.3347612298148037 29.59637872958406 0 0 0
218 7 6.3641410748648966 3.516726843417169 29.54818628278315 0 0 0
184 7 8.88581469907955 0.6987136411720343 27.571385551823283 0 0 0
185 4 11.38383311192171 0.7022196191063579 27.54393782451563 0 0 0
190 7 10.144999102971303 2.811488303090868 27.494817235393544 0 0 0
215 7 10.125387262172735 1.3835755852595628 29.63722084631616 0 0 0
219 7 8.839064188191434 3.4917023343935254 29.534968101907644 0 0 0
220 7 11.369662215078844 3.538641282974661 29.52807724930067 0 0 0
191 7 1.3910351741210638 4.986039842656036 27.476796208050494 0 0 0
192 7 3.833508487076586 4.969625972979982 27.486383400959234 0 0 0
197 7 2.5790296887597917 7.172722947552883 27.47889832079208 0 0 0
221 7 0.12042795942913155 5.7063994705534276 29.5776315930315 0 0 0
222 7 2.5913425442858427 5.70816776354728 29.55568627083167 0 0 0
226 7 1.3645040935474377 7.882927462273445 29.556161479311747 0 0 0
227 7 3.8613015000147537 7.893959988387842 29.471466464474933 0 0 0
193 7 6.369637825909615 4.955189640866133 27.417637810735975 0 0 0
198 7 5.102266306114901 7.153418287031514 27.414756004641468 0 0 0
199 7 7.6211594489931365 7.168170553423959 27.4525307923823 0 0 0
223 6 5.153100156290169 5.701094440910207 29.493852677359136 0 0 0
224 7 7.644419190720387 5.718046541787635 29.58630153452437 0 0 0
228 7 6.394236506721917 7.8933229743999584 29.49573739803438 0 0 0
194 6 8.84775945863433 4.976463254468425 27.49784392981258 0 0 0
195 7 11.360681063402252 4.9736072663911 27.51383543576314 0 0 0
196 7 0.13618356165228085 7.136893182007189 27.503267151680905 0 0 0
200 7 10.12373583356372 7.136929464459978 27.545550798199944 0 0 0
225 7 10.101608237455363 5.720070001096718 29.611885110604423 0 0 0
229 7 8.84642255913794 7.8623794251235335 29.531238914077484 0 0 0
230 7 11.368916585825353 7.910656533074861 29.53082711948014 0 0 0
201 5 1.379252626331052 9.305054529374551 27.518129837777497 0 0 0
202 7 3.872115858189592 9.30128425441941 27.378339779423854 0 0 0
206 4 0.18754156840794292 11.45711165555725 27.52913082294387 0 0 0
207 7 2.610898912242475 11.437574168625693 27.441270473249 0 0 0
231 7 0.1663434057424274 10.059128050870731 29.573265578219523 0 0 0
232 7 2.633868698508427 10.007257348195166 29.430413761602203 0 0 0
236 7 1.4735953792456193 12.163505165753806 29.559766136376133 0 0 0
203 7 6.37466172377141 9.265719369974756 27.391094474181156 0 0 0
208 7 5.137772876447554 11.480691471385253 27.322787257394225 0 0 0
209 6 7.582033898068059 11.504760045685021 27.643743134635823 0 0 0
233 7 5.149735176962354 10.036010720188981 29.32628948741011 0 0 0
234 7 7.601490098046762 10.06901283535001 29.669051728752166 0 0 0
238 7 6.211516262705332 12.217202443664938 29.684237536273447 0 0 0
204 7 8.838535602801999 9.348319981330421 27.62868960672085 0 0 0
205 7 11.345309005914181 9.395839469634502 27.55188073964797 0 0 0
210 7 10.151235373283964 11.53372694968541 27.589429150936887 0 0 0
235 7 10.085623325563825 10.159564955675991 29.606655387431903 0 0 0
239 4 8.878773456796507 12.234879034180736 29.736785982545236 0 0 0
240 7 11.39701795967617 12.2478148238148 29.56677927744937 0 0 0
237 3 4.034857965127804 0.2752028607289653 30.558522229053388 0 1 0
241 7 0.20200616986768488 0.08373891137963252 31.641173945691556 0 0 0
242 7 2.5699543664201556 0.12704930028113107 31.744686993883537 0 0 0
246 4 1.3443660618710558 2.228263507081483 31.669547656574522 0 0 0
247 7 3.8801495347131914 2.1386109002702725 31.647628805227104 0 0 0
276 7 0.17647657823157167 2.9824825556641423 33.74281431277344 0 0 0
243 7 5.166620491100041 12.89014670884666 32.1045688930758 0 -1 0
244 7 7.625755238201507 12.924460618453255 31.715394091396014 0 -1 0
248 7 6.40691729720337 2.135904254323686 31.6504634812693 0 0 0
279 7 7.728893112439042 3.0298609515123167 33.73474898784856 0 0 0
249 7 8.851099795786729 2.0883232127951254 31.686769619757065 0 0 0
250 7 11.384279448717603 2.1235761953154046 31.667161651916413 0 0 0
255 1 10.10471023344218 4.204408418713242 31.510635730441066 0 0 0
275 4 11.44089885431397 0.7812777973522362 33.72223635741959 0 0 0
251 7 0.14715035706196405 4.310660092284369 31.65577676448365 0 0 0
252 7 2.632854131414501 4.3072359300816965 31.672336973100887 0 0 0
256 7 1.3294071710782596 6.489164955642852 31.640203083644177 0 0 0
257 6 3.7920257443330323 6.490638421555552 31.665331848195507 0 0 0
253 7 5.112684736965626 4.298098902025863 31.62660569590869 0 0 0
254 7 7.62146265218107 4.298736364659758 31.596933710577098 0 0 0
258 7 6.351791119510974 6.482247428564282 31.625309883579465 0 0 0
264 7 7.589257453230043 8.565824793797567 31.626385361456055 0 0 0
283 7 6.3803162962497595 5.089606940027407 33.67278692633119 0 0 0
289 7 7.631638679699657 7.175917404370877 33.719868081750136 0 0 0
259 4 8.821043515838364 6.447248448716309 31.635118190703203 0 0 0
260 7 11.314521350251171 6.476704278953829 31.59993057971645 0 0 0
284 5 8.886113883695302 5.104499731633389 33.58969494268192 0 0 0
290 7 10.082441405213112 7.247977980504595 33.603122223274234 0 0 0
261 7 0.17814756424447398 8.696256464937802 31.656044672816172 0 0 0
262 7 2.6650557602950222 8.708600217884474 31.53334736441987 0 0 0
266 7 1.564265575022645 10.82109917228902 31.577234801791032 0 0 0
267 4 3.918759812645542 11.262348862002689 30.85627249115301 0 0 0
292 7 3.9585567954484677 9.361878087218656 33.50609660277654 0 0 0
326 7 0.5063291351637711 11.641617622893046 33.68441081192168 0 0 0
263 1 5.094213716704929 8.750307722217823 31.423265939292893 0 0 0
268 7 6.260573721831788 10.751033698920454 31.585428668153806 0 0 0
245 7 10.111600497146076 12.871952679196424 31.873989113347733 0 -1 0
265 6 10.10142790444637 8.669044585885711 31.54975586379849 0 0 0
269 7 8.775677721672551 10.78952762919036 31.756665562004248 0 0 0
270 7 11.42991181334984 10.89297560133672 31.61784959373299 0 0 0
294 7 8.766482896975006 9.27840120551873 33.70044924927441 0 0 0
296 3 11.074651618789405 11.8171570358865 33.33458719231069 -1 0 0
271 7 1.476679002611662 0.8927107754791272 33.77973470777651 0 0 0
272 7 3.9226670951908345 0.9450891184143267 33.92995631683107 0 0 0
277 7 2.6436479594269495 3.0693141928785495 33.80084868570392 0 0 0
301 7 0.19147937181209035 1.5421421292562667 35.76228184811774 0 0 0
302 7 2.618108311581272 1.6598571505129516 35.86269454249244 0 0 0
306 4 1.4179209291404946 3.8235396891294813 35.96174532866195 0 0 0
307 7 4.000397997655085 3.7219034674221834 35.836409287842486 0 0 0
273 7 6.460922311421586 0.9621297504066071 33.90620080318736 0 0 0
278 1 5.21797438625832 2.9861682829092446 33.72336751392287 0 0 0
303 7 5.249253819998472 1.658002302088391 35.94525674095864 0 0 0
304 4 7.7617392139362025 1.62622053453894 35.924935883796564 0 0 0
308 7 6.531259844324811 3.697542839169991 35.802225175420794 0 0 0
274 7 8.83540495289905 0.8846823450669312 33.842056558594194 0 0 0
280 7 10.20363384074136 2.9794809432174367 33.717708499223264 0 0 0
305 7 10.222087842698041 1.5433824152571187 35.736843684374 0 0 0
309 7 9.022235953284696 3.6612659940911216 35.78586261749394 0 0 0
310 4 11.590843503989007 3.934603761302469 35.868348729747794 0 0 0
335 5 9.916973730417087 12.88272294613131 37.409803873558715 0 -1 0
281 7 1.3228639887758118 5.171646304640398 33.86345661636863 0 0 0
282 4 3.8486846835157245 5.124566863388939 33.76937208550454 0 0 0
286 7 0.09210469728263912 7.269920038079038 33.62812123148084 0 0 0
287 7 2.631568095137714 7.275977099138599 33.74768246235292 0 0 0
312 7 2.7327675762153616 5.77857821953458 35.78459694067675 0 0 0
316 7 1.2112286692357508 7.5879112384576715 35.79242363511538 0 0 0
317 7 3.929285570918266 8.052177867389474 35.7352891293675 0 0 0
288 7 5.183244439940023 7.25947901324957 33.66862685807993 0 0 0
313 7 5.267032314604812 5.907715305065029 35.71756631564531 0 0 0
314 7 7.723456831772619 5.810932441356929 35.74948586001434 0 0 0
318 4 6.554846373302958 8.11257243818897 35.81193323107778 0 0 0
285 4 11.344989889597288 5.141729132682797 33.64036512405128 0 0 0
311 2 12.368643972566138 5.989735812181071 35.327064942781384 -1 0 0
315 7 10.134212001504137 5.798743794483165 35.58582172190355 0 0 0
319 7 8.95699956334509 7.969769069205377 35.82787520846472 0 0 0
320 7 11.346896613847658 7.921897683960009 35.59976181837883 0 0 0
355 3 10.431030886082642 7.900122960997027 37.280225535389334 0 0 0
291 7 1.4689946538293495 9.414860340572167 33.73140818830604 0 0 0
297 6 3.024386085411373 11.564489023428667 33.67661147052214 0 0 0
321 6 0.21043197607880765 10.049051638521885 35.9076966193249 0 0 0
322 7 2.699506498505834 10.191059327066338 35.765427158980486 0 0 0
327 6 3.91954640466194 12.499099374500272 36.114262827072174 0 0 0
356 4 1.400500752988237 12.34997496765185 35.84913795513224 0 0 0
293 4 6.449032397494751 9.310062459215048 33.653333533563675 0 0 0
298 2 5.202404032695168 12.273102632903255 34.210572759713266 0 0 0
299 7 6.997719784757878 11.568788430350395 33.684817348926636 0 0 0
323 6 5.230449659175363 10.228438539236416 35.58013129409268 0 0 0
324 7 7.91059092906135 10.348280332643434 35.717687078773025 0 0 0
328 7 6.465753378028312 12.509005226087636 35.919376922847796 0 0 0
295 6 11.269170188888785 9.684964145541826 33.76189358598864 0 0 0
300 7 9.385610021811697 11.535291220867771 34.17676612712929 0 0 0
325 7 10.26526078564552 9.849806791761818 37.06272897167184 0 0 0
329 3 9.527488586006585 11.388929863198479 36.20717901441916 0 0 0
330 4 11.262570869448021 12.064811003430297 35.58857296077773 0 0 0
332 7 2.4835374779905877 0.09195827077331409 38.04441164368803 0 0 0
336 7 1.3356678560477329 2.178714886414255 37.83773965015909 0 0 0
337 7 3.8765714871772032 2.1853676145403313 37.86719660691077 0 0 0
333 7 5.220768595377132 0.15644342064849412 38.12309959348632 0 0 0
334 7 7.653076392143347 0.0607075298074491 38.00400392237032 0 0 0
338 7 6.532209258091726 2.2566134193658542 37.9053990461729 0 0 0
339 7 8.992613287801426 2.178074015155526 37.86134845951247 0 0 0
340 7 11.370189082006016 2.190897881821256 37.73339709132839 0 0 0
342 7 2.7162646143413247 4.282870101645578 37.925997590439195 0 0 0
346 7 1.518380074303091 6.397298947512682 37.999749688215545 0 0 0
347 6 3.966318923634947 6.464944540671249 37.76671567749447 0 0 0
343 7 5.306507656674796 4.422543010954918 37.83830960355992 0 0 0
344 7 7.83460477057222 4.432512911753718 37.85177846535411 0 0 0
348 6 6.661465202616643 6.660904002921182 37.8225392974008 0 0 0
341 7 0.21610239083569305 4.2447281739969425 38.07580627733654 0 0 0
345 4 10.222416728068774 4.328242699006165 37.81762140271908 0 0 0
349 7 9.240503764372185 6.621740303395071 37.87018134772523 0 0 0
350 7 11.679374868070166 6.2649194615051655 37.306598267384906 0 0 0
352 6 2.490485204206428 8.653634680365625 37.68945111606195 0 0 0
357 7 3.8425172546258524 10.800618697134851 37.95850813688039 0 0 0
360 7 1.388455720728318 10.895919576917118 37.88351301509816 1 0 0
362 8 11.427037775698269 10.792547776567824 41.25354341361683 -1 0 0
353 7 5.125920120319545 8.68747930633968 37.83102564721251 0 0 0
354 7 7.963167487407079 8.949597625452885 37.825597460255665 0 0 0
358 6 6.416624795325293 10.844290426195538 37.793858535858476 0 0 0
331 7 12.402058518502686 12.888284567947 37.62979453939723 -1 -1 0
351 7 12.253507824280831 8.544775131436388 37.839577830931624 -1 0 0
359 2 8.597425139240888 11.1531107124706 37.43298877803849 0 0 0
361 8 10.73655280156619 11.035941543802794 41.04691391918206 0 0 0

Velocities

1 0 0 0
2 0 0 0
6 0 0 0
7 0 0 0
31 0 0 0
32 0 0 0
36 0 0 0
37 0 0 0
3 0 0 0
8 0 0 0
9 0 0 0
33 0 0 0
34 0 0 0
38 0 0 0
4 0 0 0
5 0 0 0
10 0 0 0
35 0 0 0
39 0 0 0
40 0 0 0
11 0 0 0
12 0 0 0
16 0 0 0
17 0 0 0
41 0 0 0
42 0 0 0
46 0 0 0
47 0 0 0
13 0 0 0
18 0 0 0
19 0 0 0
43 0 0 0
44 0 0 0
48 0 0 0
14 0 0 0
15 0 0 0
20 0 0 0
45 0 0 0
49 0 0 0
50 0 0 0
21 0 0 0
22 0 0 0
26 0 0 0
27 0 0 0
51 0 0 0
52 0 0 0
56 0 0 0
57 0 0 0
23 0 0 0
28 0 0 0
29 0 0 0
53 0 0 0
54 0 0 0
58 0 0 0
24 0 0 0
25 0 0 0
30 0 0 0
55 0 0 0
59 0 0 0
60 0 0 0
61 0 0 0
62 0 0 0
66 0 0 0
67 0 0 0
91 0 0 0
92 0 0 0
96 0 0 0
97 0 0 0
63 0 0 0
64 0 0 0
68 0 0 0
93 0 0 0
98 0 0 0
99 0 0 0
65 0 0 0
69 0 0 0
70 0 0 0
94 0 0 0
95 0 0 0
100 0 0 0
71 0 0 0
72 0 0 0
76 0 0 0
77 0 0 0
101 0 0 0
102 0 0 0
106 0 0 0
107 0 0 0
73 0 0 0
74 0 0 0
78 0 0 0
103 0 0 0
108 0 0 0
109 0 0 0
75 0 0 0
79 0 0 0
80 0 0 0
104 0 0 0
105 0 0 0
110 0 0 0
81 0 0 0
82 0 0 0
86 0 0 0
87 0 0 0
111 0 0 0
112 0 0 0
116 0 0 0
117 0 0 0
83 0 0 0
84 0 0 0
88 0 0 0
113 0 0 0
118 0 0 0
119 0 0 0
85 0 0 0
89 0 0 0
90 0 0 0
114 0 0 0
115 0 0 0
120 0 0 0
121 0 0 0
122 0 0 0
126 0 0 0
127 0 0 0
152 0 0 0
156 0 0 0
157 0 0 0
162 0 0 0
123 0 0 0
124 0 0 0
128 0 0 0
153 0 0 0
154 0 0 0
158 0 0 0
163 0 0 0
164 0 0 0
125 0 0 0
129 0 0 0
130 0 0 0
155 0 0 0
159 0 0 0
160 0 0 0
165 0 0 0
131 0 0 0
132 0 0 0
136 0 0 0
137 0 0 0
161 0 0 0
166 0 0 0
167 0 0 0
133 0 0 0
134 0 0 0
138 0 0 0
168 0 0 0
173 0 0 0
135 0 0 0
139 0 0 0
140 0 0 0
169 0 0 0
170 0 0 0
175 0 0 0
141 0 0 0
142 0 0 0
146 0 0 0
147 0 0 0
151 0 0 0
171 0 0 0
172 0 0 0
176 0 0 0
177 0 0 0
143 0 0 0
144 0 0 0
148 0 0 0
178 0 0 0
145 0 0 0
149 0 0 0
150 0 0 0
174 0 0 0
179 0 0 0
180 0 0 0
181 0 0 0
182 0 0 0
186 0 0 0
187 0 0 0
211 0 0 0
212 0 0 0
216 0 0 0
217 0 0 0
183 0 0 0
188 0 0 0
189 0 0 0
213 0 0 0
214 0 0 0
218 0 0 0
184 0 0 0
185 0 0 0
190 0 0 0
215 0 0 0
219 0 0 0
220 0 0 0
191 0 0 0
192 0 0 0
197 0 0 0
221 0 0 0
222 0 0 0
226 0 0 0
227 0 0 0
193 0 0 0
198 0 0 0
199 0 0 0
223 0 0 0
224 0 0 0
228 0 0 0
194 0 0 0
195 0 0 0
196 0 0 0
200 0 0 0
225 0 0 0
229 0 0 0
230 0 0 0
201 0 0 0
202 0 0 0
206 0 0 0
207 0 0 0
231 0 0 0
232 0 0 0
236 0 0 0
203 0 0 0
208 0 0 0
209 0 0 0
233 0 0 0
234 0 0 0
238 0 0 0
204 0 0 0
205 0 0 0
210 0 0 0
235 0 0 0
239 0 0 0
240 0 0 0
237 0 0 0
241 0 0 0
242 0 0 0
246 0 0 0
247 0 0 0
276 0 0 0
243 0 0 0
244 0 0 0
248 0 0 0
279 0 0 0
249 0 0 0
250 0 0 0
255 0 0 0
275 0 0 0
251 0 0 0
252 0 0 0
256 0 0 0
257 0 0 0
253 0 0 0
254 0 0 0
258 0 0 0
264 0 0 0
283 0 0 0
289 0 0 0
259 0 0 0
260 0 0 0
284 0 0 0
290 0 0 0
261 0 0 0
262 0 0 0
266 0 0 0
267 0 0 0
292 0 0 0
326 0 0 0
263 0 0 0
268 0 0 0
245 0 0 0
265 0 0 0
269 0 0 0
270 0 0 0
294 0 0 0
296 0 0 0
271 0 0 0
272 0 0 0
277 0 0 0
301 0 0 0
302 0 0 0
306 0 0 0
307 0 0 0
273 0 0 0
278 0 0 0
303 0 0 0
304 0 0 0
308 0 0 0
274 0 0 0
280 0 0 0
305 0 0 0
309 0 0 0
310 0 0 0
335 0 0 0
281 0 0 0
282 0 0 0
286 0 0 0
287 0 0 0
312 0 0 0
316 0 0 0
317 0 0 0
288 0 0 0
313 0 0 0
314 0 0 0
318 0 0 0
285 0 0 0
311 0 0 0
315 0 0 0
319 0 0 0
320 0 0 0
355 0 0 0
291 0 0 0
297 0 0 0
321 0 0 0
322 0 0 0
327 0 0 0
356 0 0 0
293 0 0 0
298 0 0 0
299 0 0 0
323 0 0 0
324 0 0 0
328 0 0 0
295 0 0 0
300 0 0 0
325 0 0 0
329 0 0 0
330 0 0 0
332 0 0 0
336 0 0 0
337 0 0 0
333 0 0 0
334 0 0 0
338 0 0 0
339 0 0 0
340 0 0 0
342 0 0 0
346 0 0 0
347 0 0 0
343 0 0 0
344 0 0 0
348 0 0 0
341 0 0 0
345 0 0 0
349 0 0 0
350 0 0 0
352 0 0 0
357 0 0 0
360 0 0 0
362 0 0 0
353 0 0 0
354 0 0 0
358 0 0 0
331 0 0 0
351 0 0 0
359 0 0 0
361 0 0 0
