LAMMPS data file via write_data, version 11 Feb 2026, timestep = 585, units = metal

362 atoms
8 atom types

0 12.447907776 xlo xhi
0 12.9362452296 ylo yhi
0 52.3600831054 zlo zhi

Masses

1 26.9815
2 10.811
3 12.011
4 51.9961
5 55.845
6 95.95999999999999
7 58.6934
8 1.008

Atoms # atomic/kk

1 7 1.1128038255913368 0.818118091514174 14.640388531043744 0 0 0
2 7 3.5512645970185908 0.7337954881990912 14.86893584374773 0 0 0
6 7 12.263069340259662 3.4739253031678587 14.641311629613586 -1 0 0
7 7 2.223521054837436 2.9671108637620023 15.105280616610367 0 0 0
31 6 12.390407071389843 1.8851864303137802 16.484013110493002 -1 0 0
32 7 2.3048950428717108 1.2501990367992857 16.929165848098272 0 0 0
36 7 1.1343717057382392 3.965027587421134 17.06120172563141 0 0 0
37 7 3.567378858644843 3.642525847428087 17.091597704799366 0 0 0
3 5 6.011987899118727 0.8629391724189148 14.935523694538263 0 0 0
8 7 4.77709241648999 2.981356652378926 15.018904096538877 0 0 0
9 7 7.282977465096894 3.0583229588394354 14.890921941135627 0 0 0
33 7 4.826433917234395 1.5319163169667283 16.980951599238992 0 0 0
34 7 7.35421309626264 1.7076668618646507 16.944604184440106 0 0 0
38 5 6.0732524172971205 3.738231557026436 16.96850358315371 0 0 0
4 6 8.632965016435028 0.9669734563299844 14.944093122830871 0 0 0
5 7 11.02083231359026 1.248848944013086 14.459869183774185 0 0 0
10 7 9.805194327771272 3.375451724918502 14.720850248477868 0 0 0
35 7 9.918197084670476 1.709744000692439 16.902805536394755 0 0 0
39 7 8.632547531432799 3.8604869913274507 16.81248264623266 0 0 0
40 7 11.068888292416325 3.949247888361493 16.963138831753348 0 0 0
11 7 1.131574456831198 5.429057111304272 15.02437615419084 0 0 0
12 7 3.549618164500131 5.142713744857848 15.12011991985834 0 0 0
16 4 0.21294947667835962 7.669756059862322 14.610239089569658 0 0 0
17 7 2.425514945898488 7.501629485680623 15.089679746506949 0 0 0
41 7 12.313608587174217 6.1063323463407775 17.12650295611655 -1 0 0
42 7 2.369947752009667 6.071862510745565 17.110419010509222 0 0 0
46 7 0.8156408893186304 8.41005293530551 16.858546177115166 0 0 0
47 7 3.8131400739911725 8.006049488757538 17.02530137905375 0 0 0
13 7 6.043469657099468 5.182337170157472 15.006646524662226 0 0 0
18 7 4.892716672753006 7.29852880536423 14.975227865172176 0 0 0
19 2 6.840557167325441 6.971566919484076 15.314536026020884 0 0 0
43 7 4.851787976174247 5.807425175877821 17.07541452471654 0 0 0
44 7 7.340005702735745 5.8768490790810315 17.021603561016224 0 0 0
48 7 6.222921031744031 7.9892138114664 17.016342644729146 0 0 0
14 7 8.571596039540188 5.635079755917111 14.891726055809164 0 0 0
15 6 11.044837367307863 5.635222701595608 15.083832971874111 0 0 0
20 7 10.22524081869991 7.653879684994654 13.987625966135642 0 0 0
45 7 9.805008385586234 6.107341367838556 17.178019947184776 0 0 0
49 7 8.46752508842652 7.854615139276578 16.020501887783393 0 0 0
50 7 10.903440395955752 8.113229638341036 16.212937082405368 0 0 0
21 2 1.5459696082026855 9.469582428700908 15.208746356084438 0 0 0
22 7 3.6144753082262606 9.508723442816233 14.917234611399373 0 0 0
26 7 0.31204202247112794 10.7990014281928 16.82765379217753 0 0 0
27 7 2.0297437512914334 11.473509813730224 15.14940569482853 0 0 0
51 3 11.618307323404368 9.36720280829409 17.497650908791474 -1 0 0
52 7 2.6115735595993246 10.077584941341057 17.04152238875766 0 0 0
56 2 0.924693855880121 12.701591652652452 16.352823788380718 0 0 0
57 7 3.7011797700500955 12.222484857299078 16.927874880178614 0 0 0
23 7 6.582249328970751 9.082996157693591 14.84954116383664 0 0 0
28 7 4.815004696787192 11.606404094990424 14.817132411978498 0 0 0
29 6 7.371384957188834 11.49515217726214 14.915357855965349 0 0 0
53 7 5.125798427097065 10.107283689932698 16.77760320660517 0 0 0
54 7 7.691619702220926 10.040662690547546 16.9199350295641 0 0 0
58 6 6.29213355925488 12.335426294676122 17.010498894206016 0 0 0
24 7 9.049473512043196 9.664083281318652 14.654285769479651 0 0 0
25 7 11.942477712539507 9.875328869552728 14.709485599267703 0 0 0
30 7 9.921075558437597 11.853346471961633 14.576995011988698 0 0 0
55 7 10.241256606028127 10.4051029308255 16.644484017312173 0 0 0
59 7 8.840492116333438 12.367777574577278 16.88886676783983 0 0 0
60 7 11.296411820548665 12.619503289669558 16.348947315239705 0 0 0
61 6 0.10281237157279134 12.910893314280473 18.57455216765426 0 -1 0
62 7 2.560606248435447 0.03303157741205005 19.142098609988842 0 0 0
66 6 1.3511940182141653 2.2286596550415627 19.065253256565548 0 0 0
67 5 3.7956043177926486 2.181374765048993 19.10329967367464 0 0 0
91 4 1.362506651998499 0.7841781850986161 21.251594518549723 0 0 0
92 7 3.793335195262645 0.7400573059319692 21.131839199695026 0 0 0
96 7 0.08094324910652384 2.8632928376979856 21.175926969591746 0 0 0
97 7 2.6028125890003855 2.861298781222008 21.208366952619215 0 0 0
63 5 5.012139851400106 0.1170062998515858 19.0625932694905 0 0 0
64 7 7.494704531030749 0.10713644206718799 19.091656806871374 0 0 0
68 7 6.190270775416171 2.1744172857561925 19.048544048171216 0 0 0
93 7 6.320676605274895 0.739080666036103 21.20579931871759 0 0 0
98 7 5.0455887038560965 2.8757087622753463 21.151009657596795 0 0 0
99 5 7.500349780974105 2.842527716755403 21.14105473154548 0 0 0
65 7 10.079201104219154 0.10333192375460397 18.963241261848214 0 0 0
69 7 8.730173450775855 2.185769164668767 18.961594775000393 0 0 0
70 7 11.289468134309287 2.2895100586799373 18.906560729672226 0 0 0
94 7 8.776455528116763 0.7522046589470047 21.17677117006821 0 0 0
95 7 11.361951363971373 0.7231003420503195 21.029740880374362 0 0 0
100 6 10.043831988627126 2.8400118816468036 21.018244471203992 0 0 0
71 1 12.327068870369427 4.453633418071195 19.19452505100322 -1 0 0
72 7 2.4474806658695596 4.419987542845802 19.11534665267152 0 0 0
76 7 1.164949213603018 6.496278363745718 19.189057473103894 0 0 0
77 7 3.7579733736800875 6.49740854730103 19.143124021967544 0 0 0
101 7 1.2077084767820678 5.029559846766994 21.231297043938635 0 0 0
102 6 3.737221979429443 5.045606729956699 21.225284196045457 0 0 0
106 7 12.441035738680513 7.136163788099192 21.272560537611415 -1 0 0
107 7 2.471590857452323 7.170240589705331 21.23645287838585 0 0 0
73 7 4.939095361259239 4.308439173407542 19.075211916224337 0 0 0
74 6 7.468129566957267 4.314947239140496 19.024895006306206 0 0 0
78 7 6.169379476689647 6.522890891059815 19.10381570372695 0 0 0
103 7 6.2775931412996675 5.056273304576613 21.155125205348067 0 0 0
108 7 5.018453838723115 7.220388207899201 21.20605244502645 0 0 0
109 7 7.425715191384892 7.2647436148119775 21.238363365100458 0 0 0
75 5 9.860266940640038 4.363740804002525 19.009090554324228 0 0 0
79 7 8.61246838569404 6.516323975291736 19.284310097941084 0 0 0
80 7 11.091661248986545 6.509090105178677 19.28207501572042 0 0 0
104 7 8.738061740523142 5.060545765530419 21.21453467125768 0 0 0
105 3 10.088217584239006 4.422206572721479 22.261204712825304 0 0 0
110 7 9.900843489554779 7.192914454309874 21.27031865667405 0 0 0
81 4 12.369155927905721 8.582149883586904 19.1867443787197 -1 0 0
82 6 2.432249733433328 8.535808058869492 19.02278218389582 0 0 0
86 7 1.3031341167781574 10.756325056816909 19.16903667729329 0 0 0
87 1 3.8450838019384412 10.879418363369476 19.007970263709826 0 0 0
111 7 1.2004064907061036 9.333215822893772 21.21515645262604 0 0 0
112 6 3.7470329313016597 9.338294090005817 21.23716065209849 0 0 0
116 1 0.05780137545088367 11.547626099668694 21.17505597323102 0 0 0
117 7 2.521153110667557 11.538897487843649 21.1735568904081 0 0 0
83 7 4.967775215214119 8.727487614027664 19.03162245900214 0 0 0
84 7 7.421797187296897 8.637800330732675 19.009694027886656 0 0 0
88 7 6.2742527363706895 10.82114236302009 19.020141565900545 0 0 0
113 7 6.239945016146671 9.396181004667667 21.032581116346183 0 0 0
118 7 5.040653990725752 11.558738948371849 21.141604379603155 0 0 0
119 4 7.471398308037571 11.574861328478747 21.075425167391156 0 0 0
85 6 9.828324381954943 8.514210117138157 18.448229962735414 0 0 0
89 6 8.78203399941121 10.869646876200761 18.978205705916565 0 0 0
90 4 11.284326424035363 10.807756309654936 18.890010981106595 0 0 0
114 7 8.706373205026914 9.342649766704005 20.932612719927278 0 0 0
115 6 11.119425161605886 9.289817075091477 21.16643804668797 0 0 0
120 7 10.018258610131634 11.557097534335968 21.12118924997043 0 0 0
121 7 0.08274471297550835 1.40766108748433 23.255553707657437 0 0 0
122 7 2.5710961316692895 1.4045962367600764 23.316038997215845 0 0 0
126 6 1.3541311228913209 3.6040460856291703 23.259495436908505 0 0 0
127 7 3.85532056080272 3.5888398012363787 23.364270353345823 0 0 0
152 7 2.6558934751853887 0.010916804339615853 25.373937435152587 0 0 0
156 1 1.4884765951488017 2.1402971969376394 25.501160394896285 0 0 0
157 7 3.976857310546481 2.1381344799935773 25.442513672192913 0 0 0
162 7 2.6058109776001794 4.267861676810499 25.42655717341007 0 0 0
123 7 5.012055790396357 1.430499014388283 23.19850750215236 0 0 0
124 7 7.417446477080553 1.521452774824153 23.477447968977966 0 0 0
128 7 6.309981663265162 3.667149680111829 23.169223175373684 0 0 0
153 7 5.201616078117157 0.06492742438063553 25.328796642125212 0 0 0
154 7 7.613196341585239 0.011329227012544213 25.456543766455848 0 0 0
158 2 5.802149830826562 2.482708812773743 24.64180811922905 0 0 0
163 7 5.1224159467311745 4.251165540070719 25.42093496683332 0 0 0
164 5 7.482106091461505 4.064200151213014 25.341891953563994 0 0 0
125 7 10.066358312599261 1.4460300424494383 23.299398723688814 0 0 0
129 7 8.761687509185805 3.563545111653744 23.327356616670073 0 0 0
130 4 11.36458797208272 3.642780033988146 23.38130690344458 0 0 0
155 4 10.137607795628274 0.07382447071738882 25.516850746697177 0 0 0
159 7 8.891482379587126 2.107355953367027 25.420913476187756 0 0 0
160 7 11.415126157980346 2.16910291783641 25.390512575914006 0 0 0
165 7 10.07204997175666 4.23168508802407 25.39578901814908 0 0 0
131 7 0.0777559129901145 5.793904762920737 23.384269914819907 0 0 0
132 7 2.5509240959208146 5.796255821951984 23.363466323878065 0 0 0
136 7 1.3150547994750914 7.922015473551268 23.294419300084783 0 0 0
137 7 3.791020140577042 7.9637037344315456 23.31999058811686 0 0 0
161 4 0.11723717283485525 4.352748169720394 25.452668256731567 0 0 0
166 7 1.3450875075449795 6.423641417534522 25.42253072475289 0 0 0
167 7 3.8169497859025503 6.435892583315487 25.447059061008662 0 0 0
133 6 5.075311996152461 5.850135410125807 23.382985325425942 0 0 0
134 7 7.565342479351141 5.786462840246535 23.299732192279645 0 0 0
138 7 6.318814675583465 7.995315655747632 23.33746551049385 0 0 0
168 7 6.372512958988878 6.394377317245366 25.428108030889472 0 0 0
173 7 5.119999587221381 8.552032767166997 25.35180506597788 0 0 0
135 7 10.070111141176808 5.846880513951567 23.371582791698625 0 0 0
139 4 8.705745334433828 7.9555703423654505 23.2101916812587 0 0 0
140 4 11.29424156225997 7.908078091923848 23.293179574816925 0 0 0
169 7 8.780974576643573 6.3431064443825855 25.369118952386764 0 0 0
170 7 11.29785717196629 6.4193360493431015 25.432966501137415 0 0 0
175 6 9.900530179272357 8.576089379721102 25.49937860881403 0 0 0
141 7 0.02776819438018289 10.092581926053457 23.32663201984773 0 0 0
142 7 2.509428641989224 10.106880455978944 23.297267061752997 0 0 0
146 7 1.3073002205343043 12.241213040973545 23.312492140733106 0 0 0
147 7 3.8213780901380323 12.240826129845814 23.228717533135892 0 0 0
151 4 0.10123825456076838 12.885872387556992 25.36947396890004 0 -1 0
171 6 0.11995956567210314 8.628550025693452 25.40901354873876 0 0 0
172 7 2.6302299847454638 8.610025535572849 25.39390158507747 0 0 0
176 7 1.3510268538107133 10.811844084075355 25.430458901718453 0 0 0
177 6 3.892365733843574 10.814666032376437 25.313483210663982 0 0 0
143 7 5.080867413283691 10.109509148267687 23.232827473879084 0 0 0
144 7 7.516336785407881 10.096366267377688 22.90232040655563 0 0 0
148 4 6.236784302905348 12.280623223216264 23.25951841884416 0 0 0
178 6 6.65101919108767 10.524268436667601 25.23653736371448 0 0 0
145 7 10.003395080403259 10.097185113094191 23.297884689999083 0 0 0
149 6 8.728101069415905 12.297034944009878 23.28879706445747 0 0 0
150 7 11.26537903481475 12.235789823654871 23.33148790019142 0 0 0
174 3 8.425871013462567 9.512621331715408 24.40390529087919 0 0 0
179 5 9.0188045883721 10.937096928518987 25.55708936030148 0 0 0
180 5 11.350961725352875 10.885157361618484 25.479647476326054 0 0 0
181 7 1.3933212985315697 0.6693528353781396 27.48472093657912 0 0 0
182 7 3.8821048110296275 0.7039363674082469 27.44298811498814 0 0 0
186 7 0.17867206526379853 2.8660427240460873 27.47851295450941 0 0 0
187 7 2.6666312855636223 2.853698152069665 27.56247321950568 0 0 0
211 7 0.2148305597672373 1.4510326513261236 29.57938795456024 0 0 0
212 7 2.7150057058712163 1.3640541009222606 29.578396605648653 0 0 0
216 7 1.4172263790332726 3.5585832564133857 29.58314857675366 0 0 0
217 4 3.8313814002803483 3.5726442435099863 29.59772919975128 0 0 0
183 7 6.320966522257172 0.7190838273638565 27.566421446783757 0 0 0
188 7 5.091472400203021 2.8738397377879807 27.573113677583336 0 0 0
189 7 7.607257000238232 2.796802767455398 27.4453579274718 0 0 0
213 5 5.142111944164268 1.4244973895216144 29.59797607778985 0 0 0
214 7 7.625221616700927 1.3590997624063494 29.57926429965018 0 0 0
218 7 6.3733599190412145 3.5366099340324455 29.536748583038346 0 0 0
184 7 8.901883575101454 0.7271253123794801 27.54733909508615 0 0 0
185 4 11.394322497043337 0.730673965425346 27.51623110881689 0 0 0
190 7 10.156525821903164 2.8416901674229567 27.47299853290121 0 0 0
215 7 10.134737165140395 1.41224477631438 29.61674404056035 0 0 0
219 7 8.847580643168905 3.518567699635336 29.515917488223497 0 0 0
220 7 11.3770818683744 3.5671603481248333 29.510620648387345 0 0 0
191 7 1.3978769188023812 5.012411600203604 27.46798526951028 0 0 0
192 7 3.840716331807808 4.988877959778101 27.485673788963318 0 0 0
197 7 2.5870733969111894 7.192409435567723 27.479747242242052 0 0 0
221 7 0.1276824465799904 5.733332932263784 29.563639343269745 0 0 0
222 7 2.598500041257437 5.728584038964933 29.551952180831247 0 0 0
226 7 1.3697330873069822 7.9059159403044434 29.548973569726673 0 0 0
227 7 3.8681827324859235 7.911289909967199 29.47506904735342 0 0 0
193 7 6.379196286475277 4.975457480938015 27.41126971105723 0 0 0
198 7 5.11124867968963 7.170648441552982 27.417028282032405 0 0 0
199 7 7.624559309549371 7.1926399413106346 27.44333068594802 0 0 0
223 6 5.162158247608239 5.7190055561374225 29.491019144433967 0 0 0
224 7 7.653618010344748 5.742311097980592 29.57476494300754 0 0 0
228 7 6.401066057146933 7.912771479366387 29.495606246574233 0 0 0
194 6 8.855607044379319 5.005850926604475 27.480083454822413 0 0 0
195 7 11.368887771309492 5.0047646401462655 27.496749281869757 0 0 0
196 7 0.14351528275679218 7.168214125766099 27.48640088224549 0 0 0
200 7 10.129489652957236 7.167825481685902 27.52555183857435 0 0 0
225 7 10.10948930001085 5.7490920906571095 29.59403437329667 0 0 0
229 7 8.853587852976066 7.891035629065278 29.513340265863803 0 0 0
230 7 11.375102390855243 7.93884634061226 29.512783003806398 0 0 0
201 5 1.3848627644632263 9.332215221512415 27.512811881683863 0 0 0
202 7 3.8798108303895162 9.318273590522395 27.39456000073855 0 0 0
206 4 0.19449524835312132 11.487514425977997 27.516160938949632 0 0 0
207 7 2.6174251730626725 11.463132256170873 27.450844848550535 0 0 0
231 7 0.17025585453435113 10.085518469327665 29.559701222636708 0 0 0
232 7 2.6369859745497237 10.027185804611761 29.432811217922286 0 0 0
236 7 1.476405877476491 12.1887886952265 29.555638768557543 0 0 0
203 7 6.379414268354222 9.290480221638616 27.40575800833985 0 0 0
208 7 5.148976474330982 11.498897592826195 27.35086622450847 0 0 0
209 6 7.598405822403538 11.535094833299766 27.628742499830263 0 0 0
233 7 5.153747602492551 10.0531901451523 29.34015837288905 0 0 0
234 7 7.610285963527843 10.092594738025756 29.65460009727579 0 0 0
238 7 6.228280909600671 12.238915668655183 29.676697380927415 0 0 0
204 7 8.844659885874265 9.376000526620286 27.602115862928493 0 0 0
205 7 11.353490568684007 9.4265483161387 27.5290319499115 0 0 0
210 7 10.163504063388839 11.564468360771873 27.563878549615357 0 0 0
235 7 10.092483672326873 10.185745826973235 29.584005325879136 0 0 0
239 4 8.891011365434572 12.26171832726762 29.719475958050467 0 0 0
240 7 11.401758600876 12.275455562469915 29.549165676370475 0 0 0
237 3 4.0363599345211885 0.3041572866008694 30.55631187198205 0 1 0
241 7 0.2051169546415908 0.1093142099354256 31.629527060249103 0 0 0
242 7 2.5714266782792765 0.1506198952131605 31.739936113640447 0 0 0
246 4 1.3480982658127374 2.2522508293112935 31.659391721550783 0 0 0
247 7 3.887443726779192 2.1579524513972164 31.639569352653986 0 0 0
276 7 0.18243867849711928 3.0073001979968232 33.73167757869134 0 0 0
243 7 5.174774369904927 12.911006128214781 32.094976375007576 0 -1 0
244 7 7.634579045799643 0.0130214100889642 31.701353136066494 0 0 0
248 7 6.415322450198074 2.158146605406021 31.63673367916042 0 0 0
279 7 7.7355249800271455 3.05616983738403 33.72088174815636 0 0 0
249 7 8.858895469947516 2.1147048944408486 31.669412775323167 0 0 0
250 7 11.389983962612225 2.1510219986084715 31.651599292849227 0 0 0
255 1 10.11147814872922 4.232288241989116 31.493203586766263 0 0 0
275 4 11.445716463707045 0.8091126084194544 33.70959367153466 0 0 0
251 7 0.15354730807152256 4.336328740230064 31.64309457903584 0 0 0
252 7 2.6396950229257636 4.326954472350312 31.665516147411203 0 0 0
256 7 1.336547084125788 6.512030611848987 31.631513088551387 0 0 0
257 6 3.7991937662006707 6.509042781301022 31.663117338266154 0 0 0
253 7 5.120327900416056 4.318101908974375 31.61941434108151 0 0 0
254 7 7.629244348726094 4.322969307558788 31.583788959003208 0 0 0
258 7 6.360526610322574 6.503711942714335 31.619639939065973 0 0 0
264 7 7.597895573141364 8.590535755091361 31.61523441748973 0 0 0
283 7 6.387082268546086 5.114095496357605 33.66550397089999 0 0 0
289 7 7.641252097633153 7.201186392417322 33.709407249720655 0 0 0
259 4 8.829654706202641 6.474858450759553 31.620232424601408 0 0 0
260 7 11.32210989989739 6.504094747815967 31.584493513278716 0 0 0
284 5 8.894002192722981 5.132417870894885 33.57436084067979 0 0 0
290 7 10.091569815221474 7.27602013320351 33.587324182247634 0 0 0
261 7 0.18370490185893826 8.721827363902468 31.645923388040984 0 0 0
262 7 2.6702221229390153 8.728635740331452 31.532171318776793 0 0 0
266 7 1.5692747066690795 10.843462432240178 31.57120660622275 0 0 0
267 4 3.921387847826393 11.28902985305005 30.852004852518565 0 0 0
292 7 3.965514817087787 9.38598076280549 33.5027092635184 0 0 0
326 7 0.5141783865607235 11.668608297553778 33.67616022139592 0 0 0
263 1 5.100842077921387 8.768489232860217 31.426418113901445 0 0 0
268 7 6.268654817324539 10.771910697676763 31.57568655790866 0 0 0
245 7 10.118617531115666 12.899155814833529 31.858687469934903 0 -1 0
265 6 10.10870394199984 8.6972994406099 31.53201460139739 0 0 0
269 7 8.783732921247257 10.81575009455839 31.739886019083343 0 0 0
270 7 11.434412315583273 10.918698306383536 31.602707986830442 0 0 0
294 7 8.776269115154326 9.30633236162426 33.686201253879 0 0 0
296 3 11.083668627660433 11.844807430271938 33.31927144708375 -1 0 0
271 7 1.4826260523747872 0.9178761659757865 33.773463475267356 0 0 0
272 7 3.929032792295936 0.967036523005543 33.92100590271821 0 0 0
277 7 2.650533325785933 3.0921354710338633 33.79423975177288 0 0 0
301 7 0.1988749533204521 1.5650600730246176 35.75413165501368 0 0 0
302 7 2.6273437914355986 1.6832485050072024 35.856000329973156 0 0 0
306 4 1.4247127410780203 3.8474245654331556 35.9538583645365 0 0 0
307 7 4.007420395915504 3.747277008280634 35.83022465464169 0 0 0
273 7 6.468098181593581 0.9869359545763673 33.889078361636756 0 0 0
278 1 5.2240300362697 3.009580539608802 33.71160467770287 0 0 0
303 7 5.256494189006239 1.6842292914447612 35.92840882706046 0 0 0
304 4 7.767350469122518 1.657139861474681 35.900635265859314 0 0 0
308 7 6.537093868101986 3.72531025328217 35.79180555920407 0 0 0
274 7 8.843410601630701 0.9115941666302357 33.82676493468094 0 0 0
280 7 10.209180247986671 3.0076027997894172 33.701905900302854 0 0 0
305 7 10.22989785647589 1.5726300270540783 35.72073703300871 0 0 0
309 7 9.02884219223923 3.688961952586571 35.772926555648475 0 0 0
310 4 11.596339294403275 3.957392131454823 35.85691589895343 0 0 0
335 5 9.92348153736723 12.91774008285013 37.39785108635428 0 -1 0
281 7 1.3302597394655897 5.195411414043961 33.85576134060494 0 0 0
282 4 3.855377623611273 5.146735906879991 33.765862400734 0 0 0
286 7 0.10038592265355573 7.29411473539766 33.61691115683804 0 0 0
287 7 2.6394861283761144 7.299861812209387 33.74205010753633 0 0 0
312 7 2.7380430193900267 5.803462534598206 35.78036907108774 0 0 0
316 7 1.219391125238935 7.614726679380046 35.78231800983615 0 0 0
317 7 3.9382629874677364 8.076228348638015 35.7288917123298 0 0 0
288 7 5.191811994384505 7.283474823188862 33.66305141520765 0 0 0
313 7 5.273863612993416 5.932449627265494 35.71239969170926 0 0 0
314 7 7.731627110423809 5.836212927107273 35.74072246343743 0 0 0
318 4 6.56435993897413 8.136260833968773 35.80183659784375 0 0 0
285 4 11.352223932269611 5.168111955849308 33.625163751676254 0 0 0
311 2 12.376589827755254 6.014108192420801 35.31433744404889 -1 0 0
315 7 10.143241267527266 5.825168272911253 35.57062300187276 0 0 0
319 7 8.964829962948404 7.993299741276152 35.81454519700135 0 0 0
320 7 11.35581482574185 7.949234896798381 35.58589380049001 0 0 0
355 3 10.446946625025605 7.917897350075148 37.27071427548242 0 0 0
291 7 1.4751324222998292 9.438941685462986 33.727133998982154 0 0 0
297 6 3.031490529656931 11.588526660761765 33.670413433291095 0 0 0
321 6 0.21908310218765537 10.079629098611482 35.90174498635696 0 0 0
322 7 2.7106760450801355 10.215039055075811 35.75827292413795 0 0 0
327 6 3.9358441021826085 12.52430463358094 36.10942998725865 0 0 0
356 4 1.4129159290322648 12.375676848299992 35.84373269904925 0 0 0
293 4 6.459487462455395 9.334471042017158 33.645762931862606 0 0 0
298 2 5.210044371640834 12.295453611891467 34.19771153468781 0 0 0
299 7 7.007772291130059 11.593378722856873 33.67096702304973 0 0 0
323 6 5.240796605548128 10.252071586691944 35.57140822653042 0 0 0
324 7 7.9223881940168175 10.37548331355381 35.706523616327814 0 0 0
328 7 6.4742563623828815 12.535635620226017 35.89795273909722 0 0 0
295 6 11.2777009230897 9.713637225280094 33.75182665533222 0 0 0
300 7 9.394661142658295 11.563149574280727 34.16226674142821 0 0 0
325 7 10.265571189831103 9.862508672124042 37.03015162444439 0 0 0
329 3 9.540849771422558 11.416752163154767 36.196607924549326 0 0 0
330 4 11.27038850416685 12.093431159781096 35.57564266959235 0 0 0
332 7 2.4950550509859313 0.118680302527954 38.033358245446934 0 0 0
336 7 1.3417954663991816 2.2018575980582296 37.82865227245687 0 0 0
337 7 3.887053921677885 2.2107631843049127 37.85870317748383 0 0 0
333 7 5.233984776920337 0.18775460798289642 38.12651750793696 0 0 0
334 7 7.662011933964733 0.09047377315041451 37.964479532708786 0 0 0
338 7 6.538519864693552 2.2812822058753324 37.88018616453773 0 0 0
361 8 7.137153218100767 2.0539083497886916 41.76280034580552 0 0 0
362 8 7.492456252761881 1.385594033787277 41.8422362876387 0 0 0
339 7 8.996118508601203 2.2040433876928884 37.840539035408106 0 0 0
340 7 11.374316951585369 2.2118126014207546 37.721241430333386 0 0 0
342 7 2.7218931842725986 4.307308889666679 37.91892685345427 0 0 0
346 7 1.5253579829705066 6.422846559035411 37.99461657315819 0 0 0
347 6 3.9728293196726696 6.490842223857599 37.76230824466616 0 0 0
343 7 5.314014681440245 4.447233402226258 37.83238928526393 0 0 0
344 7 7.841641144359092 4.456049036753941 37.84800603777396 0 0 0
348 6 6.669241727305309 6.6846650050982275 37.81380516845459 0 0 0
341 7 0.2206423916613852 4.26766212697697 38.065618763847056 0 0 0
345 4 10.229001311848302 4.352701057925825 37.804488265657085 0 0 0
349 7 9.248108219368914 6.645615319339383 37.85655785322037 0 0 0
350 7 11.689428593849067 6.288981598985167 37.292426553724944 0 0 0
352 6 2.499809150563636 8.676921138127758 37.68040623987178 0 0 0
357 7 3.856688521996928 10.825584094291607 37.95094144237388 0 0 0
360 7 1.4001510232440932 10.918727709975501 37.88408361587656 1 0 0
353 7 5.137651015675978 8.713267763407359 37.82233421232861 0 0 0
354 7 7.965386927837689 8.975538775835739 37.809965440487005 0 0 0
358 6 6.426762043274949 10.876788137678867 37.78015227082635 0 0 0
331 7 12.405811842146695 12.903902980307363 37.62450671246493 -1 -1 0
351 7 12.255162872349079 8.577592959836453 37.8340171621341 -1 0 0
359 2 8.613964748783777 11.179079412011987 37.425197646420614 0 0 0

Velocities

1 0 0 0
2 0 0 0
6 0 0 0
7 0 0 0
31 0 0 0
32 0 0 0
36 0 0 0
37 0 0 0
3 0 0 0
8 0 0 0
9 0 0 0
33 0 0 0
34 0 0 0
38 0 0 0
4 0 0 0
5 0 0 0
10 0 0 0
35 0 0 0
39 0 0 0
40 0 0 0
11 0 0 0
12 0 0 0
16 0 0 0
17 0 0 0
41 0 0 0
42 0 0 0
46 0 0 0
47 0 0 0
13 0 0 0
18 0 0 0
19 0 0 0
43 0 0 0
44 0 0 0
48 0 0 0
14 0 0 0
15 0 0 0
20 0 0 0
45 0 0 0
49 0 0 0
50 0 0 0
21 0 0 0
22 0 0 0
26 0 0 0
27 0 0 0
51 0 0 0
52 0 0 0
56 0 0 0
57 0 0 0
23 0 0 0
28 0 0 0
29 0 0 0
53 0 0 0
54 0 0 0
58 0 0 0
24 0 0 0
25 0 0 0
30 0 0 0
55 0 0 0
59 0 0 0
60 0 0 0
61 0 0 0
62 0 0 0
66 0 0 0
67 0 0 0
91 0 0 0
92 0 0 0
96 0 0 0
97 0 0 0
63 0 0 0
64 0 0 0
68 0 0 0
93 0 0 0
98 0 0 0
99 0 0 0
65 0 0 0
69 0 0 0
70 0 0 0
94 0 0 0
95 0 0 0
100 0 0 0
71 0 0 0
72 0 0 0
76 0 0 0
77 0 0 0
101 0 0 0
102 0 0 0
106 0 0 0
107 0 0 0
73 0 0 0
74 0 0 0
78 0 0 0
103 0 0 0
108 0 0 0
109 0 0 0
75 0 0 0
79 0 0 0
80 0 0 0
104 0 0 0
105 0 0 0
110 0 0 0
81 0 0 0
82 0 0 0
86 0 0 0
87 0 0 0
111 0 0 0
112 0 0 0
116 0 0 0
117 0 0 0
83 0 0 0
84 0 0 0
88 0 0 0
113 0 0 0
118 0 0 0
119 0 0 0
85 0 0 0
89 0 0 0
90 0 0 0
114 0 0 0
115 0 0 0
120 0 0 0
121 0 0 0
122 0 0 0
126 0 0 0
127 0 0 0
152 0 0 0
156 0 0 0
157 0 0 0
162 0 0 0
123 0 0 0
124 0 0 0
128 0 0 0
153 0 0 0
154 0 0 0
158 0 0 0
163 0 0 0
164 0 0 0
125 0 0 0
129 0 0 0
130 0 0 0
155 0 0 0
159 0 0 0
160 0 0 0
165 0 0 0
131 0 0 0
132 0 0 0
136 0 0 0
137 0 0 0
161 0 0 0
166 0 0 0
167 0 0 0
133 0 0 0
134 0 0 0
138 0 0 0
168 0 0 0
173 0 0 0
135 0 0 0
139 0 0 0
140 0 0 0
169 0 0 0
170 0 0 0
175 0 0 0
141 0 0 0
142 0 0 0
146 0 0 0
147 0 0 0
151 0 0 0
171 0 0 0
172 0 0 0
176 0 0 0
177 0 0 0
143 0 0 0
144 0 0 0
148 0 0 0
178 0 0 0
145 0 0 0
149 0 0 0
150 0 0 0
174 0 0 0
179 0 0 0
180 0 0 0
181 0 0 0
182 0 0 0
186 0 0 0
187 0 0 0
211 0 0 0
212 0 0 0
216 0 0 0
217 0 0 0
183 0 0 0
188 0 0 0
189 0 0 0
213 0 0 0
214 0 0 0
218 0 0 0
184 0 0 0
185 0 0 0
190 0 0 0
215 0 0 0
219 0 0 0
220 0 0 0
191 0 0 0
192 0 0 0
197 0 0 0
221 0 0 0
222 0 0 0
226 0 0 0
227 0 0 0
193 0 0 0
198 0 0 0
199 0 0 0
223 0 0 0
224 0 0 0
228 0 0 0
194 0 0 0
195 0 0 0
196 0 0 0
200 0 0 0
225 0 0 0
229 0 0 0
230 0 0 0
201 0 0 0
202 0 0 0
206 0 0 0
207 0 0 0
231 0 0 0
232 0 0 0
236 0 0 0
203 0 0 0
208 0 0 0
209 0 0 0
233 0 0 0
234 0 0 0
238 0 0 0
204 0 0 0
205 0 0 0
210 0 0 0
235 0 0 0
239 0 0 0
240 0 0 0
237 0 0 0
241 0 0 0
242 0 0 0
246 0 0 0
247 0 0 0
276 0 0 0
243 0 0 0
244 0 0 0
248 0 0 0
279 0 0 0
249 0 0 0
250 0 0 0
255 0 0 0
275 0 0 0
251 0 0 0
252 0 0 0
256 0 0 0
257 0 0 0
253 0 0 0
254 0 0 0
258 0 0 0
264 0 0 0
283 0 0 0
289 0 0 0
259 0 0 0
260 0 0 0
284 0 0 0
290 0 0 0
261 0 0 0
262 0 0 0
266 0 0 0
267 0 0 0
292 0 0 0
326 0 0 0
263 0 0 0
268 0 0 0
245 0 0 0
265 0 0 0
269 0 0 0
270 0 0 0
294 0 0 0
296 0 0 0
271 0 0 0
272 0 0 0
277 0 0 0
301 0 0 0
302 0 0 0
306 0 0 0
307 0 0 0
273 0 0 0
278 0 0 0
303 0 0 0
304 0 0 0
308 0 0 0
274 0 0 0
280 0 0 0
305 0 0 0
309 0 0 0
310 0 0 0
335 0 0 0
281 0 0 0
282 0 0 0
286 0 0 0
287 0 0 0
312 0 0 0
316 0 0 0
317 0 0 0
288 0 0 0
313 0 0 0
314 0 0 0
318 0 0 0
285 0 0 0
311 0 0 0
315 0 0 0
319 0 0 0
320 0 0 0
355 0 0 0
291 0 0 0
297 0 0 0
321 0 0 0
322 0 0 0
327 0 0 0
356 0 0 0
293 0 0 0
298 0 0 0
299 0 0 0
323 0 0 0
324 0 0 0
328 0 0 0
295 0 0 0
300 0 0 0
325 0 0 0
329 0 0 0
330 0 0 0
332 0 0 0
336 0 0 0
337 0 0 0
333 0 0 0
334 0 0 0
338 0 0 0
361 0 0 0
362 0 0 0
339 0 0 0
340 0 0 0
342 0 0 0
346 0 0 0
347 0 0 0
343 0 0 0
344 0 0 0
348 0 0 0
341 0 0 0
345 0 0 0
349 0 0 0
350 0 0 0
352 0 0 0
357 0 0 0
360 0 0 0
353 0 0 0
354 0 0 0
358 0 0 0
331 0 0 0
351 0 0 0
359 0 0 0
