LAMMPS data file via write_data, version 11 Feb 2026, timestep = 831, units = metal

362 atoms
8 atom types

0 12.447907776 xlo xhi
0 12.9362452296 ylo yhi
0 52.3600831054 zlo zhi

Masses

1 26.9815
2 10.811
3 12.011
4 51.9961
5 55.845
6 95.95999999999999
7 58.6934
8 1.008

Atoms # atomic/kk

1 7 1.122925922137911 0.8206462115990926 14.642331587004142 0 0 0
2 7 3.561399711790546 0.7362584662784177 14.870843576177148 0 0 0
6 7 12.273206921316914 3.4763261478936722 14.643345434248975 -1 0 0
7 7 2.233662739840721 2.969580332936836 15.107259874840313 0 0 0
31 6 12.40048271887842 1.8875856086289555 16.486046867435 -1 0 0
32 7 2.3150081043169215 1.2526199225233798 16.931083982995926 0 0 0
36 7 1.1444841603188396 3.9674544568523133 17.063206962201733 0 0 0
37 7 3.5775186509144787 3.6449291941792747 17.0935719802687 0 0 0
3 5 6.022157599588742 0.8653144036072491 14.937537719724189 0 0 0
8 7 4.7872595921162935 2.9837431552044062 15.02091920031905 0 0 0
9 7 7.293166265001027 3.060670500590105 14.893024852412909 0 0 0
33 7 4.836583166043898 1.5342922802279075 16.982934880248003 0 0 0
34 7 7.364374723403974 1.7099974319263118 16.94670946311962 0 0 0
38 5 6.083425534899565 3.7405805254259654 16.970572312468473 0 0 0
4 6 8.643124915445712 0.9693125669796459 14.946190303408782 0 0 0
5 7 11.030956497753662 1.2512588125003024 14.461846100309465 0 0 0
10 7 9.815357966437405 3.377812749831482 14.722986507863078 0 0 0
35 7 9.928311955387848 1.7120726754867948 16.904943368211626 0 0 0
39 7 8.642690493581604 3.862811211027391 16.81462467951966 0 0 0
40 7 11.079005024260312 3.9516300164625093 16.96526792787705 0 0 0
11 7 1.1417095923235692 5.431461946979436 15.026397080386529 0 0 0
12 7 3.5597575908376506 5.145110492960574 15.122070093278683 0 0 0
16 4 0.2231367889582658 7.672089581799481 14.611910463631112 0 0 0
17 7 2.435697869373252 7.504004629159361 15.09144519563319 0 0 0
41 7 12.323673991908095 6.108764383446558 17.128597484420844 -1 0 0
42 7 2.380065744390565 6.07435321060476 17.112352806146728 0 0 0
46 7 0.8257769685762859 8.412441789455812 16.86018245467775 0 0 0
47 7 3.8233712856547166 8.008420769455226 17.02702715570056 0 0 0
13 7 6.053632019429129 5.184636706191852 15.00864569819881 0 0 0
18 7 4.902919074101697 7.300838828649916 14.977022169724528 0 0 0
19 2 6.850735818278462 6.973840433228873 15.31645443505623 0 0 0
43 7 4.861948737877025 5.809784137069561 17.07734889883413 0 0 0
44 7 7.350180788648046 5.879193642459252 17.023613041752863 0 0 0
48 7 6.2331136535002925 7.991538839196142 17.018185315010566 0 0 0
14 7 8.581756022371067 5.637327244778908 14.893725741945383 0 0 0
15 6 11.054993302491678 5.6375934883974415 15.085885897764497 0 0 0
20 7 10.235381194256856 7.6561084221613 13.98938086463703 0 0 0
45 7 9.815125789200492 6.109684326814932 17.18007483245205 0 0 0
49 7 8.47770967300649 7.856924579796817 16.02227687437564 0 0 0
50 7 10.913593113651112 8.115546506239804 16.214599233890652 0 0 0
21 2 1.5561376999749397 9.471994909933471 15.210447222794087 0 0 0
22 7 3.6246490477184254 9.511113012172158 14.9189329709445 0 0 0
26 7 0.3221692091014875 10.801375152489872 16.829319733331978 0 0 0
27 7 2.039892313672272 11.475978418406623 15.1511789451421 0 0 0
51 3 11.62843297053405 9.369541766264446 17.499292575874033 -1 0 0
52 7 2.621743946577114 10.079937744849593 17.04318370504144 0 0 0
56 2 0.9348090899071013 12.704002377767367 16.354666836076035 0 0 0
57 7 3.711317756119409 12.224886683347332 16.929702599355824 0 0 0
23 7 6.592419757745594 9.085308513567352 14.85138320750101 0 0 0
28 7 4.825141198799095 11.608849401829119 14.818990273864548 0 0 0
29 6 7.381502490381219 11.49745913365378 14.917322570760762 0 0 0
53 7 5.13600938927946 10.109641832159445 16.77933601359129 0 0 0
54 7 7.701814952906352 10.042918733206243 16.92183261191184 0 0 0
58 6 6.302305792164406 12.337769408455568 17.012457039214127 0 0 0
24 7 9.05958778479571 9.666394081547084 14.655981596574614 0 0 0
25 7 11.952630943365211 9.87765044835044 14.711181306312765 0 0 0
30 7 9.931156020887933 11.855703251613502 14.578843033982775 0 0 0
55 7 10.251380918424724 10.40744126907992 16.6461620658065 0 0 0
59 7 8.8506455889118 12.37007307998313 16.890878349262362 0 0 0
60 7 11.306499692762888 12.621879323396465 16.35080482657112 0 0 0
61 6 0.11288679812482974 12.913262570557425 18.57638514366555 0 -1 0
62 7 2.5707026859863125 0.03540868140534068 19.1438819823277 0 0 0
66 6 1.3612540769646502 2.2310470158094837 19.067217724640496 0 0 0
67 5 3.8057028595807223 2.183752371800369 19.10522857780756 0 0 0
91 4 1.3725298641875467 0.7865215889774644 21.253386183353918 0 0 0
92 7 3.8034053587286842 0.7424162046838334 21.133636669415615 0 0 0
96 7 0.09098738272900189 2.865683141937767 21.177978709393408 0 0 0
97 7 2.612848855129088 2.863688918308871 21.210315843216662 0 0 0
63 5 5.022259542921456 0.11934864991971292 19.064483215359903 0 0 0
64 7 7.504844813461981 0.10943373591545709 19.093697669747165 0 0 0
68 7 6.200409613708672 2.176754458247244 19.05061785678241 0 0 0
93 7 6.330799196404654 0.7413823552032683 21.207825349676284 0 0 0
98 7 5.055658753337325 2.878038487156174 21.153010245772887 0 0 0
99 5 7.510448760864901 2.8447725986356645 21.14329510875758 0 0 0
65 7 10.089303847216732 0.10562420981950085 18.965290712173676 0 0 0
69 7 8.740308901717754 2.188088684889462 18.963807660160686 0 0 0
70 7 11.299532946840555 2.2918811920584745 18.908721612075162 0 0 0
94 7 8.786564566253839 0.754440917301372 21.178991582805388 0 0 0
95 7 11.372031473023744 0.7253987637151313 21.03178399813684 0 0 0
100 6 10.0539030450685 2.8422912065884645 21.020550856937486 0 0 0
71 1 12.337146409402255 4.456060763888824 19.196545921050298 -1 0 0
72 7 2.4575942457153896 4.4223596624034895 19.117320171077566 0 0 0
76 7 1.1750681434828942 6.498614152475814 19.19100634179458 0 0 0
77 7 3.768148348236809 6.4997367187912065 19.145030872710382 0 0 0
101 7 1.2177948768373668 5.031934956902978 21.233309281067065 0 0 0
102 6 3.747317299371801 5.047943610625196 21.227266641626084 0 0 0
106 7 0.0032808282338815434 7.138508763101845 21.274489752351577 0 0 0
107 7 2.481752981021811 7.172567774814337 21.23822881300846 0 0 0
73 7 4.949234032168438 4.31077913785175 19.077216759161658 0 0 0
74 6 7.478288344675566 4.317287766935653 19.02702540461119 0 0 0
78 7 6.1795561151038365 6.525169452151761 19.105794946623426 0 0 0
103 7 6.28768130510236 5.058514630952602 21.15722840301679 0 0 0
108 7 5.0285996372300525 7.222648150211493 21.207978089088062 0 0 0
109 7 7.4358050150586115 7.266927945463188 21.2403973498157 0 0 0
75 5 9.870391898887881 4.366083321943029 19.011312627567605 0 0 0
79 7 8.622693702059383 6.518646994508616 19.28651717816093 0 0 0
80 7 11.101700440163883 6.511581750414147 19.28423235659442 0 0 0
104 7 8.748117945838947 5.062727133820305 21.216812096394044 0 0 0
105 3 10.09819845757093 4.424432743563708 22.26361612563529 0 0 0
110 7 9.910965060487547 7.1949483483673315 21.272801980975213 0 0 0
81 4 12.379270942617664 8.584428290842517 19.188341440189916 -1 0 0
82 6 2.4423908793301443 8.53807565925787 19.024380401444272 0 0 0
86 7 1.3132685427052908 10.758623278805592 19.17058087445899 0 0 0
87 1 3.8552205053615154 10.88174001549338 19.0096616390532 0 0 0
111 7 1.2105542496909725 9.335501988278596 21.216648005881385 0 0 0
112 6 3.757186655511232 9.340561902794253 21.238780538881844 0 0 0
116 1 0.06787045599427136 11.549854791016136 21.176564065547563 0 0 0
117 7 2.531266605822155 11.541189870911031 21.175114077385995 0 0 0
83 7 4.977938198273699 8.729776378876306 19.03338805679038 0 0 0
84 7 7.43193429870238 8.640036034156706 19.011581756520897 0 0 0
88 7 6.284396614814413 10.823416817832909 19.021997120773182 0 0 0
113 7 6.250096467980075 9.398410435345694 21.034378030523584 0 0 0
118 7 5.050787929266744 11.561043436667418 21.14334722665516 0 0 0
119 4 7.4815219056775915 11.57709268048903 21.07736873524803 0 0 0
85 6 9.838305970679285 8.516502372444295 18.449700428723343 0 0 0
89 6 8.792157798457692 10.871866658019169 18.980156109090192 0 0 0
90 4 11.294420533201725 10.810056062630268 18.89164551773979 0 0 0
114 7 8.716497887914624 9.344748144673174 20.934534044511985 0 0 0
115 6 11.12948903824536 9.291941513947826 21.167987010448986 0 0 0
120 7 10.028337460598134 11.559289581043403 21.123067384406625 0 0 0
121 7 0.09274557584197148 1.4100635736019893 23.257520315350327 0 0 0
122 7 2.5810755935797984 1.407010872925287 23.317719172893497 0 0 0
126 6 1.3641533334917684 3.6065240291945795 23.26150852339781 0 0 0
127 7 3.8653247406150104 3.591233809900734 23.3662755569659 0 0 0
152 7 2.665949732807353 0.013277784482874307 25.375282355544275 0 0 0
156 1 1.4984092653895815 2.142816877116152 25.502927139588763 0 0 0
157 7 3.986747866494428 2.140563994949637 25.444314910942175 0 0 0
162 7 2.61578746660916 4.270468768789234 25.4286326546186 0 0 0
123 7 5.022116498087693 1.4328702193771312 23.200383216988836 0 0 0
124 7 7.427500273114554 1.5236501290465083 23.480057469521974 0 0 0
128 7 6.320033716597676 3.669374407001408 23.171371618306143 0 0 0
153 7 5.211876867207866 0.06741845369912941 25.330509602710222 0 0 0
154 7 7.623607913156251 0.013209992678773779 25.458947639534415 0 0 0
158 2 5.812045581066624 2.484998356049367 24.64393844675384 0 0 0
163 7 5.132282100241271 4.253533371419038 25.4231167600715 0 0 0
164 5 7.491861111226412 4.065969633600583 25.344291059876586 0 0 0
125 7 10.07634121511609 1.4482582674000908 23.301795672507826 0 0 0
129 7 8.771756219532415 3.565745598755967 23.329861555127668 0 0 0
130 4 11.37464002371531 3.64509887125382 23.383709956308568 0 0 0
155 4 10.14789776355654 0.0758989516270668 25.51904750707523 0 0 0
159 7 8.901655315944824 2.109458834008284 25.42362257197989 0 0 0
160 7 11.425236865601006 2.1714391546287795 25.39290356930047 0 0 0
165 7 10.082109394834568 4.2337664382273665 25.39848378752469 0 0 0
131 7 0.08781711513769615 5.796297726867329 23.386479056091133 0 0 0
132 7 2.5609910355628607 5.798690740100141 23.365445520561067 0 0 0
136 7 1.3252232149659167 7.924365572957167 23.296079047359665 0 0 0
137 7 3.8011741759231996 7.966024544620093 23.321751458064004 0 0 0
161 4 0.12729497765969644 4.355190602477037 25.455151428565124 0 0 0
166 7 1.3552197817276332 6.426038753427207 25.424702036995054 0 0 0
167 7 3.8270564343188185 6.438376384713574 25.44907560384525 0 0 0
133 6 5.085360722852385 5.852422215770766 23.385045742906357 0 0 0
134 7 7.57533960049071 5.788605301533868 23.301976888075355 0 0 0
138 7 6.328885516207553 7.99750764478304 23.339391513223976 0 0 0
168 7 6.38246362575099 6.396471405322077 25.430373360074437 0 0 0
173 7 5.130210747418341 8.554264851308995 25.353639738917124 0 0 0
135 7 10.080100107561806 5.8490474237918955 23.37410492933354 0 0 0
139 4 8.7156274755364 7.957624179583032 23.212225423345828 0 0 0
140 4 11.304222251139116 7.91027535928191 23.29504238648409 0 0 0
169 7 8.79080206340381 6.344878412621421 25.371592309398824 0 0 0
170 7 11.307876671815244 6.421434454708455 25.435345612003598 0 0 0
175 6 9.91022495795412 8.577819469372988 25.50124305677602 0 0 0
141 7 0.03778866667736893 10.09476983195807 23.327916150992994 0 0 0
142 7 2.5195955428234673 10.109205139663047 23.298712385993557 0 0 0
146 7 1.3173536116426365 12.24352240514801 23.31388655022639 0 0 0
147 7 3.83148418988097 12.243181211817678 23.230322426795055 0 0 0
151 4 0.11133520088943591 12.888163748851905 25.370754868275633 0 -1 0
171 6 0.12996799137472326 8.630642092110945 25.41041856754941 0 0 0
172 7 2.6404263520348197 8.61238403556842 25.395539664365764 0 0 0
176 7 1.3610714912538187 10.814039202303638 25.43141683434407 0 0 0
177 6 3.902603251079485 10.817015053073753 25.314980969338254 0 0 0
143 7 5.091024269544781 10.111734824298281 23.234453358888096 0 0 0
144 7 7.526397201558291 10.098531029438579 22.904202000575236 0 0 0
148 4 6.246918697763669 12.282871140385696 23.261407361248647 0 0 0
178 6 6.661027635788194 10.526645176180766 25.238409427476636 0 0 0
145 7 10.013365738522287 10.09916217987435 23.29961237729707 0 0 0
149 6 8.73821445219914 12.299136953300607 23.29094187516651 0 0 0
150 7 11.275400949989045 12.23801889393947 23.333039059006804 0 0 0
174 3 8.43581277688667 9.51473959353343 24.405804592914386 0 0 0
179 5 9.028892644746758 10.938887632198986 25.559146658742595 0 0 0
180 5 11.360868261567438 10.887192968760155 25.480575276614957 0 0 0
181 7 1.4032449070009663 0.672103762856128 27.485587741148116 0 0 0
182 7 3.892225737329596 0.7062454276662073 27.444244198419682 0 0 0
186 7 0.1888044861615764 2.8685793572093425 27.48120152632327 0 0 0
187 7 2.6766012548853033 2.856840882781203 27.564038892467114 0 0 0
211 7 0.22512144962639505 1.45371794007263 29.582269939531745 0 0 0
212 7 2.7250413480731788 1.3686072802951985 29.578000111087103 0 0 0
216 7 1.4272523908261445 3.561567033575799 29.58629523694706 0 0 0
217 4 3.8413783973812596 3.5765652393451113 29.599677039368874 0 0 0
183 7 6.331375901284816 0.7211584382985181 27.568132313201687 0 0 0
188 7 5.101442605939141 2.87636968032182 27.57517591736028 0 0 0
189 7 7.617345863537618 2.7989395474087515 27.44810473895284 0 0 0
213 5 5.153314960614991 1.428273099117238 29.598897055677362 0 0 0
214 7 7.63556110561975 1.3617632759867142 29.58155810966768 0 0 0
218 7 6.383286848904347 3.539304993782839 29.539680821210425 0 0 0
184 7 8.91219125737156 0.7290782712453393 27.550062266380255 0 0 0
185 4 11.404419775593322 0.7331850903636957 27.51826102713172 0 0 0
190 7 10.166694895468252 2.84384980695087 27.475948377400773 0 0 0
215 7 10.144874105188567 1.4145613531495302 29.62020093930577 0 0 0
219 7 8.857537525958353 3.5206169471967588 29.51887590339362 0 0 0
220 7 11.387281907082253 3.569198509427972 29.51398312200564 0 0 0
191 7 1.4079676253830473 5.015064297758509 27.470618868217624 0 0 0
192 7 3.8507645986584405 4.991802851204427 27.48788497229372 0 0 0
197 7 2.5972713637084244 7.194937897192122 27.481950090837596 0 0 0
221 7 0.13765658851385015 5.735433847233712 29.566538965446963 0 0 0
222 7 2.6086403993893943 5.731533290524932 29.554975567755427 0 0 0
226 7 1.3798389343798723 7.908029202498622 29.550717149581704 0 0 0
227 7 3.878606874429825 7.913854094359011 29.4774029330838 0 0 0
193 7 6.389056899118561 4.9776033463825575 27.41374618103997 0 0 0
198 7 5.121414574195944 7.173020368910462 27.419321473881595 0 0 0
199 7 7.634379889917008 7.194396150578766 27.445928419809196 0 0 0
223 6 5.172140941696627 5.721769153337834 29.49370993903549 0 0 0
224 7 7.663332443198993 5.744061490660281 29.577439742437694 0 0 0
228 7 6.411274189884213 7.915246987459248 29.498591230648337 0 0 0
194 6 8.865452410498786 5.00771973747717 27.48266660873407 0 0 0
195 7 11.378891230030614 5.006906111734285 27.499523806622687 0 0 0
196 7 0.15342489507962578 7.170403090334789 27.488473981263283 0 0 0
200 7 10.139179932851878 7.169705118890309 27.5276774871236 0 0 0
225 7 10.119139478689677 5.750907622087318 29.59647801600376 0 0 0
229 7 8.863022027868007 7.892805930311694 29.515817224155214 0 0 0
230 7 11.384510904104317 7.940787991594058 29.51441890904307 0 0 0
201 5 1.394928903729428 9.33428444309211 27.51354966420669 0 0 0
202 7 3.8902932620346347 9.320522985495606 27.39620111758456 0 0 0
206 4 0.20432829749518044 11.489928681461201 27.516332387227862 0 0 0
207 7 2.6274723687912505 11.46538814574549 27.45166501421675 0 0 0
231 7 0.18025416615814846 10.087639043906469 29.55858938703258 0 0 0
232 7 2.647245335589023 10.029349375091591 29.433230531866823 0 0 0
236 7 1.4864512646591928 12.192322339509857 29.55493958284753 0 0 0
203 7 6.389838974350008 9.29238410405322 27.407568669697472 0 0 0
208 7 5.159285424423371 11.501070389382308 27.352560409700345 0 0 0
209 6 7.608777760619244 11.536748556754302 27.631237076423965 0 0 0
233 7 5.165025498453765 10.055136050090914 29.34171833866161 0 0 0
234 7 7.621159028736342 10.09533542616316 29.6585940181436 0 0 0
238 7 6.238827414010526 12.241133844098655 29.678288584850204 0 0 0
204 7 8.854470979185004 9.377706756730898 27.604449110925565 0 0 0
205 7 11.36313545216118 9.428428223559763 27.529888775425782 0 0 0
210 7 10.173726635404126 11.566423425502679 27.5654936441842 0 0 0
235 7 10.102338198694763 10.18737528190045 29.585401449550012 0 0 0
239 4 8.901609815213973 12.263359245763185 29.721905265851326 0 0 0
240 7 11.41212001998714 12.278016587277751 29.550101071064258 0 0 0
237 3 4.046284248630645 0.30769298421955743 30.553825914757052 0 1 0
241 7 0.21485614755732574 0.11119168360589304 31.632347259116827 0 0 0
242 7 2.581312330619024 0.15496357784647158 31.737326428532032 0 0 0
246 4 1.3581149395594172 2.255105654987392 31.662659055410835 0 0 0
247 7 3.8976300258807717 2.1624982997401174 31.639692436303232 0 0 0
276 7 0.19191084256543267 3.005179459318014 33.73586690419868 0 0 0
243 7 5.188526997645342 12.916532857888226 32.090035161093596 0 -1 0
244 7 7.646538070727258 0.016538532380316547 31.70126619895349 0 0 0
248 7 6.425822189570887 2.161276989425537 31.64069346654813 0 0 0
279 7 7.745383315443108 3.0559516380819303 33.725661747680384 0 0 0
249 7 8.86908654062149 2.116889664709525 31.67362720976658 0 0 0
250 7 11.400466661955932 2.1524495185777894 31.65614991727321 0 0 0
255 1 10.120881107584832 4.233641509262742 31.49585000641107 0 0 0
275 4 11.455609198879923 0.8050798189813562 33.71662723822899 0 0 0
251 7 0.1630711270008035 4.338149198958716 31.647507692475394 0 0 0
252 7 2.6493224378935074 4.330139034316303 31.66901156583926 0 0 0
256 7 1.3466023429062337 6.5132904448654 31.634692557326876 0 0 0
257 6 3.8096750375776405 6.512422179220155 31.666516084603845 0 0 0
253 7 5.130042622689669 4.3212782508105985 31.622932322915837 0 0 0
254 7 7.638833156330384 4.324644271027244 31.587139193164585 0 0 0
258 7 6.370581248828884 6.506231781220863 31.62236371652229 0 0 0
264 7 7.607465522237985 8.59355006453682 31.618762459761705 0 0 0
283 7 6.397476605833199 5.115451826345594 33.66829906857037 0 0 0
289 7 7.650298291046523 7.204946049762051 33.71204212232059 0 0 0
259 4 8.838850680866587 6.476371040511201 31.622678221595528 0 0 0
260 7 11.331315487306666 6.505574963945345 31.586640420060103 0 0 0
284 5 8.902447370602506 5.132731722701217 33.57757277451738 0 0 0
290 7 10.099242861728996 7.277325940544668 33.589326864400626 0 0 0
261 7 0.19283588023101814 8.722578300255877 31.644579026101688 0 0 0
262 7 2.6805562760053414 8.731721637998755 31.53360506511744 0 0 0
266 7 1.5771465323296319 10.846290389288537 31.567644993749447 0 0 0
267 4 3.9323831598311583 11.293834231404658 30.84882602707222 0 0 0
292 7 3.974443308809316 9.381531721332422 33.50895305991073 0 0 0
326 7 0.5212500586699922 11.66629135728879 33.6753591162307 0 0 0
263 1 5.110518727529306 8.772573526197133 31.429186856184703 0 0 0
268 7 6.279150678085168 10.77576141877813 31.579648415165224 0 0 0
245 7 10.129423335608303 12.902361942876194 31.861315127047238 0 -1 0
265 6 10.117415765510968 8.698715473345446 31.534319822662077 0 0 0
269 7 8.79612995801914 10.819286233857731 31.745607575971427 0 0 0
270 7 11.444411541141188 10.920090010811846 31.600849670973165 0 0 0
294 7 8.785089365034905 9.310861215990895 33.691241851793855 0 0 0
296 3 11.093625598482536 11.84419696849594 33.31657832078335 -1 0 0
271 7 1.4943332706774353 0.9163968507187763 33.775900016742646 0 0 0
272 7 3.94187361246544 0.9694640913634649 33.914049123460806 0 0 0
277 7 2.6603249195719 3.0928802202604007 33.79703077613596 0 0 0
301 7 0.2088884370805221 1.5652695863256558 35.76102011088249 0 0 0
302 7 2.63920459757882 1.681394729936949 35.860998935578856 0 0 0
306 4 1.4385655556896981 3.8428719131993514 35.96256328322782 0 0 0
307 7 4.015702671743176 3.7473942576185184 35.83409110445419 0 0 0
273 7 6.476319552777507 0.9879093321515728 33.897199092975825 0 0 0
278 1 5.235263326614009 3.01182647806227 33.71753939673903 0 0 0
303 7 5.26218280280618 1.6847236784863726 35.94099211910127 0 0 0
304 4 7.774440251555184 1.6554555259962425 35.91492261895142 0 0 0
308 7 6.54650853377611 3.7238178035055434 35.796165273690505 0 0 0
274 7 8.85071571124944 0.9104366232909975 33.83247007375371 0 0 0
280 7 10.219140032291245 3.006918825295751 33.70453035981402 0 0 0
305 7 10.237819860526724 1.573695785471107 35.725184077051836 0 0 0
309 7 9.038750129442612 3.689456188497907 35.774087939610475 0 0 0
310 4 11.61099819150939 3.9640681917752074 35.85821849603093 0 0 0
335 5 9.933040024148593 12.926021715881605 37.40310750947461 0 -1 0
281 7 1.3369979909613123 5.194314347330457 33.86387297655514 0 0 0
282 4 3.864053112518729 5.147903359275045 33.76944789078005 0 0 0
286 7 0.10872081964789185 7.295187648506521 33.61802211367718 0 0 0
287 7 2.6476076903157626 7.29806891420492 33.74569488791767 0 0 0
312 7 2.74669530507461 5.801808440312581 35.78609914533397 0 0 0
316 7 1.2277834319334335 7.611958501868865 35.78516568853704 0 0 0
317 7 3.945286447629007 8.074530402994343 35.73306622468749 0 0 0
288 7 5.202597961149814 7.2839612957604585 33.6669353879704 0 0 0
313 7 5.281787449733786 5.931631370152422 35.715281325268776 0 0 0
314 7 7.738600081392711 5.838079301958129 35.741652970230334 0 0 0
318 4 6.57322022058655 8.137373907741434 35.805783201900994 0 0 0
285 4 11.359294970040256 5.168528172922085 33.62685280589502 0 0 0
311 2 12.382604215628618 6.017428308123794 35.31469944589544 -1 0 0
315 7 10.149817291805578 5.826637028096535 35.573930478043195 0 0 0
319 7 8.972284068434263 7.995369127510253 35.81807397946449 0 0 0
320 7 11.362882997837469 7.9492283878441885 35.58672530323112 0 0 0
355 3 10.4561526620082 7.917506153573268 37.273017187860845 0 0 0
291 7 1.4836838485775203 9.438244565140048 33.72008849228324 0 0 0
297 6 3.040184399710403 11.585369824356656 33.66046528910599 0 0 0
321 6 0.2292486522280024 10.070799273319036 35.89732232252854 0 0 0
322 7 2.713846861959015 10.20954757317734 35.75066673288753 0 0 0
327 6 3.9431406623731595 12.515473143318562 36.07350650027285 0 0 0
356 4 1.4074548294510576 12.371821592820982 35.84131391062799 0 0 0
293 4 6.468707294399355 9.34061224047785 33.64768736509264 0 0 0
298 2 5.227765673757651 12.286125721051693 34.1814067910939 0 0 0
299 7 7.0330103296777855 11.59771550361927 33.67318191561357 0 0 0
323 6 5.248709925384954 10.248372664650873 35.57691287394011 0 0 0
324 7 7.931938064347514 10.378629968236838 35.71278200039606 0 0 0
328 7 6.481041458889621 12.535380821486617 35.905743559927465 0 0 0
295 6 11.286321330427576 9.714193785384813 33.75049550021422 0 0 0
300 7 9.41578647511413 11.565120902134135 34.17760226865345 0 0 0
325 7 10.274938103978267 9.860095605127439 37.0321953787329 0 0 0
329 3 9.552739274456785 11.421206756979993 36.20934124680394 0 0 0
330 4 11.289690305011401 12.097814958673988 35.593295650029894 0 0 0
332 7 2.5080988614356983 0.1161780973566504 37.98625900953887 0 0 0
336 7 1.352867398633437 2.2070473721295953 37.83794926590128 0 0 0
337 7 3.8943541895017844 2.2213022521836283 37.870884464256804 0 0 0
361 8 2.1784410477713307 0.6559621501112511 41.38146452074566 0 0 0
333 7 5.224401607904955 0.18123884086519038 38.102465797568904 0 0 0
334 7 7.664418140582977 0.090245444450959 37.99154434786965 0 0 0
338 7 6.542840076487908 2.2818935057596472 37.900502216417735 0 0 0
362 8 2.4686251441342235 12.895154053690838 41.460759300196614 0 -1 0
339 7 9.005761274325836 2.2114821545905263 37.848749573425295 0 0 0
340 7 11.383605548318137 2.2200034737490046 37.724750550126096 0 0 0
342 7 2.7303539455817356 4.314457159901122 37.9275255728925 0 0 0
346 7 1.5346503242306573 6.431637347176943 38.000340108907665 0 0 0
347 6 3.9818545475016918 6.495338222271588 37.765303417480894 0 0 0
343 7 5.320851628365302 4.4501217568672695 37.83411589934455 0 0 0
344 7 7.849339272418316 4.461342768673034 37.84299382557928 0 0 0
348 6 6.6753106385282335 6.6896903025955865 37.81693570333685 0 0 0
341 7 0.23034458211126396 4.272146930386296 38.069800525441025 0 0 0
345 4 10.23724847594959 4.35916574742007 37.80512262104413 0 0 0
349 7 9.255537412882598 6.648506246589545 37.86036420289581 0 0 0
350 7 11.69942547072014 6.290476832437509 37.29427884481732 0 0 0
352 6 2.5069092246837936 8.684966018413974 37.68344110895449 0 0 0
357 7 3.8566107516719454 10.83850214687243 37.94382243358214 0 0 0
360 7 1.3955043312046806 10.925336466744882 37.88749459462447 1 0 0
353 7 5.1407629209405 8.720672154600338 37.827501366320654 0 0 0
354 7 7.97347475774174 8.979355691064779 37.81441647171016 0 0 0
358 6 6.432757767112723 10.877140492433979 37.78532159090301 0 0 0
331 7 12.423042254975876 12.920558417826438 37.64743894196937 -1 -1 0
351 7 12.263153781334653 8.577663668946133 37.836481435815344 -1 0 0
359 2 8.620903662660195 11.181345752942189 37.4317015498148 0 0 0

Velocities

1 0 0 0
2 0 0 0
6 0 0 0
7 0 0 0
31 0 0 0
32 0 0 0
36 0 0 0
37 0 0 0
3 0 0 0
8 0 0 0
9 0 0 0
33 0 0 0
34 0 0 0
38 0 0 0
4 0 0 0
5 0 0 0
10 0 0 0
35 0 0 0
39 0 0 0
40 0 0 0
11 0 0 0
12 0 0 0
16 0 0 0
17 0 0 0
41 0 0 0
42 0 0 0
46 0 0 0
47 0 0 0
13 0 0 0
18 0 0 0
19 0 0 0
43 0 0 0
44 0 0 0
48 0 0 0
14 0 0 0
15 0 0 0
20 0 0 0
45 0 0 0
49 0 0 0
50 0 0 0
21 0 0 0
22 0 0 0
26 0 0 0
27 0 0 0
51 0 0 0
52 0 0 0
56 0 0 0
57 0 0 0
23 0 0 0
28 0 0 0
29 0 0 0
53 0 0 0
54 0 0 0
58 0 0 0
24 0 0 0
25 0 0 0
30 0 0 0
55 0 0 0
59 0 0 0
60 0 0 0
61 0 0 0
62 0 0 0
66 0 0 0
67 0 0 0
91 0 0 0
92 0 0 0
96 0 0 0
97 0 0 0
63 0 0 0
64 0 0 0
68 0 0 0
93 0 0 0
98 0 0 0
99 0 0 0
65 0 0 0
69 0 0 0
70 0 0 0
94 0 0 0
95 0 0 0
100 0 0 0
71 0 0 0
72 0 0 0
76 0 0 0
77 0 0 0
101 0 0 0
102 0 0 0
106 0 0 0
107 0 0 0
73 0 0 0
74 0 0 0
78 0 0 0
103 0 0 0
108 0 0 0
109 0 0 0
75 0 0 0
79 0 0 0
80 0 0 0
104 0 0 0
105 0 0 0
110 0 0 0
81 0 0 0
82 0 0 0
86 0 0 0
87 0 0 0
111 0 0 0
112 0 0 0
116 0 0 0
117 0 0 0
83 0 0 0
84 0 0 0
88 0 0 0
113 0 0 0
118 0 0 0
119 0 0 0
85 0 0 0
89 0 0 0
90 0 0 0
114 0 0 0
115 0 0 0
120 0 0 0
121 0 0 0
122 0 0 0
126 0 0 0
127 0 0 0
152 0 0 0
156 0 0 0
157 0 0 0
162 0 0 0
123 0 0 0
124 0 0 0
128 0 0 0
153 0 0 0
154 0 0 0
158 0 0 0
163 0 0 0
164 0 0 0
125 0 0 0
129 0 0 0
130 0 0 0
155 0 0 0
159 0 0 0
160 0 0 0
165 0 0 0
131 0 0 0
132 0 0 0
136 0 0 0
137 0 0 0
161 0 0 0
166 0 0 0
167 0 0 0
133 0 0 0
134 0 0 0
138 0 0 0
168 0 0 0
173 0 0 0
135 0 0 0
139 0 0 0
140 0 0 0
169 0 0 0
170 0 0 0
175 0 0 0
141 0 0 0
142 0 0 0
146 0 0 0
147 0 0 0
151 0 0 0
171 0 0 0
172 0 0 0
176 0 0 0
177 0 0 0
143 0 0 0
144 0 0 0
148 0 0 0
178 0 0 0
145 0 0 0
149 0 0 0
150 0 0 0
174 0 0 0
179 0 0 0
180 0 0 0
181 0 0 0
182 0 0 0
186 0 0 0
187 0 0 0
211 0 0 0
212 0 0 0
216 0 0 0
217 0 0 0
183 0 0 0
188 0 0 0
189 0 0 0
213 0 0 0
214 0 0 0
218 0 0 0
184 0 0 0
185 0 0 0
190 0 0 0
215 0 0 0
219 0 0 0
220 0 0 0
191 0 0 0
192 0 0 0
197 0 0 0
221 0 0 0
222 0 0 0
226 0 0 0
227 0 0 0
193 0 0 0
198 0 0 0
199 0 0 0
223 0 0 0
224 0 0 0
228 0 0 0
194 0 0 0
195 0 0 0
196 0 0 0
200 0 0 0
225 0 0 0
229 0 0 0
230 0 0 0
201 0 0 0
202 0 0 0
206 0 0 0
207 0 0 0
231 0 0 0
232 0 0 0
236 0 0 0
203 0 0 0
208 0 0 0
209 0 0 0
233 0 0 0
234 0 0 0
238 0 0 0
204 0 0 0
205 0 0 0
210 0 0 0
235 0 0 0
239 0 0 0
240 0 0 0
237 0 0 0
241 0 0 0
242 0 0 0
246 0 0 0
247 0 0 0
276 0 0 0
243 0 0 0
244 0 0 0
248 0 0 0
279 0 0 0
249 0 0 0
250 0 0 0
255 0 0 0
275 0 0 0
251 0 0 0
252 0 0 0
256 0 0 0
257 0 0 0
253 0 0 0
254 0 0 0
258 0 0 0
264 0 0 0
283 0 0 0
289 0 0 0
259 0 0 0
260 0 0 0
284 0 0 0
290 0 0 0
261 0 0 0
262 0 0 0
266 0 0 0
267 0 0 0
292 0 0 0
326 0 0 0
263 0 0 0
268 0 0 0
245 0 0 0
265 0 0 0
269 0 0 0
270 0 0 0
294 0 0 0
296 0 0 0
271 0 0 0
272 0 0 0
277 0 0 0
301 0 0 0
302 0 0 0
306 0 0 0
307 0 0 0
273 0 0 0
278 0 0 0
303 0 0 0
304 0 0 0
308 0 0 0
274 0 0 0
280 0 0 0
305 0 0 0
309 0 0 0
310 0 0 0
335 0 0 0
281 0 0 0
282 0 0 0
286 0 0 0
287 0 0 0
312 0 0 0
316 0 0 0
317 0 0 0
288 0 0 0
313 0 0 0
314 0 0 0
318 0 0 0
285 0 0 0
311 0 0 0
315 0 0 0
319 0 0 0
320 0 0 0
355 0 0 0
291 0 0 0
297 0 0 0
321 0 0 0
322 0 0 0
327 0 0 0
356 0 0 0
293 0 0 0
298 0 0 0
299 0 0 0
323 0 0 0
324 0 0 0
328 0 0 0
295 0 0 0
300 0 0 0
325 0 0 0
329 0 0 0
330 0 0 0
332 0 0 0
336 0 0 0
337 0 0 0
361 0 0 0
333 0 0 0
334 0 0 0
338 0 0 0
362 0 0 0
339 0 0 0
340 0 0 0
342 0 0 0
346 0 0 0
347 0 0 0
343 0 0 0
344 0 0 0
348 0 0 0
341 0 0 0
345 0 0 0
349 0 0 0
350 0 0 0
352 0 0 0
357 0 0 0
360 0 0 0
353 0 0 0
354 0 0 0
358 0 0 0
331 0 0 0
351 0 0 0
359 0 0 0
