LAMMPS data file via write_data, version 11 Feb 2026, timestep = 394, units = metal

362 atoms
8 atom types

0 12.447907776 xlo xhi
0 12.9362452296 ylo yhi
0 52.3600831054 zlo zhi

Masses

1 26.9815
2 10.811
3 12.011
4 51.9961
5 55.845
6 95.95999999999999
7 58.6934
8 1.008

Atoms # atomic/kk

1 7 1.118494719168066 0.8142780079609994 14.643372158058018 0 0 0
2 7 3.5569792430595535 0.7298968988395174 14.871931703273592 0 0 0
6 7 12.268777758950655 3.4700349833296067 14.644322523882572 -1 0 0
7 7 2.2292388739918176 2.9632269520544927 15.10829384987291 0 0 0
31 6 12.396072806504453 1.881305586518246 16.487032777376413 -1 0 0
32 7 2.31058369641383 1.2462541229182647 16.93212422149388 0 0 0
36 7 1.140061500687137 3.9611745845896444 17.06417419319645 0 0 0
37 7 3.573076579486409 3.6385985289939153 17.094650502023615 0 0 0
3 5 6.017701143265238 0.8590093102336042 14.938601958330064 0 0 0
8 7 4.782815714191933 2.977433469293169 15.021987441608852 0 0 0
9 7 7.288693634419027 3.0543978581031372 14.894035315174015 0 0 0
33 7 4.832147213862448 1.5279859351501617 16.984019351253796 0 0 0
34 7 7.35991357333593 1.7037242983888372 16.94769730118361 0 0 0
38 5 6.078963409886502 3.7343006756275514 16.971625147146508 0 0 0
4 6 8.638661982790628 0.9630417925035919 14.94715962443692 0 0 0
5 7 11.02651340895526 1.2449527954897954 14.462870110153984 0 0 0
10 7 9.810899634562942 3.3715322109959165 14.723989668905332 0 0 0
35 7 9.923876501899956 1.7058324134458538 16.905870454724614 0 0 0
39 7 8.638227933180145 3.856565404372917 16.81562066782875 0 0 0
40 7 11.074565308316622 3.945366856543941 16.966207395159 0 0 0
11 7 1.137294317007427 5.425170523526141 15.027353789505218 0 0 0
12 7 3.5553388763763203 5.138787708862811 15.123162280927637 0 0 0
16 4 0.21869351424466993 7.665843031300901 14.613130693229364 0 0 0
17 7 2.4312496803211086 7.497727681005427 15.092640638368094 0 0 0
41 7 12.319296735090221 6.102468575615878 17.12949612132531 -1 0 0
42 7 2.37566821645608 6.067986063699882 17.113403819713287 0 0 0
46 7 0.8213644107285554 8.406158310442205 16.86143504288802 0 0 0
47 7 3.8188735667101903 8.002144892503265 17.02829604917362 0 0 0
13 7 6.049187276606653 5.178390496859371 15.009748532269267 0 0 0
18 7 4.898440372634245 7.294576260241592 14.978256979978145 0 0 0
19 2 6.846267180476078 6.9676170685057475 15.317608935747407 0 0 0
43 7 4.8575005205529065 5.803497262131022 17.078489285650342 0 0 0
44 7 7.345721964682649 5.872938725438513 17.02471018344726 0 0 0
48 7 6.2286406638977 7.985284802922631 17.01939791715508 0 0 0
14 7 8.577300490052599 5.631127442187352 14.894809384617515 0 0 0
15 6 11.050546878196512 5.631311468608927 15.086847642682795 0 0 0
20 7 10.230964072461607 7.649925105027572 13.990543341758041 0 0 0
45 7 9.810705756434114 6.103434233637696 17.181053451434853 0 0 0
49 7 8.473238954023579 7.850693792114137 16.023473369130656 0 0 0
50 7 10.90915624768877 8.109300455084767 16.215821973514085 0 0 0
21 2 1.5517015301753903 9.465706150118994 15.211685637046845 0 0 0
22 7 3.6202096671043087 9.504815099417822 14.92020702345052 0 0 0
26 7 0.31774812243712425 10.795103058943878 16.830533455957262 0 0 0
27 7 2.0354803374873414 11.469651779273423 15.152367571567925 0 0 0
51 3 11.623984971257993 9.363305723601199 17.50049512533752 -1 0 0
52 7 2.6172958469813707 10.073691783249691 17.044466683103433 0 0 0
56 2 0.9303573352370145 12.69770614889054 16.355756105315944 0 0 0
57 7 3.7069176451766133 12.218575018549792 16.93088973850143 0 0 0
23 7 6.5879321906393455 9.07905412936214 14.852572203710215 0 0 0
28 7 4.820714555743274 11.602498361680519 14.820158306597321 0 0 0
29 6 7.3770760813188305 11.491200036245276 14.91840722804017 0 0 0
53 7 5.1315231607080385 10.103358732909669 16.780614402840733 0 0 0
54 7 7.697336358650462 10.036692125711223 16.922970387182218 0 0 0
58 6 6.297852537931279 12.331481489768436 17.013561970358047 0 0 0
24 7 9.05513755747462 9.660133293049368 14.657171111643422 0 0 0
25 7 11.948195738720225 9.87140635449832 14.71237839489911 0 0 0
30 7 9.926735469786536 11.849423349739034 14.579943790322785 0 0 0
55 7 10.246934146318107 10.401180306937963 16.647339784098683 0 0 0
59 7 8.846192417658909 12.363829256126243 16.891894265910064 0 0 0
60 7 11.302077109235102 12.615600620971893 16.35190581591284 0 0 0
61 6 0.10849919199619179 12.907033159732254 18.577485829675258 0 -1 0
62 7 2.5663113634345986 0.02915027240200077 19.145069883665876 0 0 0
66 6 1.3568727886358405 2.2248128027438154 19.068145844984386 0 0 0
67 5 3.8013064020366736 2.1774477023057686 19.106329541285888 0 0 0
91 4 1.368171011401465 0.7802966314598365 21.254444285528415 0 0 0
92 7 3.799039903819434 0.7361006184232268 21.13487817671397 0 0 0
96 7 0.08659285198015322 2.859439277942961 21.178813978780532 0 0 0
97 7 2.608501323705487 2.8573864246861045 21.211270164151095 0 0 0
63 5 5.01785243899028 0.11307659898297832 19.06567089197866 0 0 0
64 7 7.500402114726079 0.10321169332217052 19.09471782201846 0 0 0
68 7 6.195976790442397 2.1704901499847518 19.05166842614486 0 0 0
93 7 6.326393260145602 0.7351128226915339 21.20896211209762 0 0 0
98 7 5.051266214973353 2.8717438615701245 21.154142074628062 0 0 0
99 5 7.506005633248168 2.8386037622753313 21.14421507421788 0 0 0
65 7 10.084886785860071 0.09942517933511402 18.96621331520916 0 0 0
69 7 8.735867158880023 2.1818854672204795 18.964691721051665 0 0 0
70 7 11.295113377941561 2.2856529677390536 18.90962626303005 0 0 0
94 7 8.782163555668848 0.7483091974904592 21.17976118498387 0 0 0
95 7 11.36760464882643 0.719236041307201 21.032690992521204 0 0 0
100 6 10.049469529190066 2.8361775238517435 21.021392884971736 0 0 0
71 1 12.332737422282152 4.449803430943158 19.197464104259335 -1 0 0
72 7 2.453181174149957 4.416116822873033 19.11835232676138 0 0 0
76 7 1.1706526980548375 6.492413006630976 19.191979887058636 0 0 0
77 7 3.7636816486663784 6.493504186796196 19.146179238443473 0 0 0
101 7 1.2133729018666528 5.02570984666251 21.234195570103118 0 0 0
102 6 3.7429028660641777 5.0416827772861375 21.22837619001602 0 0 0
106 7 12.446769035271583 7.132328994527176 21.275419682758066 -1 0 0
107 7 2.4773026359039956 7.166335632952938 21.239395233005617 0 0 0
73 7 4.944784898127864 4.304507530446029 19.078318655880544 0 0 0
74 6 7.473811900102087 4.311054285270426 19.02806091004861 0 0 0
78 7 6.175071352528367 6.518957160228719 19.10693724502927 0 0 0
103 7 6.283212918513735 5.0523288413683165 21.158312907487225 0 0 0
108 7 5.024133995024864 7.21643733826197 21.209221885001273 0 0 0
109 7 7.431355025098024 7.260777514627733 21.241484521512625 0 0 0
75 5 9.865939999470204 4.359889697740482 19.012221369065113 0 0 0
79 7 8.618182311587544 6.512438498000963 19.287417926996284 0 0 0
80 7 11.09732388296006 6.505290501193766 19.285097678277147 0 0 0
104 7 8.743610911757322 5.056665426082393 21.217728880861117 0 0 0
105 3 10.093723152598814 4.418369244554352 22.264413572908293 0 0 0
110 7 9.90654615208326 7.188930166515686 21.273477155256924 0 0 0
81 4 12.374859177130705 8.578275612515323 19.189556622995017 -1 0 0
82 6 2.437958106279958 8.531915194827079 19.02571687389378 0 0 0
86 7 1.3088276660195746 10.752446875427157 19.17190092161942 0 0 0
87 1 3.8507793702074844 10.875504513076821 19.010987259733735 0 0 0
111 7 1.2061151384024489 9.329346405119427 21.218005406218648 0 0 0
112 6 3.7527155221987956 9.33435106743705 21.240210331843027 0 0 0
116 1 0.06345822106106529 11.543736129111103 21.177860993806696 0 0 0
117 7 2.5268450239988045 11.534971495999825 21.17648348429131 0 0 0
83 7 4.973466696755452 8.723551141537765 19.034678094444168 0 0 0
84 7 7.427473423321587 8.633870747264869 19.01278550372117 0 0 0
88 7 6.279942811725557 10.817197753271683 19.02319894187453 0 0 0
113 7 6.245609615250746 9.39222203339549 21.03565808684256 0 0 0
118 7 5.046358394901102 11.554780230471312 21.14468683095262 0 0 0
119 4 7.477087675563095 11.570910065041094 21.0784541793215 0 0 0
85 6 9.83391913513456 8.510310177388787 18.451016059766975 0 0 0
89 6 8.787723980592157 10.865693705253928 18.981229515739905 0 0 0
90 4 11.290006516064402 10.803871113789572 18.89283098198196 0 0 0
114 7 8.712030187975671 9.338696216167142 20.935710687099903 0 0 0
115 6 11.125090020189326 9.28589055115221 21.16919574365533 0 0 0
120 7 10.023928666427585 11.553191229888833 21.124091444458756 0 0 0
121 7 0.08836492380467212 1.4038010643914247 23.258372338380802 0 0 0
122 7 2.5767582741365134 1.4006645551012122 23.318881430006943 0 0 0
126 6 1.3597751799893074 3.600203538446272 23.262286131955655 0 0 0
127 7 3.8609634910868422 3.5848822682619415 23.367348980070265 0 0 0
152 7 2.6616557645734775 0.0069000298989182 25.376727505970003 0 0 0
156 1 1.4940852083983558 2.136392492989177 25.50365337887806 0 0 0
157 7 3.982553809445346 2.1341165625461054 25.445599244069 0 0 0
162 7 2.6113593366596466 4.263976545992952 25.429463463965053 0 0 0
123 7 5.017717759856512 1.4265046418231186 23.20167729548801 0 0 0
124 7 7.423082143558705 1.517495726751982 23.480639525767344 0 0 0
128 7 6.315600728393694 3.6632091107319176 23.17240176565695 0 0 0
153 7 5.2073305430040016 0.06078004458227874 25.332032159104667 0 0 0
154 7 7.618886231411326 0.007107450288979067 25.459618627114523 0 0 0
158 2 5.807767569811 2.4788060205718754 24.64495170478586 0 0 0
163 7 5.127903388462557 4.247157668128895 25.4242537309272 0 0 0
164 5 7.487507544161608 4.059915910195907 25.345333840736508 0 0 0
125 7 10.07191164689724 1.442137056114766 23.302497148534904 0 0 0
129 7 8.767270326078421 3.559639270412657 23.330614025757118 0 0 0
130 4 11.370196469818936 3.63892855461902 23.384346876110275 0 0 0
155 4 10.143139904227091 0.06977025519950297 25.519840300143677 0 0 0
159 7 8.896927255539529 2.1032980002425834 25.424230048309227 0 0 0
160 7 11.420582144836636 2.1651565513104027 25.39330590372175 0 0 0
165 7 10.07751998362009 4.227731068341794 25.398978995728047 0 0 0
131 7 0.08337727918800432 5.7900753973113295 23.387111722745278 0 0 0
132 7 2.5565676797590853 5.792373554514417 23.366457053390885 0 0 0
136 7 1.320775451011654 7.918149247068312 23.297264437711508 0 0 0
137 7 3.7966984054102015 7.959749202023255 23.323073705909803 0 0 0
161 4 0.12278480272948179 4.348865569338168 25.455427066477107 0 0 0
166 7 1.3507070317771726 6.419776753255762 25.425455021204478 0 0 0
167 7 3.8224898941818135 6.431919209575308 25.45026110843987 0 0 0
133 6 5.080933135742808 5.846180771529457 23.38625537084587 0 0 0
134 7 7.570893232894162 5.7824703872024035 23.30308900218106 0 0 0
138 7 6.324491943988184 7.991312639501524 23.34073790396914 0 0 0
168 7 6.377991008155338 6.390111934049873 25.431673220724022 0 0 0
173 7 5.125623756714517 8.547779657112267 25.355056377846132 0 0 0
135 7 10.075634678007386 5.843018107150346 23.374838334505174 0 0 0
139 4 8.71128984986686 7.951498166612879 23.21316507530816 0 0 0
140 4 11.299960773242711 7.904185539806426 23.29596490655078 0 0 0
169 7 8.78642314879669 6.339003985332745 25.372592168741928 0 0 0
170 7 11.303522504925755 6.415439888667285 25.43588158445897 0 0 0
175 6 9.906304123465242 8.571927291332058 25.502044784848174 0 0 0
141 7 0.03339449294674067 10.0887078690325 23.329356531781666 0 0 0
142 7 2.515136754194905 10.10297732393878 23.30026863352537 0 0 0
146 7 1.3129416912620728 12.237307382456471 23.315280659071618 0 0 0
147 7 3.8270593309855285 12.236812236520894 23.231767623349413 0 0 0
151 4 0.10686059068837714 12.88197295968973 25.37204326639274 0 -1 0
171 6 0.1257240926204631 8.624704422058144 25.41172947888882 0 0 0
172 7 2.6359162831417358 8.606087718610093 25.39694786462822 0 0 0
176 7 1.3567306760709388 10.807975967786302 25.433236391788252 0 0 0
177 6 3.8981832293464214 10.810600275960413 25.316678625197827 0 0 0
143 7 5.0865270580968875 10.105474746349351 23.235930057532926 0 0 0
144 7 7.5219207292657195 10.092449306540239 22.905418713605286 0 0 0
148 4 6.24239702553938 12.276619386624413 23.262730436761192 0 0 0
178 6 6.656590588767294 10.520039143234646 25.239742292141322 0 0 0
145 7 10.008933445822473 10.093153039108525 23.300653108873277 0 0 0
149 6 8.733728574999558 12.293103082733591 23.291731652250427 0 0 0
150 7 11.27094835504757 12.231886084316189 23.334239243063298 0 0 0
174 3 8.431411917550339 9.508393915604756 24.406883041057228 0 0 0
179 5 9.024427778545927 10.932904966965056 25.559912383276792 0 0 0
180 5 11.35653882776264 10.881178149067928 25.482144671599464 0 0 0
181 7 1.3991497999776135 0.6654308791618319 27.48679090763916 0 0 0
182 7 3.8880016643391087 0.6998466988856761 27.44587002114878 0 0 0
186 7 0.1842188548791602 2.8622352033051928 27.48088719180141 0 0 0
187 7 2.672228547122904 2.849901797818906 27.565057502756247 0 0 0
211 7 0.22055893582276784 1.4471348303423148 29.58083009203729 0 0 0
212 7 2.720946524475994 1.3609308154355215 29.58035084076729 0 0 0
216 7 1.4225252106333273 3.554946931404523 29.585580384822805 0 0 0
217 4 3.836725090027082 3.5691132135253185 29.60113844754916 0 0 0
183 7 6.326888066268218 0.7147885885973495 27.569611125406766 0 0 0
188 7 5.09706089131374 2.8700086982215156 27.576606107115257 0 0 0
189 7 7.612789624157675 2.792580035529232 27.449202653805628 0 0 0
213 5 5.149307699653896 1.4216365845560694 29.600339391934753 0 0 0
214 7 7.631239316171512 1.3547435603807545 29.583498977611445 0 0 0
218 7 6.379216576425864 3.5323028540477717 29.541333048294703 0 0 0
184 7 8.907375727317904 0.7229030766900447 27.550622427961134 0 0 0
185 4 11.399866345066934 0.7265790120536987 27.518756355976798 0 0 0
190 7 10.16203409683157 2.8375750864829965 27.476003730132643 0 0 0
215 7 10.140325287968265 1.408007950157888 29.619480873876636 0 0 0
219 7 8.853211074408849 3.514170186409107 29.519571599970053 0 0 0
220 7 11.382440428293139 3.5633482177297418 29.51306928995043 0 0 0
191 7 1.4033345032993185 5.008662933662091 27.470825182135634 0 0 0
192 7 3.8460808340427457 4.984998799962111 27.488842101650675 0 0 0
197 7 2.5925665514890683 7.188527404332233 27.483001599744146 0 0 0
221 7 0.132951718436456 5.729544269167887 29.566323050287135 0 0 0
222 7 2.603760406691027 5.72472235427627 29.555182309578566 0 0 0
226 7 1.3750657308386824 7.9020232098648595 29.551911467315872 0 0 0
227 7 3.8735165461329597 7.906781543187468 29.479088180126013 0 0 0
193 7 6.384609964104068 4.971110352863736 27.41498528708555 0 0 0
198 7 5.116593597469138 7.1663360817997495 27.420679496926084 0 0 0
199 7 7.629654736109819 7.187950462391631 27.44723905378014 0 0 0
223 6 5.16747630554996 5.714216381018989 29.494762540879712 0 0 0
224 7 7.659022756135005 5.737539501184151 29.57891869693735 0 0 0
228 7 6.405725279148472 7.908207876914392 29.499678765500068 0 0 0
194 6 8.860996188251052 5.001569258389928 27.483610215140125 0 0 0
195 7 11.37431301498802 5.000909915085338 27.49952212292811 0 0 0
196 7 0.1489865862840324 7.1644206961610735 27.48917741016784 0 0 0
200 7 10.134784097554174 7.1636890508476085 27.528371316231596 0 0 0
225 7 10.114793501056207 5.745065660328345 29.597091013224993 0 0 0
229 7 8.858429873083677 7.88642142582999 29.516347196354978 0 0 0
230 7 11.380290200842206 7.93484735092451 29.515270486192726 0 0 0
201 5 1.390438771199033 9.328388186359831 27.515639688241247 0 0 0
202 7 3.885517898990479 9.313945390546563 27.39780114336792 0 0 0
206 4 0.1999255319831042 11.483685549677123 27.51838888661272 0 0 0
207 7 2.6232621167117247 11.458906270534294 27.453814137726006 0 0 0
231 7 0.1754936459446918 10.08167459238372 29.561576101363343 0 0 0
232 7 2.642936941521024 10.022737273504227 29.4358437679725 0 0 0
236 7 1.4820999645213775 12.1849825719862 29.55701288827479 0 0 0
203 7 6.38515406197581 9.285891972371056 27.40880916296536 0 0 0
208 7 5.154710322590628 11.494562298488349 27.354335525060485 0 0 0
209 6 7.604169129115129 11.530746827499938 27.631817404833495 0 0 0
233 7 5.159815829604028 10.048290004520103 29.34314658553639 0 0 0
234 7 7.6158962804012615 10.0880466182198 29.657232066610057 0 0 0
238 7 6.234275698636567 12.23468279499641 29.68015356819793 0 0 0
204 7 8.850201008093169 9.37149163041996 27.604901789520277 0 0 0
205 7 11.358902800220658 9.422518887283367 27.53147549277582 0 0 0
210 7 10.168985649083103 11.560271822863582 27.56669998011614 0 0 0
235 7 10.097936868580538 10.181333315258788 29.586775032702903 0 0 0
239 4 8.896748335209786 12.257370953002095 29.722926361363758 0 0 0
240 7 11.407154368227967 12.271376517177297 29.55169478262179 0 0 0
237 3 4.043756955523583 0.30372122528501644 30.55991279383384 0 1 0
241 7 0.21125595311802753 0.10527005655282629 31.630097088876173 0 0 0
242 7 2.5775093202337844 0.14646219288105294 31.740933906253332 0 0 0
246 4 1.3542143437222631 2.2477928405990744 31.66050447630497 0 0 0
247 7 3.894225982381621 2.1533509329838596 31.64222994338568 0 0 0
276 7 0.1900707827113005 3.002449773743618 33.73229560100645 0 0 0
243 7 5.182625415018247 12.907119334115404 32.098288379662876 0 -1 0
244 7 7.6409435871521 0.008217314889458649 31.706513229190527 0 0 0
248 7 6.421859715763092 2.1531354549614736 31.642764745309535 0 0 0
279 7 7.7430165774795965 3.0492339036814813 33.72606451379509 0 0 0
249 7 8.865167131983872 2.109751744140218 31.673310862049462 0 0 0
250 7 11.395918415932867 2.146767836532289 31.65254898796399 0 0 0
255 1 10.116889252455122 4.228405801671719 31.496221945509397 0 0 0
275 4 11.455257278695555 0.8062423846924669 33.71006952506763 0 0 0
251 7 0.15870278619488565 4.332274904560636 31.6454778791969 0 0 0
252 7 2.6448355349806354 4.3226627178606725 31.66859672472459 0 0 0
256 7 1.341782291144995 6.507499517493474 31.634254006611588 0 0 0
257 6 3.8047290802091522 6.504219761669236 31.666930874069077 0 0 0
253 7 5.125697411402529 4.312888176557021 31.62431680437463 0 0 0
254 7 7.635250825600981 4.317758239225384 31.588403325324435 0 0 0
258 7 6.3653465563830105 6.498858978517659 31.623278523311697 0 0 0
264 7 7.602038822144334 8.585744410240773 31.617936996261253 0 0 0
283 7 6.394270928216939 5.107116821831992 33.66783763288787 0 0 0
289 7 7.64612199049556 7.195601757422597 33.71209326206829 0 0 0
259 4 8.834901848887993 6.470248831700364 31.624359431220878 0 0 0
260 7 11.327340023832859 6.500009668996467 31.587315542601505 0 0 0
284 5 8.900302188825718 5.12685313872466 33.579732846910225 0 0 0
290 7 10.097048672439257 7.270721595728352 33.59164882682396 0 0 0
261 7 0.18849681651221048 8.717799593584067 31.647551963551894 0 0 0
262 7 2.674935375936084 8.724146086655356 31.536246548738823 0 0 0
266 7 1.5743597893107457 10.839047443124645 31.57135133894409 0 0 0
267 4 3.9283992634213964 11.28848356675976 30.85047459293748 0 0 0
292 7 3.9669064700681824 9.37431215491322 33.51260040427949 0 0 0
326 7 0.51778685730727 11.662527279594974 33.67500012200083 0 0 0
263 1 5.103972617803862 8.76565916729878 31.43128223791343 0 0 0
268 7 6.274315790390728 10.767291353966014 31.57843767323444 0 0 0
245 7 10.123867500173528 12.894750136928467 31.86338920077348 0 -1 0
265 6 10.113227218937462 8.692400892303242 31.53470535029261 0 0 0
269 7 8.788663044923288 10.810568034165465 31.74229357130749 0 0 0
270 7 11.439532387342751 10.915182999540972 31.605392878231736 0 0 0
294 7 8.779663969102092 9.29936822340323 33.688608987953 0 0 0
296 3 11.085728359016633 11.841254088631654 33.323818914938066 -1 0 0
271 7 1.4901451924137008 0.9114893086957488 33.774907150155755 0 0 0
272 7 3.936425164466025 0.9628488004544471 33.92129089909683 0 0 0
277 7 2.65721790975168 3.086285894610904 33.7963969785128 0 0 0
301 7 0.20595366325565428 1.5611135539573266 35.75496514144834 0 0 0
302 7 2.6339994880381603 1.6744486524927162 35.85925506087314 0 0 0
306 4 1.435654238270517 3.8376299868777566 35.95361015530655 0 0 0
307 7 4.013557139162428 3.739572082074893 35.83426258279348 0 0 0
273 7 6.47620132051498 0.9802782013897554 33.89986445814106 0 0 0
278 1 5.23249235872256 3.0032799011602687 33.719650394190005 0 0 0
303 7 5.2616935975380486 1.674210268635024 35.9394526910483 0 0 0
304 4 7.7769872805643665 1.643771780426373 35.91737329597202 0 0 0
308 7 6.545559217491561 3.71502444999586 35.797013344122966 0 0 0
274 7 8.851285103627843 0.9066149446892201 33.83360713805263 0 0 0
280 7 10.216991741556196 3.0035016670415966 33.7024070269126 0 0 0
305 7 10.239095697601437 1.5719274539321746 35.721999081457156 0 0 0
309 7 9.036378893369761 3.6838114480613515 35.77408514467964 0 0 0
310 4 11.606790819007237 3.955044633539539 35.85458760994857 0 0 0
335 5 9.91574995455093 12.920621703391005 37.387331180661945 0 -1 0
281 7 1.3346009547875939 5.189876935455411 33.85999773825113 0 0 0
282 4 3.860692191008209 5.140177643032828 33.77080211716335 0 0 0
286 7 0.10598494860873349 7.290307601880723 33.61926344252166 0 0 0
287 7 2.644448140171039 7.292929603476257 33.745000594306006 0 0 0
312 7 2.741893002839773 5.796515645814883 35.78408581237615 0 0 0
316 7 1.2319237837648969 7.614965811508393 35.78341389579744 0 0 0
317 7 3.943611943138445 8.065583508971672 35.73221534689452 0 0 0
288 7 5.1976246862011966 7.275697102657115 33.66742344172616 0 0 0
313 7 5.280458964623656 5.922778659454348 35.7140706413756 0 0 0
314 7 7.737878724182759 5.830576347513049 35.74064696056538 0 0 0
318 4 6.569366947947558 8.131479678023698 35.806838881962555 0 0 0
285 4 11.358274982389236 5.1646881119955745 33.627810517971426 0 0 0
311 2 12.384888172427333 6.014356047669391 35.31654571747976 -1 0 0
315 7 10.15263257398569 5.8218095254484385 35.577607810398 0 0 0
319 7 8.970522093886927 7.986432937638246 35.8173303985576 0 0 0
320 7 11.365475152084596 7.948398758152735 35.588466983105775 0 0 0
355 3 10.46425624526522 7.909391980335169 37.275698506368634 0 0 0
291 7 1.476916481821993 9.432011850185788 33.72947621650545 0 0 0
297 6 3.0368140830301305 11.580381006408361 33.66842762277602 0 0 0
321 6 0.21932073483492495 10.081178994844548 35.90435256653083 0 0 0
322 7 2.709468142841712 10.200997246084182 35.75395534872508 0 0 0
327 6 3.933277383013859 12.512666969796923 36.09800791753647 0 0 0
356 4 1.4099839176543878 12.36806931825145 35.84185086928371 0 0 0
293 4 6.463341969411412 9.32686996755762 33.64964723023377 0 0 0
298 2 5.216476650232217 12.289609935524942 34.199963800607215 0 0 0
299 7 7.010185013063596 11.586506454812982 33.67539851314809 0 0 0
323 6 5.244551139099554 10.24382093863046 35.57373506864576 0 0 0
324 7 7.924952397395569 10.366589548053208 35.70938322313467 0 0 0
328 7 6.4798528842017316 12.52578916387547 35.911497476938415 0 0 0
295 6 11.28019563054776 9.708643495552245 33.75179227115776 0 0 0
300 7 9.394773980046955 11.554817870172364 34.16267845557834 0 0 0
325 7 10.271507691801272 9.849726116217004 37.03161360449329 0 0 0
329 3 9.542855382353832 11.408170728280812 36.20179736706879 0 0 0
330 4 11.268760225390709 12.087022548548028 35.570792558507584 0 0 0
332 7 2.497060136964288 0.11112884997605214 38.029020000184865 0 0 0
336 7 1.3471411398618922 2.198311426684131 37.83073108389447 0 0 0
337 7 3.889917035483593 2.206202785176744 37.863883485216974 0 0 0
333 7 5.229797246414261 0.1748865370781218 38.11117271195912 0 0 0
334 7 7.661872140932005 0.07644697508717686 37.9995196857694 0 0 0
338 7 6.544836825413455 2.2742150191670643 37.899002276920896 0 0 0
339 7 9.003919749569846 2.2050511669348936 37.85086369392154 0 0 0
340 7 11.382397892001165 2.212442241895377 37.7211898436838 0 0 0
342 7 2.727155648756339 4.303161341876767 37.921127265924646 0 0 0
346 7 1.5368838110505434 6.424397552233414 38.00479626582524 0 0 0
347 6 3.9805381087918392 6.484272759549692 37.76364785458104 0 0 0
361 8 2.3546789483859603 9.286839176598818 41.266376551475425 0 0 0
362 8 2.552884058895018 8.552541189394658 41.259934925911374 0 0 0
343 7 5.321401370468661 4.4408940778116825 37.83273728834755 0 0 0
344 7 7.849145853875079 4.457090365191593 37.84350940729839 0 0 0
348 6 6.673824155309384 6.683299071046665 37.814377216923994 0 0 0
341 7 0.23005196685014137 4.269453394436147 38.06111689273347 0 0 0
345 4 10.237638901130694 4.352131170664984 37.802988620827115 0 0 0
349 7 9.256821212970337 6.643856668639759 37.85983003396865 0 0 0
350 7 11.701775548482562 6.2940836976575 37.29797101312635 0 0 0
352 6 2.508084687615305 8.672809918137377 37.68515693784317 0 0 0
357 7 3.852038491835944 10.820210869089196 37.94720458915365 0 0 0
360 7 1.4018479313959535 10.911471809003187 37.886263589328465 1 0 0
353 7 5.127299708621506 8.705656764661253 37.84093040213022 0 0 0
354 7 7.970848423898383 8.969427605010264 37.81354740936504 0 0 0
358 6 6.425124524983901 10.859780778483294 37.78552052611887 0 0 0
331 7 12.404799724757796 12.89973053664731 37.62045003850277 -1 -1 0
351 7 12.282421006433085 8.578550479260473 37.84060594349216 -1 0 0
359 2 8.612671363035096 11.171967136000374 37.42610071515352 0 0 0

Velocities

1 0 0 0
2 0 0 0
6 0 0 0
7 0 0 0
31 0 0 0
32 0 0 0
36 0 0 0
37 0 0 0
3 0 0 0
8 0 0 0
9 0 0 0
33 0 0 0
34 0 0 0
38 0 0 0
4 0 0 0
5 0 0 0
10 0 0 0
35 0 0 0
39 0 0 0
40 0 0 0
11 0 0 0
12 0 0 0
16 0 0 0
17 0 0 0
41 0 0 0
42 0 0 0
46 0 0 0
47 0 0 0
13 0 0 0
18 0 0 0
19 0 0 0
43 0 0 0
44 0 0 0
48 0 0 0
14 0 0 0
15 0 0 0
20 0 0 0
45 0 0 0
49 0 0 0
50 0 0 0
21 0 0 0
22 0 0 0
26 0 0 0
27 0 0 0
51 0 0 0
52 0 0 0
56 0 0 0
57 0 0 0
23 0 0 0
28 0 0 0
29 0 0 0
53 0 0 0
54 0 0 0
58 0 0 0
24 0 0 0
25 0 0 0
30 0 0 0
55 0 0 0
59 0 0 0
60 0 0 0
61 0 0 0
62 0 0 0
66 0 0 0
67 0 0 0
91 0 0 0
92 0 0 0
96 0 0 0
97 0 0 0
63 0 0 0
64 0 0 0
68 0 0 0
93 0 0 0
98 0 0 0
99 0 0 0
65 0 0 0
69 0 0 0
70 0 0 0
94 0 0 0
95 0 0 0
100 0 0 0
71 0 0 0
72 0 0 0
76 0 0 0
77 0 0 0
101 0 0 0
102 0 0 0
106 0 0 0
107 0 0 0
73 0 0 0
74 0 0 0
78 0 0 0
103 0 0 0
108 0 0 0
109 0 0 0
75 0 0 0
79 0 0 0
80 0 0 0
104 0 0 0
105 0 0 0
110 0 0 0
81 0 0 0
82 0 0 0
86 0 0 0
87 0 0 0
111 0 0 0
112 0 0 0
116 0 0 0
117 0 0 0
83 0 0 0
84 0 0 0
88 0 0 0
113 0 0 0
118 0 0 0
119 0 0 0
85 0 0 0
89 0 0 0
90 0 0 0
114 0 0 0
115 0 0 0
120 0 0 0
121 0 0 0
122 0 0 0
126 0 0 0
127 0 0 0
152 0 0 0
156 0 0 0
157 0 0 0
162 0 0 0
123 0 0 0
124 0 0 0
128 0 0 0
153 0 0 0
154 0 0 0
158 0 0 0
163 0 0 0
164 0 0 0
125 0 0 0
129 0 0 0
130 0 0 0
155 0 0 0
159 0 0 0
160 0 0 0
165 0 0 0
131 0 0 0
132 0 0 0
136 0 0 0
137 0 0 0
161 0 0 0
166 0 0 0
167 0 0 0
133 0 0 0
134 0 0 0
138 0 0 0
168 0 0 0
173 0 0 0
135 0 0 0
139 0 0 0
140 0 0 0
169 0 0 0
170 0 0 0
175 0 0 0
141 0 0 0
142 0 0 0
146 0 0 0
147 0 0 0
151 0 0 0
171 0 0 0
172 0 0 0
176 0 0 0
177 0 0 0
143 0 0 0
144 0 0 0
148 0 0 0
178 0 0 0
145 0 0 0
149 0 0 0
150 0 0 0
174 0 0 0
179 0 0 0
180 0 0 0
181 0 0 0
182 0 0 0
186 0 0 0
187 0 0 0
211 0 0 0
212 0 0 0
216 0 0 0
217 0 0 0
183 0 0 0
188 0 0 0
189 0 0 0
213 0 0 0
214 0 0 0
218 0 0 0
184 0 0 0
185 0 0 0
190 0 0 0
215 0 0 0
219 0 0 0
220 0 0 0
191 0 0 0
192 0 0 0
197 0 0 0
221 0 0 0
222 0 0 0
226 0 0 0
227 0 0 0
193 0 0 0
198 0 0 0
199 0 0 0
223 0 0 0
224 0 0 0
228 0 0 0
194 0 0 0
195 0 0 0
196 0 0 0
200 0 0 0
225 0 0 0
229 0 0 0
230 0 0 0
201 0 0 0
202 0 0 0
206 0 0 0
207 0 0 0
231 0 0 0
232 0 0 0
236 0 0 0
203 0 0 0
208 0 0 0
209 0 0 0
233 0 0 0
234 0 0 0
238 0 0 0
204 0 0 0
205 0 0 0
210 0 0 0
235 0 0 0
239 0 0 0
240 0 0 0
237 0 0 0
241 0 0 0
242 0 0 0
246 0 0 0
247 0 0 0
276 0 0 0
243 0 0 0
244 0 0 0
248 0 0 0
279 0 0 0
249 0 0 0
250 0 0 0
255 0 0 0
275 0 0 0
251 0 0 0
252 0 0 0
256 0 0 0
257 0 0 0
253 0 0 0
254 0 0 0
258 0 0 0
264 0 0 0
283 0 0 0
289 0 0 0
259 0 0 0
260 0 0 0
284 0 0 0
290 0 0 0
261 0 0 0
262 0 0 0
266 0 0 0
267 0 0 0
292 0 0 0
326 0 0 0
263 0 0 0
268 0 0 0
245 0 0 0
265 0 0 0
269 0 0 0
270 0 0 0
294 0 0 0
296 0 0 0
271 0 0 0
272 0 0 0
277 0 0 0
301 0 0 0
302 0 0 0
306 0 0 0
307 0 0 0
273 0 0 0
278 0 0 0
303 0 0 0
304 0 0 0
308 0 0 0
274 0 0 0
280 0 0 0
305 0 0 0
309 0 0 0
310 0 0 0
335 0 0 0
281 0 0 0
282 0 0 0
286 0 0 0
287 0 0 0
312 0 0 0
316 0 0 0
317 0 0 0
288 0 0 0
313 0 0 0
314 0 0 0
318 0 0 0
285 0 0 0
311 0 0 0
315 0 0 0
319 0 0 0
320 0 0 0
355 0 0 0
291 0 0 0
297 0 0 0
321 0 0 0
322 0 0 0
327 0 0 0
356 0 0 0
293 0 0 0
298 0 0 0
299 0 0 0
323 0 0 0
324 0 0 0
328 0 0 0
295 0 0 0
300 0 0 0
325 0 0 0
329 0 0 0
330 0 0 0
332 0 0 0
336 0 0 0
337 0 0 0
333 0 0 0
334 0 0 0
338 0 0 0
339 0 0 0
340 0 0 0
342 0 0 0
346 0 0 0
347 0 0 0
361 0 0 0
362 0 0 0
343 0 0 0
344 0 0 0
348 0 0 0
341 0 0 0
345 0 0 0
349 0 0 0
350 0 0 0
352 0 0 0
357 0 0 0
360 0 0 0
353 0 0 0
354 0 0 0
358 0 0 0
331 0 0 0
351 0 0 0
359 0 0 0
