LAMMPS data file via write_data, version 11 Feb 2026, timestep = 679, units = metal

362 atoms
8 atom types

0 12.447907776 xlo xhi
0 12.9362452296 ylo yhi
0 52.3600831054 zlo zhi

Masses

1 26.9815
2 10.811
3 12.011
4 51.9961
5 55.845
6 95.95999999999999
7 58.6934
8 1.008

Atoms # atomic/kk

1 7 1.1184003837444394 0.8332404361135016 14.641983437231 0 0 0
2 7 3.556875071921434 0.7489404141724492 14.870566453401961 0 0 0
6 7 12.268677589839616 3.489104947991754 14.642833583628594 -1 0 0
7 7 2.2291337518609247 2.9822479392371672 15.106822322196347 0 0 0
31 6 12.396023064436136 1.9003838530106503 16.4855574925621 -1 0 0
32 7 2.3105042328642256 1.2653566647110328 16.930756331174493 0 0 0
36 7 1.1399871512399626 3.9802234797351397 17.062685521300676 0 0 0
37 7 3.572973995010254 3.657694704124124 17.093165307262097 0 0 0
3 5 6.0175791143675745 0.8781259712178204 14.93715825812738 0 0 0
8 7 4.782690733253699 2.9965321063682016 15.020486214780071 0 0 0
9 7 7.2885516236793455 3.07352907323091 14.892477677452096 0 0 0
33 7 4.832037994905258 1.5471102641892427 16.98257335822609 0 0 0
34 7 7.359803570534414 1.7228957934648492 16.9461766288 0 0 0
38 5 6.078830222741892 3.7534416124329373 16.970067968880507 0 0 0
4 6 8.63855379694 0.9821955153854516 14.945657054879222 0 0 0
5 7 11.02642470755117 1.2640384476460627 14.461441455602849 0 0 0
10 7 9.810774064408978 3.3906639534297494 14.72237029771955 0 0 0
35 7 9.923801813730316 1.7249784191566355 16.90434023806471 0 0 0
39 7 8.63814000461917 3.8757198556389625 16.81400454262689 0 0 0
40 7 11.07449230709083 3.9644626169734236 16.96461856862175 0 0 0
11 7 1.1371960679380175 5.444247687082538 15.02583737547606 0 0 0
12 7 3.555237162646097 5.157879262754548 15.121685412141575 0 0 0
16 4 0.21853915105411195 7.6849916092837205 14.611958573002841 0 0 0
17 7 2.4311078014690968 7.51684376512067 15.09134253636146 0 0 0
41 7 12.319276781843156 6.121519627814766 17.127912037981293 -1 0 0
42 7 2.3755846002621186 6.086984469063009 17.111947528479078 0 0 0
46 7 0.8212738261226706 8.42526401896139 16.860276892659865 0 0 0
47 7 3.818677999104132 8.021266037176506 17.027035938569874 0 0 0
13 7 6.049070307693516 5.197570838558979 15.008237499446237 0 0 0
18 7 4.898285512986031 7.313753347842839 14.976937183643555 0 0 0
19 2 6.846131693559116 6.9868240118740115 15.316189971331644 0 0 0
43 7 4.857372082760561 5.822625879361038 17.077021636561103 0 0 0
44 7 7.345586306453042 5.892062540793165 17.02319479848917 0 0 0
48 7 6.22848388266409 8.004439364318623 17.018045008766364 0 0 0
14 7 8.577183884223167 5.650364209874389 14.893309680813456 0 0 0
15 6 11.050434479311459 5.650416609999017 15.085310400759798 0 0 0
20 7 10.230852690549023 7.669176767509612 13.989310262802315 0 0 0
45 7 9.810632484802637 6.12255870116738 17.17950056418647 0 0 0
49 7 8.473093943483487 7.8698652485956995 16.02220936553601 0 0 0
50 7 10.90904081305706 8.128463271637697 16.214672696574123 0 0 0
21 2 1.5515838126042802 9.484790700824666 15.210480404047518 0 0 0
22 7 3.620081063016189 9.523926177729019 14.919014729674375 0 0 0
26 7 0.3176524862771472 10.814217187861539 16.829396685621457 0 0 0
27 7 2.035368486596197 11.488687042878572 15.151124332327724 0 0 0
51 3 11.623885796255523 9.382449608579064 17.499360105222316 -1 0 0
52 7 2.617172768274599 10.092840802923774 17.043313417930204 0 0 0
56 2 0.9302878722372345 12.716784255322741 16.354473679701677 0 0 0
57 7 3.7068142747362742 12.23768667604017 16.929607240602554 0 0 0
23 7 6.587804132124708 9.098237729571618 14.851243554575396 0 0 0
28 7 4.820611627468324 11.621566533550148 14.818854594424797 0 0 0
29 6 7.37698625692614 11.51038955103442 14.917013953718747 0 0 0
53 7 5.131366138030125 10.122504946561856 16.77939875284551 0 0 0
54 7 7.697182199785875 10.055916002306967 16.921607008612998 0 0 0
58 6 6.297741170955529 12.350646321758813 17.012186438400423 0 0 0
24 7 9.055050813208133 9.679315049848888 14.655993365135279 0 0 0
25 7 11.948085593018478 9.890569590145459 14.71121167869987 0 0 0
30 7 9.926678303060442 11.868556555634674 14.578639306424634 0 0 0
55 7 10.246836320666807 10.420322477980564 16.646184977231815 0 0 0
59 7 8.846094522811166 12.383027871637186 16.89046745073232 0 0 0
60 7 11.302027467080503 12.634707585920676 16.35057097144171 0 0 0
61 6 0.10841811821465233 12.926148859615296 18.57619968220789 0 -1 0
62 7 2.566212715376302 0.048267617883921046 19.143818106614237 0 0 0
66 6 1.356814908551784 2.2439008390479898 19.066755690853437 0 0 0
67 5 3.8012151807207393 2.1965674644969733 19.104907547293454 0 0 0
91 4 1.368129380169502 0.7994562689666765 21.253221386900673 0 0 0
92 7 3.7989689506232924 0.7552589021736357 21.1335836622733 0 0 0
96 7 0.08655345938134686 2.8785596634543724 21.177369095168554 0 0 0
97 7 2.608447114197419 2.876506786317511 21.20986497386325 0 0 0
63 5 5.01774732725105 0.13223047630358983 19.06432361046314 0 0 0
64 7 7.500296749356436 0.12240296777292131 19.093322785029958 0 0 0
68 7 6.19585872106789 2.1896236730531973 19.05015684585987 0 0 0
93 7 6.326292421531916 0.7543316515648649 21.207577536565772 0 0 0
98 7 5.051188338055931 2.89091166795796 21.152628639301206 0 0 0
99 5 7.505935175171701 2.8578197743496836 21.142595004065104 0 0 0
65 7 10.084796760559628 0.11860876737526467 18.964829187542428 0 0 0
69 7 8.73576367382631 2.2010093403701787 18.96310906795065 0 0 0
70 7 11.295072167853151 2.3047579073481703 18.90806348922803 0 0 0
94 7 8.78204085541762 0.7675433172512575 21.178383339132626 0 0 0
95 7 11.367538306796947 0.7384181244528384 21.031320271489506 0 0 0
100 6 10.049416442160494 2.855291894012072 21.019694872148825 0 0 0
71 1 12.33270660551493 4.4688555838329815 19.195976658276635 -1 0 0
72 7 2.4530926280100944 4.435216945870295 19.116873420861424 0 0 0
76 7 1.1705798575842272 6.5115494244949135 19.19053203055743 0 0 0
77 7 3.7635353210766778 6.512652785101695 19.144730675367068 0 0 0
101 7 1.2133241507108763 5.044830103340003 21.23272273107368 0 0 0
102 6 3.7428271689650283 5.060830981925124 21.226857864269324 0 0 0
106 7 12.44663688532224 7.151442679973116 21.273999091632028 -1 0 0
107 7 2.4771874234591666 7.185496233684317 21.238083356642477 0 0 0
73 7 4.944674611854205 4.323648297953116 19.07679271897365 0 0 0
74 6 7.473694317482482 4.3301457204760485 19.02643998098861 0 0 0
78 7 6.174921621529146 6.5381407881120035 19.105411499440244 0 0 0
103 7 6.28317050919771 5.071550824876783 21.15666350218624 0 0 0
108 7 5.0240093217126685 7.2356566807346105 21.207724611150145 0 0 0
109 7 7.431282750447868 7.280056668949784 21.239841603794567 0 0 0
75 5 9.865857009127682 4.37898422803489 19.010547475366838 0 0 0
79 7 8.617986425957655 6.531540975955651 19.285673030819485 0 0 0
80 7 11.097319922654908 6.524259699540178 19.283432367511242 0 0 0
104 7 8.74366416365693 5.075911344450914 21.215948401343233 0 0 0
105 3 10.093805164567309 4.437511328466765 22.262588251310003 0 0 0
110 7 9.906419181264582 7.208409364966695 21.27141966793255 0 0 0
81 4 12.374788477455498 8.597444356119821 19.188425444990425 -1 0 0
82 6 2.4378591486231427 8.551130851517694 19.02459526787673 0 0 0
86 7 1.3087132275474114 10.77163154164289 19.170852615078886 0 0 0
87 1 3.850675266365772 10.894681032385183 19.009820651871937 0 0 0
111 7 1.206000007529438 9.348536655691088 21.216963938108766 0 0 0
112 6 3.7525998489008314 9.353586592995555 21.23907810517063 0 0 0
116 1 0.06338927579088381 11.562996207333528 21.176856849856144 0 0 0
117 7 2.5267469183936067 11.554178124626679 21.17542400750215 0 0 0
83 7 4.973334561165855 8.74275014840929 19.033378017351218 0 0 0
84 7 7.427370319611201 8.653100310815615 19.011395905744347 0 0 0
88 7 6.279837891043509 10.836418083767695 19.02188927190746 0 0 0
113 7 6.245465620617535 9.411466123121087 21.034328561194155 0 0 0
118 7 5.046273289684898 11.573991379849769 21.143488891029964 0 0 0
119 4 7.476999411486485 11.590202158649264 21.077095262773224 0 0 0
85 6 9.833964925363233 8.529482595438854 18.450055051202305 0 0 0
89 6 8.787625960449422 10.884951371165542 18.979820418190958 0 0 0
90 4 11.289927123368289 10.8230455340459 18.89171978105294 0 0 0
114 7 8.711897218951789 9.358114354763375 20.934315885289802 0 0 0
115 6 11.125038649359913 9.305258282806987 21.168060737209125 0 0 0
120 7 10.023826758169086 11.572509005960086 21.122807775327203 0 0 0
121 7 0.08834915665010454 1.422959678219842 23.25707475297688 0 0 0
122 7 2.5767319038114165 1.4197958726515023 23.317691374398834 0 0 0
126 6 1.3597626363104638 3.6192878523570347 23.26087279421625 0 0 0
127 7 3.8609094525586594 3.6040248209380374 23.365846327464254 0 0 0
152 7 2.661605921161083 0.026158959402864283 25.37582221894893 0 0 0
156 1 1.494150115892875 2.1555393456305785 25.502496823005693 0 0 0
157 7 3.98253980642593 2.153305353790558 25.44428734110053 0 0 0
162 7 2.6113945878662777 4.283044892767588 25.428009577700074 0 0 0
123 7 5.017636249536508 1.445697625929966 23.200306478030164 0 0 0
124 7 7.423006459259325 1.536817403802889 23.479127998057766 0 0 0
128 7 6.315511065854026 3.682423122347631 23.170735106920514 0 0 0
153 7 5.207253655283888 0.0801012724655275 25.330892067441088 0 0 0
154 7 7.618764048284317 0.026767814413355514 25.458384643192634 0 0 0
158 2 5.807815078690072 2.4980178771981163 24.64344779242002 0 0 0
163 7 5.127908403652858 4.2663261034623385 25.422559809655912 0 0 0
164 5 7.487580822915874 4.079449144152701 25.343339941352447 0 0 0
125 7 10.071913389945767 1.4614224246914942 23.300992728814553 0 0 0
129 7 8.767212662561224 3.578899205694383 23.328714634868902 0 0 0
130 4 11.37019892099546 3.658067330706193 23.382634724041363 0 0 0
155 4 10.143106304970722 0.08937788550065243 25.518741248928148 0 0 0
159 7 8.896956920807455 2.122736990048361 25.422501211236334 0 0 0
160 7 11.420689296348225 2.1843797359015213 25.391937338821716 0 0 0
165 7 10.07761438606484 4.247051876871203 25.396807729976423 0 0 0
131 7 0.08340355012048146 5.809168629767443 23.38554241325515 0 0 0
132 7 2.556546029455335 5.811485139153944 23.365005974263017 0 0 0
136 7 1.3206987422288794 7.937296927251761 23.296038619441635 0 0 0
137 7 3.79662107886302 7.978944779447742 23.32179093208656 0 0 0
161 4 0.12286348353593331 4.367993676930073 25.45381543569764 0 0 0
166 7 1.3507179422215487 6.438883435294026 25.42396227843941 0 0 0
167 7 3.8225013338649605 6.451112682551064 25.4487099640631 0 0 0
133 6 5.080882155706556 5.865348475056599 23.38460288420401 0 0 0
134 7 7.570892542630975 5.8017954763951165 23.30115103817736 0 0 0
138 7 6.324416329279221 8.010552305148448 23.33915700929803 0 0 0
168 7 6.378023330316999 6.409416990233149 25.429748396807007 0 0 0
173 7 5.125645882614198 8.56717688790643 25.353641970864448 0 0 0
135 7 10.075726998888246 5.862354091901051 23.372700082556186 0 0 0
139 4 8.711341289851338 7.971021113064185 23.21148505666863 0 0 0
140 4 11.30000557919463 7.9234805652708395 23.29450455561527 0 0 0
169 7 8.786570146380296 6.358615788848963 25.37024677050942 0 0 0
170 7 11.30355650883845 6.434712569552813 25.433998989516514 0 0 0
175 6 9.906476819237374 8.591571376940294 25.500349289274034 0 0 0
141 7 0.03337935465771945 10.108002143568584 23.328421662285265 0 0 0
142 7 2.515040562552662 10.122181057303788 23.29927522353123 0 0 0
146 7 1.3128711248703637 12.256517993138626 23.3143865992155 0 0 0
147 7 3.8269765459795058 12.256033157057956 23.230637094992233 0 0 0
151 4 0.10681050133535211 12.901251189727384 25.37127363458768 0 -1 0
171 6 0.12579446196228763 8.643969529123497 25.410622645945782 0 0 0
172 7 2.635880279858681 8.625331406641193 25.395777569655795 0 0 0
176 7 1.3566921491324473 10.827249041555435 25.432566057232794 0 0 0
177 6 3.8981142149795307 10.829942463684288 25.315599941133577 0 0 0
143 7 5.086424780881871 10.124750239575958 23.2348009682127 0 0 0
144 7 7.521751645255761 10.111789684537284 22.904023332288414 0 0 0
148 4 6.242305204656651 12.295933604761887 23.261503563597653 0 0 0
178 6 6.656715268727835 10.539506145831558 25.23850173860282 0 0 0
145 7 10.008952905845826 10.112685485872856 23.29930244131685 0 0 0
149 6 8.733605891979387 12.312476550778806 23.290480779323115 0 0 0
150 7 11.270898746873911 12.25122582263868 23.333257804306456 0 0 0
174 3 8.431478131860503 9.528050854673056 24.40540217978784 0 0 0
179 5 9.024517250036542 10.952605279024523 25.55856178775911 0 0 0
180 5 11.356605487792764 10.900627176658475 25.48130396436691 0 0 0
181 7 1.3991042094079502 0.68463023936458 27.48632074870453 0 0 0
182 7 3.887835354581461 0.7191901819901346 27.445083613278197 0 0 0
186 7 0.18432537546372751 2.8811766262287333 27.479621510838957 0 0 0
187 7 2.6721576863934104 2.868781874076189 27.56401763986115 0 0 0
211 7 0.22045535255523874 1.4659466897155615 29.580819724269816 0 0 0
212 7 2.7207129575615685 1.3793070422657885 29.580456564272286 0 0 0
216 7 1.4226890170156623 3.573326428047036 29.584546930064857 0 0 0
217 4 3.8366265599304925 3.5876420045698887 29.5995861548903 0 0 0
183 7 6.326601198819524 0.7342368882900371 27.568764440369193 0 0 0
188 7 5.096831911750664 2.8890645212586503 27.57504110123811 0 0 0
189 7 7.612382928963604 2.8118818640730785 27.44694991967118 0 0 0
213 5 5.148377422092797 1.440069295424071 29.600036626234807 0 0 0
214 7 7.630803498087009 1.3741823619717577 29.58230933574885 0 0 0
218 7 6.378604813989103 3.5511614625251093 29.53912819031962 0 0 0
184 7 8.90729548334636 0.7426603356312129 27.54948415279257 0 0 0
185 4 11.399904613102366 0.7460267471739318 27.51838942913882 0 0 0
190 7 10.161994425268176 2.856897646964982 27.474084472145524 0 0 0
215 7 10.140199435511441 1.4275616797191428 29.618836810173114 0 0 0
219 7 8.85272481625196 3.533262391600494 29.51668686043129 0 0 0
220 7 11.382672779055193 3.5821697758252786 29.51107550491493 0 0 0
191 7 1.4033365227276127 5.027503464455921 27.469298821470613 0 0 0
192 7 3.846019939035636 5.003985395993625 27.487194212021347 0 0 0
197 7 2.5924825280412422 7.207631038024899 27.481424470774776 0 0 0
221 7 0.13313981849998502 5.748282211877218 29.564437334137274 0 0 0
222 7 2.6037030835136092 5.743536369532158 29.553303039202174 0 0 0
226 7 1.3750638759252605 7.921246555963635 29.55059294776497 0 0 0
227 7 3.8734552788966186 7.9261181601625985 29.477102463539754 0 0 0
193 7 6.3844894237147924 4.99041977910706 27.41294133072054 0 0 0
198 7 5.11659751160814 7.185601701318288 27.41887809572481 0 0 0
199 7 7.62976091526723 7.207700164472752 27.444654194950303 0 0 0
223 6 5.167353239444639 5.73329113190482 29.49281832622898 0 0 0
224 7 7.6588470336057854 5.7569528651367765 29.57579436146246 0 0 0
228 7 6.4058835951864515 7.927430000058115 29.497239159862787 0 0 0
194 6 8.860913332008622 5.020951364202643 27.48084222206122 0 0 0
195 7 11.374367877884842 5.019960548978223 27.497479585923227 0 0 0
196 7 0.14907967344246428 7.1834676839187885 27.487603763068165 0 0 0
200 7 10.134914203899564 7.183108390643765 27.52619964184242 0 0 0
225 7 10.114823328046347 5.764291397641544 29.5940083559303 0 0 0
229 7 8.858691602879414 7.906214692103303 29.513728177365756 0 0 0
230 7 11.380565350257886 7.954087939547975 29.513316739213092 0 0 0
201 5 1.3903553664855488 9.347719733566787 27.515017164942197 0 0 0
202 7 3.8853357463810383 9.333381082706573 27.396523574741675 0 0 0
206 4 0.19990382495649148 11.503052383161382 27.51813138774379 0 0 0
207 7 2.623153809695322 11.478356632170444 27.45304041079635 0 0 0
231 7 0.17523287641765617 10.100972583103912 29.561606006412124 0 0 0
232 7 2.642997631040731 10.042497629985506 29.435131586910867 0 0 0
236 7 1.4816470475512202 12.204112067816355 29.557015119172267 0 0 0
203 7 6.3848495648462205 9.305642638555048 27.407544603659787 0 0 0
208 7 5.154616006398967 11.51409685412028 27.353200231025696 0 0 0
209 6 7.604175603503269 11.550544442857742 27.630486391634058 0 0 0
233 7 5.159191892736297 10.06814559704046 29.34213061235242 0 0 0
234 7 7.615467786998695 10.10744504445777 29.65521319199773 0 0 0
238 7 6.234486405258721 12.25415888197817 29.67913281918328 0 0 0
204 7 8.85020820309156 9.391368312673652 27.602905808943568 0 0 0
205 7 11.359004336577062 9.442059966967252 27.530345204637413 0 0 0
210 7 10.16902427638988 11.580088040322394 27.56563599302075 0 0 0
235 7 10.097867660118498 10.201218022312842 29.585132529781543 0 0 0
239 4 8.896725395343102 12.277482353321407 29.722068387506372 0 0 0
240 7 11.406848105329525 12.290639411660859 29.551751447896578 0 0 0
237 3 4.043161284053686 0.32229537866595337 30.56098796523825 0 1 0
241 7 0.2108447957009353 0.12424135383198469 31.63090206368336 0 0 0
242 7 2.5769282657889803 0.1654029193523418 31.742150877528672 0 0 0
246 4 1.3535745678046505 2.266716402559645 31.661968123767117 0 0 0
247 7 3.893555444840143 2.1723132278624955 31.641902850727696 0 0 0
276 7 0.18858195559883406 3.0223827344910146 33.7349544959326 0 0 0
243 7 5.182254508461316 12.926630301418793 32.09938069462401 0 -1 0
244 7 7.640696504621588 0.028140813830657148 31.706123437985855 0 0 0
248 7 6.421120888861257 2.1725468039965157 31.64140260739009 0 0 0
279 7 7.74119576790427 3.07083710378086 33.72353621709327 0 0 0
249 7 8.864469534532637 2.1292545009385178 31.672031718892747 0 0 0
250 7 11.395851950413928 2.1658680980939526 31.652359491335734 0 0 0
255 1 10.116420004142087 4.247093658412182 31.49217869764943 0 0 0
275 4 11.454915495106146 0.8257187225576077 33.71149312926399 0 0 0
251 7 0.15886352286068192 4.3506086288008925 31.64369773387271 0 0 0
252 7 2.644837273604836 4.341456406253473 31.666947365715743 0 0 0
256 7 1.3418541029219544 6.5263729689898025 31.632462672201566 0 0 0
257 6 3.8046040239526673 6.523405105120724 31.66452391614882 0 0 0
253 7 5.1252494147933385 4.331939650525835 31.62222254742492 0 0 0
254 7 7.634031151546209 4.33696060811516 31.58499755653805 0 0 0
258 7 6.3654928748494966 6.518060897462252 31.620869540509258 0 0 0
264 7 7.602382942982586 8.605336389110304 31.615467302798724 0 0 0
283 7 6.391966669598627 5.128216166585993 33.666578414960476 0 0 0
289 7 7.646090666180261 7.215869257480189 33.7082913765351 0 0 0
259 4 8.834770342616135 6.48998435354899 31.61977222051391 0 0 0
260 7 11.327529118717516 6.518965878922903 31.58440209782044 0 0 0
284 5 8.898519435027433 5.147222805352527 33.57220246762716 0 0 0
290 7 10.097029492401411 7.2902514569585035 33.58677131333886 0 0 0
261 7 0.18862671790349386 8.737224215622533 31.647413241093325 0 0 0
262 7 2.6751171555376967 8.743111717057594 31.5345098342452 0 0 0
266 7 1.574868027653367 10.858023083983804 31.571643365094353 0 0 0
267 4 3.9283670967627744 11.306497689537043 30.852715564936627 0 0 0
292 7 3.969490021741288 9.39739794495562 33.50678780585276 0 0 0
326 7 0.5201454273555416 11.681584241384648 33.67490754424583 0 0 0
263 1 5.1052822396691075 8.783955289884718 31.42887267486337 0 0 0
268 7 6.274168546076667 10.786852263264581 31.57715542035075 0 0 0
245 7 10.123663768517407 12.914250751460852 31.864525910799664 0 -1 0
265 6 10.113892625717117 8.712417961537168 31.531949394764663 0 0 0
269 7 8.788125020665895 10.830357258448169 31.739187684800395 0 0 0
270 7 11.438963386843946 10.934276603185443 31.60633665753708 0 0 0
294 7 8.7814378121331 9.31999855939485 33.6839820919686 0 0 0
296 3 11.088186297075035 11.860097046524904 33.32509486899908 -1 0 0
271 7 1.4889505405810861 0.9312278814652256 33.77630178503964 0 0 0
272 7 3.9358060194506517 0.9826902597300835 33.92323588097619 0 0 0
277 7 2.656467865071577 3.1059032046034374 33.79542304030734 0 0 0
301 7 0.20634032892731372 1.580164090798762 35.758096924460936 0 0 0
302 7 2.6333075972159476 1.695765143490706 35.85870706089192 0 0 0
306 4 1.4313446058434773 3.8581367361594565 35.9564392447734 0 0 0
307 7 4.011670092459857 3.7599255469227786 35.83164838032644 0 0 0
273 7 6.476192563677424 1.0016145651577246 33.89961080301081 0 0 0
278 1 5.230983687324084 3.023517085648196 33.71799161813705 0 0 0
303 7 5.262548722317761 1.6957554652439624 35.93867725856107 0 0 0
304 4 7.777241849042541 1.6661566286641658 35.91760903064648 0 0 0
308 7 6.543432997169227 3.736158277810409 35.79489159791926 0 0 0
274 7 8.851210929101027 0.9291968208373095 33.834087635817994 0 0 0
280 7 10.215677667272496 3.0234334359216515 33.69944085334265 0 0 0
305 7 10.24078693041479 1.5949442257650914 35.722949618997106 0 0 0
309 7 9.032721213415655 3.7034238810572178 35.7699220554058 0 0 0
310 4 11.605461750615227 3.972897375078952 35.86366198964616 0 0 0
335 5 9.919959386245996 0.0025811753935681032 37.384335256188756 0 0 0
281 7 1.3355490552957634 5.208262334701012 33.85761934955738 0 0 0
282 4 3.8598147409213652 5.160412017544895 33.76812920633605 0 0 0
286 7 0.1060148423510307 7.308651281215195 33.61695636710686 0 0 0
287 7 2.644759408482719 7.312544138124455 33.74311679665467 0 0 0
312 7 2.741137865133836 5.817768624269889 35.78316588042667 0 0 0
316 7 1.2276218629764704 7.63613612746792 35.78114134990805 0 0 0
317 7 3.942257140977753 8.08966852665858 35.732125025849726 0 0 0
288 7 5.196617854281179 7.296618016858955 33.66502337386291 0 0 0
313 7 5.276730274420629 5.944726555728958 35.71335979644792 0 0 0
314 7 7.734268685593847 5.851347646401428 35.737888957237736 0 0 0
318 4 6.566048519258182 8.149778627083665 35.80158760434996 0 0 0
285 4 11.357704684451777 5.182363150133928 33.62265723382404 0 0 0
311 2 12.38336227253511 6.031717692553036 35.30906067571297 -1 0 0
315 7 10.146517182092051 5.837732980601777 35.568002124205776 0 0 0
319 7 8.968041773975012 8.007404303696946 35.80981795733959 0 0 0
320 7 11.359860899832745 7.963194372044255 35.58642246867448 0 0 0
355 3 10.44475211011598 7.938823346683899 37.265876651907625 0 0 0
291 7 1.4788352502736613 9.452489524476695 33.729090976321174 0 0 0
297 6 3.037606513856977 11.601123527826283 33.67014980828747 0 0 0
321 6 0.22104688129445324 10.089526941942689 35.90940659823198 0 0 0
322 7 2.7108089764778094 10.225019373062224 35.75876869071755 0 0 0
327 6 3.9343834134099587 12.534833635680805 36.10490795610483 0 0 0
356 4 1.4111627389068477 12.38548411666529 35.84428449309321 0 0 0
293 4 6.463880108947 9.348232612627644 33.64797159057337 0 0 0
298 2 5.215611464416757 12.31257434093868 34.203289943892074 0 0 0
299 7 7.00758878458025 11.607869610883577 33.67421730592434 0 0 0
323 6 5.243862757863543 10.266367076473587 35.57428693211551 0 0 0
324 7 7.924286156523 10.386397629870949 35.70481072044549 0 0 0
328 7 6.480889498168727 12.547954882822044 35.9115266565712 0 0 0
295 6 11.283220436670158 9.727540406499223 33.75404704071053 0 0 0
300 7 9.394068623016578 11.576789816777612 34.15755602001024 0 0 0
325 7 10.26902772251481 9.882603300193578 37.027862538869016 0 0 0
329 3 9.539978291080585 11.434264612134497 36.19156323099035 0 0 0
330 4 11.272248857010695 12.102683509619999 35.5683328478994 0 0 0
332 7 2.494642573835113 0.13132566208353322 38.030781335849625 0 0 0
336 7 1.348487578774114 2.217583443508925 37.83127535653724 0 0 0
337 7 3.891782799089075 2.2245321470360655 37.86236924162033 0 0 0
333 7 5.232092288059799 0.1950061916284862 38.11579553015686 0 0 0
334 7 7.664849505885451 0.10110365306019213 37.99868742807276 0 0 0
338 7 6.545458475960008 2.2957134299076194 37.89827356523648 0 0 0
339 7 9.006575786483191 2.225804372204172 37.851362914327716 0 0 0
340 7 11.383829708041995 2.2295102720243762 37.72747831672105 0 0 0
342 7 2.730042270018374 4.3207337167280215 37.92193371899447 0 0 0
346 7 1.5356121274301748 6.43991473656682 37.98880010797261 0 0 0
347 6 3.9792272124447203 6.503771791081035 37.76459880764563 0 0 0
362 8 11.515310861278845 6.052009606711212 41.52480037302138 -1 0 0
343 7 5.321008574308863 4.461106464744317 37.83177159165947 0 0 0
344 7 7.8516653322371335 4.473395446885658 37.84235399833592 0 0 0
348 6 6.675814495571586 6.699413218876856 37.81337493629708 0 0 0
341 7 0.2328285538237133 4.283010921367676 38.07567192123439 0 0 0
345 4 10.23842151728592 4.3708497210822355 37.816008626102615 0 0 0
349 7 9.25276293172413 6.6585364256882595 37.846096838508075 0 0 0
350 7 11.707673822319677 6.294099775290593 37.275322848275586 0 0 0
361 8 11.502972934397071 6.817946457632118 41.49446158538255 0 0 0
352 6 2.504532779997824 8.692023708568202 37.686657513914504 0 0 0
357 7 3.8580257117691645 10.838065624930664 37.950592449695954 0 0 0
360 7 1.4006393327522022 10.93171910541598 37.889280720024814 1 0 0
353 7 5.141418794384355 8.72611224358433 37.82533586489479 0 0 0
354 7 7.973855195066016 8.986078399484578 37.808893740331314 0 0 0
358 6 6.432211412400593 10.883916569004468 37.784804934645194 0 0 0
331 7 12.403136483138622 12.914376283648942 37.6219786315866 -1 -1 0
351 7 12.244129543905778 8.583140253320854 37.84321445568148 -1 0 0
359 2 8.61398968734376 11.197290768363148 37.41862175569403 0 0 0

Velocities

1 0 0 0
2 0 0 0
6 0 0 0
7 0 0 0
31 0 0 0
32 0 0 0
36 0 0 0
37 0 0 0
3 0 0 0
8 0 0 0
9 0 0 0
33 0 0 0
34 0 0 0
38 0 0 0
4 0 0 0
5 0 0 0
10 0 0 0
35 0 0 0
39 0 0 0
40 0 0 0
11 0 0 0
12 0 0 0
16 0 0 0
17 0 0 0
41 0 0 0
42 0 0 0
46 0 0 0
47 0 0 0
13 0 0 0
18 0 0 0
19 0 0 0
43 0 0 0
44 0 0 0
48 0 0 0
14 0 0 0
15 0 0 0
20 0 0 0
45 0 0 0
49 0 0 0
50 0 0 0
21 0 0 0
22 0 0 0
26 0 0 0
27 0 0 0
51 0 0 0
52 0 0 0
56 0 0 0
57 0 0 0
23 0 0 0
28 0 0 0
29 0 0 0
53 0 0 0
54 0 0 0
58 0 0 0
24 0 0 0
25 0 0 0
30 0 0 0
55 0 0 0
59 0 0 0
60 0 0 0
61 0 0 0
62 0 0 0
66 0 0 0
67 0 0 0
91 0 0 0
92 0 0 0
96 0 0 0
97 0 0 0
63 0 0 0
64 0 0 0
68 0 0 0
93 0 0 0
98 0 0 0
99 0 0 0
65 0 0 0
69 0 0 0
70 0 0 0
94 0 0 0
95 0 0 0
100 0 0 0
71 0 0 0
72 0 0 0
76 0 0 0
77 0 0 0
101 0 0 0
102 0 0 0
106 0 0 0
107 0 0 0
73 0 0 0
74 0 0 0
78 0 0 0
103 0 0 0
108 0 0 0
109 0 0 0
75 0 0 0
79 0 0 0
80 0 0 0
104 0 0 0
105 0 0 0
110 0 0 0
81 0 0 0
82 0 0 0
86 0 0 0
87 0 0 0
111 0 0 0
112 0 0 0
116 0 0 0
117 0 0 0
83 0 0 0
84 0 0 0
88 0 0 0
113 0 0 0
118 0 0 0
119 0 0 0
85 0 0 0
89 0 0 0
90 0 0 0
114 0 0 0
115 0 0 0
120 0 0 0
121 0 0 0
122 0 0 0
126 0 0 0
127 0 0 0
152 0 0 0
156 0 0 0
157 0 0 0
162 0 0 0
123 0 0 0
124 0 0 0
128 0 0 0
153 0 0 0
154 0 0 0
158 0 0 0
163 0 0 0
164 0 0 0
125 0 0 0
129 0 0 0
130 0 0 0
155 0 0 0
159 0 0 0
160 0 0 0
165 0 0 0
131 0 0 0
132 0 0 0
136 0 0 0
137 0 0 0
161 0 0 0
166 0 0 0
167 0 0 0
133 0 0 0
134 0 0 0
138 0 0 0
168 0 0 0
173 0 0 0
135 0 0 0
139 0 0 0
140 0 0 0
169 0 0 0
170 0 0 0
175 0 0 0
141 0 0 0
142 0 0 0
146 0 0 0
147 0 0 0
151 0 0 0
171 0 0 0
172 0 0 0
176 0 0 0
177 0 0 0
143 0 0 0
144 0 0 0
148 0 0 0
178 0 0 0
145 0 0 0
149 0 0 0
150 0 0 0
174 0 0 0
179 0 0 0
180 0 0 0
181 0 0 0
182 0 0 0
186 0 0 0
187 0 0 0
211 0 0 0
212 0 0 0
216 0 0 0
217 0 0 0
183 0 0 0
188 0 0 0
189 0 0 0
213 0 0 0
214 0 0 0
218 0 0 0
184 0 0 0
185 0 0 0
190 0 0 0
215 0 0 0
219 0 0 0
220 0 0 0
191 0 0 0
192 0 0 0
197 0 0 0
221 0 0 0
222 0 0 0
226 0 0 0
227 0 0 0
193 0 0 0
198 0 0 0
199 0 0 0
223 0 0 0
224 0 0 0
228 0 0 0
194 0 0 0
195 0 0 0
196 0 0 0
200 0 0 0
225 0 0 0
229 0 0 0
230 0 0 0
201 0 0 0
202 0 0 0
206 0 0 0
207 0 0 0
231 0 0 0
232 0 0 0
236 0 0 0
203 0 0 0
208 0 0 0
209 0 0 0
233 0 0 0
234 0 0 0
238 0 0 0
204 0 0 0
205 0 0 0
210 0 0 0
235 0 0 0
239 0 0 0
240 0 0 0
237 0 0 0
241 0 0 0
242 0 0 0
246 0 0 0
247 0 0 0
276 0 0 0
243 0 0 0
244 0 0 0
248 0 0 0
279 0 0 0
249 0 0 0
250 0 0 0
255 0 0 0
275 0 0 0
251 0 0 0
252 0 0 0
256 0 0 0
257 0 0 0
253 0 0 0
254 0 0 0
258 0 0 0
264 0 0 0
283 0 0 0
289 0 0 0
259 0 0 0
260 0 0 0
284 0 0 0
290 0 0 0
261 0 0 0
262 0 0 0
266 0 0 0
267 0 0 0
292 0 0 0
326 0 0 0
263 0 0 0
268 0 0 0
245 0 0 0
265 0 0 0
269 0 0 0
270 0 0 0
294 0 0 0
296 0 0 0
271 0 0 0
272 0 0 0
277 0 0 0
301 0 0 0
302 0 0 0
306 0 0 0
307 0 0 0
273 0 0 0
278 0 0 0
303 0 0 0
304 0 0 0
308 0 0 0
274 0 0 0
280 0 0 0
305 0 0 0
309 0 0 0
310 0 0 0
335 0 0 0
281 0 0 0
282 0 0 0
286 0 0 0
287 0 0 0
312 0 0 0
316 0 0 0
317 0 0 0
288 0 0 0
313 0 0 0
314 0 0 0
318 0 0 0
285 0 0 0
311 0 0 0
315 0 0 0
319 0 0 0
320 0 0 0
355 0 0 0
291 0 0 0
297 0 0 0
321 0 0 0
322 0 0 0
327 0 0 0
356 0 0 0
293 0 0 0
298 0 0 0
299 0 0 0
323 0 0 0
324 0 0 0
328 0 0 0
295 0 0 0
300 0 0 0
325 0 0 0
329 0 0 0
330 0 0 0
332 0 0 0
336 0 0 0
337 0 0 0
333 0 0 0
334 0 0 0
338 0 0 0
339 0 0 0
340 0 0 0
342 0 0 0
346 0 0 0
347 0 0 0
362 0 0 0
343 0 0 0
344 0 0 0
348 0 0 0
341 0 0 0
345 0 0 0
349 0 0 0
350 0 0 0
361 0 0 0
352 0 0 0
357 0 0 0
360 0 0 0
353 0 0 0
354 0 0 0
358 0 0 0
331 0 0 0
351 0 0 0
359 0 0 0
