LAMMPS data file via write_data, version 11 Feb 2026, timestep = 299, units = metal

362 atoms
8 atom types

0 12.447907776 xlo xhi
0 12.9362452296 ylo yhi
0 52.3600831054 zlo zhi

Masses

1 26.9815
2 10.811
3 12.011
4 51.9961
5 55.845
6 95.95999999999999
7 58.6934
8 1.008

Atoms # atomic/kk

1 7 1.1168374054080163 0.8269172738519169 14.641983378856576 0 0 0
2 7 3.5553120704846037 0.7426172549680038 14.870566426607324 0 0 0
6 7 12.2671145961154 3.4827817842280426 14.642833544270902 -1 0 0
7 7 2.2275707465839836 2.9759247757266625 15.10682231961891 0 0 0
31 6 12.394460075217737 1.8940606767886201 16.485557434634725 -1 0 0
32 7 2.308941223410602 1.259033457483289 16.930756296290358 0 0 0
36 7 1.1384241785345994 3.97390029704297 17.062685529465707 0 0 0
37 7 3.5714110114620374 3.6513715065217722 17.093165306576328 0 0 0
3 5 6.016016114730657 0.871802788452464 14.937158240765847 0 0 0
8 7 4.781127726127857 2.9902089263648417 15.020486192898124 0 0 0
9 7 7.2869886257993635 3.067205878794364 14.892477669369338 0 0 0
33 7 4.830475000656031 1.54078707201629 16.982573331298582 0 0 0
34 7 7.358240585022021 1.716572608635593 16.946176627648732 0 0 0
38 5 6.077267233132026 3.7471184169501246 16.97006795122788 0 0 0
4 6 8.636990787387324 0.9758723061068669 14.945657053147809 0 0 0
5 7 11.02486170832574 1.257715233461435 14.461441457658486 0 0 0
10 7 9.80921107998817 3.384340731608855 14.722370292809128 0 0 0
35 7 9.922238818946948 1.7186552506512833 16.90434022121809 0 0 0
39 7 8.63657702872564 3.869396666789725 16.814004527954886 0 0 0
40 7 11.07292933822307 3.9581394313498484 16.96461855200602 0 0 0
11 7 1.1356330626789104 5.437924518696558 15.025837380970762 0 0 0
12 7 3.553674150805148 5.151556088242538 15.121685423057363 0 0 0
16 4 0.2169761171424516 7.678668426136677 14.611958614066216 0 0 0
17 7 2.4295447865953843 7.510520614749491 15.091342566018119 0 0 0
41 7 12.31771381320259 6.115196450032564 17.127912028967003 -1 0 0
42 7 2.3740216245653096 6.080661292503076 17.111947532756922 0 0 0
46 7 0.819710831050926 8.418940857488964 16.860276923320548 0 0 0
47 7 3.8171150391036037 8.014942861377605 17.027035936406588 0 0 0
13 7 6.047507282804912 5.1912476368509495 15.008237476857701 0 0 0
18 7 4.896722504402417 7.307430167969522 14.976937172835393 0 0 0
19 2 6.844568697629069 6.98050078565817 15.316189945910544 0 0 0
43 7 4.855809096870556 5.816302690703517 17.077021626462216 0 0 0
44 7 7.344023316030942 5.885739322391502 17.023194771125027 0 0 0
48 7 6.2269209124095575 7.998116163290642 17.01804499005908 0 0 0
14 7 8.575620870620725 5.644040966940386 14.89330965460289 0 0 0
15 6 11.048871465312287 5.6440934235647955 15.0853103991302 0 0 0
20 7 10.229289644767997 7.662853558588689 13.989310294512054 0 0 0
45 7 9.809069510459608 6.1162355179526084 17.179500569147674 0 0 0
49 7 8.471530955210536 7.863542007580458 16.022209358860806 0 0 0
50 7 10.907477814036076 8.122140108186645 16.214672734237894 0 0 0
21 2 1.5500207793233967 9.478467537040693 15.210480411104202 0 0 0
22 7 3.6185180484745474 9.51760300625212 14.919014690059509 0 0 0
26 7 0.31608950140823383 10.807894022448236 16.829396680108704 0 0 0
27 7 2.0338054661199196 11.482363870694945 15.151124313623098 0 0 0
51 3 11.622322843944898 9.376126434384643 17.49936015443056 -1 0 0
52 7 2.6156097946604957 10.08651762024995 17.043313386536365 0 0 0
56 2 0.9287248234585189 12.710461089339217 16.354473610666624 0 0 0
57 7 3.705251291961631 12.231363494089408 16.929607217950025 0 0 0
23 7 6.5862411927796884 9.091914489990849 14.851243512724752 0 0 0
28 7 4.819048599890434 11.615243379383172 14.818854566631096 0 0 0
29 6 7.375423237100563 11.504066339286618 14.917013934416866 0 0 0
53 7 5.129803183364268 10.116181749818027 16.779398680382688 0 0 0
54 7 7.69561922351356 10.049592805571628 16.921606979849802 0 0 0
58 6 6.2961781801477 12.344323137310317 17.012186411451214 0 0 0
24 7 9.053487850410466 9.67299185922547 14.655993436297079 0 0 0
25 7 11.946522551701454 9.884246405208684 14.7112116960076 0 0 0
30 7 9.925115307149175 11.862233359648663 14.57863935184347 0 0 0
55 7 10.24527334172383 10.41399929653729 16.646185053161645 0 0 0
59 7 8.844531505918178 12.376704695143957 16.890467462005503 0 0 0
60 7 11.300464427176038 12.628384421845752 16.35057104325337 0 0 0
61 6 0.10685519140529741 12.919825681326856 18.57619967737741 0 -1 0
62 7 2.5646497924994964 0.041944438830726925 19.143818100586536 0 0 0
66 6 1.3552519955738491 2.2375776555957154 19.06675567654044 0 0 0
67 5 3.7996522568448983 2.19024427764068 19.104907546185846 0 0 0
91 4 1.36656652995127 0.7931330954901711 21.253221382333273 0 0 0
92 7 3.7974060898675743 0.7489357297866958 21.133583652639782 0 0 0
96 7 0.08499059933537076 2.872236465940809 21.17736910149937 0 0 0
97 7 2.6068842513112527 2.8701836035240698 21.209864959837414 0 0 0
63 5 5.016184384582236 0.12590728245178914 19.064323579308017 0 0 0
64 7 7.498733804982185 0.11607977313315765 19.093322774725625 0 0 0
68 7 6.194295777468747 2.1833004822236304 19.050156829631856 0 0 0
93 7 6.324729536889804 0.7480084774002826 21.207577513276828 0 0 0
98 7 5.049625476629384 2.884588502518827 21.15262864291742 0 0 0
99 5 7.504372305354826 2.8514965843946314 21.14259499774056 0 0 0
65 7 10.083233821380722 0.11228557834273403 18.964829187001875 0 0 0
69 7 8.73420072589555 2.194686136809129 18.963109071538994 0 0 0
70 7 11.293509244297898 2.2984347036696815 18.9080634525439 0 0 0
94 7 8.780477960713297 0.7612201188664444 21.178383365743564 0 0 0
95 7 11.365975435895995 0.7320949367317678 21.03132025258719 0 0 0
100 6 10.047853576368537 2.848968688801451 21.019694848339594 0 0 0
71 1 12.331143672910466 4.462532374901808 19.195976677990785 -1 0 0
72 7 2.451529698664658 4.4288937692912445 19.11687342638617 0 0 0
76 7 1.1690169190765163 6.505226235371785 19.190532034335387 0 0 0
77 7 3.7619723913235847 6.506329609673803 19.144730667665605 0 0 0
101 7 1.2117612711153112 5.0385069150782495 21.232722735893507 0 0 0
102 6 3.7412642932363465 5.054507809417155 21.226857855918585 0 0 0
106 7 12.445074011520887 7.145119494054722 21.27399910939872 -1 0 0
107 7 2.4756245467849296 7.17917304974471 21.23808334518531 0 0 0
73 7 4.943111678530504 4.31732511602438 19.076792707127044 0 0 0
74 6 7.472131381602247 4.323822520185743 19.026439961968187 0 0 0
78 7 6.173358695831905 6.531817597801823 19.105411480035478 0 0 0
103 7 6.281607649195882 5.06522764175628 21.156663488073136 0 0 0
108 7 5.0224464483464235 7.229333498226825 21.20772457851293 0 0 0
109 7 7.429719889907032 7.273733482930282 21.239841582534755 0 0 0
75 5 9.864294077837275 4.372661013562157 19.010547453368275 0 0 0
79 7 8.616423499474152 6.5252177539790095 19.28567302823756 0 0 0
80 7 11.09575701716925 6.517936470726596 19.283432363283094 0 0 0
104 7 8.742101307970863 5.069588137631984 21.21594837607751 0 0 0
105 3 10.092242362125885 4.431188123275546 22.262588200199758 0 0 0
110 7 9.904856307495754 7.202086187840699 21.271419619438745 0 0 0
81 4 12.373225564152175 8.591121186651659 19.188425498846208 -1 0 0
82 6 2.436296219058316 8.544807673940545 19.02459526391176 0 0 0
86 7 1.307150306561056 10.765308372574715 19.170852619698184 0 0 0
87 1 3.849112332467164 10.888357839903996 19.00982061071627 0 0 0
111 7 1.204437140508585 9.34221348290102 21.21696395918543 0 0 0
112 6 3.751036984234997 9.347263411449735 21.23907808764231 0 0 0
116 1 0.0618264133000641 11.556673040681414 21.17685687015072 0 0 0
117 7 2.525184060091809 11.547854947994086 21.175424003564455 0 0 0
83 7 4.97177164841294 8.73642696588426 19.033377998316364 0 0 0
84 7 7.425807410345889 8.646777103931393 19.01139585881517 0 0 0
88 7 6.278274964291333 10.830094890641188 19.021889234313917 0 0 0
113 7 6.243902766144649 9.405142945115479 21.034328531267725 0 0 0
118 7 5.044710416713714 11.567668200751985 21.143488844020503 0 0 0
119 4 7.475436530094221 11.583878971303951 21.07709526299944 0 0 0
85 6 9.832402058398772 8.52315939184135 18.450055170861468 0 0 0
89 6 8.786063019385551 10.878628176814148 18.979820406137417 0 0 0
90 4 11.288364201761505 10.816722366207648 18.891719827917925 0 0 0
114 7 8.710334348287162 9.351791159650357 20.93431583494343 0 0 0
115 6 11.123475780366313 9.298935118722596 21.16806079965209 0 0 0
120 7 10.022263871236957 11.566185817985541 21.122807791672745 0 0 0
121 7 0.0867863586243243 1.4166364841436303 23.257074744038345 0 0 0
122 7 2.5751691167132704 1.4134726866384837 23.317691370793558 0 0 0
126 6 1.3581998392785617 3.6129646651455647 23.260872797973526 0 0 0
127 7 3.859346660122398 3.5977016397287263 23.36584631841986 0 0 0
152 7 2.660043223330355 0.019835771699863895 25.3758222177671 0 0 0
156 1 1.4925874195127327 2.1492161552098343 25.502496826495282 0 0 0
157 7 3.9809770901339436 2.1469821697925715 25.444287349446977 0 0 0
162 7 2.609831872285883 4.276721709603005 25.42800957823251 0 0 0
123 7 5.016073453701128 1.4393744499488903 23.200306463710103 0 0 0
124 7 7.421443668294204 1.5304942138377047 23.479128026232196 0 0 0
128 7 6.313948282616784 3.6760999384889135 23.17073511075148 0 0 0
153 7 5.205690952325522 0.07377811743795731 25.330892052378438 0 0 0
154 7 7.6172013366094795 0.020444646194646577 25.458384691559488 0 0 0
158 2 5.806252355932201 2.491694647803933 24.64344779518413 0 0 0
163 7 5.126345693153964 4.260002912741587 25.4225597889276 0 0 0
164 5 7.48601811141021 4.0731259262476005 25.343339939589924 0 0 0
125 7 10.070350595825564 1.455099225938553 23.30099271217564 0 0 0
129 7 8.765649887587882 3.5725760103383055 23.32871463133365 0 0 0
130 4 11.36863612186331 3.6517441493660066 23.382634681841513 0 0 0
155 4 10.141543597181293 0.08305470044989 25.518741269132413 0 0 0
159 7 8.895394227885944 2.1164138044568115 25.42250121903699 0 0 0
160 7 11.419126594519339 2.1780565521621145 25.39193733374569 0 0 0
165 7 10.076051689762618 4.240728688578218 25.396807712581502 0 0 0
131 7 0.08184077063040768 5.802845449520329 23.385542431307112 0 0 0
132 7 2.5549832342183976 5.805161959313351 23.365005980309363 0 0 0
136 7 1.3191359525852007 7.930973748544198 23.29603863147986 0 0 0
137 7 3.7950582828620227 7.972621598694011 23.321790915269617 0 0 0
161 4 0.12130077741683008 4.361670494914153 25.45381542860674 0 0 0
166 7 1.34915521632154 6.432560261930122 25.42396228274774 0 0 0
167 7 3.8209386127227933 6.444789500779706 25.44870996159635 0 0 0
133 6 5.079319359672795 5.859025289082152 23.38460286249637 0 0 0
134 7 7.5693297656284 5.795472291307204 23.301151007889338 0 0 0
138 7 6.322853526737396 8.004229106048633 23.33915693177749 0 0 0
168 7 6.3764606122029335 6.403093803118168 25.42974834200808 0 0 0
173 7 5.12408317953859 8.560853702202643 25.35364192028885 0 0 0
135 7 10.074164231291945 5.856030908435552 23.372700036676655 0 0 0
139 4 8.709778504177129 7.964697939522862 23.211485071450603 0 0 0
140 4 11.298442788238184 7.917157390114003 23.294504576416998 0 0 0
169 7 8.785007425696454 6.352292575634059 25.370246738504463 0 0 0
170 7 11.30199377508554 6.428389392310678 25.43399897919433 0 0 0
175 6 9.90491404941638 8.585248181995272 25.500349303126917 0 0 0
141 7 0.031816577562048004 10.10167897213 23.328421697290334 0 0 0
142 7 2.5134777837998454 10.115857877416596 23.299275230221998 0 0 0
146 7 1.3113083424565792 12.250194814436796 23.314386607768053 0 0 0
147 7 3.825413763748381 12.24970997441948 23.230637076858574 0 0 0
151 4 0.10524778683626614 12.894927999091797 25.371273648537475 0 -1 0
171 6 0.12423172272918019 8.637646349217913 25.41062266155106 0 0 0
172 7 2.6343175596003126 8.619008224221766 25.395777575569596 0 0 0
176 7 1.3551294335594222 10.820925852095911 25.432566059744794 0 0 0
177 6 3.896551517627287 10.82361927528914 25.31559991515102 0 0 0
143 7 5.084862005924444 10.11842705179375 23.234800914101903 0 0 0
144 7 7.520188865355799 10.1054664744877 22.90402331749502 0 0 0
148 4 6.240742425619779 12.289610416176824 23.261503508831506 0 0 0
178 6 6.6551525204613355 10.53318303138303 25.238501706929124 0 0 0
145 7 10.007390129745916 10.106362325492348 23.299302490607953 0 0 0
149 6 8.73204310013032 12.30615335017835 23.290480831506354 0 0 0
150 7 11.269335960154791 12.24490264129183 23.333257824322168 0 0 0
174 3 8.429915369080245 9.521727718439834 24.40540218365951 0 0 0
179 5 9.022954516932339 10.946282092781969 25.558561857822433 0 0 0
180 5 11.355042760737557 10.894303990491318 25.481303989470938 0 0 0
181 7 1.3975415882997364 0.6783070525781212 27.486320757538873 0 0 0
182 7 3.8862727269980297 0.7128669934944944 27.44508362581623 0 0 0
186 7 0.18276274938182321 2.874853437425764 27.479621501484193 0 0 0
187 7 2.670595067920489 2.8624586760390303 27.564017645322128 0 0 0
211 7 0.2188928052514974 1.459623496323845 29.58081971737822 0 0 0
212 7 2.7191504324322437 1.3729838267639018 29.580456598665307 0 0 0
216 7 1.4211264614110435 3.56700322986933 29.58454692397844 0 0 0
217 4 3.8350640106250973 3.5813188054284026 29.59958615729497 0 0 0
183 7 6.325038577135327 0.7279137025392769 27.568764494634923 0 0 0
188 7 5.095269310901642 2.882741338497815 27.575041091159036 0 0 0
189 7 7.610820320586907 2.8055586790425453 27.446949940950258 0 0 0
213 5 5.146814871328282 1.433746140762613 29.60003665915824 0 0 0
214 7 7.629240943357951 1.367859183916956 29.582309374324495 0 0 0
218 7 6.377042267377486 3.5448382853543703 29.539128184705767 0 0 0
184 7 8.905732852056623 0.7363371453839009 27.549484176938318 0 0 0
185 4 11.39834198896248 0.7397035545725624 27.518389431228425 0 0 0
190 7 10.160431800294582 2.8505744590765363 27.474084464199773 0 0 0
215 7 10.138636877308585 1.421238497113442 29.6188368129817 0 0 0
219 7 8.851162267816752 3.5269392163573765 29.516686868898883 0 0 0
220 7 11.381110217949793 3.5758465773834853 29.51107549237537 0 0 0
191 7 1.401773892098057 5.021180272703794 27.46929882389701 0 0 0
192 7 3.8444573152004926 4.997662202158629 27.487194198938322 0 0 0
197 7 2.5909198968322844 7.2013078489301625 27.48142447401465 0 0 0
221 7 0.13157725647665308 5.741959014593234 29.56443732966023 0 0 0
222 7 2.6021405247742844 5.737213173214882 29.55330303368433 0 0 0
226 7 1.3735013188639174 7.914923365996049 29.550592951663244 0 0 0
227 7 3.8718927260024403 7.919794972004306 29.477102438131695 0 0 0
193 7 6.382926799588369 4.984096602124766 27.412941287355093 0 0 0
198 7 5.115034886980436 7.179278513828337 27.418878061349645 0 0 0
199 7 7.628198301073914 7.20137698650294 27.444654148947958 0 0 0
223 6 5.165790672982548 5.726967938720191 29.492818298623963 0 0 0
224 7 7.657284469555449 5.7506296842222175 29.57579435095243 0 0 0
228 7 6.4043210465233456 7.9211068177112525 29.497239120216065 0 0 0
194 6 8.859350711128217 5.014628178146325 27.480842224052235 0 0 0
195 7 11.372805248953798 5.013637364126317 27.49747958228581 0 0 0
196 7 0.14751704457918255 7.177144492576593 27.487603760566856 0 0 0
200 7 10.133351575072341 7.176785206370924 27.526199647367918 0 0 0
225 7 10.113260768037724 5.757968209790285 29.59400836005571 0 0 0
229 7 8.857129044535114 7.8998914973250445 29.51372818980573 0 0 0
230 7 11.379002792945492 7.9477647474834585 29.51331673797767 0 0 0
201 5 1.3887927340665036 9.341396537436841 27.515017165720597 0 0 0
202 7 3.8837731264556705 9.327057897313 27.396523550403927 0 0 0
206 4 0.19834118173819576 11.496729193956744 27.518131397263367 0 0 0
207 7 2.621591160433607 11.47203343919647 27.453040384125305 0 0 0
231 7 0.1736703246595254 10.094649389322553 29.561606002971224 0 0 0
232 7 2.641435088666791 10.036174448571098 29.435131575617504 0 0 0
236 7 1.4800844775476782 12.197788872874236 29.557015111839704 0 0 0
203 7 6.383286942738558 9.299319446585725 27.40754454139643 0 0 0
208 7 5.1530533644410665 11.507773678309643 27.35320020694939 0 0 0
209 6 7.602612946157696 11.544221249150672 27.630486439274296 0 0 0
233 7 5.157629342762718 10.061822414499781 29.342130582499678 0 0 0
234 7 7.613905220412263 10.101121865978774 29.655213228771295 0 0 0
238 7 6.232923802191878 12.247835714901761 29.6791328833 0 0 0
204 7 8.848645579982918 9.385045135554321 27.602905863229527 0 0 0
205 7 11.357441691825908 9.435736776880914 27.53034522091602 0 0 0
210 7 10.167461633277444 11.57376485463332 27.565636029752856 0 0 0
235 7 10.096305097092442 10.194894836075884 29.585132562535787 0 0 0
239 4 8.895162830102054 12.271159171350748 29.72206841589242 0 0 0
240 7 11.405285535529785 12.284316225520941 29.551751461127242 0 0 0
237 3 4.041598814665394 0.3159721299062504 30.560987974758884 0 1 0
241 7 0.20928232406497757 0.11791815064662531 31.630902053365592 0 0 0
242 7 2.575365796119826 0.15907971543648217 31.742150888405117 0 0 0
246 4 1.3520120810965812 2.260393188200965 31.66196810491014 0 0 0
247 7 3.891992947923642 2.1659900422391374 31.641902887737626 0 0 0
276 7 0.18701956403618444 3.0160595557470486 33.73495449657063 0 0 0
243 7 5.180692039599205 12.920307119233751 32.09938072011121 0 -1 0
244 7 7.639134030764771 0.02181763472257556 31.70612346998348 0 0 0
248 7 6.419558404710321 2.1662236332579847 31.64140263345465 0 0 0
279 7 7.739633378916013 3.0645139308414726 33.72353623288645 0 0 0
249 7 8.862907049268104 2.122931313888494 31.67203174065056 0 0 0
250 7 11.394289467368587 2.159544898427323 31.652359489507067 0 0 0
255 1 10.11485751206996 4.240770471056844 31.492178705670245 0 0 0
275 4 11.453353103511828 0.8193955494394038 33.71149313540861 0 0 0
251 7 0.15730102742733487 4.344285422584527 31.643697719970323 0 0 0
252 7 2.6432747714530738 4.33513320808998 31.66694736993732 0 0 0
256 7 1.3402916101717894 6.520049764832964 31.63246265754466 0 0 0
257 6 3.803041523753244 6.517081906150276 31.66452389788405 0 0 0
253 7 5.123686920561953 4.325616461689651 31.622222550721617 0 0 0
254 7 7.63246866605358 4.330637431660903 31.584997561044954 0 0 0
258 7 6.363930369757869 6.511737708751927 31.62086951303906 0 0 0
264 7 7.600820447686528 8.599013197534502 31.61546730450246 0 0 0
283 7 6.390404254386185 5.121892986069373 33.666578395301244 0 0 0
289 7 7.644528235248773 7.209546076529188 33.70829136337072 0 0 0
259 4 8.833207847771027 6.483661163837944 31.61977221960292 0 0 0
260 7 11.32596662734811 6.512642683071532 31.584402093130134 0 0 0
284 5 8.896957035041943 5.1408996313501305 33.572202475895274 0 0 0
290 7 10.095467069566725 7.283928277348275 33.586771324145325 0 0 0
261 7 0.18706423241058998 8.730901020705172 31.64741324308717 0 0 0
262 7 2.673554676238653 8.736788530320824 31.534509830696425 0 0 0
266 7 1.5733055552576076 10.851699885866235 31.57164336055128 0 0 0
267 4 3.9268046072551823 11.300174450230388 30.85271563268571 0 0 0
292 7 3.967927615047151 9.391074792856438 33.50678778393131 0 0 0
326 7 0.518583042081128 11.675261075297975 33.67490754020417 0 0 0
263 1 5.1037197505649585 8.777632097185132 31.428872640607416 0 0 0
268 7 6.272606042267323 10.780529072344217 31.57715547671766 0 0 0
245 7 10.122101310290565 12.907927564485806 31.864525919591753 0 -1 0
265 6 10.112330130240398 8.706094768544213 31.531949408874862 0 0 0
269 7 8.78656252478759 10.824034075347724 31.739187706919918 0 0 0
270 7 11.437400905392053 10.927953406183724 31.606336658392554 0 0 0
294 7 8.779875378839892 9.313675384760478 33.683982102203295 0 0 0
296 3 11.086623906872717 11.853773875676934 33.325094859654826 -1 0 0
271 7 1.4873881598048515 0.9249047164507737 33.77630180729052 0 0 0
272 7 3.9342436352741537 0.9763670901241741 33.92323592989396 0 0 0
277 7 2.6549054764695534 3.0995800346157045 33.795423078366184 0 0 0
301 7 0.2047779876659707 1.5738409203429498 35.758096941616905 0 0 0
302 7 2.6317452615497863 1.689441973362786 35.85870710337255 0 0 0
306 4 1.429782262220077 3.8518135591634204 35.956439259070734 0 0 0
307 7 4.0101077463167165 3.753602389006808 35.831648405455915 0 0 0
273 7 6.474630179082133 0.9952913805531717 33.899610808897435 0 0 0
278 1 5.2294212916304925 3.017193910164388 33.71799164574744 0 0 0
303 7 5.260986374603335 1.6894322918489741 35.93867729569563 0 0 0
304 4 7.775679497188037 1.659833453295035 35.917609048682706 0 0 0
308 7 6.541870643606306 3.7298351056563157 35.79489160545123 0 0 0
274 7 8.849648550737172 0.9228736523354353 33.83408766768556 0 0 0
280 7 10.214115277561943 3.0171102601369206 33.69944086088776 0 0 0
305 7 10.239224595603574 1.5886210586463414 35.72294964504419 0 0 0
309 7 9.031158862974618 3.697100699049305 35.769922070892115 0 0 0
310 4 11.603899411238745 3.966574196876185 35.86366200796843 0 0 0
335 5 9.918397068084255 12.93250321947977 37.38433527820551 0 -1 0
281 7 1.3339866505963147 5.201939158459512 33.857619359815 0 0 0
282 4 3.8582523286277466 5.154088839841894 33.7681292075484 0 0 0
286 7 0.10445243136667713 7.302328100428139 33.61695635870248 0 0 0
287 7 2.6431970014160515 7.306220974576678 33.74311679687526 0 0 0
312 7 2.739575492090089 5.81144545464196 35.78316589222052 0 0 0
316 7 1.226059489553923 7.629812943231772 35.78114135459424 0 0 0
317 7 3.940694795380079 8.083345345118063 35.73212501082489 0 0 0
288 7 5.195055426258925 7.290294842775164 33.665023343134116 0 0 0
313 7 5.275167920633965 5.938403393949013 35.71335978338377 0 0 0
314 7 7.732706336930432 5.8450244596183865 35.73788894375726 0 0 0
318 4 6.564486171244455 8.143455466951526 35.801587598125685 0 0 0
285 4 11.356142277747239 5.176039967169947 33.6226572206174 0 0 0
311 2 12.38179988979781 6.02539451742835 35.30906064718295 -1 0 0
315 7 10.144954836396293 5.83140979862423 35.56800213062502 0 0 0
319 7 8.96647941182242 8.001081130775267 35.80981793700337 0 0 0
320 7 11.358298531371075 7.9568712043833205 35.586422461819126 0 0 0
355 3 10.443189784843321 7.93250018313788 37.2658766443272 0 0 0
291 7 1.4772728413133815 9.446166350680413 33.72909096365172 0 0 0
297 6 3.036044119575457 11.594800369804293 33.670149825959264 0 0 0
321 6 0.21948453756381614 10.083203768337132 35.90940658518948 0 0 0
322 7 2.7092466323548487 10.218696191091304 35.7587686771444 0 0 0
327 6 3.9328210677683675 12.528510457792802 36.10490799324116 0 0 0
356 4 1.409600400879538 12.379160943482205 35.84428449425997 0 0 0
293 4 6.462317672100169 9.341909426030732 33.64797157944516 0 0 0
298 2 5.214049082392788 12.306251162412288 34.20328996425276 0 0 0
299 7 7.006026402350412 11.601546410818273 33.67421733732504 0 0 0
323 6 5.242300396758586 10.260043904485544 35.57428694080456 0 0 0
324 7 7.922723803217287 10.38007447217157 35.70481074459022 0 0 0
328 7 6.479327139042027 12.541631709257642 35.911526671816056 0 0 0
295 6 11.281658025966045 9.721217236381577 33.754047059626714 0 0 0
300 7 9.39250625040528 11.57046664656448 34.15755603159717 0 0 0
325 7 10.267465408666924 9.87628012190038 37.02786254135134 0 0 0
329 3 9.538415957604482 11.427941433693205 36.19156324155836 0 0 0
330 4 11.270686507593263 12.096360338346061 35.56833285925626 0 0 0
332 7 2.493080243109611 0.12500250108867314 38.03078136394005 0 0 0
336 7 1.3469252478312839 2.2112602781883863 37.83127538430352 0 0 0
337 7 3.8902204723815412 2.218208988441315 37.86236927764008 0 0 0
333 7 5.23052994981548 0.18868301063303794 38.115795568993235 0 0 0
334 7 7.663287174954371 0.09478046863305 37.998687424376016 0 0 0
338 7 6.54389614600847 2.2893902568704663 37.89827359029627 0 0 0
339 7 9.00501346367172 2.2194811937094716 37.85136292329951 0 0 0
340 7 11.382267389997503 2.2231871086408708 37.727478346985535 0 0 0
342 7 2.7284799269513655 4.314410552606477 37.92193373299906 0 0 0
346 7 1.5340497873655954 6.4335915808226645 37.98880018908128 0 0 0
347 6 3.9776648730130124 6.497448610887783 37.76459880361266 0 0 0
343 7 5.319446250418488 4.45478330333335 37.83177160115702 0 0 0
344 7 7.850103000565853 4.46707227207258 37.84235400394363 0 0 0
348 6 6.674252163018395 6.69309004611138 37.813374917400175 0 0 0
341 7 0.23126622558266674 4.276687761777088 38.07567194715554 0 0 0
345 4 10.23685919081481 4.364526556939354 37.816008638411084 0 0 0
349 7 9.251200588591722 6.6522132495086845 37.84609679878973 0 0 0
350 7 11.706111514806452 6.28777660023226 37.275322825647244 0 0 0
361 8 11.513748046158478 6.045686518596537 41.52480031924974 0 0 0
362 8 11.501410406891253 6.811623385273906 41.49446156022901 0 0 0
352 6 2.5029704501261376 8.685700524757012 37.68665750366723 0 0 0
357 7 3.8564633841261213 10.831742433446436 37.95059246290131 0 0 0
360 7 1.3990770218398456 10.92539593882574 37.88928069644129 1 0 0
353 7 5.13985646841431 8.719789057402423 37.82533585687767 0 0 0
354 7 7.972292878287429 8.979755226694044 37.80889374436478 0 0 0
358 6 6.430649081842105 10.877593389720213 37.78480494881131 0 0 0
331 7 12.401574156476876 12.908053119516675 37.62197864093362 -1 -1 0
351 7 12.242567227840203 8.576817069424948 37.84321443989643 -1 0 0
359 2 8.612427365420343 11.190967569532656 37.41862178906195 0 0 0

Velocities

1 0 0 0
2 0 0 0
6 0 0 0
7 0 0 0
31 0 0 0
32 0 0 0
36 0 0 0
37 0 0 0
3 0 0 0
8 0 0 0
9 0 0 0
33 0 0 0
34 0 0 0
38 0 0 0
4 0 0 0
5 0 0 0
10 0 0 0
35 0 0 0
39 0 0 0
40 0 0 0
11 0 0 0
12 0 0 0
16 0 0 0
17 0 0 0
41 0 0 0
42 0 0 0
46 0 0 0
47 0 0 0
13 0 0 0
18 0 0 0
19 0 0 0
43 0 0 0
44 0 0 0
48 0 0 0
14 0 0 0
15 0 0 0
20 0 0 0
45 0 0 0
49 0 0 0
50 0 0 0
21 0 0 0
22 0 0 0
26 0 0 0
27 0 0 0
51 0 0 0
52 0 0 0
56 0 0 0
57 0 0 0
23 0 0 0
28 0 0 0
29 0 0 0
53 0 0 0
54 0 0 0
58 0 0 0
24 0 0 0
25 0 0 0
30 0 0 0
55 0 0 0
59 0 0 0
60 0 0 0
61 0 0 0
62 0 0 0
66 0 0 0
67 0 0 0
91 0 0 0
92 0 0 0
96 0 0 0
97 0 0 0
63 0 0 0
64 0 0 0
68 0 0 0
93 0 0 0
98 0 0 0
99 0 0 0
65 0 0 0
69 0 0 0
70 0 0 0
94 0 0 0
95 0 0 0
100 0 0 0
71 0 0 0
72 0 0 0
76 0 0 0
77 0 0 0
101 0 0 0
102 0 0 0
106 0 0 0
107 0 0 0
73 0 0 0
74 0 0 0
78 0 0 0
103 0 0 0
108 0 0 0
109 0 0 0
75 0 0 0
79 0 0 0
80 0 0 0
104 0 0 0
105 0 0 0
110 0 0 0
81 0 0 0
82 0 0 0
86 0 0 0
87 0 0 0
111 0 0 0
112 0 0 0
116 0 0 0
117 0 0 0
83 0 0 0
84 0 0 0
88 0 0 0
113 0 0 0
118 0 0 0
119 0 0 0
85 0 0 0
89 0 0 0
90 0 0 0
114 0 0 0
115 0 0 0
120 0 0 0
121 0 0 0
122 0 0 0
126 0 0 0
127 0 0 0
152 0 0 0
156 0 0 0
157 0 0 0
162 0 0 0
123 0 0 0
124 0 0 0
128 0 0 0
153 0 0 0
154 0 0 0
158 0 0 0
163 0 0 0
164 0 0 0
125 0 0 0
129 0 0 0
130 0 0 0
155 0 0 0
159 0 0 0
160 0 0 0
165 0 0 0
131 0 0 0
132 0 0 0
136 0 0 0
137 0 0 0
161 0 0 0
166 0 0 0
167 0 0 0
133 0 0 0
134 0 0 0
138 0 0 0
168 0 0 0
173 0 0 0
135 0 0 0
139 0 0 0
140 0 0 0
169 0 0 0
170 0 0 0
175 0 0 0
141 0 0 0
142 0 0 0
146 0 0 0
147 0 0 0
151 0 0 0
171 0 0 0
172 0 0 0
176 0 0 0
177 0 0 0
143 0 0 0
144 0 0 0
148 0 0 0
178 0 0 0
145 0 0 0
149 0 0 0
150 0 0 0
174 0 0 0
179 0 0 0
180 0 0 0
181 0 0 0
182 0 0 0
186 0 0 0
187 0 0 0
211 0 0 0
212 0 0 0
216 0 0 0
217 0 0 0
183 0 0 0
188 0 0 0
189 0 0 0
213 0 0 0
214 0 0 0
218 0 0 0
184 0 0 0
185 0 0 0
190 0 0 0
215 0 0 0
219 0 0 0
220 0 0 0
191 0 0 0
192 0 0 0
197 0 0 0
221 0 0 0
222 0 0 0
226 0 0 0
227 0 0 0
193 0 0 0
198 0 0 0
199 0 0 0
223 0 0 0
224 0 0 0
228 0 0 0
194 0 0 0
195 0 0 0
196 0 0 0
200 0 0 0
225 0 0 0
229 0 0 0
230 0 0 0
201 0 0 0
202 0 0 0
206 0 0 0
207 0 0 0
231 0 0 0
232 0 0 0
236 0 0 0
203 0 0 0
208 0 0 0
209 0 0 0
233 0 0 0
234 0 0 0
238 0 0 0
204 0 0 0
205 0 0 0
210 0 0 0
235 0 0 0
239 0 0 0
240 0 0 0
237 0 0 0
241 0 0 0
242 0 0 0
246 0 0 0
247 0 0 0
276 0 0 0
243 0 0 0
244 0 0 0
248 0 0 0
279 0 0 0
249 0 0 0
250 0 0 0
255 0 0 0
275 0 0 0
251 0 0 0
252 0 0 0
256 0 0 0
257 0 0 0
253 0 0 0
254 0 0 0
258 0 0 0
264 0 0 0
283 0 0 0
289 0 0 0
259 0 0 0
260 0 0 0
284 0 0 0
290 0 0 0
261 0 0 0
262 0 0 0
266 0 0 0
267 0 0 0
292 0 0 0
326 0 0 0
263 0 0 0
268 0 0 0
245 0 0 0
265 0 0 0
269 0 0 0
270 0 0 0
294 0 0 0
296 0 0 0
271 0 0 0
272 0 0 0
277 0 0 0
301 0 0 0
302 0 0 0
306 0 0 0
307 0 0 0
273 0 0 0
278 0 0 0
303 0 0 0
304 0 0 0
308 0 0 0
274 0 0 0
280 0 0 0
305 0 0 0
309 0 0 0
310 0 0 0
335 0 0 0
281 0 0 0
282 0 0 0
286 0 0 0
287 0 0 0
312 0 0 0
316 0 0 0
317 0 0 0
288 0 0 0
313 0 0 0
314 0 0 0
318 0 0 0
285 0 0 0
311 0 0 0
315 0 0 0
319 0 0 0
320 0 0 0
355 0 0 0
291 0 0 0
297 0 0 0
321 0 0 0
322 0 0 0
327 0 0 0
356 0 0 0
293 0 0 0
298 0 0 0
299 0 0 0
323 0 0 0
324 0 0 0
328 0 0 0
295 0 0 0
300 0 0 0
325 0 0 0
329 0 0 0
330 0 0 0
332 0 0 0
336 0 0 0
337 0 0 0
333 0 0 0
334 0 0 0
338 0 0 0
339 0 0 0
340 0 0 0
342 0 0 0
346 0 0 0
347 0 0 0
343 0 0 0
344 0 0 0
348 0 0 0
341 0 0 0
345 0 0 0
349 0 0 0
350 0 0 0
361 0 0 0
362 0 0 0
352 0 0 0
357 0 0 0
360 0 0 0
353 0 0 0
354 0 0 0
358 0 0 0
331 0 0 0
351 0 0 0
359 0 0 0
