LAMMPS data file via write_data, version 11 Feb 2026, timestep = 389, units = metal

362 atoms
8 atom types

0 12.447907776 xlo xhi
0 12.9362452296 ylo yhi
0 52.3600831054 zlo zhi

Masses

1 26.9815
2 10.811
3 12.011
4 51.9961
5 55.845
6 95.95999999999999
7 58.6934
8 1.008

Atoms # atomic/kk

1 7 1.146458572065789 1.406720500370599 14.171587790687639 0 0 0
2 7 3.610167515032481 1.0723475782759393 14.665257695330629 0 0 0
6 7 12.37353582721006 3.458429059867338 14.817622992491666 -1 0 0
7 7 2.429353679309467 3.277046223671849 14.98701067914743 0 0 0
31 6 0.13378652904163435 1.5691596466659568 16.5405189982625 0 0 0
32 7 2.606506705189336 1.6875901606687018 16.910516144748264 0 0 0
36 7 1.221236772473171 3.8585334549347983 17.02477209303921 0 0 0
37 7 3.712056603732204 3.8396105227020803 17.052131420952808 0 0 0
3 5 6.078249464683566 0.9492300957460471 14.907659485931017 0 0 0
8 7 4.930421729928962 3.1295886966885034 15.005889278759593 0 0 0
9 7 7.392123555395979 3.1576989698376132 14.91621835534965 0 0 0
33 7 4.9871809350624074 1.6672818067869215 16.950094425237243 0 0 0
34 7 7.41181409360839 1.7714521069383842 16.975094711572513 0 0 0
38 5 6.180388984465525 3.862342657472811 16.984189657971633 0 0 0
4 6 8.642291079894035 0.999056799718265 14.995934940291662 0 0 0
5 7 11.051447880306021 1.2554340953650174 14.59731884469522 0 0 0
10 7 9.914759887240285 3.3928491524259297 14.776127990060466 0 0 0
35 7 9.987153090404625 1.6648175129283287 16.9389959233948 0 0 0
39 7 8.732387712091276 3.8651632444826802 16.857259175024907 0 0 0
40 7 11.192237941674358 3.8092579643828945 16.99553613034473 0 0 0
11 7 1.2365852649824012 5.497468756396164 15.075578593570938 0 0 0
12 7 3.7250341531124613 5.318673255348494 15.086474243419623 0 0 0
16 4 0.4711149995648881 7.814969474781826 14.794580929052678 0 0 0
17 7 2.6545719328313733 7.497621760550227 15.148763564836333 0 0 0
41 7 12.443878459797128 6.000713653531516 17.22159855939925 -1 0 0
42 7 2.4555372084782308 6.129962616724811 17.136450696945648 0 0 0
46 7 0.7963442056942258 9.369694309067944 16.86979512883766 0 0 0
47 7 3.888339655274117 8.200193189309049 17.058471130834107 0 0 0
13 7 6.180455043297608 5.30790960823231 15.029442146525028 0 0 0
18 7 5.081502926170467 7.481241600429084 15.063716222940807 0 0 0
19 2 7.06148844177474 7.021373522130204 15.384609103418923 0 0 0
43 7 4.954388209271723 5.965283605751159 17.08983648783507 0 0 0
44 7 7.478769281761975 5.942962157179846 17.08304964821969 0 0 0
48 7 6.348478648111744 8.057415526353363 17.044769870659337 0 0 0
14 7 8.705891718695863 5.661051435425097 14.960704992855677 0 0 0
15 6 11.182306850793095 5.606914337660186 15.179866063715393 0 0 0
20 7 10.447168191532151 7.672160513426827 14.179698624928237 0 0 0
45 7 9.925159040776267 6.041000053762769 17.248119035330646 0 0 0
49 7 8.718313647058233 7.924392694054554 16.06464937234493 0 0 0
50 7 11.187126776755932 7.993419729780802 16.44874254806254 0 0 0
21 2 1.167144152509971 10.48080159086866 15.2078576037556 0 0 0
22 7 2.9715836042387482 9.86749582896193 15.640225126101889 0 0 0
26 7 0.12983964155635808 12.206926545882295 14.905389686467885 0 0 0
27 7 2.484089649374637 11.810687246577134 14.458869263043882 0 0 0
51 3 11.521396040727407 9.37273579469679 17.65722971334128 -1 0 0
52 7 1.3520891765357428 11.867076719606835 16.98395003376208 0 0 0
56 2 1.9156739845078197 0.32315988987224864 15.604225432402282 0 1 0
57 7 3.755590787579815 12.43914373267011 16.60470028759237 0 0 0
23 7 6.923301245544889 9.008053045052273 14.774265684177816 0 0 0
28 7 4.961417104509008 11.789442861850315 14.602306521612595 0 0 0
29 6 7.489169180152385 11.494922479665695 14.916288800837918 0 0 0
53 7 5.337627190450408 10.12442637984806 16.32233597639627 0 0 0
54 7 7.735322044661792 10.056251155624862 16.941888234102134 0 0 0
58 6 6.321267263959934 12.369162876553858 16.949935668319473 0 0 0
24 7 9.212973810111759 9.740743941439277 14.537156295617638 0 0 0
25 7 11.764552921122485 9.876995214518603 14.785847733721774 0 0 0
30 7 10.063452104631772 11.94759876346729 14.75677575193077 0 0 0
55 7 10.186971872492036 10.278428060011937 16.676500407461706 0 0 0
59 7 8.838413120292543 12.383477504661466 16.95704993454728 0 0 0
60 7 11.244603381928378 12.469504955939886 16.877760829875424 0 0 0
61 6 0.04946267155079434 0.0012475746715355659 18.989665402970804 0 0 0
62 7 2.5892089373484533 12.856767318820584 19.03318035799961 0 -1 0
66 6 1.3947353326939114 2.168389140924762 19.048298174636322 0 0 0
67 5 3.8327919217425386 2.1721805114034365 19.072426047116053 0 0 0
91 4 1.3627533137466714 0.7514496612248828 21.29489593325676 0 0 0
92 7 3.7550019945013116 0.7267145130787347 21.050243961581057 0 0 0
96 7 0.08382034807356452 2.7994899919675325 21.182243166082372 0 0 0
97 7 2.594471884066256 2.8522382914789466 21.194136745557973 0 0 0
63 5 4.958491523103563 0.05542145543376076 18.956733092315787 0 0 0
64 7 7.443386081583259 0.08461763083359652 19.09624889940909 0 0 0
68 7 6.196649419832729 2.1613138965515724 19.075055264328263 0 0 0
93 7 6.261560269325291 0.7218886298071483 21.168522529727113 0 0 0
98 7 5.027447964768077 2.876153284109096 21.148587657156888 0 0 0
99 5 7.481017622233999 2.8175177553495083 21.164139227857994 0 0 0
65 7 10.003525630292804 0.08271052940204152 19.09093920151531 0 0 0
69 7 8.740253446016748 2.1564512639417663 18.990276731122073 0 0 0
70 7 11.288781553804627 2.240691822306203 18.948990221944616 0 0 0
94 7 8.715772927674553 0.7159744344360481 21.23096922671347 0 0 0
95 7 11.306276498254476 0.6729430904020551 21.19426167363913 0 0 0
100 6 10.03263016085478 2.7870413061764974 21.04983514825017 0 0 0
71 1 12.385338562457465 4.380681739604123 19.181081904008252 -1 0 0
72 7 2.4855629988443098 4.391428933759919 19.10195551592088 0 0 0
76 7 1.2018524934298034 6.437167947846778 19.25489132899584 0 0 0
77 7 3.7856738201007754 6.50976217604738 19.160125156365492 0 0 0
101 7 1.2061203727239937 4.988843883203489 21.254253047949184 0 0 0
102 6 3.7315370421834904 5.044918792538164 21.224736434427854 0 0 0
106 7 12.437007692436607 7.099380816829527 21.310692607872106 -1 0 0
107 7 2.470272153792118 7.175269855677031 21.227525128272667 0 0 0
73 7 4.977681485601643 4.318860091223194 19.082133298764113 0 0 0
74 6 7.503506146650673 4.287834641445652 19.049631587342628 0 0 0
78 7 6.198243987467563 6.521559253821757 19.13490841707954 0 0 0
103 7 6.276889454729626 5.049530498886775 21.17100622447063 0 0 0
108 7 5.013423804590622 7.231046199994767 21.221876519548847 0 0 0
109 7 7.421045259821202 7.251047741683364 21.260056764950292 0 0 0
75 5 9.910423954101184 4.307910635316223 19.028429069249228 0 0 0
79 7 8.627297260951439 6.474530049201221 19.318160856125914 0 0 0
80 7 11.115284490842138 6.423064796989018 19.353005024550004 0 0 0
104 7 8.742468342653396 5.025651903467342 21.23860428251388 0 0 0
105 3 10.086058443043258 4.374511139647602 22.283348057124766 0 0 0
110 7 9.892076963149773 7.1685081609090675 21.29702342222805 0 0 0
81 4 12.34440219861224 8.475430849162576 19.195488166542837 -1 0 0
82 6 2.360582288735636 8.4915237807744 18.910366519854698 0 0 0
86 7 1.2834002944362655 10.692789070100362 19.156273385465234 0 0 0
87 1 3.6667606011759246 10.718095697354602 18.26065885379037 0 0 0
111 7 1.1813912896151568 9.292112559732825 21.190867639732144 0 0 0
112 6 3.7033591267250072 9.358184207432899 21.138158064867344 0 0 0
116 1 0.03871129682536305 11.489173044589108 21.292452059228467 0 0 0
117 7 2.4721653888798127 11.530828863319504 21.140121213048342 0 0 0
83 7 4.947940973891115 8.735463395506898 19.078399478132585 0 0 0
84 7 7.399174706395337 8.642199463474233 19.08063868735367 0 0 0
88 7 6.164221260512934 10.80375288094221 18.92497676159413 0 0 0
113 7 6.215689300648739 9.411654612554655 21.030242996846475 0 0 0
118 7 4.965699009827013 11.543142551700097 21.03748253067234 0 0 0
119 4 7.401254387793274 11.538636817201098 21.06963037241395 0 0 0
85 6 9.789188924680747 8.475852464610846 18.53567631370548 0 0 0
89 6 8.733054119328116 10.852543185450683 19.03331258393985 0 0 0
90 4 11.27393219798373 10.82345358818748 18.9334240495318 0 0 0
114 7 8.701418583159017 9.318512808212299 20.98777411470218 0 0 0
115 6 11.110710713165778 9.25445239382123 21.170419236465964 0 0 0
120 7 9.987589116219104 11.518925358076189 21.176990173729322 0 0 0
121 7 0.0792289623891705 1.3759938187637064 23.308403792110113 0 0 0
122 7 2.570545174403337 1.3877390088268309 23.328187150154204 0 0 0
126 6 1.3502104170710716 3.5706265834420488 23.264325975223706 0 0 0
127 7 3.8457064950698108 3.5742802087524628 23.36029525996873 0 0 0
152 7 2.648500401067905 12.924514366308866 25.37263442003594 0 -1 0
156 1 1.4748162129045665 2.1141977180876372 25.513811871539666 0 0 0
157 7 3.9609891797391295 2.1206231888336484 25.442636072365154 0 0 0
162 7 2.5936957924082655 4.246431175341411 25.42665875351849 0 0 0
123 7 4.9874629434321776 1.4128549563756343 23.16094513436545 0 0 0
124 7 7.388901058385011 1.4840546890406228 23.48462519563509 0 0 0
128 7 6.298559239204884 3.648012109079668 23.182020577288 0 0 0
153 7 5.1917715997586775 0.05513287510091636 25.291649116936895 0 0 0
154 7 7.594490746441194 12.923223029041047 25.473721865685572 0 -1 0
158 2 5.770467320277807 2.4413883975272093 24.627269909654792 0 0 0
163 7 5.1129682065528925 4.227696266820062 25.419900944649815 0 0 0
164 5 7.472222437200795 4.045731488855106 25.3584211560045 0 0 0
125 7 10.038245692505331 1.410399463056011 23.353169156704986 0 0 0
129 7 8.74623762676019 3.529036698774491 23.345927263247585 0 0 0
130 4 11.361939492162485 3.5992297978511623 23.400870469904298 0 0 0
155 4 10.11425449212491 0.044541999147952996 25.556602197245848 0 0 0
159 7 8.864136717752178 2.0814001651259666 25.445682046231642 0 0 0
160 7 11.39576221932441 2.1369058249245745 25.41945461886231 0 0 0
165 7 10.060220562956651 4.199450946377412 25.41060794923088 0 0 0
131 7 0.06550241789258382 5.753184274072101 23.402475399144596 0 0 0
132 7 2.537075578979205 5.781236357679945 23.35895966254604 0 0 0
136 7 1.2972853055803744 7.894748558495879 23.303456796688042 0 0 0
137 7 3.77094151230825 7.962388495226041 23.276903303483312 0 0 0
161 4 0.10363887043409721 4.321804118048817 25.46771553240203 0 0 0
166 7 1.3318697274001754 6.395825709861876 25.429155597549233 0 0 0
167 7 3.8021560825727763 6.419619935695734 25.441635800883002 0 0 0
133 6 5.0594218304311145 5.8404918937391 23.386171039296993 0 0 0
134 7 7.553718792365002 5.7596941804641775 23.313548569966912 0 0 0
138 7 6.304398785755778 7.977845818095052 23.339929285267218 0 0 0
168 7 6.35948950119556 6.376701773087966 25.432010044182558 0 0 0
173 7 5.098393466528699 8.534997705960187 25.331165423640936 0 0 0
135 7 10.058600337597003 5.806092136862756 23.386802175230265 0 0 0
139 4 8.68814298391616 7.923139478419872 23.24334952638482 0 0 0
140 4 11.276007682388691 7.870634223100629 23.3169380713844 0 0 0
169 7 8.769966832011667 6.3118277330185135 25.382470798971532 0 0 0
170 7 11.283359213585413 6.388418599871959 25.44775691642376 0 0 0
175 6 9.878946839983413 8.547674148500166 25.523507407227612 0 0 0
141 7 0.01376096384153505 10.047997729017494 23.34270859530229 0 0 0
142 7 2.4897334422209547 10.086447550804056 23.25354159056103 0 0 0
146 7 1.2960677608127993 12.215457268128096 23.349342032640976 0 0 0
147 7 3.800141794354655 12.22464007992588 23.1790140913102 0 0 0
151 4 0.0862510939865555 12.855237355636254 25.414267104593804 0 -1 0
171 6 0.10329174483488551 8.59455941408613 25.428964646849597 0 0 0
172 7 2.6164683629471703 8.5895186342749 25.37466491516192 0 0 0
176 7 1.3358539724945449 10.779334408050051 25.4307730696147 0 0 0
177 6 3.8729850320704453 10.796951652297999 25.27272005473099 0 0 0
143 7 5.048463580649715 10.085781619126907 23.180264596762733 0 0 0
144 7 7.498913916319553 10.06979360227811 22.918924993008506 0 0 0
148 4 6.206189613531594 12.250948947431738 23.184309365241386 0 0 0
178 6 6.610691267536597 10.523388947616398 25.219591369935525 0 0 0
145 7 9.989306715778168 10.05468751141809 23.315035477532536 0 0 0
149 6 8.70156463483953 12.252967340884117 23.32903637085538 0 0 0
150 7 11.240665159547758 12.198216525893137 23.404747456775098 0 0 0
174 3 8.40714935978933 9.48970888181138 24.42305606548438 0 0 0
179 5 8.99176546896127 10.902945306736491 25.582746076765076 0 0 0
180 5 11.329615000824198 10.847199778182503 25.50637052310891 0 0 0
181 7 1.3853302262087317 0.6457607781167858 27.496461056804083 0 0 0
182 7 3.871826595571905 0.6834016073070771 27.435860738309888 0 0 0
186 7 0.1669748472731483 2.8380891290922152 27.494163681196202 0 0 0
187 7 2.655913384640221 2.833289264288697 27.567745851193468 0 0 0
211 7 0.2063271998811363 1.424988273966338 29.592364090196973 0 0 0
212 7 2.7082308516037923 1.3409439817603623 29.58221084730832 0 0 0
216 7 1.4070879139608128 3.5349484141605276 29.59095696436416 0 0 0
217 4 3.8205213886202176 3.5534150229124473 29.601003201550302 0 0 0
183 7 6.304917643120482 0.6958594932969124 27.571738210362444 0 0 0
188 7 5.078715984045479 2.8544753741707134 27.577292897408412 0 0 0
189 7 7.590429718207664 2.7738911524499015 27.463412246453554 0 0 0
213 5 5.130944245573492 1.4075982897294859 29.602513779288252 0 0 0
214 7 7.608718440768445 1.3356288315354805 29.593487291742374 0 0 0
218 7 6.35979892425555 3.5177921952549105 29.545619694295155 0 0 0
184 7 8.881394623712097 0.699556727003853 27.568551413234342 0 0 0
185 4 11.379639561891906 0.7028503384510946 27.54162365000835 0 0 0
190 7 10.140647609034854 2.812239861924136 27.49174847729166 0 0 0
215 7 10.12077594530664 1.384107084845641 29.634024739948103 0 0 0
219 7 8.834692006653576 3.4924879580416914 29.531909299033035 0 0 0
220 7 11.36542864941356 3.5391773979726358 29.524493181922047 0 0 0
191 7 1.386783585950847 4.986878591624637 27.473999882990007 0 0 0
192 7 3.8292239480001973 4.9706074634153286 27.48367979891722 0 0 0
197 7 2.5746009513537276 7.173680126597447 27.47631846197017 0 0 0
221 7 0.11614438953375596 5.707306535899566 29.574249759457064 0 0 0
222 7 2.5869894667711075 5.709151240066817 29.553001940536486 0 0 0
226 7 1.3598744347460203 7.884246390174429 29.55356486501461 0 0 0
227 7 3.8567295964172827 7.894722791165055 29.46892599236919 0 0 0
193 7 6.365300584880534 4.9562850585776586 27.415089468784352 0 0 0
198 7 5.097989757045341 7.154370549081053 27.412134413634956 0 0 0
199 7 7.617229773697313 7.169274981637066 27.44954180443663 0 0 0
223 6 5.148525458122215 5.702078966164238 29.49147474772939 0 0 0
224 7 7.640193608327974 5.718943962310256 29.583212472816832 0 0 0
228 7 6.390140484600884 7.894167631404756 29.49239292342837 0 0 0
194 6 8.843523834970988 4.9773673527341495 27.49481223494896 0 0 0
195 7 11.356439181081532 4.974374216318657 27.510661895051623 0 0 0
196 7 0.13182445538269053 7.137901530740413 27.500672068161222 0 0 0
200 7 10.119662325140899 7.137876782518685 27.5428950997331 0 0 0
225 7 10.097592198743477 5.720928234057037 29.608683016542077 0 0 0
229 7 8.84252254424419 7.8633712804844835 29.52856113155783 0 0 0
230 7 11.364581329972973 7.911658200792857 29.52890382953804 0 0 0
201 5 1.3748010003469524 9.306214607898607 27.515718156861173 0 0 0
202 7 3.8677763689206532 9.302120919025853 27.375664112214935 0 0 0
206 4 0.1832778749785924 11.458031108610323 27.527279005675304 0 0 0
207 7 2.6067671969667114 11.438497877573203 27.438871205753575 0 0 0
231 7 0.1617465514984016 10.060145118042803 29.571718340688943 0 0 0
232 7 2.62950637737587 10.008038716409146 29.427873014707952 0 0 0
236 7 1.469405195768672 12.164397923352189 29.55746340207067 0 0 0
203 7 6.370550966348451 9.266689179795355 27.388105561885073 0 0 0
208 7 5.133565519771483 11.481626797642795 27.319911516534756 0 0 0
209 6 7.577766906725526 11.505766854307051 27.641053541783354 0 0 0
233 7 5.1454460276945655 10.036920938475058 29.32316928125918 0 0 0
234 7 7.597184926379062 10.069956522858748 29.66607076659093 0 0 0
238 7 6.20723587575142 12.218244799634261 29.681265815842522 0 0 0
204 7 8.83457881976933 9.349452086103474 27.626309879857818 0 0 0
205 7 11.34107590325883 9.396804828017029 27.549818915447837 0 0 0
210 7 10.147046966055719 11.534692115960098 27.58760724734788 0 0 0
235 7 10.08143688902258 10.160508499972517 29.60504202317045 0 0 0
239 4 8.874550489749508 12.235816604158128 29.7348010211364 0 0 0
240 7 11.392680510575152 12.248472796653923 29.565737575793896 0 0 0
237 3 4.0306865281910405 0.2769361253939068 30.555947869120292 0 1 0
241 7 0.19819203699233598 0.08437281770878939 31.639851642630628 0 0 0
242 7 2.5659024933029313 0.12820196270163636 31.74219112355177 0 0 0
246 4 1.3400140137195318 2.2283581158516235 31.666183411302924 0 0 0
247 7 3.876616550139199 2.1392536166816227 31.64441910479748 0 0 0
276 7 0.17227493567923613 2.9810594839640303 33.73616853934813 0 0 0
243 7 5.1625851371317735 12.891096429946629 32.101801784291276 0 -1 0
244 7 7.62158398491704 12.925371246450549 31.712840122004575 0 -1 0
248 7 6.402936341930492 2.136715798889896 31.647690025200873 0 0 0
279 7 7.724330950124503 3.030638084664045 33.73223035851869 0 0 0
249 7 8.846675833331162 2.088991463046004 31.683814917543916 0 0 0
250 7 11.379581211062167 2.123876593844006 31.662307132806838 0 0 0
255 1 10.100615880157731 4.205371868816673 31.506756519096864 0 0 0
275 4 11.437904323592429 0.7833242782459775 33.71969612526113 0 0 0
251 7 0.14282652499943577 4.311475474317108 31.65148690058194 0 0 0
252 7 2.6289912839951954 4.307968321240717 31.668828841015035 0 0 0
256 7 1.3249948189593435 6.491197314933643 31.63619275754927 0 0 0
257 6 3.787213332233189 6.491787770750174 31.66358991226436 0 0 0
253 7 5.108345639011103 4.299291870581872 31.624148503874483 0 0 0
254 7 7.617408664613012 4.299776265731902 31.594304856721724 0 0 0
258 7 6.3475657471902505 6.48313207069278 31.622095746377695 0 0 0
264 7 7.585414425008764 8.566658960250644 31.622861040952365 0 0 0
283 7 6.375927588137738 5.090106933680111 33.67036681361803 0 0 0
289 7 7.628227809915886 7.175719623705974 33.71505267640454 0 0 0
259 4 8.817188175201622 6.44823682075169 31.631425236836247 0 0 0
260 7 11.310601488513779 6.477462994325214 31.59736360147386 0 0 0
284 5 8.88341032717874 5.105179793938836 33.58654121578399 0 0 0
290 7 10.079354847660749 7.247305646661043 33.60004701797924 0 0 0
261 7 0.1732847006135883 8.697452175685175 31.654972725361617 0 0 0
262 7 2.6602551797022347 8.709521462306627 31.53105642593368 0 0 0
266 7 1.559737287676888 10.822078161470872 31.574761909800213 0 0 0
267 4 3.914465864081374 11.263918191144821 30.85264175863586 0 0 0
292 7 3.955578974576782 9.360999398175561 33.50247678431737 0 0 0
326 7 0.5039097977480023 11.64178302367281 33.68401326328947 0 0 0
263 1 5.0899512857886995 8.75096478069225 31.41946552935936 0 0 0
268 7 6.255906151425114 10.751916934254869 31.582063871507234 0 0 0
245 7 10.107252961096227 12.87269786156457 31.873161651652406 0 -1 0
265 6 10.097385123443356 8.67003336492351 31.54805836212781 0 0 0
269 7 8.77080402729975 10.789836855400454 31.754047223947044 0 0 0
270 7 11.425343133331289 10.893583612075592 31.61778580154966 0 0 0
294 7 8.763372965171516 9.277597930748097 33.69876660122173 0 0 0
296 3 11.071796080627953 11.818972173321551 33.33490934573867 -1 0 0
271 7 1.4750183712877358 0.8915326709929338 33.779760372304395 0 0 0
272 7 3.919735218257884 0.9455899252342568 33.92859242653807 0 0 0
277 7 2.6404253619321065 3.0677906372923514 33.795519128785955 0 0 0
301 7 0.18942726818497196 1.539820185925423 35.76026354410096 0 0 0
302 7 2.6190681401325713 1.6616329524606637 35.86531248705867 0 0 0
306 4 1.4072706063167102 3.819988704780703 35.93692729343483 0 0 0
307 7 4.000331721893481 3.721350131135499 35.82746858221008 0 0 0
273 7 6.456207659304289 0.9632483739808216 33.904807455631456 0 0 0
278 1 5.214536689483706 2.986719805431988 33.719613838154146 0 0 0
303 7 5.24409108472373 1.657757412426225 35.948132740864324 0 0 0
304 4 7.75657091429689 1.627678549155202 35.922652142032774 0 0 0
308 7 6.526803265285389 3.697917134861187 35.80060684541797 0 0 0
274 7 8.830689404372949 0.8859129861144399 33.841279536627866 0 0 0
280 7 10.19889817798961 2.980713514999977 33.711802917691415 0 0 0
305 7 10.220007842395374 1.549121463992361 35.730387714549515 0 0 0
309 7 9.01701882544261 3.6628662067324407 35.781441105601104 0 0 0
310 4 11.58217711237992 3.931214841779447 35.86211440930912 0 0 0
335 5 9.905758918991166 12.897316281260974 37.39757567309489 0 -1 0
281 7 1.3219698137306444 5.1724892783284515 33.85246877840137 0 0 0
282 4 3.8439105247909016 5.125811372484774 33.76780310675188 0 0 0
286 7 0.08956921309776805 7.270539001710342 33.62694150950419 0 0 0
287 7 2.6274240827407276 7.277268912652045 33.74785640597467 0 0 0
312 7 2.725681344667039 5.7781739896959134 35.784260798192946 0 0 0
316 7 1.207657662631568 7.584832679047923 35.79707512154622 0 0 0
317 7 3.9266203271079925 8.051015988682927 35.73270440803722 0 0 0
288 7 5.179649916306197 7.259072753251433 33.66595127699404 0 0 0
313 7 5.2615319784002805 5.907978975106824 35.71601866706623 0 0 0
314 7 7.719038166682742 5.809953411375316 35.74368322167387 0 0 0
318 4 6.551872569748621 8.111843333001028 35.806141509735625 0 0 0
285 4 11.342488144317517 5.141251623048259 33.63754649738636 0 0 0
311 2 12.367237641882978 5.986205307918531 35.31916238124507 -1 0 0
315 7 10.131851452582904 5.799459381697381 35.585417546065784 0 0 0
319 7 8.951957718955269 7.96529660300924 35.82639812039935 0 0 0
320 7 11.343849920635613 7.92195926959742 35.595616803000986 0 0 0
355 3 10.4409555672194 7.892124447634052 37.28141606417355 0 0 0
291 7 1.4646310679477368 9.414938454870299 33.7296487109855 0 0 0
297 6 3.0218690251785834 11.563703490449699 33.67187515727112 0 0 0
321 6 0.20903667133472814 10.050132625981199 35.908580500985984 0 0 0
322 7 2.696748945846358 10.186620879407931 35.760325865092554 0 0 0
327 6 3.9160721018795375 12.496390306988447 36.10852953474418 0 0 0
356 4 1.3965880031041693 12.349820724084408 35.85097222910475 0 0 0
293 4 6.44591854993625 9.31052924401625 33.64846028117207 0 0 0
298 2 5.198498900315664 12.271831243055024 34.20532792213636 0 0 0
299 7 6.993745695462102 11.569215372709449 33.68139041020121 0 0 0
323 6 5.228303571022928 10.2273044249835 35.57659073994261 0 0 0
324 7 7.908122853682224 10.349030947785854 35.715107501744015 0 0 0
328 7 6.460926362905356 12.50998819060869 35.91541919198322 0 0 0
295 6 11.264377718501171 9.687073450857703 33.76395027800109 0 0 0
300 7 9.380162282873295 11.535867443015288 34.171215085994255 0 0 0
325 7 10.25408564813184 9.835329436072927 37.034249544587865 0 0 0
329 3 9.52670272141601 11.391677057506564 36.20562772893411 0 0 0
330 4 11.258738415893058 12.063202443641549 35.58289590720296 0 0 0
332 7 2.482462463150029 0.09441841593732339 38.040048212539396 0 0 0
336 7 1.3331713192670718 2.1790930046931125 37.83271771135523 0 0 0
337 7 3.871743938076402 2.191581121161615 37.87616104297222 0 0 0
361 8 2.012975726144092 3.7117387565471933 41.72492207823317 0 0 0
362 8 2.700109887719035 4.0140550961000665 41.61078820497847 0 0 0
333 7 5.212786516412393 0.1600097162947008 38.120316110743566 0 0 0
334 7 7.647004855757853 0.0632014871923042 38.00061857724823 0 0 0
338 7 6.527795897238424 2.2601725807138475 37.90576638599638 0 0 0
339 7 8.988225817370655 2.1844061169762687 37.85558753983638 0 0 0
340 7 11.367005223923574 2.1894926165059845 37.72919524151944 0 0 0
342 7 2.709353922928156 4.2809476672852655 37.87952632983063 0 0 0
346 7 1.5239180415458105 6.39657480419135 38.03274670044749 0 0 0
347 6 3.962569304509057 6.467603315871028 37.76709406335438 0 0 0
343 7 5.302028117750479 4.425790728673582 37.83593554986887 0 0 0
344 7 7.8333901825242895 4.4362800359072025 37.84871631226578 0 0 0
348 6 6.661885394265933 6.6631914604672815 37.81653578422185 0 0 0
341 7 0.219093875840281 4.240837747008408 38.064769694240724 0 0 0
345 4 10.225201075475098 4.3314784818939405 37.81354849705898 0 0 0
349 7 9.242991297298916 6.622785413846145 37.87059055924682 0 0 0
350 7 11.69306252281831 6.2616483601562605 37.29809647624108 0 0 0
352 6 2.4881147038310716 8.652298502504705 37.68710438587251 0 0 0
357 7 3.842015699417868 10.799113142251244 37.95294424658599 0 0 0
360 7 1.3869198989225737 10.89557270636394 37.88968755176545 1 0 0
353 7 5.1248709788643225 8.687984508535928 37.82737266456202 0 0 0
354 7 7.954072272979709 8.951028829063757 37.81851680360015 0 0 0
358 6 6.413567239028743 10.84828968059947 37.789704594267874 0 0 0
331 7 12.391799831802729 12.881989707007945 37.63194317200981 -1 -1 0
351 7 12.244182879270054 8.552136862282746 37.84436851482661 -1 0 0
359 2 8.598909313566502 11.154166397526227 37.4314335038429 0 0 0

Velocities

1 0 0 0
2 0 0 0
6 0 0 0
7 0 0 0
31 0 0 0
32 0 0 0
36 0 0 0
37 0 0 0
3 0 0 0
8 0 0 0
9 0 0 0
33 0 0 0
34 0 0 0
38 0 0 0
4 0 0 0
5 0 0 0
10 0 0 0
35 0 0 0
39 0 0 0
40 0 0 0
11 0 0 0
12 0 0 0
16 0 0 0
17 0 0 0
41 0 0 0
42 0 0 0
46 0 0 0
47 0 0 0
13 0 0 0
18 0 0 0
19 0 0 0
43 0 0 0
44 0 0 0
48 0 0 0
14 0 0 0
15 0 0 0
20 0 0 0
45 0 0 0
49 0 0 0
50 0 0 0
21 0 0 0
22 0 0 0
26 0 0 0
27 0 0 0
51 0 0 0
52 0 0 0
56 0 0 0
57 0 0 0
23 0 0 0
28 0 0 0
29 0 0 0
53 0 0 0
54 0 0 0
58 0 0 0
24 0 0 0
25 0 0 0
30 0 0 0
55 0 0 0
59 0 0 0
60 0 0 0
61 0 0 0
62 0 0 0
66 0 0 0
67 0 0 0
91 0 0 0
92 0 0 0
96 0 0 0
97 0 0 0
63 0 0 0
64 0 0 0
68 0 0 0
93 0 0 0
98 0 0 0
99 0 0 0
65 0 0 0
69 0 0 0
70 0 0 0
94 0 0 0
95 0 0 0
100 0 0 0
71 0 0 0
72 0 0 0
76 0 0 0
77 0 0 0
101 0 0 0
102 0 0 0
106 0 0 0
107 0 0 0
73 0 0 0
74 0 0 0
78 0 0 0
103 0 0 0
108 0 0 0
109 0 0 0
75 0 0 0
79 0 0 0
80 0 0 0
104 0 0 0
105 0 0 0
110 0 0 0
81 0 0 0
82 0 0 0
86 0 0 0
87 0 0 0
111 0 0 0
112 0 0 0
116 0 0 0
117 0 0 0
83 0 0 0
84 0 0 0
88 0 0 0
113 0 0 0
118 0 0 0
119 0 0 0
85 0 0 0
89 0 0 0
90 0 0 0
114 0 0 0
115 0 0 0
120 0 0 0
121 0 0 0
122 0 0 0
126 0 0 0
127 0 0 0
152 0 0 0
156 0 0 0
157 0 0 0
162 0 0 0
123 0 0 0
124 0 0 0
128 0 0 0
153 0 0 0
154 0 0 0
158 0 0 0
163 0 0 0
164 0 0 0
125 0 0 0
129 0 0 0
130 0 0 0
155 0 0 0
159 0 0 0
160 0 0 0
165 0 0 0
131 0 0 0
132 0 0 0
136 0 0 0
137 0 0 0
161 0 0 0
166 0 0 0
167 0 0 0
133 0 0 0
134 0 0 0
138 0 0 0
168 0 0 0
173 0 0 0
135 0 0 0
139 0 0 0
140 0 0 0
169 0 0 0
170 0 0 0
175 0 0 0
141 0 0 0
142 0 0 0
146 0 0 0
147 0 0 0
151 0 0 0
171 0 0 0
172 0 0 0
176 0 0 0
177 0 0 0
143 0 0 0
144 0 0 0
148 0 0 0
178 0 0 0
145 0 0 0
149 0 0 0
150 0 0 0
174 0 0 0
179 0 0 0
180 0 0 0
181 0 0 0
182 0 0 0
186 0 0 0
187 0 0 0
211 0 0 0
212 0 0 0
216 0 0 0
217 0 0 0
183 0 0 0
188 0 0 0
189 0 0 0
213 0 0 0
214 0 0 0
218 0 0 0
184 0 0 0
185 0 0 0
190 0 0 0
215 0 0 0
219 0 0 0
220 0 0 0
191 0 0 0
192 0 0 0
197 0 0 0
221 0 0 0
222 0 0 0
226 0 0 0
227 0 0 0
193 0 0 0
198 0 0 0
199 0 0 0
223 0 0 0
224 0 0 0
228 0 0 0
194 0 0 0
195 0 0 0
196 0 0 0
200 0 0 0
225 0 0 0
229 0 0 0
230 0 0 0
201 0 0 0
202 0 0 0
206 0 0 0
207 0 0 0
231 0 0 0
232 0 0 0
236 0 0 0
203 0 0 0
208 0 0 0
209 0 0 0
233 0 0 0
234 0 0 0
238 0 0 0
204 0 0 0
205 0 0 0
210 0 0 0
235 0 0 0
239 0 0 0
240 0 0 0
237 0 0 0
241 0 0 0
242 0 0 0
246 0 0 0
247 0 0 0
276 0 0 0
243 0 0 0
244 0 0 0
248 0 0 0
279 0 0 0
249 0 0 0
250 0 0 0
255 0 0 0
275 0 0 0
251 0 0 0
252 0 0 0
256 0 0 0
257 0 0 0
253 0 0 0
254 0 0 0
258 0 0 0
264 0 0 0
283 0 0 0
289 0 0 0
259 0 0 0
260 0 0 0
284 0 0 0
290 0 0 0
261 0 0 0
262 0 0 0
266 0 0 0
267 0 0 0
292 0 0 0
326 0 0 0
263 0 0 0
268 0 0 0
245 0 0 0
265 0 0 0
269 0 0 0
270 0 0 0
294 0 0 0
296 0 0 0
271 0 0 0
272 0 0 0
277 0 0 0
301 0 0 0
302 0 0 0
306 0 0 0
307 0 0 0
273 0 0 0
278 0 0 0
303 0 0 0
304 0 0 0
308 0 0 0
274 0 0 0
280 0 0 0
305 0 0 0
309 0 0 0
310 0 0 0
335 0 0 0
281 0 0 0
282 0 0 0
286 0 0 0
287 0 0 0
312 0 0 0
316 0 0 0
317 0 0 0
288 0 0 0
313 0 0 0
314 0 0 0
318 0 0 0
285 0 0 0
311 0 0 0
315 0 0 0
319 0 0 0
320 0 0 0
355 0 0 0
291 0 0 0
297 0 0 0
321 0 0 0
322 0 0 0
327 0 0 0
356 0 0 0
293 0 0 0
298 0 0 0
299 0 0 0
323 0 0 0
324 0 0 0
328 0 0 0
295 0 0 0
300 0 0 0
325 0 0 0
329 0 0 0
330 0 0 0
332 0 0 0
336 0 0 0
337 0 0 0
361 0 0 0
362 0 0 0
333 0 0 0
334 0 0 0
338 0 0 0
339 0 0 0
340 0 0 0
342 0 0 0
346 0 0 0
347 0 0 0
343 0 0 0
344 0 0 0
348 0 0 0
341 0 0 0
345 0 0 0
349 0 0 0
350 0 0 0
352 0 0 0
357 0 0 0
360 0 0 0
353 0 0 0
354 0 0 0
358 0 0 0
331 0 0 0
351 0 0 0
359 0 0 0
