LAMMPS data file via write_data, version 11 Feb 2026, timestep = 332, units = metal

362 atoms
8 atom types

0 12.447907776 xlo xhi
0 12.9362452296 ylo yhi
0 52.3600831054 zlo zhi

Masses

1 26.9815
2 10.811
3 12.011
4 51.9961
5 55.845
6 95.95999999999999
7 58.6934
8 1.008

Atoms # atomic/kk

1 7 1.1225327034471682 0.8189999257413555 14.642760543901687 0 0 0
2 7 3.562372976864209 0.7333294171965811 14.865531948190037 0 0 0
6 7 12.272891694490905 3.473944233323892 14.64602965467591 -1 0 0
7 7 2.2343358848983024 2.9671436166210463 15.102552744802793 0 0 0
31 6 12.399611218686633 1.8842604689063542 16.488044509378 -1 0 0
32 7 2.315814630639977 1.2491526318348234 16.926304478935652 0 0 0
36 7 1.1446207354902236 3.966012362404996 17.05754861007265 0 0 0
37 7 3.5786140942694624 3.641951452415912 17.087569746613468 0 0 0
3 5 6.024838255585994 0.8610715513255195 14.93723447433237 0 0 0
8 7 4.789211724924642 2.980426736017987 15.016840423043048 0 0 0
9 7 7.295954754243363 3.0556593133183467 14.894058584045661 0 0 0
33 7 4.838186928750283 1.5312371654844392 16.978636350717295 0 0 0
34 7 7.366652354867819 1.7059701777637921 16.949276804709314 0 0 0
38 5 6.085388083151306 3.7366666230931713 16.968475393598002 0 0 0
4 6 8.645468663425973 0.9633258548684681 14.951100856806448 0 0 0
5 7 11.031969367515538 1.2475790940140807 14.462837676474926 0 0 0
10 7 9.81658150563073 3.3731834243408 14.724759802819424 0 0 0
35 7 9.928275115808514 1.7073383525623027 16.91073364434454 0 0 0
39 7 8.644112124000861 3.8580676204859095 16.816679072238962 0 0 0
40 7 11.078708025369384 3.9474633399840764 16.969679887392306 0 0 0
11 7 1.14072656264725 5.430185000306855 15.024198630064538 0 0 0
12 7 3.559026096347087 5.143071559419979 15.117726553750131 0 0 0
16 4 0.22220404362730659 7.667938452150767 14.610182926971062 0 0 0
17 7 2.4358531240419525 7.502740139695023 15.087512907167707 0 0 0
41 7 12.321447149306177 6.107218583298771 17.13173919837724 -1 0 0
42 7 2.37879561830338 6.074522094340317 17.10876301568251 0 0 0
46 7 0.8240655288717758 8.410819707174586 16.85715900149918 0 0 0
47 7 3.825582283456016 8.00642049518473 17.021186793833305 0 0 0
13 7 6.054354269392928 5.179936562138395 15.005724491719656 0 0 0
18 7 4.9045672389019455 7.297810272538631 14.97233543448853 0 0 0
19 2 6.8515825509380575 6.968253216915288 15.314914707195008 0 0 0
43 7 4.862406549675162 5.806700061448167 17.072331666325656 0 0 0
44 7 7.35078928160379 5.874068365400576 17.023046009661915 0 0 0
48 7 6.235032167733525 7.986926074222926 17.015901102250833 0 0 0
14 7 8.581798652256667 5.630270253433642 14.893749835299422 0 0 0
15 6 11.053526226422864 5.633915746212042 15.09017322804219 0 0 0
20 7 10.23458952338375 7.649471917010797 13.98820077455015 0 0 0
45 7 9.814857496489305 6.104984731388881 17.186245248982658 0 0 0
49 7 8.479003085826166 7.850206032476081 16.02083548379281 0 0 0
50 7 10.912970586524859 8.112691499406443 16.212672383640193 0 0 0
21 2 1.556543829096543 9.469192238697532 15.206453131219872 0 0 0
22 7 3.6254715686491026 9.509571025832498 14.914393985156355 0 0 0
26 7 0.3210041548321275 10.799283314941379 16.829978085999485 0 0 0
27 7 2.0378554318963813 11.474211674716004 15.14891177771251 0 0 0
51 3 11.62869527932491 9.365597671722673 17.500080170977284 -1 0 0
52 7 2.6218015102337286 10.077122099603972 17.03783332089809 0 0 0
56 2 0.9321802668036616 12.700951257388143 16.35434947764086 0 0 0
57 7 3.7134232645312166 12.222051695426291 16.923938198795177 0 0 0
23 7 6.59632466054816 9.080730540814026 14.850370916609451 0 0 0
28 7 4.8282523388095075 11.606424034606459 14.815709424805014 0 0 0
29 6 7.383864018495848 11.491525388216218 14.92012350806796 0 0 0
53 7 5.139406306811495 10.106396771910966 16.77431687945283 0 0 0
54 7 7.705186920908789 10.036843901543508 16.924601218460282 0 0 0
58 6 6.305097517190006 12.334182129657705 17.01330732140421 0 0 0
24 7 9.063279604660927 9.660986510578208 14.657965361147065 0 0 0
25 7 11.953977829122532 9.874010922276298 14.711478088705576 0 0 0
30 7 9.932681740986617 11.85051098804311 14.580650340832621 0 0 0
55 7 10.252735061280424 10.405066066426725 16.64884745366545 0 0 0
59 7 8.85145589708407 12.365519742408397 16.897589958520584 0 0 0
60 7 11.305210558222532 12.619345016651424 16.352033729878634 0 0 0
61 6 0.10978932836521654 12.90734231661313 18.578848538871835 0 -1 0
62 7 2.5699722697979897 0.03208597059353194 19.13697282028906 0 0 0
66 6 1.3595323749402912 2.2272089867227756 19.06156827851697 0 0 0
67 5 3.805427884181768 2.1810634796496284 19.097649018201217 0 0 0
91 4 1.370074931950251 0.78166666782192 21.24778682010427 0 0 0
92 7 3.8029705000435077 0.7401951960812202 21.124777783638173 0 0 0
96 7 0.08799519581668083 2.8589538541087003 21.176455291817664 0 0 0
97 7 2.6107905996676695 2.8603067350021925 21.200399004623165 0 0 0
63 5 5.02175763352009 0.11601224662133347 19.058423993044705 0 0 0
64 7 7.505483549469726 0.10206374166409722 19.09952884087 0 0 0
68 7 6.201423141568745 2.1721761081405027 19.04904126208031 0 0 0
93 7 6.329004870989452 0.7360550517121869 21.204214252175593 0 0 0
98 7 5.055261703851728 2.874833965378855 21.146618116621454 0 0 0
99 5 7.510581725833265 2.8341424855622384 21.14775053333452 0 0 0
65 7 10.088131418150553 0.0978282513281909 18.97524738132538 0 0 0
69 7 8.74063506915191 2.1799907289842233 18.971541415602694 0 0 0
70 7 11.297497117695276 2.2856352452876307 18.914530560624954 0 0 0
94 7 8.78423827352597 0.7410285352871822 21.195055184422042 0 0 0
95 7 11.370541580250151 0.7144153553583078 21.04009419602052 0 0 0
100 6 10.052135997880294 2.828576627328522 21.030557999241815 0 0 0
71 1 12.337171872101575 4.452638935878382 19.192639664487068 -1 0 0
72 7 2.4568335333163436 4.419444834456401 19.109318342273852 0 0 0
76 7 1.1742546340527424 6.495893129981293 19.19016821616438 0 0 0
77 7 3.7689608997000272 6.496701811888586 19.137117068879547 0 0 0
101 7 1.2169167684884121 5.026974515957866 21.22730716823699 0 0 0
102 6 3.7464890191465563 5.044482043767367 21.215893702050916 0 0 0
106 7 0.004421925921097686 7.1342052719340066 21.278382028940218 0 0 0
107 7 2.4818084599125667 7.1700010771280915 21.231523245222473 0 0 0
73 7 4.950731358118971 4.306864426530568 19.071176275146716 0 0 0
74 6 7.4811167111844 4.311452198171552 19.02745247068455 0 0 0
78 7 6.182149376157405 6.518589130147667 19.10362764040766 0 0 0
103 7 6.290038018529792 5.0495259142678774 21.155406227351865 0 0 0
108 7 5.0295162032380585 7.217784574113162 21.197321114016447 0 0 0
109 7 7.438053883831381 7.25583382981482 21.246840075775797 0 0 0
75 5 9.871266386001835 4.358387412728323 19.018982120621143 0 0 0
79 7 8.626670492042203 6.512519254527937 19.2976999318429 0 0 0
80 7 11.100100967296102 6.508966664487702 19.294393603388126 0 0 0
104 7 8.750138929626909 5.048805133486079 21.224301797923737 0 0 0
105 3 10.098526262800721 4.411125217954795 22.27427351973509 0 0 0
110 7 9.911933538440016 7.178241133215881 21.295737610359033 0 0 0
81 4 12.378311039714703 8.579919702022504 19.18947422416016 -1 0 0
82 6 2.4425735761079688 8.534122683419946 19.017097849529616 0 0 0
86 7 1.3141287126860768 10.7543870484917 19.167425315370597 0 0 0
87 1 3.8562599532195256 10.878262462597283 19.00134184665892 0 0 0
111 7 1.2115658368435134 9.33121252580734 21.212766556875575 0 0 0
112 6 3.758729408823874 9.337664160281316 21.227776480189384 0 0 0
116 1 0.06787963866881817 11.540335291902096 21.1781936382591 0 0 0
117 7 2.5319061206623044 11.538727217499245 21.16815178607464 0 0 0
83 7 4.979920520474387 8.725661778495796 19.027879745555328 0 0 0
84 7 7.433245841886908 8.631504005669143 19.0118166561001 0 0 0
88 7 6.285963356065934 10.817644536435775 19.021015530578897 0 0 0
113 7 6.2543355321682395 9.391150887943898 21.03264864436788 0 0 0
118 7 5.051347879379531 11.556522769090662 21.134143267478013 0 0 0
119 4 7.481964803512208 11.566598935919831 21.084990659111824 0 0 0
85 6 9.836656023736499 8.510165235868556 18.445211607685057 0 0 0
89 6 8.792393071772132 10.863499206560077 18.987558673382694 0 0 0
90 4 11.293936242942152 10.802738594903188 18.89602785559104 0 0 0
114 7 8.719636892150907 9.328769204842496 20.936420642821734 0 0 0
115 6 11.129048088697127 9.278994637321976 21.174588502556126 0 0 0
120 7 10.028560129300912 11.54572721775123 21.134725159048276 0 0 0
121 7 0.09277543531651376 1.4017924498519283 23.260653201533263 0 0 0
122 7 2.582053590331125 1.4053821262837756 23.30614410527647 0 0 0
126 6 1.3616593347167214 3.6012447866875834 23.252761469515352 0 0 0
127 7 3.863976911512641 3.5890668673163435 23.34957138281153 0 0 0
152 7 2.670991202582227 0.01772414412040983 25.36274647832558 0 0 0
156 1 1.4937779782427711 2.140614350910161 25.49241230524091 0 0 0
157 7 3.9839398875173995 2.144547063758284 25.42865755803456 0 0 0
162 7 2.6153620312299344 4.269328830946522 25.40682811741248 0 0 0
123 7 5.0257073304212865 1.4325469750350026 23.192141336295176 0 0 0
124 7 7.4313281983993935 1.5102860370234052 23.492413786252914 0 0 0
128 7 6.321999674044918 3.65721150816277 23.1734299327346 0 0 0
153 7 5.223193281939998 0.08105035485519871 25.3222649475265 0 0 0
154 7 7.632481155867091 12.935206761613268 25.471215241737774 0 -1 0
158 2 5.824000808141009 2.464520079666907 24.651555952192385 0 0 0
163 7 5.138623279654335 4.252936482422944 25.401752951566685 0 0 0
164 5 7.49550666792823 4.035168466991286 25.351958639428968 0 0 0
125 7 10.076779540542136 1.4314332451945486 23.314638680690706 0 0 0
129 7 8.77443737098946 3.550769626943659 23.342072162467844 0 0 0
130 4 11.372393904131886 3.6300405106784455 23.397330125120433 0 0 0
155 4 10.154924571892238 0.05141891153778905 25.538791316879617 0 0 0
159 7 8.910316899905489 2.0892228726459074 25.43979641978583 0 0 0
160 7 11.424637875235778 2.153742438150863 25.40810798042214 0 0 0
165 7 10.083126276073084 4.214356028871556 25.42360641037314 0 0 0
131 7 0.08293570996893171 5.786899815589617 23.386453819829498 0 0 0
132 7 2.5581089818374476 5.795414405431722 23.35137450533212 0 0 0
136 7 1.3224817359593752 7.919881025714934 23.29266007799073 0 0 0
137 7 3.800694583791605 7.962698326091652 23.3085839201489 0 0 0
161 4 0.12243123950427688 4.345626971619092 25.455392129238493 0 0 0
166 7 1.3524092026532064 6.424264519782682 25.410443393506167 0 0 0
167 7 3.8283695896874135 6.44099167704388 25.425230093127364 0 0 0
133 6 5.085793170518837 5.846650907586608 23.368849010010546 0 0 0
134 7 7.57808577867133 5.77444903771561 23.307846886722412 0 0 0
138 7 6.3267714420102195 7.98926140017973 23.32928168519426 0 0 0
168 7 6.385631925924725 6.4000328907969575 25.414635565199294 0 0 0
173 7 5.131548385649154 8.559146642104244 25.338472371559245 0 0 0
135 7 10.077954651396997 5.830546521472074 23.392997316206028 0 0 0
139 4 8.71567673071612 7.943899066166622 23.232514379507183 0 0 0
140 4 11.299286790503778 7.896812597274015 23.30910155145636 0 0 0
169 7 8.790601269034182 6.316234335075181 25.39484598832488 0 0 0
170 7 11.305704049435603 6.409068857877684 25.45065601092919 0 0 0
175 6 9.896318600933565 8.555823123963698 25.531409170251234 0 0 0
141 7 0.039237947804029415 10.085611853216696 23.328385600501665 0 0 0
142 7 2.5219303165709697 10.107204423337457 23.288177821867738 0 0 0
146 7 1.3205936461130119 12.239622737884593 23.307766408198397 0 0 0
147 7 3.836416510849936 12.243954958961542 23.21848817799559 0 0 0
151 4 0.11431165563184263 12.879459521673033 25.374063813379657 0 -1 0
171 6 0.12398359995234637 8.624716624298088 25.41392083000572 0 0 0
172 7 2.6395005234655513 8.617479173518854 25.378327243356846 0 0 0
176 7 1.3608768136914096 10.812916477603782 25.42137409109336 0 0 0
177 6 3.906427069337966 10.824081876428316 25.29806486407003 0 0 0
143 7 5.094697816812571 10.107582649324614 23.2222152415248 0 0 0
144 7 7.534262844757607 10.081755187108511 22.90807009668988 0 0 0
148 4 6.252615319230793 12.275619494007065 23.252272992400325 0 0 0
178 6 6.660463849427687 10.53217531859979 25.230754801067025 0 0 0
145 7 10.018906610755545 10.082663685451648 23.318264402506053 0 0 0
149 6 8.744009159453741 12.27916801301595 23.30871678722092 0 0 0
150 7 11.279674775090779 12.224484360481094 23.34409964738907 0 0 0
174 3 8.441407239392214 9.510914050092344 24.419224697009074 0 0 0
179 5 9.029594493541886 10.916757599992831 25.59402237162223 0 0 0
180 5 11.359010614404724 10.871076790711655 25.49964835182813 0 0 0
181 7 1.408531128293068 0.6772161520324326 27.47816404763705 0 0 0
182 7 3.9047990587538486 0.7124270619746629 27.4320758872083 0 0 0
186 7 0.18843291873464124 2.859222223074104 27.487838426783917 0 0 0
187 7 2.6882700269705384 2.85554005226048 27.5397411985053 0 0 0
211 7 0.22512966851623906 1.4449830933943113 29.59386841982158 0 0 0
212 7 2.7388028778010525 1.3602421294036078 29.562008722512658 0 0 0
216 7 1.434225556396028 3.5525306654443796 29.556147480512386 0 0 0
217 4 3.8729829692644873 3.564428284422635 29.537421970493643 0 0 0
183 7 6.349015143247881 0.7162886162158671 27.574727857313405 0 0 0
188 7 5.134044833015864 2.871693857451952 27.540212457337322 0 0 0
189 7 7.649575642137536 2.7908423359267474 27.47024033402839 0 0 0
213 5 5.163259518251933 1.424280403396951 29.590475987773853 0 0 0
214 7 7.652275849466092 1.3535547320722283 29.597021894102053 0 0 0
218 7 6.415909955119325 3.53503284250248 29.52553322528074 0 0 0
184 7 8.92372979553543 0.7088080045646806 27.56647356122641 0 0 0
185 4 11.411231865277434 0.7103955291394431 27.54022049217307 0 0 0
190 7 10.176111092483806 2.8274229314862205 27.504521474741242 0 0 0
215 7 10.151450928988861 1.3961370392680958 29.639206231826115 0 0 0
219 7 8.891054653024964 3.521744315308016 29.57262493780728 0 0 0
220 7 11.38811246412593 3.564465705373049 29.551917277059918 0 0 0
191 7 1.4110432389684964 5.009571370825649 27.4438303680647 0 0 0
192 7 3.8663738709463016 4.987474621584008 27.446260235819373 0 0 0
197 7 2.6029941342892418 7.200341193146801 27.444694373238157 0 0 0
221 7 0.14554197787830872 5.731837738916988 29.557899525400575 0 0 0
222 7 2.6202906601639206 5.734474845763205 29.48378185577101 0 0 0
226 7 1.3941203486276557 7.933701873193756 29.502692816687436 0 0 0
227 7 3.891369028139259 7.928013768934157 29.432334651872623 0 0 0
193 7 6.413788034732459 4.976357595073268 27.389387105318267 0 0 0
198 7 5.13091512268042 7.175775998999958 27.391285685405148 0 0 0
199 7 7.652090766311078 7.189269680147184 27.448468705502275 0 0 0
223 6 5.192973628614126 5.7184500199249655 29.446891670696118 0 0 0
224 7 7.682595194110147 5.741203921102467 29.595843741494026 0 0 0
228 7 6.4255256560244804 7.912904091483437 29.481367545942337 0 0 0
194 6 8.885541241243967 4.996512447619961 27.524971012857467 0 0 0
195 7 11.384635594155263 4.9945648505213365 27.519649098635888 0 0 0
196 7 0.15761300235547332 7.163789097104101 27.48870146629323 0 0 0
200 7 10.151611745347731 7.154446123004978 27.565834339686642 0 0 0
225 7 10.139656943527086 5.739764794405232 29.668798594443224 0 0 0
229 7 8.87691566312775 7.880216765634751 29.551561345374665 0 0 0
230 7 11.400707221550325 7.916070652166258 29.558976217091505 0 0 0
201 5 1.3971733097532506 9.346977527745327 27.496771995539273 0 0 0
202 7 3.895617294228472 9.332908963390228 27.373597135846303 0 0 0
206 4 0.20373501521755202 11.485765220001761 27.520895411540216 0 0 0
207 7 2.629999078370476 11.482448899744693 27.428178928400637 0 0 0
231 7 0.17888795040921018 10.090860627359774 29.576837179234463 0 0 0
232 7 2.654659859462554 10.0665834652631 29.40264734053363 0 0 0
236 7 1.4723895831478193 12.203988008371555 29.543245888372176 0 0 0
203 7 6.397078589763893 9.289883397714934 27.39944349336807 0 0 0
208 7 5.164661671861407 11.507336429990719 27.338845119137154 0 0 0
209 6 7.6077185539336964 11.523220920735616 27.646507704399138 0 0 0
233 7 5.1696314445108 10.06737700928917 29.332626275458637 0 0 0
234 7 7.618833936384681 10.086829235003991 29.67420719327279 0 0 0
238 7 6.241585245492983 12.241954536591187 29.691342033118662 0 0 0
204 7 8.864471344554966 9.36460683334006 27.64101886399722 0 0 0
205 7 11.367699613891435 9.411371426708575 27.555649092063263 0 0 0
210 7 10.176933778385296 11.542760228408856 27.60276157765104 0 0 0
235 7 10.110217539630675 10.156543830580567 29.63798807712574 0 0 0
239 4 8.89838012216556 12.242688128796528 29.73719769517294 0 0 0
240 7 11.405868148888713 12.254400763553697 29.591353890421686 0 0 0
237 3 4.056720354442784 0.29274335835524923 30.553423834228614 0 1 0
241 7 0.19681776951340255 0.10743701782385263 31.646804662169597 0 0 0
242 7 2.5758977374238863 0.17131887543611768 31.723165685737595 0 0 0
246 4 1.3563809166418843 2.264670923696582 31.6564322047175 0 0 0
247 7 3.9176542334497104 2.1608905247501857 31.60816728892581 0 0 0
276 7 0.16537651961671143 3.0285381661656263 33.722774947199504 0 0 0
243 7 5.17890140063996 12.922624470188195 32.102057924777604 0 -1 0
244 7 7.642817177613925 0.006270001818150318 31.723951482540617 0 0 0
248 7 6.4464355007994545 2.159191604402629 31.638062818688002 0 0 0
279 7 7.72293530799782 3.0638823112162163 33.741501314140514 0 0 0
249 7 8.88838843341622 2.1230759596678213 31.697076815512194 0 0 0
250 7 11.39348078129137 2.1496158581507894 31.678421047029474 0 0 0
255 1 10.186124774909631 4.268350267197432 31.629457634789528 0 0 0
275 4 11.392044486435394 0.8017080484771806 33.72261415541192 0 0 0
251 7 0.1861895570038078 4.333548846337234 31.618643253128756 0 0 0
252 7 2.6969671993178874 4.316863676455548 31.555598723159466 0 0 0
256 7 1.3567144341872084 6.573036784511771 31.52884311128831 0 0 0
257 6 3.818993678951106 6.5094767479280184 31.575155316397453 0 0 0
253 7 5.174488209390438 4.312392117669065 31.57369732751041 0 0 0
254 7 7.6885053607725915 4.331898792032756 31.617483244050817 0 0 0
258 7 6.375638007213318 6.500677635772825 31.60557397161257 0 0 0
264 7 7.611638427005645 8.585311491403798 31.632497463373788 0 0 0
283 7 6.405213300962519 5.130227903264725 33.654108543816605 0 0 0
289 7 7.650885803217292 7.197899875184775 33.716293032955726 0 0 0
259 4 8.844090835806364 6.472481321848054 31.67244279831006 0 0 0
260 7 11.352571456365608 6.470575244818121 31.68395582073422 0 0 0
284 5 8.921162968641715 5.13580613191915 33.688950184272215 0 0 0
290 7 10.149461184529132 7.207692351429525 33.69773363781134 0 0 0
261 7 0.20434886766358032 8.743072451243549 31.64646594992075 0 0 0
262 7 2.7024922300693706 8.782844474119207 31.46630582316693 0 0 0
266 7 1.5589828850592198 10.877613939577477 31.569106721190714 0 0 0
267 4 3.9343508963626923 11.268332163146427 30.89248031810571 0 0 0
292 7 4.016732256489454 9.51257418538523 33.40228269579156 0 0 0
326 7 0.46147549376003943 11.679825011017753 33.70515546869804 0 0 0
263 1 5.140321997596516 8.759208462997252 31.400420429754192 0 0 0
268 7 6.28401459848874 10.775451700121454 31.598743369166563 0 0 0
245 7 10.111521503570453 12.880480815626633 31.872482841803706 0 -1 0
265 6 10.13786163262194 8.651004375180236 31.595907069446913 0 0 0
269 7 8.79216221525877 10.79196404881248 31.75579985772354 0 0 0
270 7 11.423570400231062 10.892145430794608 31.685291123745973 0 0 0
294 7 8.797053971281521 9.278447622973484 33.69802783318495 0 0 0
296 3 11.041809193664118 11.815389357713586 33.37216876855484 -1 0 0
271 7 1.4282825451154868 0.9334912450240199 33.756814296125626 0 0 0
272 7 3.886835463952392 1.0028429379074624 33.899341779189264 0 0 0
277 7 2.642118880319709 3.108040192331583 33.706562595903804 0 0 0
301 7 0.0872000819381037 1.5708726603999983 35.7480114556076 0 0 0
302 7 2.502700008637187 1.7948550454917842 35.7984217174555 0 0 0
306 4 1.1383044650693595 4.101872003054733 35.786735686944006 0 0 0
307 7 3.885575871375124 3.8196877861411345 35.774058000453095 0 0 0
273 7 6.4286175533937335 1.0073953906657531 33.91195173395495 0 0 0
278 1 5.220265885529142 3.016356185272801 33.690837926239354 0 0 0
303 7 5.156233246707314 1.7510783330641408 35.91625569587819 0 0 0
304 4 7.666455525959632 1.6709167649655547 35.92206856021589 0 0 0
308 7 6.42787589715007 3.767831084525402 35.78480231120024 0 0 0
274 7 8.805669549666229 0.9056027856716258 33.83586505993681 0 0 0
280 7 10.19320275903123 3.011770016517971 33.76503957227609 0 0 0
305 7 10.105531077799379 1.5268500646935326 35.77094354075947 0 0 0
309 7 8.898463246635947 3.6838295486639767 35.82739045701483 0 0 0
310 4 11.350843910458625 3.702340340261518 35.907871462576246 0 0 0
335 5 9.81780124127947 12.887433358464811 37.44543059278454 0 -1 0
281 7 1.4646496030439857 5.2218824298183035 33.54112287740147 0 0 0
282 4 3.937528821186473 5.15993506804636 33.647319815833654 0 0 0
286 7 0.17769214424774638 7.359870181481863 33.61120618920447 0 0 0
287 7 2.695476678218551 7.410948254256409 33.57190208001065 0 0 0
312 7 2.701883944791506 5.920465436632388 35.495293289346115 0 0 0
316 7 1.464221277312811 8.034542676259646 35.62536598128644 0 0 0
317 7 3.9287010954990635 8.14716142699963 35.67578382276224 0 0 0
288 7 5.198106007257102 7.332361171111647 33.61631883370938 0 0 0
313 7 5.215540632352042 5.974177410924398 35.65866607998016 0 0 0
314 7 7.670840312298058 5.854962299399956 35.77067539591005 0 0 0
318 4 6.544294602330824 8.158950167105683 35.79022042481234 0 0 0
285 4 11.53877620465355 5.198457455796635 34.030925601936545 0 0 0
311 2 0.6499030591165629 6.191605123733227 35.22518071835179 0 0 0
315 7 10.122475163283799 5.754466134535146 35.87280689219147 0 0 0
319 7 8.990029849710053 7.967470909392975 35.76344146534811 0 0 0
320 7 11.557839583689605 7.675978350629494 35.77144716145756 0 0 0
355 3 10.255192796781483 7.819594795941052 37.2077671658174 0 0 0
291 7 1.4916758487818609 9.517761383718584 33.67743347099852 0 0 0
297 6 2.9804084495100156 11.64352351445082 33.688666831567396 0 0 0
321 6 0.1419205911972206 10.128523351597725 35.97193773734527 0 0 0
322 7 2.6471923420943155 10.289989403126997 35.787964756424046 0 0 0
327 6 3.8183828817549808 12.621422810503095 36.110227097052615 0 0 0
356 4 1.3217208903965916 12.408556189260693 35.865002438774255 0 0 0
293 4 6.473652353724441 9.355066804371635 33.67120752581664 0 0 0
298 2 5.150511363661586 12.326745148400033 34.21688845406516 0 0 0
299 7 6.955325161084124 11.628107656793762 33.70813583267141 0 0 0
323 6 5.192274009908245 10.306546376000155 35.57150162194906 0 0 0
324 7 7.880239996154969 10.393104144880649 35.70936153391263 0 0 0
328 7 6.3620883588811195 12.580710161705772 35.93681309488766 0 0 0
295 6 11.287298396584713 9.6516629879893 33.86553508600509 0 0 0
300 7 9.348828083259782 11.544604900564153 34.16710682073645 0 0 0
325 7 10.243617197373494 9.734032798208094 37.01132225030936 0 0 0
329 3 9.51663117558112 11.353367886874324 36.26396605001148 0 0 0
330 4 11.179639181077654 12.109403036031038 35.59934358438175 0 0 0
332 7 2.3884073901539487 0.20325127416926245 38.044198608057236 0 0 0
336 7 1.2024144860073038 2.277257150275222 37.75324897335767 0 0 0
337 7 3.7557084564633056 2.26750702858188 37.81540770326057 0 0 0
333 7 5.13626206226109 0.2190370464054323 38.12081022507273 0 0 0
334 7 7.566533813100443 0.09054405143974796 38.01343440871552 0 0 0
338 7 6.426774936915269 2.302096539132798 37.89000893652294 0 0 0
339 7 8.876681742156787 2.1934016710850557 37.87462448622932 0 0 0
340 7 11.241179488460254 2.1543730751710846 37.81361034955725 0 0 0
342 7 2.5039429599114142 4.344897405228264 37.78630461458867 0 0 0
346 7 1.1195476947178147 6.328000294395469 37.27036797095592 0 0 0
347 6 3.7201116871792177 6.491522331889399 37.61199636887771 0 0 0
362 8 1.4675610614222994 6.571995318309781 41.368268466424624 0 0 0
343 7 5.131556469923074 4.467094333641663 37.804026482465005 0 0 0
344 7 7.664432366255476 4.455770361274943 37.8741912739562 0 0 0
348 6 6.447685727483711 6.666264380721841 37.80236148750341 0 0 0
341 7 0.009052219819254456 4.31098991453113 38.00726524217121 0 0 0
345 4 10.056180980103631 4.353185513561162 37.916891625786164 0 0 0
349 7 8.938420574358876 6.6536098713939404 37.8751554221376 0 0 0
350 7 11.293717948773583 6.462063310537754 37.96662560821199 0 0 0
361 8 0.9153550517076293 6.0833484207273765 41.55933039813978 1 0 0
352 6 2.506795715281033 8.72346348056869 37.73758505096081 0 0 0
357 7 3.8142778107752995 10.889055297161569 37.9367124860893 0 0 0
360 7 1.3733726806973545 10.968525112798542 37.92322013730837 1 0 0
353 7 5.07634714490119 8.72789250558412 37.822782346827175 0 0 0
354 7 7.88175437410746 8.967138089331979 37.78375869458118 0 0 0
358 6 6.367274325091861 10.881219329934263 37.7842255240899 0 0 0
331 7 12.315317246145217 12.910371694727674 37.63595109484233 -1 -1 0
351 7 12.436463153468543 8.618519012786285 37.92195050972165 -1 0 0
359 2 8.568865527545547 11.103708760788875 37.46456602811521 0 0 0

Velocities

1 0 0 0
2 0 0 0
6 0 0 0
7 0 0 0
31 0 0 0
32 0 0 0
36 0 0 0
37 0 0 0
3 0 0 0
8 0 0 0
9 0 0 0
33 0 0 0
34 0 0 0
38 0 0 0
4 0 0 0
5 0 0 0
10 0 0 0
35 0 0 0
39 0 0 0
40 0 0 0
11 0 0 0
12 0 0 0
16 0 0 0
17 0 0 0
41 0 0 0
42 0 0 0
46 0 0 0
47 0 0 0
13 0 0 0
18 0 0 0
19 0 0 0
43 0 0 0
44 0 0 0
48 0 0 0
14 0 0 0
15 0 0 0
20 0 0 0
45 0 0 0
49 0 0 0
50 0 0 0
21 0 0 0
22 0 0 0
26 0 0 0
27 0 0 0
51 0 0 0
52 0 0 0
56 0 0 0
57 0 0 0
23 0 0 0
28 0 0 0
29 0 0 0
53 0 0 0
54 0 0 0
58 0 0 0
24 0 0 0
25 0 0 0
30 0 0 0
55 0 0 0
59 0 0 0
60 0 0 0
61 0 0 0
62 0 0 0
66 0 0 0
67 0 0 0
91 0 0 0
92 0 0 0
96 0 0 0
97 0 0 0
63 0 0 0
64 0 0 0
68 0 0 0
93 0 0 0
98 0 0 0
99 0 0 0
65 0 0 0
69 0 0 0
70 0 0 0
94 0 0 0
95 0 0 0
100 0 0 0
71 0 0 0
72 0 0 0
76 0 0 0
77 0 0 0
101 0 0 0
102 0 0 0
106 0 0 0
107 0 0 0
73 0 0 0
74 0 0 0
78 0 0 0
103 0 0 0
108 0 0 0
109 0 0 0
75 0 0 0
79 0 0 0
80 0 0 0
104 0 0 0
105 0 0 0
110 0 0 0
81 0 0 0
82 0 0 0
86 0 0 0
87 0 0 0
111 0 0 0
112 0 0 0
116 0 0 0
117 0 0 0
83 0 0 0
84 0 0 0
88 0 0 0
113 0 0 0
118 0 0 0
119 0 0 0
85 0 0 0
89 0 0 0
90 0 0 0
114 0 0 0
115 0 0 0
120 0 0 0
121 0 0 0
122 0 0 0
126 0 0 0
127 0 0 0
152 0 0 0
156 0 0 0
157 0 0 0
162 0 0 0
123 0 0 0
124 0 0 0
128 0 0 0
153 0 0 0
154 0 0 0
158 0 0 0
163 0 0 0
164 0 0 0
125 0 0 0
129 0 0 0
130 0 0 0
155 0 0 0
159 0 0 0
160 0 0 0
165 0 0 0
131 0 0 0
132 0 0 0
136 0 0 0
137 0 0 0
161 0 0 0
166 0 0 0
167 0 0 0
133 0 0 0
134 0 0 0
138 0 0 0
168 0 0 0
173 0 0 0
135 0 0 0
139 0 0 0
140 0 0 0
169 0 0 0
170 0 0 0
175 0 0 0
141 0 0 0
142 0 0 0
146 0 0 0
147 0 0 0
151 0 0 0
171 0 0 0
172 0 0 0
176 0 0 0
177 0 0 0
143 0 0 0
144 0 0 0
148 0 0 0
178 0 0 0
145 0 0 0
149 0 0 0
150 0 0 0
174 0 0 0
179 0 0 0
180 0 0 0
181 0 0 0
182 0 0 0
186 0 0 0
187 0 0 0
211 0 0 0
212 0 0 0
216 0 0 0
217 0 0 0
183 0 0 0
188 0 0 0
189 0 0 0
213 0 0 0
214 0 0 0
218 0 0 0
184 0 0 0
185 0 0 0
190 0 0 0
215 0 0 0
219 0 0 0
220 0 0 0
191 0 0 0
192 0 0 0
197 0 0 0
221 0 0 0
222 0 0 0
226 0 0 0
227 0 0 0
193 0 0 0
198 0 0 0
199 0 0 0
223 0 0 0
224 0 0 0
228 0 0 0
194 0 0 0
195 0 0 0
196 0 0 0
200 0 0 0
225 0 0 0
229 0 0 0
230 0 0 0
201 0 0 0
202 0 0 0
206 0 0 0
207 0 0 0
231 0 0 0
232 0 0 0
236 0 0 0
203 0 0 0
208 0 0 0
209 0 0 0
233 0 0 0
234 0 0 0
238 0 0 0
204 0 0 0
205 0 0 0
210 0 0 0
235 0 0 0
239 0 0 0
240 0 0 0
237 0 0 0
241 0 0 0
242 0 0 0
246 0 0 0
247 0 0 0
276 0 0 0
243 0 0 0
244 0 0 0
248 0 0 0
279 0 0 0
249 0 0 0
250 0 0 0
255 0 0 0
275 0 0 0
251 0 0 0
252 0 0 0
256 0 0 0
257 0 0 0
253 0 0 0
254 0 0 0
258 0 0 0
264 0 0 0
283 0 0 0
289 0 0 0
259 0 0 0
260 0 0 0
284 0 0 0
290 0 0 0
261 0 0 0
262 0 0 0
266 0 0 0
267 0 0 0
292 0 0 0
326 0 0 0
263 0 0 0
268 0 0 0
245 0 0 0
265 0 0 0
269 0 0 0
270 0 0 0
294 0 0 0
296 0 0 0
271 0 0 0
272 0 0 0
277 0 0 0
301 0 0 0
302 0 0 0
306 0 0 0
307 0 0 0
273 0 0 0
278 0 0 0
303 0 0 0
304 0 0 0
308 0 0 0
274 0 0 0
280 0 0 0
305 0 0 0
309 0 0 0
310 0 0 0
335 0 0 0
281 0 0 0
282 0 0 0
286 0 0 0
287 0 0 0
312 0 0 0
316 0 0 0
317 0 0 0
288 0 0 0
313 0 0 0
314 0 0 0
318 0 0 0
285 0 0 0
311 0 0 0
315 0 0 0
319 0 0 0
320 0 0 0
355 0 0 0
291 0 0 0
297 0 0 0
321 0 0 0
322 0 0 0
327 0 0 0
356 0 0 0
293 0 0 0
298 0 0 0
299 0 0 0
323 0 0 0
324 0 0 0
328 0 0 0
295 0 0 0
300 0 0 0
325 0 0 0
329 0 0 0
330 0 0 0
332 0 0 0
336 0 0 0
337 0 0 0
333 0 0 0
334 0 0 0
338 0 0 0
339 0 0 0
340 0 0 0
342 0 0 0
346 0 0 0
347 0 0 0
362 0 0 0
343 0 0 0
344 0 0 0
348 0 0 0
341 0 0 0
345 0 0 0
349 0 0 0
350 0 0 0
361 0 0 0
352 0 0 0
357 0 0 0
360 0 0 0
353 0 0 0
354 0 0 0
358 0 0 0
331 0 0 0
351 0 0 0
359 0 0 0
