LAMMPS data file via write_data, version 11 Feb 2026, timestep = 511, units = metal

362 atoms
8 atom types

0 12.447907776 xlo xhi
0 12.9362452296 ylo yhi
0 52.3600831054 zlo zhi

Masses

1 26.9815
2 10.811
3 12.011
4 51.9961
5 55.845
6 95.95999999999999
7 58.6934
8 1.008

Atoms # atomic/kk

1 7 1.1139777854333626 0.8297621123531286 14.642293832395586 0 0 0
2 7 3.5524971151224243 0.7454045689312774 14.870734409123807 0 0 0
6 7 12.2642716247548 3.4855777470715363 14.64320667758806 -1 0 0
7 7 2.224758632394419 2.9787278009644984 15.107019993791992 0 0 0
31 6 12.391574118022278 1.8968424414131568 16.48592384265653 -1 0 0
32 7 2.3061047844907794 1.2617780473569937 16.930916786914874 0 0 0
36 7 1.1355884939177696 3.9767378978000347 17.062837055042696 0 0 0
37 7 3.568591247106826 3.654144590876128 17.09336661802041 0 0 0
3 5 6.013239594034979 0.8745470493481698 14.93749950204204 0 0 0
8 7 4.778339952332094 2.992978337451751 15.020745715087799 0 0 0
9 7 7.2842152270234 3.069935027991717 14.892883984322612 0 0 0
33 7 4.827668334820907 1.543557043866584 16.982811855848514 0 0 0
34 7 7.355442431321315 1.719317049373348 16.94660957847022 0 0 0
38 5 6.074463972453833 3.7498685595973384 16.970404537534264 0 0 0
4 6 8.634195849828911 0.9785734835296714 14.946135976030591 0 0 0
5 7 11.022027699836894 1.2604784520901575 14.461785277965928 0 0 0
10 7 9.806396935830719 3.38707148223399 14.722807815878033 0 0 0
35 7 9.919376505845172 1.7213994210965022 16.90484126090852 0 0 0
39 7 8.633754080576324 3.8721285844568567 16.814445615445504 0 0 0
40 7 11.070072134236 3.960902833986149 16.96505629019294 0 0 0
11 7 1.1327780233177795 5.440754165748911 15.026069484142331 0 0 0
12 7 3.5508211816534163 5.154352874195153 15.121920635095634 0 0 0
16 4 0.21411255091780806 7.6814205536008044 14.612202805686488 0 0 0
17 7 2.426708144537878 7.513350947893586 15.091546668405957 0 0 0
41 7 12.314828494551744 6.1180250691804 17.12825916034846 -1 0 0
42 7 2.371157385083743 6.083529962765453 17.112169359898914 0 0 0
46 7 0.8168170539888818 8.421771273431776 16.86048075957464 0 0 0
47 7 3.814326656847067 8.017750454364089 17.027199586336614 0 0 0
13 7 6.044682697390018 5.19396938813304 15.008544150637627 0 0 0
18 7 4.893923589145891 7.310190368237561 14.977148829791858 0 0 0
19 2 6.841749736592115 6.983194750717109 15.316506123403359 0 0 0
43 7 4.852973146170498 5.819075424456755 17.07726328519533 0 0 0
44 7 7.341196134534843 5.8884600354383005 17.02356154781139 0 0 0
48 7 6.224117111902568 8.000842420255871 17.018317924199945 0 0 0
14 7 8.57277148284277 5.646706255811356 14.893675019220186 0 0 0
15 6 11.04599609914489 5.646849901635017 15.085709960852473 0 0 0
20 7 10.226419687845622 7.6655314057244786 13.989578569037185 0 0 0
45 7 9.806227343184736 6.11897017383342 17.179946983757244 0 0 0
49 7 8.468713438534312 7.866229170352012 16.022504961782055 0 0 0
50 7 10.904611277055047 8.124920850984878 16.2149165632034 0 0 0
21 2 1.5471837042697774 9.481266964368519 15.210670527116143 0 0 0
22 7 3.615698342343668 9.520421422012491 14.919197665196394 0 0 0
26 7 0.31320201919638274 10.810708046225368 16.8296859166473 0 0 0
27 7 2.0309096829913362 11.485196673940647 15.15136390099137 0 0 0
51 3 11.619463630025729 9.37889971467804 17.499651692092378 -1 0 0
52 7 2.6127646810017295 10.089310895764568 17.043461210115076 0 0 0
56 2 0.9257806021750068 12.713249268595105 16.354744631941106 0 0 0
57 7 3.70247512274876 12.234146281313388 16.92976742857822 0 0 0
23 7 6.583485832898297 9.09463869106097 14.851542917551509 0 0 0
28 7 4.816283615178006 11.61804026445728 14.819086150980366 0 0 0
29 6 7.372627676419046 11.5067584348693 14.917413435586527 0 0 0
53 7 5.127049370957264 10.118949369910013 16.779578530768514 0 0 0
54 7 7.692853720948935 10.052285073351909 16.921998005761413 0 0 0
58 6 6.293410497879032 12.347080286931819 17.012546478665854 0 0 0
24 7 9.050715182427107 9.675696155491254 14.656331078078889 0 0 0
25 7 11.943700311252218 9.88700562602246 14.71150290659111 0 0 0
30 7 9.922284605905341 11.864953995751373 14.578992112346555 0 0 0
55 7 10.242437930312903 10.416787464885612 16.6465322785671 0 0 0
59 7 8.841702851655972 12.379441303746848 16.890968416926224 0 0 0
60 7 11.297555519198918 12.631182703865933 16.35091394618064 0 0 0
61 6 0.10392079964994197 12.922564731766125 18.57655113173408 0 -1 0
62 7 2.5617957004349057 0.04472651935415706 19.14391812212735 0 0 0
66 6 1.3523805003089673 2.2403667068645836 19.06687122098433 0 0 0
67 5 3.7968138751776825 2.1930250318930367 19.10505965870338 0 0 0
91 4 1.3636750130937096 0.7958964374965253 21.253306285129273 0 0 0
92 7 3.7945680520731893 0.7517300422391148 21.133666534260627 0 0 0
96 7 0.08207700157501795 2.8749629823181637 21.177574238893445 0 0 0
97 7 2.604017561065215 2.8729671242791492 21.209899541266864 0 0 0
63 5 5.01333389103899 0.1286663941629742 19.06450230319701 0 0 0
64 7 7.495898982021551 0.11875081022059526 19.093836827258283 0 0 0
68 7 6.191469493009216 2.186035051761033 19.050507839537705 0 0 0
93 7 6.321839946723052 0.7507403984830386 21.207882472945887 0 0 0
98 7 5.0467777449477556 2.8873750745260987 21.152890661998835 0 0 0
99 5 7.5015167571315775 2.854090928239061 21.1431810914148 0 0 0
65 7 10.080340362893208 0.11495864075049579 18.96541873587379 0 0 0
69 7 8.731344684737447 2.19733445877957 18.96367777583963 0 0 0
70 7 11.290599237069845 2.3011557574263843 18.908548398099736 0 0 0
94 7 8.777540548862909 0.763740868981172 21.17922490699273 0 0 0
95 7 11.363071777781327 0.7347088138888748 21.031831581180946 0 0 0
100 6 10.044920680526102 2.851468169736859 21.020292952208788 0 0 0
71 1 12.328303561828516 4.465319031146594 19.19614684383213 -1 0 0
72 7 2.448673400989024 4.431698200379786 19.117005599831757 0 0 0
76 7 1.1661478960202285 6.508033748724659 19.190784057792516 0 0 0
77 7 3.759142209327993 6.509117087455856 19.144901056920286 0 0 0
101 7 1.208885020703426 5.04127626816058 21.232831137713404 0 0 0
102 6 3.738393499859484 5.057285283789285 21.22698061561482 0 0 0
106 7 12.442247700857246 7.147931273914341 21.274314771524267 -1 0 0
107 7 2.4727675850010296 7.181971948316249 21.238221004142556 0 0 0
73 7 4.940291478982823 4.32007932121263 19.077036819763805 0 0 0
74 6 7.469332171117563 4.3265131214802635 19.02686841774954 0 0 0
78 7 6.170563068527709 6.534490294778694 19.105740795456818 0 0 0
103 7 6.278785972965247 5.067845616262264 21.15706692117869 0 0 0
108 7 5.019621996301981 7.232034758956899 21.207882898625225 0 0 0
109 7 7.426925960967889 7.276293185507798 21.240301037043555 0 0 0
75 5 9.861454693870163 4.375328698929199 19.01108147451923 0 0 0
79 7 8.613671101081813 6.527899557342244 19.286231412797722 0 0 0
80 7 11.092875785840913 6.520729758003367 19.283934365553907 0 0 0
104 7 8.739242887546858 5.0721227418688555 21.21648138629127 0 0 0
105 3 10.089301614569544 4.433704035462599 22.26317506794743 0 0 0
110 7 9.902032844949783 7.204567204003749 21.272196027046828 0 0 0
81 4 12.370346291061015 8.593890312388949 19.1887106072461 -1 0 0
82 6 2.433444390694363 8.547573017360564 19.024693102156807 0 0 0
86 7 1.3043188273884636 10.768078633596238 19.17101945247678 0 0 0
87 1 3.8462943044678295 10.891118011345476 19.00990923044372 0 0 0
111 7 1.2016063505256662 9.345001274117896 21.21711040435675 0 0 0
112 6 3.748216478706182 9.35001524143608 21.23909590759195 0 0 0
116 1 0.05896822099018924 11.55933757410774 21.17711926015235 0 0 0
117 7 2.5223715523134804 11.550647264037666 21.175499218772607 0 0 0
83 7 4.968968865183868 8.739158034411501 19.03355708031195 0 0 0
84 7 7.42299142369017 8.649401887397815 19.011710416915097 0 0 0
88 7 6.2754713938775195 10.832791716496912 19.02218703157797 0 0 0
113 7 6.241144853127838 9.407782239044597 21.034566212621513 0 0 0
118 7 5.041898895118074 11.570392422996955 21.143568099721264 0 0 0
119 4 7.472592660346086 11.586489094531517 21.077611475861747 0 0 0
85 6 9.829503141721274 8.525857853801602 18.450239936043346 0 0 0
89 6 8.783217693481 10.881273376331436 18.980322517707616 0 0 0
90 4 11.285486968658612 10.819424369613241 18.89209405570685 0 0 0
114 7 8.707530034502547 9.354270841920021 20.93468545638563 0 0 0
115 6 11.120585933356656 9.301534183055452 21.168468070674376 0 0 0
120 7 10.01936963741849 11.568750294986138 21.12342536225093 0 0 0
121 7 0.08395152259707034 1.4193514965236274 23.257329172457915 0 0 0
122 7 2.5723807187381715 1.4162946859408059 23.317645540221235 0 0 0
126 6 1.3553529309838697 3.6157449773535473 23.260893903842245 0 0 0
127 7 3.856502608288327 3.6005014429915887 23.36591356922658 0 0 0
152 7 2.657432381778015 0.02273769562216826 25.37565514412127 0 0 0
156 1 1.4897397178154568 2.1520429382050024 25.50233510104437 0 0 0
157 7 3.9781304919333196 2.149940512111113 25.44443566111282 0 0 0
162 7 2.607031178361757 4.2796068849025835 25.427912300064136 0 0 0
123 7 5.0133061862904515 1.4422293859160389 23.200474608966374 0 0 0
124 7 7.418671007446954 1.5330135759677568 23.48004701589106 0 0 0
128 7 6.31116193967443 3.6786726456345638 23.17128697280356 0 0 0
153 7 5.203198078408898 0.07703352104559312 25.331093326360314 0 0 0
154 7 7.614554798605475 0.02293856106131531 25.459446266723145 0 0 0
158 2 5.803669123165407 2.4940114334563246 24.64403012516867 0 0 0
163 7 5.123634022977658 4.262727383864628 25.42277455348372 0 0 0
164 5 7.483178586466437 4.075092828715256 25.344233267077257 0 0 0
125 7 10.06744002567265 1.4576142048251934 23.30174426614856 0 0 0
129 7 8.76285088329668 3.57509974612328 23.329510465977595 0 0 0
130 4 11.365772160219255 3.6543070225422167 23.383161747663827 0 0 0
155 4 10.138694843156099 0.08538964974136998 25.519595554407466 0 0 0
159 7 8.892667723424553 2.1188164442784894 25.42360153648201 0 0 0
160 7 11.416238531088846 2.1805559357203967 25.39238202496961 0 0 0
165 7 10.073311122942027 4.243128825758511 25.39768274619933 0 0 0
131 7 0.07890423069382871 5.805542403382998 23.385650569540292 0 0 0
132 7 2.5520909664946942 5.807964327510083 23.36500834340417 0 0 0
136 7 1.3162314199516205 7.933782966985924 23.296205584488852 0 0 0
137 7 3.7922056213959845 7.975366256085617 23.321807245426864 0 0 0
161 4 0.11844653566144367 4.364386008320283 25.453878695187218 0 0 0
166 7 1.346280736031282 6.4354664574084595 25.423826396923687 0 0 0
167 7 3.8181296336126302 6.44761876021291 25.448639231400545 0 0 0
133 6 5.076472563817406 5.861699279378752 23.384731225129993 0 0 0
134 7 7.566537326262379 5.797974650830858 23.30169405388323 0 0 0
138 7 6.319985306251338 8.00679709017434 23.33925127675454 0 0 0
168 7 6.37373363644913 6.405715366655596 25.42992190939807 0 0 0
173 7 5.121334614433109 8.563641030582106 25.353559463778797 0 0 0
135 7 10.071272974335177 5.858502241225108 23.373358874173686 0 0 0
139 4 8.706896268497383 7.9672388287333 23.21219745533022 0 0 0
140 4 11.295492676965774 7.919770418306104 23.2950389478309 0 0 0
169 7 8.782247738631137 6.354324590538539 25.371080906562206 0 0 0
170 7 11.299216684137434 6.431031661351602 25.4343964997947 0 0 0
175 6 9.901666297274806 8.587539799267644 25.501210589065685 0 0 0
141 7 0.02897606245553564 10.10440541367478 23.328618817922855 0 0 0
142 7 2.510709094128261 10.118677284385917 23.299275891448147 0 0 0
146 7 1.3085530891334554 12.252987637717997 23.314416617335368 0 0 0
147 7 3.8227218337583206 12.252559173028969 23.230615377008956 0 0 0
151 4 0.10248700147534212 12.897598017654634 25.371438662638916 0 -1 0
171 6 0.12124850319482045 8.640499506745238 25.41090017682103 0 0 0
172 7 2.631480346840255 8.621976876329482 25.39567917401719 0 0 0
176 7 1.3522906593342052 10.823759841081237 25.43246124125039 0 0 0
177 6 3.8939510308889407 10.826568635345902 25.315414692717386 0 0 0
143 7 5.082128098850144 10.121092016313812 23.234744087528508 0 0 0
144 7 7.517453797076976 10.107922489769464 22.904403647547046 0 0 0
148 4 6.238003571173136 12.292304872916777 23.261659602914754 0 0 0
178 6 6.652178482955779 10.536298174202473 25.238628370333338 0 0 0
145 7 10.004614607264095 10.108856458913817 23.300009034786843 0 0 0
149 6 8.729284989364844 12.308535840505638 23.29144259400364 0 0 0
150 7 11.266535114789498 12.247525117603134 23.333726557627976 0 0 0
174 3 8.427112904876607 9.52451407778772 24.405969232283145 0 0 0
179 5 9.019931462691241 10.948493598769419 25.559797496772834 0 0 0
180 5 11.35198717431956 10.896854345920277 25.481797529879053 0 0 0
181 7 1.3949187177165594 0.6812416363080573 27.485817599153574 0 0 0
182 7 3.88383853106374 0.7157141227758446 27.44498516204458 0 0 0
186 7 0.17997259585184208 2.877690445590444 27.479550274459566 0 0 0
187 7 2.668006872413511 2.865363666338206 27.563804436654085 0 0 0
211 7 0.21633341728933456 1.4626355778432298 29.579868795015592 0 0 0
212 7 2.7173585393272695 1.3755969949256002 29.579789798133117 0 0 0
216 7 1.41834680601649 3.570247631513466 29.58382091383779 0 0 0
217 4 3.832510769020588 3.584203430700864 29.599540076939792 0 0 0
183 7 6.322691532622909 0.7306159062418984 27.56998393322516 0 0 0
188 7 5.092945641262689 2.885532914047796 27.57544930452517 0 0 0
189 7 7.608598334755039 2.8081079181943864 27.44854528122735 0 0 0
213 5 5.144582006253056 1.4368050898286278 29.60069387885927 0 0 0
214 7 7.626879648394993 1.370102219745001 29.58435961692192 0 0 0
218 7 6.374905918795497 3.5476470446635244 29.540092765366484 0 0 0
184 7 8.902982004630877 0.7386602858374776 27.55078097966541 0 0 0
185 4 11.395498473547027 0.7421142825007424 27.518609054343337 0 0 0
190 7 10.15779759406169 2.8530524166622246 27.475101128217585 0 0 0
215 7 10.135975391351753 1.4236449242067448 29.619614679429368 0 0 0
219 7 8.84906446537236 3.5294560977296134 29.518707599453542 0 0 0
220 7 11.378463950466605 3.578769641045033 29.511730399177818 0 0 0
191 7 1.3990685791583128 5.024127884310561 27.46894920393252 0 0 0
192 7 3.8418923993093927 5.0004661270848345 27.48707749123158 0 0 0
197 7 2.588208909752304 7.204271462613668 27.480978960110367 0 0 0
221 7 0.1290234721519855 5.745050671030616 29.56469009770906 0 0 0
222 7 2.599381395796532 5.7402973885951765 29.552664893419728 0 0 0
226 7 1.3710002816450935 7.918021385842576 29.550283138256578 0 0 0
227 7 3.8694031233861392 7.922694940276672 29.4762604595466 0 0 0
193 7 6.380521998226123 4.986773704030267 27.41329346019811 0 0 0
198 7 5.112471344549271 7.1819781592222505 27.418657443539615 0 0 0
199 7 7.62593346777559 7.203856629983538 27.444912668534393 0 0 0
223 6 5.16326909332805 5.729738194533165 29.49277911036881 0 0 0
224 7 7.655065076718856 5.752963781604876 29.576871781862195 0 0 0
228 7 6.402235196569251 7.923508573082946 29.49654516837835 0 0 0
194 6 8.856955258253441 5.016992549181179 27.482201094205987 0 0 0
195 7 11.370238638829159 5.016306844679513 27.49795977039434 0 0 0
196 7 0.14486836112435056 7.179946554292334 27.48773663122919 0 0 0
200 7 10.130941860154739 7.179123494265695 27.527008787819284 0 0 0
225 7 10.11112649974863 5.760221286900686 29.59551378096971 0 0 0
229 7 8.855239553045287 7.901902146844324 29.514574973369577 0 0 0
230 7 11.376742596831823 7.95026048661635 29.514070459134203 0 0 0
201 5 1.3860023268621056 9.344400954967572 27.51502981676896 0 0 0
202 7 3.8811793694966807 9.33004376167195 27.396196091176684 0 0 0
206 4 0.1953631514620193 11.499434913341432 27.51806456142648 0 0 0
207 7 2.618837499977746 11.47503387497847 27.452497413093813 0 0 0
231 7 0.17085396552512055 10.097491895475265 29.56206033130029 0 0 0
232 7 2.6390265394128614 10.039614876858483 29.434638150063424 0 0 0
236 7 1.4767909670214396 12.200817363861464 29.556011969325265 0 0 0
203 7 6.380724724797739 9.301934719256726 27.40731648845154 0 0 0
208 7 5.150449811233976 11.510764493015296 27.353153664939146 0 0 0
209 6 7.599686244967344 11.546666622386732 27.631667228761025 0 0 0
233 7 5.155160940809625 10.064768376606665 29.341901447061698 0 0 0
234 7 7.610884991621605 10.10360714840408 29.655998490278176 0 0 0
238 7 6.2298414523197385 12.250696518283856 29.680689361937194 0 0 0
204 7 8.845972961726835 9.387415659789028 27.604072352170906 0 0 0
205 7 11.354590213588612 9.438319323683634 27.530964476191166 0 0 0
210 7 10.164403247733489 11.57609172350673 27.566685626354605 0 0 0
235 7 10.093534095719626 10.19711829065922 29.586408046749597 0 0 0
239 4 8.891999943468095 12.273380003950333 29.723773394062935 0 0 0
240 7 11.402183129790197 12.286855680851694 29.55207800186625 0 0 0
237 3 4.040108036809154 0.31694652989646 30.559962068217406 0 1 0
241 7 0.20649654943161236 0.12131699176480296 31.62897562799392 0 0 0
242 7 2.572628371675274 0.16266431616678248 31.74003876365043 0 0 0
246 4 1.3498206231845196 2.2640103901372433 31.659501926206346 0 0 0
247 7 3.889361792373763 2.169417450743579 31.641994299983804 0 0 0
276 7 0.18571460026476697 3.0206433805335595 33.73222731880459 0 0 0
243 7 5.17697632519435 12.92392425232822 32.10064370358203 0 -1 0
244 7 7.635957980003553 0.023107841139516982 31.710034677500964 0 0 0
248 7 6.417351190279607 2.1689721278118896 31.64257506792979 0 0 0
279 7 7.738640623889704 3.066898341072637 33.72603021804037 0 0 0
249 7 8.860651732215679 2.1251122316709274 31.67399298460832 0 0 0
250 7 11.39169272115285 2.1627201473410653 31.651876451785743 0 0 0
255 1 10.113425561354669 4.243568591758941 31.494969226831888 0 0 0
275 4 11.451859011503895 0.8249637516889452 33.70930807371348 0 0 0
251 7 0.15477773746911652 4.348247914950117 31.643969893817147 0 0 0
252 7 2.6404870106753595 4.338468847060953 31.665997741974838 0 0 0
256 7 1.337538428613878 6.523955929525283 31.632599723950605 0 0 0
257 6 3.799831552555004 6.520031464072763 31.6636607676804 0 0 0
253 7 5.121407010054949 4.328556434003627 31.622454264840883 0 0 0
254 7 7.631107473140404 4.333067679909776 31.586828421659494 0 0 0
258 7 6.361713874789148 6.5140099290639855 31.62084620932154 0 0 0
264 7 7.5997270461411865 8.600059882649957 31.614911979371342 0 0 0
283 7 6.389270809435621 5.1233299260862815 33.66632287790803 0 0 0
289 7 7.643950036303051 7.208494183895605 33.7093349860628 0 0 0
259 4 8.83177778544274 6.485336378489844 31.621337166434564 0 0 0
260 7 11.3240099516064 6.515530002774274 31.585965806058354 0 0 0
284 5 8.897004677774389 5.141794515737753 33.576557794557274 0 0 0
290 7 10.093886665562435 7.285676034359344 33.589443522901334 0 0 0
261 7 0.18504236957900236 8.734093498802519 31.647925307784593 0 0 0
262 7 2.670821486931791 8.739644358951903 31.5330895238825 0 0 0
266 7 1.570618438463184 10.85486252751604 31.57089847295798 0 0 0
267 4 3.9246619238427005 11.301643417202829 30.85455129306538 0 0 0
292 7 3.966477836340119 9.39607400518889 33.50241336374241 0 0 0
326 7 0.5156182137091955 11.680300990405842 33.6729691941272 0 0 0
263 1 5.101940251245749 8.779558063000728 31.427312783412653 0 0 0
268 7 6.2698414885743325 10.782863241208265 31.578432756082236 0 0 0
245 7 10.118600078290306 12.910236601160685 31.865606098886456 0 -1 0
265 6 10.110987842231413 8.70793681593119 31.533308633098038 0 0 0
269 7 8.783373473853882 10.824885003248452 31.74016942329424 0 0 0
270 7 11.434354158888837 10.931112538208673 31.607075445411365 0 0 0
294 7 8.779336454631158 9.312397473352409 33.686464951966315 0 0 0
296 3 11.082196484098972 11.858348293436693 33.32606582412808 -1 0 0
271 7 1.4848652223606973 0.9299843419407182 33.77376705464838 0 0 0
272 7 3.92993992591515 0.981946005865402 33.923965291814135 0 0 0
277 7 2.6520305664174297 3.104292226613784 33.795238229569165 0 0 0
301 7 0.20238445252140946 1.5791799798402937 35.755122974686095 0 0 0
302 7 2.6283709050475883 1.6950330549254993 35.85790959917621 0 0 0
306 4 1.4283978304589322 3.860334264194644 35.954663224890524 0 0 0
307 7 4.007686909294032 3.757082761290857 35.831441542567426 0 0 0
273 7 6.473241093341201 0.9995336036707518 33.89926121258445 0 0 0
278 1 5.2272481964110025 3.020495351883483 33.718829188408336 0 0 0
303 7 5.257023956719974 1.6919292906473 35.938643809759434 0 0 0
304 4 7.7744281804668365 1.6600157379153686 35.92240986760094 0 0 0
308 7 6.540501585341624 3.730236671031866 35.796219559081344 0 0 0
274 7 8.847861435378343 0.9254258438029156 33.83672579535366 0 0 0
280 7 10.21299017868818 3.0202906690625335 33.70254296466882 0 0 0
305 7 10.237156990914436 1.588744674366131 35.72274452023867 0 0 0
309 7 9.031978641345926 3.698615472039828 35.77490879214869 0 0 0
310 4 11.600573374330606 3.9710091942621712 35.8571733900714 0 0 0
335 5 9.911188574356583 12.933559270357977 37.385751723226925 0 -1 0
281 7 1.3323360278106084 5.20788439922014 33.85647436996465 0 0 0
282 4 3.855980008971984 5.157415533047214 33.76671564429872 0 0 0
286 7 0.10255880446690378 7.3065924568762 33.619117499678154 0 0 0
287 7 2.64067153560269 7.31149750043586 33.74318341183579 0 0 0
312 7 2.7390844507955103 5.817237177039191 35.781248683265815 0 0 0
316 7 1.221882386533368 7.631964395641469 35.78492774430007 0 0 0
317 7 3.943704061074789 8.088390927009998 35.72761266547199 0 0 0
288 7 5.192607512192275 7.292017338491699 33.66326788620048 0 0 0
313 7 5.275289183989774 5.939080483436482 35.71107317840631 0 0 0
314 7 7.732426755069777 5.8444195886828325 35.73909163945604 0 0 0
318 4 6.561931095610142 8.141933545483734 35.79603829884285 0 0 0
285 4 11.354952238075967 5.181029515359857 33.62752346713491 0 0 0
311 2 12.381421304906402 6.02786373872858 35.316721442145365 -1 0 0
315 7 10.144136494430352 5.836965934293169 35.57471176286145 0 0 0
319 7 8.961487871412206 8.002526004524709 35.81971273799559 0 0 0
320 7 11.356549123098286 7.961472273211849 35.58714896853192 0 0 0
355 3 10.449990022882446 7.9292370214221926 37.27211664671145 0 0 0
291 7 1.4754101457328865 9.450813368496808 33.72950320562473 0 0 0
297 6 3.0331541597132627 11.599698894649382 33.66839390355371 0 0 0
321 6 0.21685277695509292 10.095917725201879 35.90653313817848 0 0 0
322 7 2.7115894215044167 10.225036325819028 35.757733355075125 0 0 0
327 6 3.9290791011554917 12.532098493970365 36.10845435391034 0 0 0
356 4 1.410832617404613 12.386396103224905 35.8407430595216 0 0 0
293 4 6.463762240244245 9.338232980174181 33.64416038354893 0 0 0
298 2 5.20825709387 12.317638623277015 34.20714466432717 0 0 0
299 7 6.994819327977124 11.600935717862212 33.67896881308358 0 0 0
323 6 5.2432508041070065 10.266226281854971 35.55947654086897 0 0 0
324 7 7.919067222077038 10.379646262389532 35.70369992374871 0 0 0
328 7 6.481557730608526 12.547119758268098 35.91250201607506 0 0 0
295 6 11.279187262947262 9.725105862197644 33.75470357616775 0 0 0
300 7 9.384832579931814 11.571347100646781 34.15463356712126 0 0 0
325 7 10.258949986913306 9.872274259778345 37.02396048248446 0 0 0
329 3 9.536730421390198 11.430160817654546 36.19136361784059 0 0 0
330 4 11.263533281366412 12.099955604129123 35.56316138336955 0 0 0
332 7 2.4928847879151146 0.13302862394793122 38.03445304572703 0 0 0
336 7 1.3430079148922383 2.216211738675536 37.82977931152982 0 0 0
337 7 3.885785950324625 2.225347197642201 37.86156035775104 0 0 0
333 7 5.226389554050868 0.19525366766671134 38.11738465921732 0 0 0
334 7 7.658301493684086 0.0955176689867446 38.010120630023046 0 0 0
338 7 6.54127797313722 2.2907405584080425 37.900560016465874 0 0 0
339 7 9.002315519665279 2.218367721343579 37.853594648480595 0 0 0
340 7 11.37940599699603 2.2258503744510727 37.72317150976693 0 0 0
342 7 2.7241792569519374 4.323756468006133 37.920335900850645 0 0 0
346 7 1.529297915560371 6.442189545431107 37.996064541542516 0 0 0
347 6 3.9775296614055367 6.505303855395047 37.760417919768926 0 0 0
343 7 5.315279361899131 4.458165986547392 37.83194434536163 0 0 0
344 7 7.84500399053228 4.468431872659004 37.84267925388155 0 0 0
348 6 6.671136974978475 6.692808580849165 37.812918073655375 0 0 0
341 7 0.22451045697908065 4.283427206630267 38.06608051263636 0 0 0
345 4 10.233311210798309 4.3670358193152925 37.805185357272464 0 0 0
349 7 9.250286326611437 6.659984890598863 37.862075147707856 0 0 0
350 7 11.693177769242935 6.303721645885439 37.293944925051875 0 0 0
352 6 2.508998409776644 8.693704313400948 37.68313703788692 0 0 0
357 7 3.86826389846974 10.841235918921036 37.96026139955462 0 0 0
360 7 1.4111981356211154 10.932513037728029 37.8834316470924 1 0 0
353 7 5.147615844501557 8.727440323869976 37.8198564679665 0 0 0
354 7 7.9495021069939344 8.991693190102849 37.81275399587932 0 0 0
358 6 6.416466205629386 10.885718393975441 37.77423594092424 0 0 0
361 8 6.060320624317272 10.749999837344447 41.50797675037699 0 0 0
362 8 6.81122457523955 10.821254353788571 41.41675755702731 0 0 0
331 7 12.399074954959902 12.909359097164813 37.6152567036824 -1 -1 0
351 7 12.256577154857178 8.592651118132247 37.835320974163864 -1 0 0
359 2 8.609309054626232 11.191311025081964 37.41599385177408 0 0 0

Velocities

1 0 0 0
2 0 0 0
6 0 0 0
7 0 0 0
31 0 0 0
32 0 0 0
36 0 0 0
37 0 0 0
3 0 0 0
8 0 0 0
9 0 0 0
33 0 0 0
34 0 0 0
38 0 0 0
4 0 0 0
5 0 0 0
10 0 0 0
35 0 0 0
39 0 0 0
40 0 0 0
11 0 0 0
12 0 0 0
16 0 0 0
17 0 0 0
41 0 0 0
42 0 0 0
46 0 0 0
47 0 0 0
13 0 0 0
18 0 0 0
19 0 0 0
43 0 0 0
44 0 0 0
48 0 0 0
14 0 0 0
15 0 0 0
20 0 0 0
45 0 0 0
49 0 0 0
50 0 0 0
21 0 0 0
22 0 0 0
26 0 0 0
27 0 0 0
51 0 0 0
52 0 0 0
56 0 0 0
57 0 0 0
23 0 0 0
28 0 0 0
29 0 0 0
53 0 0 0
54 0 0 0
58 0 0 0
24 0 0 0
25 0 0 0
30 0 0 0
55 0 0 0
59 0 0 0
60 0 0 0
61 0 0 0
62 0 0 0
66 0 0 0
67 0 0 0
91 0 0 0
92 0 0 0
96 0 0 0
97 0 0 0
63 0 0 0
64 0 0 0
68 0 0 0
93 0 0 0
98 0 0 0
99 0 0 0
65 0 0 0
69 0 0 0
70 0 0 0
94 0 0 0
95 0 0 0
100 0 0 0
71 0 0 0
72 0 0 0
76 0 0 0
77 0 0 0
101 0 0 0
102 0 0 0
106 0 0 0
107 0 0 0
73 0 0 0
74 0 0 0
78 0 0 0
103 0 0 0
108 0 0 0
109 0 0 0
75 0 0 0
79 0 0 0
80 0 0 0
104 0 0 0
105 0 0 0
110 0 0 0
81 0 0 0
82 0 0 0
86 0 0 0
87 0 0 0
111 0 0 0
112 0 0 0
116 0 0 0
117 0 0 0
83 0 0 0
84 0 0 0
88 0 0 0
113 0 0 0
118 0 0 0
119 0 0 0
85 0 0 0
89 0 0 0
90 0 0 0
114 0 0 0
115 0 0 0
120 0 0 0
121 0 0 0
122 0 0 0
126 0 0 0
127 0 0 0
152 0 0 0
156 0 0 0
157 0 0 0
162 0 0 0
123 0 0 0
124 0 0 0
128 0 0 0
153 0 0 0
154 0 0 0
158 0 0 0
163 0 0 0
164 0 0 0
125 0 0 0
129 0 0 0
130 0 0 0
155 0 0 0
159 0 0 0
160 0 0 0
165 0 0 0
131 0 0 0
132 0 0 0
136 0 0 0
137 0 0 0
161 0 0 0
166 0 0 0
167 0 0 0
133 0 0 0
134 0 0 0
138 0 0 0
168 0 0 0
173 0 0 0
135 0 0 0
139 0 0 0
140 0 0 0
169 0 0 0
170 0 0 0
175 0 0 0
141 0 0 0
142 0 0 0
146 0 0 0
147 0 0 0
151 0 0 0
171 0 0 0
172 0 0 0
176 0 0 0
177 0 0 0
143 0 0 0
144 0 0 0
148 0 0 0
178 0 0 0
145 0 0 0
149 0 0 0
150 0 0 0
174 0 0 0
179 0 0 0
180 0 0 0
181 0 0 0
182 0 0 0
186 0 0 0
187 0 0 0
211 0 0 0
212 0 0 0
216 0 0 0
217 0 0 0
183 0 0 0
188 0 0 0
189 0 0 0
213 0 0 0
214 0 0 0
218 0 0 0
184 0 0 0
185 0 0 0
190 0 0 0
215 0 0 0
219 0 0 0
220 0 0 0
191 0 0 0
192 0 0 0
197 0 0 0
221 0 0 0
222 0 0 0
226 0 0 0
227 0 0 0
193 0 0 0
198 0 0 0
199 0 0 0
223 0 0 0
224 0 0 0
228 0 0 0
194 0 0 0
195 0 0 0
196 0 0 0
200 0 0 0
225 0 0 0
229 0 0 0
230 0 0 0
201 0 0 0
202 0 0 0
206 0 0 0
207 0 0 0
231 0 0 0
232 0 0 0
236 0 0 0
203 0 0 0
208 0 0 0
209 0 0 0
233 0 0 0
234 0 0 0
238 0 0 0
204 0 0 0
205 0 0 0
210 0 0 0
235 0 0 0
239 0 0 0
240 0 0 0
237 0 0 0
241 0 0 0
242 0 0 0
246 0 0 0
247 0 0 0
276 0 0 0
243 0 0 0
244 0 0 0
248 0 0 0
279 0 0 0
249 0 0 0
250 0 0 0
255 0 0 0
275 0 0 0
251 0 0 0
252 0 0 0
256 0 0 0
257 0 0 0
253 0 0 0
254 0 0 0
258 0 0 0
264 0 0 0
283 0 0 0
289 0 0 0
259 0 0 0
260 0 0 0
284 0 0 0
290 0 0 0
261 0 0 0
262 0 0 0
266 0 0 0
267 0 0 0
292 0 0 0
326 0 0 0
263 0 0 0
268 0 0 0
245 0 0 0
265 0 0 0
269 0 0 0
270 0 0 0
294 0 0 0
296 0 0 0
271 0 0 0
272 0 0 0
277 0 0 0
301 0 0 0
302 0 0 0
306 0 0 0
307 0 0 0
273 0 0 0
278 0 0 0
303 0 0 0
304 0 0 0
308 0 0 0
274 0 0 0
280 0 0 0
305 0 0 0
309 0 0 0
310 0 0 0
335 0 0 0
281 0 0 0
282 0 0 0
286 0 0 0
287 0 0 0
312 0 0 0
316 0 0 0
317 0 0 0
288 0 0 0
313 0 0 0
314 0 0 0
318 0 0 0
285 0 0 0
311 0 0 0
315 0 0 0
319 0 0 0
320 0 0 0
355 0 0 0
291 0 0 0
297 0 0 0
321 0 0 0
322 0 0 0
327 0 0 0
356 0 0 0
293 0 0 0
298 0 0 0
299 0 0 0
323 0 0 0
324 0 0 0
328 0 0 0
295 0 0 0
300 0 0 0
325 0 0 0
329 0 0 0
330 0 0 0
332 0 0 0
336 0 0 0
337 0 0 0
333 0 0 0
334 0 0 0
338 0 0 0
339 0 0 0
340 0 0 0
342 0 0 0
346 0 0 0
347 0 0 0
343 0 0 0
344 0 0 0
348 0 0 0
341 0 0 0
345 0 0 0
349 0 0 0
350 0 0 0
352 0 0 0
357 0 0 0
360 0 0 0
353 0 0 0
354 0 0 0
358 0 0 0
361 0 0 0
362 0 0 0
331 0 0 0
351 0 0 0
359 0 0 0
