LAMMPS data file via write_data, version 11 Feb 2026, timestep = 520, units = metal

362 atoms
8 atom types

0 12.447907776 xlo xhi
0 12.9362452296 ylo yhi
0 52.3600831054 zlo zhi

Masses

1 26.9815
2 10.811
3 12.011
4 51.9961
5 55.845
6 95.95999999999999
7 58.6934
8 1.008

Atoms # atomic/kk

1 7 0.2094292195545786 12.46558442286672 14.817869850353032 0 -1 0
2 7 3.700439301326891 0.639014304697896 14.805798852870215 0 0 0
6 7 12.304839834971355 3.4306106911880265 14.769742504769958 -1 0 0
7 7 2.1929642874361583 2.632105114373316 15.051155899902785 0 0 0
31 6 0.1242012098115465 1.5858001051710608 16.46730570896788 0 0 0
32 7 2.6100212973876986 1.450085754904191 17.06920443077943 0 0 0
36 7 1.1803765387281722 3.8157983241864466 16.97568557941817 0 0 0
37 7 3.649478863332801 3.6521518578566483 17.0606255780615 0 0 0
3 5 6.1222459998693 0.8252730742974612 14.953750705234228 0 0 0
8 7 4.828881293992916 2.9225287202146863 14.999708362023574 0 0 0
9 7 7.315852999199933 3.0578924758721295 14.896440977970766 0 0 0
33 7 4.98465877069195 1.5637387731250494 16.992795834255407 0 0 0
34 7 7.420004454009463 1.7183318481182646 16.990858532138613 0 0 0
38 5 6.1482853679846565 3.76667086466282 16.967571409828665 0 0 0
4 6 8.68737489851796 1.0332761403929267 15.000058124914911 0 0 0
5 7 11.03793873537601 1.29661145945972 14.569773050172675 0 0 0
10 7 9.827718058439785 3.423840394833332 14.648778787798827 0 0 0
35 7 10.009832952794604 1.6543509308336097 16.96825824385549 0 0 0
39 7 8.698836804107744 3.8527821498622767 16.80616320187367 0 0 0
40 7 11.14447908325595 3.8446836303014744 16.95769631083382 0 0 0
11 7 1.1658812747793297 5.445073763967355 14.991519087247212 0 0 0
12 7 3.642947810813726 5.037476947129783 15.065874848982398 0 0 0
16 4 0.3545344609827391 7.813888178360818 14.58707071238232 0 0 0
17 7 2.623144170962316 7.352419956919206 14.81672767115002 0 0 0
41 7 12.38457614739305 5.993718416028813 17.15578881868026 -1 0 0
42 7 2.4619878426526256 5.908964093901882 17.037543966292162 0 0 0
46 7 1.2776851759832568 8.01732500382649 16.780681246692925 0 0 0
47 7 3.7689957205461986 7.975411257262871 16.976161121281482 0 0 0
13 7 6.1545304511807455 5.175689965636237 15.018315076779471 0 0 0
18 7 5.02697808064789 7.2332787496829845 14.976148743673189 0 0 0
19 2 6.957982617683808 7.004781804642242 15.324556185782876 0 0 0
43 7 4.923011840251851 5.8081929094626785 17.057594323621107 0 0 0
44 7 7.440373469579599 5.928363103539991 17.035792028734008 0 0 0
48 7 6.239016713381991 7.980243213413236 17.022417746153923 0 0 0
14 7 8.647684482225852 5.666640573094181 14.910390509827929 0 0 0
15 6 11.1360842521342 5.584595748243199 15.09857996261138 0 0 0
20 7 10.324651947692454 7.615793329492449 14.106707184821541 0 0 0
45 7 9.877853409644146 6.093511568685049 17.167054108147404 0 0 0
49 7 8.592920370875005 7.961084543751587 15.92015237349961 0 0 0
50 7 11.182107595869033 8.009239511676437 16.325004124933397 0 0 0
21 2 1.89604447074348 9.278916457770666 15.191313483320377 0 0 0
22 7 3.851554053409089 9.405839738604167 14.931007021921324 0 0 0
26 7 1.2844851228320597 12.24192107469091 17.03207915531547 0 0 0
27 7 2.3653722221248312 11.378866708995666 14.916358563682822 0 0 0
51 3 11.387485839723508 9.60347459530098 17.257586703819676 -1 0 0
52 7 2.5176438761220115 10.122682496226258 16.992142036255117 0 0 0
56 2 1.8401535018123591 0.4983359110114137 15.399121318356283 0 1 0
57 7 3.779123466229043 12.249095254382029 16.867982276292285 0 0 0
23 7 6.570509825374524 9.123172066028186 14.875642098752548 0 0 0
28 7 5.058368078935801 11.505373616070209 14.810650031966354 0 0 0
29 6 7.590653941063818 11.499003811851797 14.99759702030595 0 0 0
53 7 5.073813726485998 10.098110062640487 16.87901249315594 0 0 0
54 7 7.571822209895954 10.032301251615385 17.008933697334655 0 0 0
58 6 6.315353540021905 12.321841457884345 17.048102465927165 0 0 0
24 7 8.944571299103442 9.66492699789694 14.240349297565876 0 0 0
25 7 0.17379709032017246 10.14070640138106 15.883421810145041 1 0 0
30 7 10.055244368344752 11.969986029796132 14.625896729225438 0 0 0
55 7 9.914438018143223 10.28548951434034 16.365289032981963 0 0 0
59 7 8.839407657373037 12.410059738137846 16.974819040367983 0 0 0
60 7 11.229139307122699 12.397914991333419 16.76479836223836 0 0 0
61 6 12.416824197673598 0.12665166160702726 19.01212043276862 -1 0 0
62 7 2.5180449963163265 0.05858378033706397 19.144299927212963 0 0 0
66 6 1.361571546619119 2.272405685349327 19.057256465608564 0 0 0
67 5 3.82235338213371 2.2049841632513933 19.13447100974203 0 0 0
91 4 1.337033559206778 0.772479780440073 21.326449336460833 0 0 0
92 7 3.760099277614298 0.745816096688372 21.139545226874226 0 0 0
96 7 0.07041449531048416 2.8453673716969563 21.179611272623163 0 0 0
97 7 2.5851161196781582 2.8660698127275808 21.20183274202652 0 0 0
63 5 4.9839789574093984 0.1426531182222738 19.066445839893017 0 0 0
64 7 7.463734925550356 0.14076889021323033 19.132423932368386 0 0 0
68 7 6.20985618994914 2.209021299670143 19.084616629047495 0 0 0
93 7 6.288873713494505 0.7497360323694038 21.22129340511929 0 0 0
98 7 5.031823212345471 2.882188724855732 21.17107769679066 0 0 0
99 5 7.492009675046695 2.8527791964435494 21.1550248999667 0 0 0
65 7 9.987655666202663 0.14357635489999174 19.08815453775253 0 0 0
69 7 8.74587138802322 2.2343909916491977 18.983028725235762 0 0 0
70 7 11.266137718552892 2.360239366371171 18.948261087971133 0 0 0
94 7 8.742950715637004 0.7576114706985477 21.23501399412788 0 0 0
95 7 11.289409725604184 0.7140166355886127 21.2384404953753 0 0 0
100 6 10.031246062608844 2.844173141651597 21.04133869843265 0 0 0
71 1 12.34099616052954 4.514376302278073 19.180509971504005 -1 0 0
72 7 2.4484443713825748 4.451183438997003 19.070720678997443 0 0 0
76 7 1.2038516079294193 6.559324474417259 19.129306036594244 0 0 0
77 7 3.758226186334532 6.52220110742096 19.10740277855059 0 0 0
101 7 1.2124599861222207 5.031020550468851 21.203846506500724 0 0 0
102 6 3.7353126160313894 5.047018281599816 21.195670499100196 0 0 0
106 7 0.019125536973559752 7.141844752319537 21.21948728767675 0 0 0
107 7 2.478235428766662 7.177225809789619 21.21085145860861 0 0 0
73 7 4.954839897546271 4.322258888811409 19.064454279516916 0 0 0
74 6 7.495678320194597 4.3524159145358094 19.017161758787562 0 0 0
78 7 6.176403567908856 6.526333277703382 19.102306220620974 0 0 0
103 7 6.277013374494937 5.05399445765335 21.156186461663285 0 0 0
108 7 5.008746177659664 7.224404998116 21.193550124314225 0 0 0
109 7 7.4198587275235965 7.254287181819125 21.246789688986304 0 0 0
75 5 9.895585479357802 4.420510072769095 18.998188701515073 0 0 0
79 7 8.645798776769745 6.553209726809297 19.2868801737843 0 0 0
80 7 11.112373671226722 6.64835793884506 19.257050443069954 0 0 0
104 7 8.740564466417094 5.065344666644368 21.212892845609332 0 0 0
105 3 10.081612142057727 4.431865760583055 22.274265751274946 0 0 0
110 7 9.908736216459475 7.179196318562436 21.327505384283654 0 0 0
81 4 12.341446199282101 8.670258088269943 18.73196420712165 -1 0 0
82 6 2.4302899293178903 8.607360953110131 19.04035892606209 0 0 0
86 7 1.2123421749054704 10.814208564069608 19.13116877421998 0 0 0
87 1 3.7722349269596127 10.925116965322534 18.985494504919995 0 0 0
111 7 1.1728675449203154 9.31969088807882 21.145704708376254 0 0 0
112 6 3.734918960431313 9.35660425812686 21.24744019268606 0 0 0
116 1 0.0022597554525060127 11.49617462378293 21.241331751743527 0 0 0
117 7 2.4704364726448835 11.543376265257516 21.164355633187522 0 0 0
83 7 4.934999272083565 8.737459407992118 19.02109111293387 0 0 0
84 7 7.3683172299127095 8.645191202259248 19.078605021968865 0 0 0
88 7 6.219933695153533 10.845613763058566 19.07758531678025 0 0 0
113 7 6.2139916080651805 9.396240753458539 21.064030945425063 0 0 0
118 7 5.002775380623836 11.571358968879435 21.151698068524354 0 0 0
119 4 7.444576964829202 11.577194177235848 21.101936854197564 0 0 0
85 6 9.697023376449591 8.565711282275366 18.287454366696327 0 0 0
89 6 8.738445915809942 10.877814529679927 19.027346603990498 0 0 0
90 4 11.242821222845837 10.87660829575037 18.73126383149958 0 0 0
114 7 8.712851669911975 9.322423858748694 20.965851636913417 0 0 0
115 6 11.138912930200426 9.233775351538661 20.83816867438894 0 0 0
120 7 10.007665251562665 11.533385275931183 21.11531607785697 0 0 0
121 7 0.07421762684082116 1.4165662728783686 23.328960779684547 0 0 0
122 7 2.566008026988461 1.4164834286823675 23.347939588485577 0 0 0
126 6 1.3437834984745303 3.612435436577491 23.250519289125506 0 0 0
127 7 3.843961765229505 3.5937294015041954 23.357565743042397 0 0 0
152 7 2.6467070424114323 0.017284005008004633 25.388907129118042 0 0 0
156 1 1.4797286360379471 2.153313457086501 25.51026746637677 0 0 0
157 7 3.9716057214789795 2.1428102945125405 25.450541065667828 0 0 0
162 7 2.6007653055436304 4.272867133160371 25.419295190345284 0 0 0
123 7 5.000352036164862 1.4331243071998467 23.210396442526687 0 0 0
124 7 7.413798378711802 1.5122979495762015 23.48050738910633 0 0 0
128 7 6.302301415204704 3.663263411238303 23.180211538818494 0 0 0
153 7 5.197154030754911 0.06589862782720558 25.330832707323122 0 0 0
154 7 7.614721415531062 0.010855639520427667 25.458132204524436 0 0 0
158 2 5.799210396469808 2.478929359564526 24.6519502386615 0 0 0
163 7 5.114250918309543 4.254116823126598 25.41848122036171 0 0 0
164 5 7.473073173803535 4.075698902346156 25.353658766726618 0 0 0
125 7 10.038586568962453 1.4480493030916382 23.367356871832808 0 0 0
129 7 8.751472270016139 3.5678700404011368 23.33865644815551 0 0 0
130 4 11.354964525853793 3.646468553466063 23.395132426396277 0 0 0
155 4 10.131513443290805 0.08828261568620215 25.547191738912698 0 0 0
159 7 8.86632954565453 2.119377407420585 25.448675431456973 0 0 0
160 7 11.397394908836588 2.182125253692049 25.421586057418573 0 0 0
165 7 10.058505707167773 4.237880015324125 25.408982728074328 0 0 0
131 7 0.07314132619400876 5.801336063456685 23.354292365508783 0 0 0
132 7 2.545136461931335 5.797992799666958 23.342882749613395 0 0 0
136 7 1.318883113908747 7.923574319407948 23.25975308957969 0 0 0
137 7 3.7843051155944156 7.967697975700159 23.314399864348346 0 0 0
161 4 0.10803611571239677 4.35948032466345 25.446494305627475 0 0 0
166 7 1.3436566818861608 6.422882952014876 25.40413954828486 0 0 0
167 7 3.8127290536978924 6.439500426247269 25.437224466848743 0 0 0
133 6 5.0629517773057895 5.845332662287014 23.36965778386931 0 0 0
134 7 7.554426032207942 5.7785906004201975 23.308199883822617 0 0 0
138 7 6.296800255525986 7.98840721628004 23.32504789067706 0 0 0
168 7 6.359571000635303 6.400359645495445 25.422106923284858 0 0 0
173 7 5.116580268436729 8.560394413140365 25.348765145129548 0 0 0
135 7 10.062434962338735 5.845062282717335 23.396205974979733 0 0 0
139 4 8.675788041430502 7.93923535546436 23.226610667510617 0 0 0
140 4 11.313334041688627 7.902436936047032 23.2005590742985 0 0 0
169 7 8.770872903155883 6.35588364980398 25.380349312688033 0 0 0
170 7 11.299660453440772 6.425278698628621 25.420058480780973 0 0 0
175 6 9.929371335550716 8.58288438578234 25.46556306410131 0 0 0
141 7 0.008488574655436966 10.06352866321915 23.284930092979636 0 0 0
142 7 2.485749368564046 10.11193661150626 23.281034085931108 0 0 0
146 7 1.2844030170569958 12.239409948167582 23.340480339341273 0 0 0
147 7 3.796426112301252 12.246060547336734 23.228406143811753 0 0 0
151 4 0.09321848848347004 12.896316737706 25.411927328660994 0 -1 0
171 6 0.12109003939909528 8.6214183814827 25.376209935291165 0 0 0
172 7 2.6271785126147194 8.61210062871831 25.384033443089066 0 0 0
176 7 1.3403512054559399 10.810068521296456 25.422156180753902 0 0 0
177 6 3.876751760860483 10.82044390095762 25.312672817810355 0 0 0
143 7 5.065962533222138 10.11827728082542 23.24869171292823 0 0 0
144 7 7.495862782318184 10.085511716606863 22.915102590524818 0 0 0
148 4 6.224845660037134 12.28274164534401 23.25897048965918 0 0 0
178 6 6.657816330854444 10.52467163481129 25.242719562565355 0 0 0
145 7 10.011231291298524 10.026986722537531 23.155843108577773 0 0 0
149 6 8.730560911334221 12.263700931126753 23.306208093629966 0 0 0
150 7 11.243190849739834 12.21489866141264 23.39199670157598 0 0 0
174 3 8.460029679528137 9.532169844678833 24.380842729886233 0 0 0
179 5 9.038004950318347 10.934872948814721 25.53400989237792 0 0 0
180 5 11.349431272560869 10.874610037729468 25.475591539017312 0 0 0
181 7 1.3892450665099798 0.6806427771573925 27.497543977646334 0 0 0
182 7 3.8788041037919245 0.7063431574750365 27.4497273302512 0 0 0
186 7 0.17174902480382373 2.876076329901426 27.487601545432796 0 0 0
187 7 2.661348228249144 2.8607674328444097 27.56487997163965 0 0 0
211 7 0.2066383943645425 1.4585197010053557 29.587504120950218 0 0 0
212 7 2.7080668139168083 1.3720769031414384 29.581368999264964 0 0 0
216 7 1.4096826131935782 3.565424720141656 29.58507506595843 0 0 0
217 4 3.8238892706553536 3.578168802496401 29.597962013864667 0 0 0
183 7 6.318492701274532 0.7189061059728437 27.566963214842094 0 0 0
188 7 5.085362432742996 2.8774487295632865 27.576947848795452 0 0 0
189 7 7.594857303909884 2.8038569164979266 27.46330991062087 0 0 0
213 5 5.138640493653136 1.4250025239821895 29.600996824290377 0 0 0
214 7 7.617060898810703 1.3646201087225205 29.589588844768567 0 0 0
218 7 6.362558449949101 3.5417775390513118 29.544541627719163 0 0 0
184 7 8.892910861516235 0.7314156765746554 27.562165069813865 0 0 0
185 4 11.387386621757372 0.7392309301739521 27.536612446775017 0 0 0
190 7 10.144607974984343 2.8480863055559076 27.490374558464417 0 0 0
215 7 10.125557220056407 1.4171955319851703 29.630802217520042 0 0 0
219 7 8.837649537553181 3.5244303198951106 29.527512551018837 0 0 0
220 7 11.368705169666134 3.575448794614698 29.51571796631455 0 0 0
191 7 1.3905206975998536 5.018023706964613 27.461291019801237 0 0 0
192 7 3.832054972895604 4.993781789203937 27.481859384672553 0 0 0
197 7 2.5786215008129343 7.195496435619534 27.471373310409867 0 0 0
221 7 0.12007887148873918 5.739123188876133 29.5577214839417 0 0 0
222 7 2.5897081692382846 5.733652206584404 29.548488300802752 0 0 0
226 7 1.359531811786042 7.909597849067004 29.540391650135124 0 0 0
227 7 3.8571211707280204 7.915890317996035 29.471603114851373 0 0 0
193 7 6.366691253065439 4.981011380004156 27.412282380528943 0 0 0
198 7 5.098655702016181 7.174718842776811 27.41349506885504 0 0 0
199 7 7.606015353825695 7.190753083674597 27.448189833285582 0 0 0
223 6 5.1512341631909395 5.724034017457013 29.490750801982735 0 0 0
224 7 7.642884879909866 5.746187435993747 29.580125267782826 0 0 0
228 7 6.3894067186176 7.915950779873509 29.496485451964244 0 0 0
194 6 8.84490181028802 5.010527984509089 27.48914409694814 0 0 0
195 7 11.360146290297212 5.012616523100393 27.493706991374317 0 0 0
196 7 0.13667521994027315 7.172828231150851 27.470078547894907 0 0 0
200 7 10.11885678215186 7.173720018477766 27.50839205145316 0 0 0
225 7 10.101255325349017 5.756481848540515 29.59108540679979 0 0 0
229 7 8.845122692265676 7.895004006378719 29.50350665530334 0 0 0
230 7 11.366227206779369 7.939731607495387 29.502109513492833 0 0 0
201 5 1.3754955542349856 9.333536879773275 27.501133536172116 0 0 0
202 7 3.87066901159435 9.321957961394233 27.390229857515934 0 0 0
206 4 0.18544340435671872 11.491420503888627 27.511817237742445 0 0 0
207 7 2.6061821643939167 11.466637809221876 27.449401158475705 0 0 0
231 7 0.15923712410420743 10.087433253606722 29.553557496720718 0 0 0
232 7 2.6254694892934656 10.03104906824034 29.427096867567464 0 0 0
236 7 1.4659209800662076 12.194031945850417 29.554624646040576 0 0 0
203 7 6.372958505474884 9.290200655153619 27.403693760746794 0 0 0
208 7 5.143460581023724 11.499520538673696 27.34765549987813 0 0 0
209 6 7.600686614103339 11.532190236665084 27.614516846165767 0 0 0
233 7 5.1442051301895075 10.056481006584214 29.33629338806205 0 0 0
234 7 7.604958580980022 10.092054350156744 29.641989056826144 0 0 0
238 7 6.231011769513566 12.238405853770095 29.667816509827944 0 0 0
204 7 8.8407073477848 9.370721437594382 27.577574186720774 0 0 0
205 7 11.35164722413856 9.422801874122472 27.514942792468528 0 0 0
210 7 10.160140782420923 11.56493062367287 27.562796622854055 0 0 0
235 7 10.084578971385112 10.1837181346347 29.572727241227675 0 0 0
239 4 8.884069066169257 12.262491867960588 29.718928257314708 0 0 0
240 7 11.39236420630988 12.277448980530071 29.551878628405767 0 0 0
237 3 4.026504893389147 0.3106683229135574 30.556406845118193 0 1 0
241 7 0.19495770226106474 0.11350372448253605 31.62990065126792 0 0 0
242 7 2.5614129178697604 0.15558309180885285 31.738266609242075 0 0 0
246 4 1.3408589790528995 2.2579823034809072 31.663461685960584 0 0 0
247 7 3.8805077089276874 2.163664865709747 31.639777475468183 0 0 0
276 7 0.17507633606591935 3.012101752028367 33.73418890135661 0 0 0
243 7 5.17018988920728 12.915238393502353 32.08995280371079 0 -1 0
244 7 7.628423559115048 0.01666265969097422 31.703256155394268 0 0 0
248 7 6.4069899694484445 2.163111936937565 31.64447899280356 0 0 0
279 7 7.726869436584393 3.0590866996157473 33.72800008399547 0 0 0
249 7 8.850310721262957 2.1208156239244857 31.67948421660234 0 0 0
250 7 11.382390764028658 2.157893492600602 31.657031240184658 0 0 0
255 1 10.10344576099942 4.239680583863889 31.49595416367149 0 0 0
275 4 11.44065128003209 0.8146096168573732 33.7105814261339 0 0 0
251 7 0.14615351559682466 4.34237582176965 31.643908910547054 0 0 0
252 7 2.631579120688678 4.332605664165632 31.665400269857145 0 0 0
256 7 1.327840296324594 6.517141440691682 31.627032365236886 0 0 0
257 6 3.789960159015615 6.514731091862163 31.662011317649327 0 0 0
253 7 5.111079797979403 4.323404773458524 31.62326649899737 0 0 0
254 7 7.619583287893492 4.327835086657582 31.590519951274548 0 0 0
258 7 6.3500374891017755 6.508429243930125 31.62132998812441 0 0 0
264 7 7.589670651965137 8.59367557816041 31.608268549750424 0 0 0
283 7 6.378389829059632 5.117355022484057 33.66813471396055 0 0 0
289 7 7.632730412860771 7.204375210729684 33.70738157390629 0 0 0
259 4 8.820741905408962 6.480329154136766 31.618658666580252 0 0 0
260 7 11.314681789032809 6.508286509374812 31.58120045028603 0 0 0
284 5 8.884775122554652 5.1363149177437055 33.5764133335146 0 0 0
290 7 10.083942218758262 7.279492154904224 33.583838426168214 0 0 0
261 7 0.1738113914494509 8.72514042891146 31.64079852386319 0 0 0
262 7 2.6589007034625363 8.733083474071357 31.527563767321478 0 0 0
266 7 1.5579793319196684 10.847088306452475 31.565231592908678 0 0 0
267 4 3.912040954466874 11.295257455999824 30.844964506597805 0 0 0
292 7 3.9538297316151243 9.383596991786975 33.5009128218203 0 0 0
326 7 0.5037840764754291 11.670423514815022 33.67039390164401 0 0 0
263 1 5.089543167862483 8.774682618011754 31.42391847385848 0 0 0
268 7 6.263232174233983 10.775185156430577 31.566867834597293 0 0 0
245 7 10.108922710177186 12.90272923575453 31.86316509859643 0 -1 0
265 6 10.100967837381393 8.699527101176809 31.52339390752096 0 0 0
269 7 8.775143782353023 10.81675742190381 31.73094576811462 0 0 0
270 7 11.422740882846394 10.921013828082762 31.601680666550703 0 0 0
294 7 8.768753032865686 9.307697667641909 33.6780835417601 0 0 0
296 3 11.072801802836253 11.848788033552898 33.320384549199005 -1 0 0
271 7 1.4752884526419765 0.9204648742168653 33.77461678169774 0 0 0
272 7 3.9217369712114065 0.9735864004664058 33.913603419074285 0 0 0
277 7 2.6420195977243015 3.0964766827245143 33.795200368919524 0 0 0
301 7 0.1911720212079158 1.5696887424003942 35.75683777780697 0 0 0
302 7 2.618276189030331 1.6853889403517732 35.85826678199909 0 0 0
306 4 1.415432623559982 3.8510948342511995 35.9548472011316 0 0 0
307 7 3.9965471731285778 3.749686654061688 35.83121851963314 0 0 0
273 7 6.460617242271898 0.9891423074320909 33.89618964108816 0 0 0
278 1 5.21698496142035 3.013579684307211 33.71933787723818 0 0 0
303 7 5.2467021222224295 1.6845764738965496 35.937150821537514 0 0 0
304 4 7.759628903784258 1.6533119197546842 35.91651141988427 0 0 0
308 7 6.528295213612843 3.724423177452352 35.7971212140155 0 0 0
274 7 8.835957491115387 0.9159854663839945 33.835380873692195 0 0 0
280 7 10.201733695433184 3.014133271126717 33.70385794947318 0 0 0
305 7 10.224259549162008 1.5818509957624318 35.72137630554435 0 0 0
309 7 9.019144742068354 3.692596445826017 35.7744435955357 0 0 0
310 4 11.588176270098076 3.9635586155199807 35.857477774278216 0 0 0
335 5 9.899367609659265 12.92787732390054 37.38264774992385 0 -1 0
281 7 1.322070978995054 5.199485335141485 33.8551817504817 0 0 0
282 4 3.84645521132843 5.150923482274379 33.76589698508497 0 0 0
286 7 0.09229328217712235 7.298139850232814 33.61438553602611 0 0 0
287 7 2.6293241037360464 7.3024803248062256 33.740491434249556 0 0 0
312 7 2.727631031234519 5.80727775569467 35.780214029624815 0 0 0
316 7 1.2109377277415725 7.6211850062203625 35.78008474016257 0 0 0
317 7 3.9280282301555487 8.078906875519744 35.72937491405511 0 0 0
288 7 5.182460143277901 7.28513823226773 33.66423652791775 0 0 0
313 7 5.262924276001961 5.933531697577734 35.71306936199033 0 0 0
314 7 7.720630115338531 5.839474125166249 35.739400545299155 0 0 0
318 4 6.553234820790025 8.137324347386159 35.799807401048824 0 0 0
285 4 11.345237830593723 5.1737709933068885 33.625491239356975 0 0 0
311 2 12.37046150994118 6.018960295817789 35.31469303738821 -1 0 0
315 7 10.133032471730173 5.829622910197781 35.56959133987676 0 0 0
319 7 8.954678461787351 7.996631914377701 35.809677197202994 0 0 0
320 7 11.347363182417634 7.9535282477394835 35.583578225257526 0 0 0
355 3 10.435710868460378 7.922682067220905 37.26692828253136 0 0 0
291 7 1.4628493400176132 9.441561102407574 33.722993133084984 0 0 0
297 6 3.021465085833407 11.588196676249428 33.662360235699836 0 0 0
321 6 0.20801756120638493 10.087683961270454 35.9071928234794 0 0 0
322 7 2.69534840921574 10.211590973831704 35.74923227675141 0 0 0
327 6 3.9194367910942867 12.523166374122761 36.082596417155244 0 0 0
356 4 1.3930081737928197 12.374333466880099 35.83742390047351 0 0 0
293 4 6.451629677597391 9.33481059461445 33.639238292733296 0 0 0
298 2 5.20227636738656 12.297754469565872 34.18800212390402 0 0 0
299 7 6.9953938573947285 11.594426117414768 33.667482874788725 0 0 0
323 6 5.231906474377612 10.253509988182714 35.56146330882966 0 0 0
324 7 7.909642690282803 10.373659183580845 35.7001052974956 0 0 0
328 7 6.463331693478318 12.536055968392668 35.905414012854266 0 0 0
295 6 11.27060125671901 9.715590697662646 33.75119885515407 0 0 0
300 7 9.379849402137156 11.562895733132288 34.15370941537964 0 0 0
325 7 10.250779495153298 9.865606691735545 37.022576222861154 0 0 0
329 3 9.523435296325115 11.42165007111379 36.19129330312865 0 0 0
330 4 11.253795540495597 12.092271517893009 35.565897508597295 0 0 0
332 7 2.4817758591574957 0.12540327809609067 38.00473162031001 0 0 0
336 7 1.3309352099836733 2.2088279115146037 37.83232257995091 0 0 0
337 7 3.8777213567644906 2.2200836759171425 37.864952167369744 0 0 0
333 7 5.202436416779951 0.1742458450671581 38.10974639146141 0 0 0
334 7 7.641090871687847 0.0895781482058675 37.995959049638984 0 0 0
338 7 6.523968964068157 2.280886766403798 37.899330405715716 0 0 0
339 7 8.986797782453333 2.211898295736524 37.849274160662475 0 0 0
340 7 11.364886453786506 2.217248224983754 37.72311567804578 0 0 0
342 7 2.7108407329918114 4.313805507994273 37.920402788091074 0 0 0
346 7 1.5136551401737417 6.427852292003237 37.99203000552059 0 0 0
347 6 3.961743983383164 6.495244711153083 37.76219411319805 0 0 0
343 7 5.302815412833865 4.451323822489484 37.83287892332212 0 0 0
344 7 7.831025503178252 4.4618820008335 37.842918179972905 0 0 0
348 6 6.657786581247871 6.688849221276679 37.81355999293981 0 0 0
341 7 0.2100881984953825 4.2741345826621355 38.06595326794503 0 0 0
345 4 10.219834250975358 4.358682381489996 37.80432702833024 0 0 0
349 7 9.237198460601812 6.650686887682384 37.85403842724497 0 0 0
350 7 11.678360416682153 6.295169231388688 37.29180480223763 0 0 0
352 6 2.486838815837549 8.682282005390727 37.68150682560332 0 0 0
357 7 3.845689427918294 10.826359304171788 37.91980088108888 0 0 0
360 7 1.3938800394987974 10.926147596467166 37.89813036026773 1 0 0
353 7 5.126256150848148 8.717108872812256 37.821802593719326 0 0 0
354 7 7.954067427666168 8.978140537223075 37.80649747173086 0 0 0
358 6 6.412198858097247 10.873352985399631 37.77967687730059 0 0 0
361 8 3.09010578073826 12.263623238125971 41.87218129451158 0 0 0
362 8 3.46429011895136 11.601553873492753 41.864710504340806 0 0 0
331 7 12.386388429175565 12.900806104396324 37.618643664610765 -1 -1 0
351 7 12.241725567309 8.583841434551815 37.83418929316012 -1 0 0
359 2 8.595198911013343 11.184286527778701 37.416355818421486 0 0 0

Velocities

1 0 0 0
2 0 0 0
6 0 0 0
7 0 0 0
31 0 0 0
32 0 0 0
36 0 0 0
37 0 0 0
3 0 0 0
8 0 0 0
9 0 0 0
33 0 0 0
34 0 0 0
38 0 0 0
4 0 0 0
5 0 0 0
10 0 0 0
35 0 0 0
39 0 0 0
40 0 0 0
11 0 0 0
12 0 0 0
16 0 0 0
17 0 0 0
41 0 0 0
42 0 0 0
46 0 0 0
47 0 0 0
13 0 0 0
18 0 0 0
19 0 0 0
43 0 0 0
44 0 0 0
48 0 0 0
14 0 0 0
15 0 0 0
20 0 0 0
45 0 0 0
49 0 0 0
50 0 0 0
21 0 0 0
22 0 0 0
26 0 0 0
27 0 0 0
51 0 0 0
52 0 0 0
56 0 0 0
57 0 0 0
23 0 0 0
28 0 0 0
29 0 0 0
53 0 0 0
54 0 0 0
58 0 0 0
24 0 0 0
25 0 0 0
30 0 0 0
55 0 0 0
59 0 0 0
60 0 0 0
61 0 0 0
62 0 0 0
66 0 0 0
67 0 0 0
91 0 0 0
92 0 0 0
96 0 0 0
97 0 0 0
63 0 0 0
64 0 0 0
68 0 0 0
93 0 0 0
98 0 0 0
99 0 0 0
65 0 0 0
69 0 0 0
70 0 0 0
94 0 0 0
95 0 0 0
100 0 0 0
71 0 0 0
72 0 0 0
76 0 0 0
77 0 0 0
101 0 0 0
102 0 0 0
106 0 0 0
107 0 0 0
73 0 0 0
74 0 0 0
78 0 0 0
103 0 0 0
108 0 0 0
109 0 0 0
75 0 0 0
79 0 0 0
80 0 0 0
104 0 0 0
105 0 0 0
110 0 0 0
81 0 0 0
82 0 0 0
86 0 0 0
87 0 0 0
111 0 0 0
112 0 0 0
116 0 0 0
117 0 0 0
83 0 0 0
84 0 0 0
88 0 0 0
113 0 0 0
118 0 0 0
119 0 0 0
85 0 0 0
89 0 0 0
90 0 0 0
114 0 0 0
115 0 0 0
120 0 0 0
121 0 0 0
122 0 0 0
126 0 0 0
127 0 0 0
152 0 0 0
156 0 0 0
157 0 0 0
162 0 0 0
123 0 0 0
124 0 0 0
128 0 0 0
153 0 0 0
154 0 0 0
158 0 0 0
163 0 0 0
164 0 0 0
125 0 0 0
129 0 0 0
130 0 0 0
155 0 0 0
159 0 0 0
160 0 0 0
165 0 0 0
131 0 0 0
132 0 0 0
136 0 0 0
137 0 0 0
161 0 0 0
166 0 0 0
167 0 0 0
133 0 0 0
134 0 0 0
138 0 0 0
168 0 0 0
173 0 0 0
135 0 0 0
139 0 0 0
140 0 0 0
169 0 0 0
170 0 0 0
175 0 0 0
141 0 0 0
142 0 0 0
146 0 0 0
147 0 0 0
151 0 0 0
171 0 0 0
172 0 0 0
176 0 0 0
177 0 0 0
143 0 0 0
144 0 0 0
148 0 0 0
178 0 0 0
145 0 0 0
149 0 0 0
150 0 0 0
174 0 0 0
179 0 0 0
180 0 0 0
181 0 0 0
182 0 0 0
186 0 0 0
187 0 0 0
211 0 0 0
212 0 0 0
216 0 0 0
217 0 0 0
183 0 0 0
188 0 0 0
189 0 0 0
213 0 0 0
214 0 0 0
218 0 0 0
184 0 0 0
185 0 0 0
190 0 0 0
215 0 0 0
219 0 0 0
220 0 0 0
191 0 0 0
192 0 0 0
197 0 0 0
221 0 0 0
222 0 0 0
226 0 0 0
227 0 0 0
193 0 0 0
198 0 0 0
199 0 0 0
223 0 0 0
224 0 0 0
228 0 0 0
194 0 0 0
195 0 0 0
196 0 0 0
200 0 0 0
225 0 0 0
229 0 0 0
230 0 0 0
201 0 0 0
202 0 0 0
206 0 0 0
207 0 0 0
231 0 0 0
232 0 0 0
236 0 0 0
203 0 0 0
208 0 0 0
209 0 0 0
233 0 0 0
234 0 0 0
238 0 0 0
204 0 0 0
205 0 0 0
210 0 0 0
235 0 0 0
239 0 0 0
240 0 0 0
237 0 0 0
241 0 0 0
242 0 0 0
246 0 0 0
247 0 0 0
276 0 0 0
243 0 0 0
244 0 0 0
248 0 0 0
279 0 0 0
249 0 0 0
250 0 0 0
255 0 0 0
275 0 0 0
251 0 0 0
252 0 0 0
256 0 0 0
257 0 0 0
253 0 0 0
254 0 0 0
258 0 0 0
264 0 0 0
283 0 0 0
289 0 0 0
259 0 0 0
260 0 0 0
284 0 0 0
290 0 0 0
261 0 0 0
262 0 0 0
266 0 0 0
267 0 0 0
292 0 0 0
326 0 0 0
263 0 0 0
268 0 0 0
245 0 0 0
265 0 0 0
269 0 0 0
270 0 0 0
294 0 0 0
296 0 0 0
271 0 0 0
272 0 0 0
277 0 0 0
301 0 0 0
302 0 0 0
306 0 0 0
307 0 0 0
273 0 0 0
278 0 0 0
303 0 0 0
304 0 0 0
308 0 0 0
274 0 0 0
280 0 0 0
305 0 0 0
309 0 0 0
310 0 0 0
335 0 0 0
281 0 0 0
282 0 0 0
286 0 0 0
287 0 0 0
312 0 0 0
316 0 0 0
317 0 0 0
288 0 0 0
313 0 0 0
314 0 0 0
318 0 0 0
285 0 0 0
311 0 0 0
315 0 0 0
319 0 0 0
320 0 0 0
355 0 0 0
291 0 0 0
297 0 0 0
321 0 0 0
322 0 0 0
327 0 0 0
356 0 0 0
293 0 0 0
298 0 0 0
299 0 0 0
323 0 0 0
324 0 0 0
328 0 0 0
295 0 0 0
300 0 0 0
325 0 0 0
329 0 0 0
330 0 0 0
332 0 0 0
336 0 0 0
337 0 0 0
333 0 0 0
334 0 0 0
338 0 0 0
339 0 0 0
340 0 0 0
342 0 0 0
346 0 0 0
347 0 0 0
343 0 0 0
344 0 0 0
348 0 0 0
341 0 0 0
345 0 0 0
349 0 0 0
350 0 0 0
352 0 0 0
357 0 0 0
360 0 0 0
353 0 0 0
354 0 0 0
358 0 0 0
361 0 0 0
362 0 0 0
331 0 0 0
351 0 0 0
359 0 0 0
