LAMMPS data file via write_data, version 11 Feb 2026, timestep = 374, units = metal

362 atoms
8 atom types

0 12.447907776 xlo xhi
0 12.9362452296 ylo yhi
0 52.3600831054 zlo zhi

Masses

1 26.9815
2 10.811
3 12.011
4 51.9961
5 55.845
6 95.95999999999999
7 58.6934
8 1.008

Atoms # atomic/kk

1 7 1.1202112368250652 0.8261873858606945 14.642293811325835 0 0 0
2 7 3.558730567466429 0.7418298469045859 14.870734408810081 0 0 0
6 7 12.270505098262 3.482003018087779 14.64320664168418 -1 0 0
7 7 2.230992110299169 2.975153072750652 15.107019974493525 0 0 0
31 6 12.397807561060297 1.8932677213872124 16.48592381605726 -1 0 0
32 7 2.312338238724444 1.2582033587133166 16.93091678251077 0 0 0
36 7 1.1418219661412716 3.973163162260629 17.062837032371718 0 0 0
37 7 3.5748247093185803 3.6505698810988148 17.093366621878868 0 0 0
3 5 6.019473054267705 0.8709723168712441 14.93749949989736 0 0 0
8 7 4.784573431489012 2.9894036118622336 15.02074572455756 0 0 0
9 7 7.290448697928565 3.0663602996992614 14.892884000720333 0 0 0
33 7 4.8339018001771485 1.5399823333225136 16.98281186232257 0 0 0
34 7 7.361675896678518 1.7157423325856367 16.946609585060006 0 0 0
38 5 6.080697434592578 3.746293848737933 16.970404560064452 0 0 0
4 6 8.640429306141451 0.9749987456439068 14.94613597560363 0 0 0
5 7 11.028261151433098 1.2569037192370165 14.461785253410048 0 0 0
10 7 9.81263040844114 3.3834967413139743 14.722807859574765 0 0 0
35 7 9.925609965697204 1.7178246996927193 16.904841260029574 0 0 0
39 7 8.639987540027569 3.868553864867411 16.814445642928657 0 0 0
40 7 11.076305596942253 3.957328123654291 16.96505628671371 0 0 0
11 7 1.1390115019943852 5.437179437531905 15.026069454821684 0 0 0
12 7 3.5570546551466404 5.150778140497168 15.121920640977534 0 0 0
16 4 0.22034601737913426 7.677845831054326 14.612202832000447 0 0 0
17 7 2.4329416116442326 7.509776228028893 15.091546688221904 0 0 0
41 7 12.321061984376865 6.114450350514772 17.128259130177053 -1 0 0
42 7 2.3773908545412854 6.079955226720438 17.11216935324904 0 0 0
46 7 0.8230505250449819 8.418196562665342 16.860480793149424 0 0 0
47 7 3.820560108734615 8.014175756375378 17.02719962231033 0 0 0
13 7 6.050916174650132 5.190394658801276 15.008544176897672 0 0 0
18 7 4.900157055905091 7.306615637855157 14.977148868696666 0 0 0
19 2 6.8479832016579225 6.979620024721774 15.3165061679759 0 0 0
43 7 4.859206610681341 5.815500721592712 17.07726330233833 0 0 0
44 7 7.347429602185503 5.884885326875042 17.023561575073966 0 0 0
48 7 6.230350575397589 7.997267712874879 17.01831796580326 0 0 0
14 7 8.579004952510061 5.643131528337683 14.893675056534576 0 0 0
15 6 11.052229575521418 5.643275170110118 15.08570994991647 0 0 0
20 7 10.232653160088367 7.661956674901725 13.989578588518603 0 0 0
45 7 9.812460827515157 6.1153954678335305 17.17994698171996 0 0 0
49 7 8.474946903541714 7.862654449834169 16.022505005396617 0 0 0
50 7 10.910844747552554 8.121346130949677 16.214916592979367 0 0 0
21 2 1.5534171693971606 9.477692238573672 15.210670548434864 0 0 0
22 7 3.621931819054132 9.516846693450788 14.919197681835287 0 0 0
26 7 0.31943548698857605 10.807133335854381 16.829685912538906 0 0 0
27 7 2.0371431503779256 11.481621954722678 15.151363892280774 0 0 0
51 3 11.625697089561728 9.375325024636698 17.499651704679682 -1 0 0
52 7 2.6189981572906076 10.085736204822984 17.043461216022106 0 0 0
56 2 0.9320140798831437 12.709674557378253 16.354744615688098 0 0 0
57 7 3.708708582378611 12.230571595276821 16.92976742741974 0 0 0
23 7 6.589719298139943 9.091063944451856 14.851542948266022 0 0 0
28 7 4.822517073974965 11.614465539670494 14.819086155735242 0 0 0
29 6 7.378861131083317 11.503183689424667 14.917413442513244 0 0 0
53 7 5.133282840304735 10.115374665655061 16.779578541630688 0 0 0
54 7 7.699087187738094 10.048710358854578 16.92199802930418 0 0 0
58 6 6.299643962902789 12.343505577696112 17.012546473776265 0 0 0
24 7 9.056948636884131 9.672121410613933 14.656331085468983 0 0 0
25 7 11.949933774424126 9.883430899687752 14.711502908528866 0 0 0
30 7 9.928518052611292 11.861379253383406 14.578992092210873 0 0 0
55 7 10.248671391178487 10.413212742260175 16.64653226972202 0 0 0
59 7 8.847936327658187 12.375866586655265 16.890968402007232 0 0 0
60 7 11.30378898845222 12.627607973150727 16.35091390817063 0 0 0
61 6 0.11015425816774409 12.918990092742591 18.57655109189603 0 -1 0
62 7 2.568029160356358 0.04115188703864706 19.143918124202433 0 0 0
66 6 1.3586139655699996 2.236792055968209 19.066871230911676 0 0 0
67 5 3.8030473396448294 2.189450388904555 19.105059663448024 0 0 0
91 4 1.3699084615177313 0.792321877629161 21.2533063012417 0 0 0
92 7 3.800801495529487 0.7481554823059797 21.133666519009754 0 0 0
96 7 0.0883104593909459 2.87138841936601 21.177574229254187 0 0 0
97 7 2.6102510123874323 2.86939256523999 21.209899540282585 0 0 0
63 5 5.019567359461824 0.12509175203448927 19.06450230296003 0 0 0
64 7 7.502132450380782 0.11517617645815452 19.09383681216521 0 0 0
68 7 6.1977029549926845 2.1824604136661123 19.050507844117856 0 0 0
93 7 6.328073398256472 0.7471658281655676 21.20788245866382 0 0 0
98 7 5.053011202141453 2.8838005175822494 21.15289066376393 0 0 0
99 5 7.507750202114838 2.850516360825898 21.14318111599399 0 0 0
65 7 10.086573818752676 0.11138399869683968 18.965418730215525 0 0 0
69 7 8.737578153928242 2.193759824672857 18.96367777311093 0 0 0
70 7 11.29683270030792 2.297581111532046 18.908548397668184 0 0 0
94 7 8.783773997466433 0.7601663186277905 21.179224897608208 0 0 0
95 7 11.369305231910188 0.7311342617123153 21.031831575624697 0 0 0
100 6 10.051154134060159 2.8478936156758436 21.020292950603903 0 0 0
71 1 12.334537044397143 4.461744385889664 19.19614679706526 -1 0 0
72 7 2.4549068488221004 4.428123557206734 19.117005592008333 0 0 0
76 7 1.1723813568704753 6.5044591289048626 19.19078404468809 0 0 0
77 7 3.765375651433365 6.505542457580082 19.144901055964993 0 0 0
101 7 1.2151184592968778 5.037701715505262 21.232831119748976 0 0 0
102 6 3.7446269394940783 5.053710726078786 21.22698061934877 0 0 0
106 7 0.0005733698564132084 7.14435671801959 21.27431477071598 0 0 0
107 7 2.479001028852821 7.178397385590876 21.23822102009422 0 0 0
73 7 4.946524929248163 4.316504684377004 19.077036836405824 0 0 0
74 6 7.475565617223669 4.322938475361217 19.02686845745828 0 0 0
78 7 6.176796514621984 6.530915657866005 19.105740810090033 0 0 0
103 7 6.285019416538107 5.064271053968134 21.15706692970873 0 0 0
108 7 5.025855435771797 7.22846019498374 21.2078828934571 0 0 0
109 7 7.433159417063456 7.272718612380293 21.24030102572621 0 0 0
75 5 9.867688158477275 4.371754056872411 19.011081461507835 0 0 0
79 7 8.619904546640697 6.5243249100470475 19.286231374119115 0 0 0
80 7 11.099109262056045 6.5171550983642055 19.283934343581578 0 0 0
104 7 8.745476325017325 5.068548190777282 21.216481375447927 0 0 0
105 3 10.095535073613817 4.43012951960503 22.263175052706128 0 0 0
110 7 9.908266291199787 7.200992664353082 21.272195941675324 0 0 0
81 4 12.37657974827995 8.590315696499921 19.188710632717868 -1 0 0
82 6 2.439677860815636 8.543998409249213 19.0246931369974 0 0 0
86 7 1.3105522894726878 10.764504011629581 19.17101944895739 0 0 0
87 1 3.852527767703567 10.887543383528717 19.009909234528823 0 0 0
111 7 1.207839797081998 9.341426719261928 21.21711042022329 0 0 0
112 6 3.754449925526649 9.34644068126221 21.239095932802446 0 0 0
116 1 0.06520166529559607 11.555763021047218 21.177119228563804 0 0 0
117 7 2.5286049967398267 11.54707269687417 21.1754992229435 0 0 0
83 7 4.975202315404829 8.735583396972242 19.033557098790304 0 0 0
84 7 7.429224879901276 8.64582725065421 19.01171047023317 0 0 0
88 7 6.281704861328392 10.82921707504548 19.02218704823111 0 0 0
113 7 6.247378290203384 9.40420766374388 21.034566245621036 0 0 0
118 7 5.048132342784832 11.566817858963038 21.143568108206566 0 0 0
119 4 7.478826112927375 11.582914535142027 21.077611461408168 0 0 0
85 6 9.835736612294522 8.522283202342692 18.450239978355548 0 0 0
89 6 8.789451158311996 10.877698731652051 18.980322516154 0 0 0
90 4 11.291720424525188 10.815849726892672 18.89209403012412 0 0 0
114 7 8.713763472307408 9.350696294530092 20.934685496167706 0 0 0
115 6 11.126819384255564 9.297959647276947 21.168468076148155 0 0 0
120 7 10.025603083147859 11.565175748115934 21.123425347392015 0 0 0
121 7 0.09018495734308973 1.4157770236470257 23.257329180343522 0 0 0
122 7 2.5786141446699924 1.412720207142781 23.317645540576784 0 0 0
126 6 1.3615863733571514 3.6121704928402387 23.260893893596823 0 0 0
127 7 3.862736057240681 3.596926944788547 23.365913589438964 0 0 0
152 7 2.6636658063433822 0.019163302395792864 25.375655149720913 0 0 0
156 1 1.495973131767559 2.1484685460999327 25.50233512205246 0 0 0
157 7 3.984363891723885 2.1463661069366675 25.44443568455059 0 0 0
162 7 2.6132646053587565 4.2760324868794415 25.42791230274815 0 0 0
123 7 5.019539614327054 1.4386548929307086 23.200474583460135 0 0 0
124 7 7.4249044432507105 1.5294390747131998 23.480046983503573 0 0 0
128 7 6.317395396252629 3.675098147830565 23.171287001289333 0 0 0
153 7 5.209431518466423 0.07345915627666871 25.331093320309297 0 0 0
154 7 7.620788243320357 0.019364166829050934 25.459446268149645 0 0 0
158 2 5.809902487738994 2.4904369469723795 24.644030105822946 0 0 0
163 7 5.129867472521402 4.259152943022677 25.42277456849401 0 0 0
164 5 7.48941205063508 4.07151850470123 25.344233269722377 0 0 0
125 7 10.073673452624996 1.454039719315087 23.301744277104067 0 0 0
129 7 8.769084327085299 3.571525255534897 23.32951046741577 0 0 0
130 4 11.372005618995603 3.6507325387871883 23.38316173897205 0 0 0
155 4 10.144928277035781 0.08181527353384854 25.519595547485324 0 0 0
159 7 8.898901134568211 2.1152420706265893 25.423601541735668 0 0 0
160 7 11.422471954184882 2.1769815543749456 25.392382033058464 0 0 0
165 7 10.079544560529548 4.239554451565825 25.39768273299475 0 0 0
131 7 0.08513768013933777 5.801967918981238 23.38565057960301 0 0 0
132 7 2.558324414299687 5.804389836094508 23.365008355478277 0 0 0
136 7 1.3224648584056988 7.930208476941054 23.296205591387604 0 0 0
137 7 3.798439062814052 7.971791757558787 23.32180725883656 0 0 0
161 4 0.12467996550048839 4.360811622851357 25.45387870973568 0 0 0
166 7 1.3525141708424901 6.43189206532474 25.42382639566456 0 0 0
167 7 3.8243630774182695 6.444044351783783 25.448639225557805 0 0 0
133 6 5.08270601403499 5.858124770734784 23.384731227891784 0 0 0
134 7 7.572770775239956 5.794400167216316 23.301694049460874 0 0 0
138 7 6.326218739335538 8.00322258508536 23.33925124637127 0 0 0
168 7 6.379967070196572 6.4021409749486065 25.429921894553754 0 0 0
173 7 5.127568060652075 8.56006663896079 25.353559450906623 0 0 0
135 7 10.077506422436624 5.854927745709125 23.3733588300182 0 0 0
139 4 8.713129726887205 7.963664372061985 23.21219744236901 0 0 0
140 4 11.301726113793498 7.9161959258340096 23.295038940684275 0 0 0
169 7 8.78848118322829 6.350750232250246 25.371080863064563 0 0 0
170 7 11.305450112049014 6.427457277391471 25.434396480242256 0 0 0
175 6 9.907899749195922 8.583965427890323 25.50121059903983 0 0 0
141 7 0.03520950564951451 10.10083093806853 23.32861879854002 0 0 0
142 7 2.516942536170068 10.115102795685486 23.299275901486926 0 0 0
146 7 1.3147865232146443 12.249413151803031 23.314416608760187 0 0 0
147 7 3.8289552568701026 12.24898469567493 23.230615361078847 0 0 0
151 4 0.10872042857127509 12.894023624518729 25.37143865511096 0 -1 0
171 6 0.1274819431647697 8.636925112805912 25.410900163344508 0 0 0
172 7 2.637713790181001 8.618402476931767 25.39567917361982 0 0 0
176 7 1.3585240934353642 10.82018544284663 25.43246122987312 0 0 0
177 6 3.9001844702663773 10.822994251973784 25.3154146870001 0 0 0
143 7 5.088361523804639 10.117517525753913 23.234744106027787 0 0 0
144 7 7.523687214461339 10.104347993602945 22.904403660887596 0 0 0
148 4 6.244236990198513 12.288730378124393 23.261659625382553 0 0 0
178 6 6.658411937922616 10.53272377874539 25.238628369379384 0 0 0
145 7 10.010848058541926 10.105281991927672 23.300009021923287 0 0 0
149 6 8.735518424780894 12.304961334477344 23.291442589066868 0 0 0
150 7 11.272768553917288 12.243950650519666 23.333726538482846 0 0 0
174 3 8.433346361182645 9.52093966050139 24.405969221836436 0 0 0
179 5 9.026164906590209 10.944919207430535 25.559797483820894 0 0 0
180 5 11.358220610166102 10.893279964156994 25.481797512344947 0 0 0
181 7 1.4011521165482252 0.6776673179484652 27.485817608734823 0 0 0
182 7 3.8900719278312414 0.7121397786560887 27.444985183315495 0 0 0
186 7 0.18620599398069082 2.874116129064431 27.47955028964958 0 0 0
187 7 2.674240265300584 2.8617893440415085 27.563804449299667 0 0 0
211 7 0.22256680060177836 1.459061325504634 29.579868807613067 0 0 0
212 7 2.723591925475963 1.3720227347993528 29.57978979867957 0 0 0
216 7 1.4245801926468482 3.5666733755183673 29.58382092812728 0 0 0
217 4 3.838744146434317 3.580629174997909 29.599540091204442 0 0 0
183 7 6.3289249423482135 0.7270415912653218 27.569983921258743 0 0 0
188 7 5.099179025520156 2.8819585740498725 27.575449343668208 0 0 0
189 7 7.614831737042744 2.8045336027213583 27.44854528514045 0 0 0
213 5 5.1508153863180075 1.4332307894179472 29.60069391118919 0 0 0
214 7 7.633113031260676 1.3665279679086046 29.58435960343731 0 0 0
218 7 6.381139292925245 3.5440727816546413 29.54009277413843 0 0 0
184 7 8.909215408421359 0.7350859703224312 27.550780983303333 0 0 0
185 4 11.401731874968435 0.738539973714483 27.5186090611235 0 0 0
190 7 10.164030998238202 2.8494781045855517 27.475101136532757 0 0 0
215 7 10.142208773290704 1.420070666441574 29.61961469440605 0 0 0
219 7 8.855297846079441 3.5258818485491283 29.518707601973762 0 0 0
220 7 11.384697329047043 3.5751953849000686 29.51173041543177 0 0 0
191 7 1.4053019852884228 5.020553564398302 27.468949205798708 0 0 0
192 7 3.848125806562342 4.996891795659771 27.487077487992746 0 0 0
197 7 2.594442321116712 7.200697135015801 27.480978947784187 0 0 0
221 7 0.13525685391534273 5.74147641696775 29.56469010656731 0 0 0
222 7 2.605614785425103 5.7367231317703276 29.552664885563605 0 0 0
226 7 1.3772336693025076 7.914447130720477 29.550283125399364 0 0 0
227 7 3.875636515260906 7.919120690950815 29.47626044989527 0 0 0
193 7 6.386755396609228 4.983199372404425 27.413293468279246 0 0 0
198 7 5.118704756078479 7.178403831079689 27.418657429083893 0 0 0
199 7 7.632166872779918 7.200282318936051 27.44491263766759 0 0 0
223 6 5.169502480502385 5.726163940899176 29.492779102416804 0 0 0
224 7 7.661298460861177 5.74938952457121 29.57687175983706 0 0 0
228 7 6.4084685862928215 7.919934316680982 29.49654515883385 0 0 0
194 6 8.863188663705213 5.013418237727645 27.482201073838983 0 0 0
195 7 11.376472045177346 5.012732523194552 27.497959774197124 0 0 0
196 7 0.15110176719996868 7.176372225703997 27.487736634479038 0 0 0
200 7 10.137175272948713 7.175549172391824 27.527008794877442 0 0 0
225 7 10.117359881640882 5.756647027711836 29.595513784026657 0 0 0
229 7 8.86147293512288 7.898327878368082 29.514574970963526 0 0 0
230 7 11.382975981062945 7.946686231488817 29.51407046148927 0 0 0
201 5 1.392235744185671 9.340826627580403 27.515029809844926 0 0 0
202 7 3.887412777931761 9.32646944257596 27.396196089038966 0 0 0
206 4 0.201596560941116 11.495860597231989 27.518064535782766 0 0 0
207 7 2.625070904111118 11.471459552423639 27.45249739283527 0 0 0
231 7 0.17708735396953468 10.093917644743557 29.5620603171919 0 0 0
232 7 2.6452599249010125 10.036040631459679 29.434638144660546 0 0 0
236 7 1.4830243495169204 12.197243111361459 29.55601197003063 0 0 0
203 7 6.3869581129020245 9.29836040904133 27.407316511160833 0 0 0
208 7 5.156683223915718 11.507190175605123 27.353153645166845 0 0 0
209 6 7.605919663178429 11.54309230356094 27.631667219785978 0 0 0
233 7 5.161394313723815 10.061194133779082 29.341901459122642 0 0 0
234 7 7.617118373992833 10.100032882663047 29.65599850262812 0 0 0
238 7 6.236074860466384 12.247122253503903 29.680689336202743 0 0 0
204 7 8.852206357701162 9.383841339818918 27.604072341353394 0 0 0
205 7 11.360823627562153 9.434745000282062 27.530964465151055 0 0 0
210 7 10.170636662899225 11.572517407468828 27.56668560093323 0 0 0
235 7 10.099767479101812 10.193544032352541 29.586408018861 0 0 0
239 4 8.898233332740087 12.269805748079994 29.723773378898102 0 0 0
240 7 11.408416518724007 12.283281425518211 29.552077966621994 0 0 0
237 3 4.046341387405342 0.31337222942746146 30.559962038986438 0 1 0
241 7 0.21272988563326828 0.11774279162558046 31.628975636142652 0 0 0
242 7 2.5788617009614363 0.15909012013483648 31.740038757432522 0 0 0
246 4 1.356053978208489 2.2604361950390506 31.659501944384377 0 0 0
247 7 3.89559514065128 2.165843261740418 31.641994298759872 0 0 0
276 7 0.19194792306937053 3.0170692373066537 33.732227331661704 0 0 0
243 7 5.183209677594554 12.920350064675862 32.10064368772891 0 -1 0
244 7 7.642191333528312 0.019533648002821674 31.710034653709815 0 0 0
248 7 6.423584541178106 2.1653979347943504 31.642575063355604 0 0 0
279 7 7.744873954476837 3.0633242005785855 33.726030223626644 0 0 0
249 7 8.866885082473388 2.121538039801222 31.673992994301166 0 0 0
250 7 11.397926077591311 2.1591459544412683 31.651876468294645 0 0 0
255 1 10.119658924708917 4.2399943927677635 31.49496924135772 0 0 0
275 4 11.45809232634904 0.8213895811855625 33.709308087584574 0 0 0
251 7 0.16101109372160358 4.344673725482151 31.643969905587166 0 0 0
252 7 2.646720372364947 4.334894654351042 31.665997741808177 0 0 0
256 7 1.3437717878585107 6.520381736296956 31.63259972101043 0 0 0
257 6 3.806064910062336 6.51645726409674 31.663660754332764 0 0 0
253 7 5.127640372115249 4.324982236970624 31.62245426421432 0 0 0
254 7 7.637340830944453 4.329493483402646 31.5868284214583 0 0 0
258 7 6.3679472402188715 6.510435731348139 31.620846192173392 0 0 0
264 7 7.605960417935188 8.596485680605236 31.614911996351115 0 0 0
283 7 6.39550414336974 5.119755797265568 33.66632287673275 0 0 0
289 7 7.650183381971787 7.204920051186004 33.70933498676206 0 0 0
259 4 8.838011144517722 6.481762173242366 31.621337163156504 0 0 0
260 7 11.330243305146777 6.511955803500052 31.585965811186178 0 0 0
284 5 8.903238012245923 5.138220368606183 33.576557797213944 0 0 0
290 7 10.100120002613446 7.2821018817764855 33.58944352020504 0 0 0
261 7 0.19127573591483563 8.730519300344213 31.647925294757407 0 0 0
262 7 2.677054865193335 8.736070167195383 31.53308950491577 0 0 0
266 7 1.5768517797292456 10.851288320761306 31.570898488887277 0 0 0
267 4 3.9308952753365625 11.298069124536111 30.85455137843419 0 0 0
292 7 3.97271120216809 9.392499935825235 33.50241329512967 0 0 0
326 7 0.5218515426739099 11.676726842257318 33.67296921375437 0 0 0
263 1 5.108173651075336 8.775983838222002 31.427312773193314 0 0 0
268 7 6.2760748672397355 10.779289041806097 31.578432766820356 0 0 0
245 7 10.124833420840304 12.906662421956703 31.86560609000003 0 -1 0
265 6 10.117221204644402 8.704362616048439 31.533308627918455 0 0 0
269 7 8.789606848269258 10.821310810475108 31.740169425957728 0 0 0
270 7 11.440587508922336 10.927538347166394 31.607075403370185 0 0 0
294 7 8.785569807290864 9.308823338555511 33.68646497741427 0 0 0
296 3 11.088429832772524 11.85477413104309 33.32606577364303 -1 0 0
271 7 1.4910985458274706 0.9264102047104914 33.773767054489824 0 0 0
272 7 3.9361732528890605 0.9783718717777004 33.92396527260604 0 0 0
277 7 2.6582638994839263 3.100718091527854 33.79523823307448 0 0 0
301 7 0.2086177613209464 1.5756058840938176 35.755122978964415 0 0 0
302 7 2.634604219339345 1.6914589596051381 35.85790959164159 0 0 0
306 4 1.4346311429318943 3.8567601844359936 35.954663232962474 0 0 0
307 7 4.013920221739483 3.7535086815457013 35.83144154526017 0 0 0
273 7 6.479474402313269 0.9959594746854806 33.89926119454384 0 0 0
278 1 5.233481519801824 3.0169212206542375 33.71882918827073 0 0 0
303 7 5.263257261334393 1.6883552072333825 35.93864379767515 0 0 0
304 4 7.780661473048037 1.6564416446846413 35.922409859752996 0 0 0
308 7 6.546734901233812 3.7266625883278035 35.796219556148465 0 0 0
274 7 8.854094738733279 0.9218516852877336 33.83672579930118 0 0 0
280 7 10.21922349929692 3.016716508430305 33.702542972283815 0 0 0
305 7 10.243390292407359 1.5851705449684532 35.72274453356599 0 0 0
309 7 9.038211961910822 3.695041368397519 35.774908795834484 0 0 0
310 4 11.606806693781039 3.9674350919784986 35.85717340073926 0 0 0
335 5 9.917421903020307 12.92998517935085 37.385751773214835 0 -1 0
281 7 1.338569380080393 5.204310264559508 33.85647434291962 0 0 0
282 4 3.8622133530121374 5.153841405066382 33.766715648940654 0 0 0
286 7 0.10879215132982922 7.303018303519877 33.61911749669783 0 0 0
287 7 2.6469048940173585 7.307923382082296 33.7431833864998 0 0 0
312 7 2.745317771946473 5.813663096078248 35.78124866778971 0 0 0
316 7 1.2281157346901959 7.628390316700524 35.78492772489685 0 0 0
317 7 3.949937380518589 8.084816846051922 35.72761264099492 0 0 0
288 7 5.1988408549001495 7.2884432337031715 33.6632678551003 0 0 0
313 7 5.281522513713466 5.9355064079002915 35.711073165821276 0 0 0
314 7 7.738660078931291 5.8408454897282285 35.739091642201934 0 0 0
318 4 6.568164441611939 8.138359459934819 35.79603828742553 0 0 0
285 4 11.361185576098118 5.177455362724147 33.62752349026768 0 0 0
311 2 12.387654669865439 6.024289624562453 35.31672145058443 -1 0 0
315 7 10.150369816275552 5.833391829153059 35.57471177268393 0 0 0
319 7 8.967721205868349 7.998951907863012 35.81971275664993 0 0 0
320 7 11.362782459301314 7.9578981502994965 35.587148956569955 0 0 0
355 3 10.456223370226603 7.925662920199426 37.272116639559336 0 0 0
291 7 1.481643491817946 9.447239218372157 33.72950320285579 0 0 0
297 6 3.0393874701658747 11.596124774316102 33.66839393063058 0 0 0
321 6 0.22308609786645292 10.092343608890337 35.90653312219288 0 0 0
322 7 2.717822737807768 10.22146223872064 35.75773336390118 0 0 0
327 6 3.935312408041544 12.52852440055016 36.10845433913895 0 0 0
356 4 1.4170659074030796 12.38282201192808 35.84074307846198 0 0 0
293 4 6.469995597348574 9.334658869621634 33.64416039119481 0 0 0
298 2 5.214490422012039 12.314064475592641 34.20714464498222 0 0 0
299 7 7.001052694448872 11.597361608059682 33.6789688190408 0 0 0
323 6 5.249484126077776 10.262652176061064 35.55947654358349 0 0 0
324 7 7.925300554445937 10.3760721802225 35.703699934669324 0 0 0
328 7 6.48779102607433 12.543545667664443 35.912501999085016 0 0 0
295 6 11.285420607577057 9.721531714688341 33.754703544705634 0 0 0
300 7 9.391065964496454 11.567772962566199 34.1546335844875 0 0 0
325 7 10.26518331402267 9.868700152867056 37.023960495887785 0 0 0
329 3 9.54296376055805 11.426586730640322 36.19136365141266 0 0 0
330 4 11.26976662726935 12.096381514359615 35.56316143522059 0 0 0
332 7 2.4991181050317093 0.12945455152749838 38.034453036365214 0 0 0
336 7 1.3492412277181887 2.2126376712381295 37.82977931053768 0 0 0
337 7 3.8920192549900374 2.221773141232085 37.86156035206732 0 0 0
333 7 5.232622845505619 0.1916796183202157 38.1173846327931 0 0 0
334 7 7.664534788137736 0.09194360320139033 38.01012059193282 0 0 0
338 7 6.547511277519133 2.2871664967256855 37.900560005271984 0 0 0
339 7 9.008548824945324 2.214793641435884 37.85359464128148 0 0 0
340 7 11.385639300472194 2.2222762982602884 37.72317151162604 0 0 0
342 7 2.7304125682200686 4.3201824076984465 37.92033590389744 0 0 0
346 7 1.5355312346862136 6.438615480172737 37.99606453682385 0 0 0
347 6 3.983762981687354 6.501729786009711 37.76041790098416 0 0 0
343 7 5.3215126745867884 4.454591922227777 37.831944338407276 0 0 0
344 7 7.85123730641379 4.464857795760244 37.842679256621736 0 0 0
348 6 6.677370300510702 6.68923451296704 37.81291806892051 0 0 0
341 7 0.23074376945258715 4.279853129740121 38.066080527491884 0 0 0
345 4 10.23954452305308 4.363461741973335 37.80518536890496 0 0 0
349 7 9.256519654379504 6.656410811763852 37.86207517073341 0 0 0
350 7 11.699411099338583 6.300147550105057 37.29394492026596 0 0 0
352 6 2.51523174370005 8.690130240396392 37.68313703932051 0 0 0
357 7 3.8744972216918363 10.837661859672144 37.96026141507968 0 0 0
360 7 1.4174314417996203 10.928938961312035 37.88343163684987 1 0 0
353 7 5.153849169887861 8.723866258400202 37.81985646305928 0 0 0
354 7 7.9557354330134045 8.988119115474607 37.81275400086793 0 0 0
358 6 6.422699525184704 10.882144325110366 37.7742359414075 0 0 0
361 8 6.066554592379443 10.746424566324611 41.50797669250361 0 0 0
362 8 6.817458244011529 10.817682354733057 41.41675760532753 0 0 0
331 7 12.405308276016129 12.90578504555998 37.61525674906934 -1 -1 0
351 7 12.262810489142858 8.589077023029395 37.83532097021011 -1 0 0
359 2 8.615542377095686 11.187736939264049 37.41599386737393 0 0 0

Velocities

1 0 0 0
2 0 0 0
6 0 0 0
7 0 0 0
31 0 0 0
32 0 0 0
36 0 0 0
37 0 0 0
3 0 0 0
8 0 0 0
9 0 0 0
33 0 0 0
34 0 0 0
38 0 0 0
4 0 0 0
5 0 0 0
10 0 0 0
35 0 0 0
39 0 0 0
40 0 0 0
11 0 0 0
12 0 0 0
16 0 0 0
17 0 0 0
41 0 0 0
42 0 0 0
46 0 0 0
47 0 0 0
13 0 0 0
18 0 0 0
19 0 0 0
43 0 0 0
44 0 0 0
48 0 0 0
14 0 0 0
15 0 0 0
20 0 0 0
45 0 0 0
49 0 0 0
50 0 0 0
21 0 0 0
22 0 0 0
26 0 0 0
27 0 0 0
51 0 0 0
52 0 0 0
56 0 0 0
57 0 0 0
23 0 0 0
28 0 0 0
29 0 0 0
53 0 0 0
54 0 0 0
58 0 0 0
24 0 0 0
25 0 0 0
30 0 0 0
55 0 0 0
59 0 0 0
60 0 0 0
61 0 0 0
62 0 0 0
66 0 0 0
67 0 0 0
91 0 0 0
92 0 0 0
96 0 0 0
97 0 0 0
63 0 0 0
64 0 0 0
68 0 0 0
93 0 0 0
98 0 0 0
99 0 0 0
65 0 0 0
69 0 0 0
70 0 0 0
94 0 0 0
95 0 0 0
100 0 0 0
71 0 0 0
72 0 0 0
76 0 0 0
77 0 0 0
101 0 0 0
102 0 0 0
106 0 0 0
107 0 0 0
73 0 0 0
74 0 0 0
78 0 0 0
103 0 0 0
108 0 0 0
109 0 0 0
75 0 0 0
79 0 0 0
80 0 0 0
104 0 0 0
105 0 0 0
110 0 0 0
81 0 0 0
82 0 0 0
86 0 0 0
87 0 0 0
111 0 0 0
112 0 0 0
116 0 0 0
117 0 0 0
83 0 0 0
84 0 0 0
88 0 0 0
113 0 0 0
118 0 0 0
119 0 0 0
85 0 0 0
89 0 0 0
90 0 0 0
114 0 0 0
115 0 0 0
120 0 0 0
121 0 0 0
122 0 0 0
126 0 0 0
127 0 0 0
152 0 0 0
156 0 0 0
157 0 0 0
162 0 0 0
123 0 0 0
124 0 0 0
128 0 0 0
153 0 0 0
154 0 0 0
158 0 0 0
163 0 0 0
164 0 0 0
125 0 0 0
129 0 0 0
130 0 0 0
155 0 0 0
159 0 0 0
160 0 0 0
165 0 0 0
131 0 0 0
132 0 0 0
136 0 0 0
137 0 0 0
161 0 0 0
166 0 0 0
167 0 0 0
133 0 0 0
134 0 0 0
138 0 0 0
168 0 0 0
173 0 0 0
135 0 0 0
139 0 0 0
140 0 0 0
169 0 0 0
170 0 0 0
175 0 0 0
141 0 0 0
142 0 0 0
146 0 0 0
147 0 0 0
151 0 0 0
171 0 0 0
172 0 0 0
176 0 0 0
177 0 0 0
143 0 0 0
144 0 0 0
148 0 0 0
178 0 0 0
145 0 0 0
149 0 0 0
150 0 0 0
174 0 0 0
179 0 0 0
180 0 0 0
181 0 0 0
182 0 0 0
186 0 0 0
187 0 0 0
211 0 0 0
212 0 0 0
216 0 0 0
217 0 0 0
183 0 0 0
188 0 0 0
189 0 0 0
213 0 0 0
214 0 0 0
218 0 0 0
184 0 0 0
185 0 0 0
190 0 0 0
215 0 0 0
219 0 0 0
220 0 0 0
191 0 0 0
192 0 0 0
197 0 0 0
221 0 0 0
222 0 0 0
226 0 0 0
227 0 0 0
193 0 0 0
198 0 0 0
199 0 0 0
223 0 0 0
224 0 0 0
228 0 0 0
194 0 0 0
195 0 0 0
196 0 0 0
200 0 0 0
225 0 0 0
229 0 0 0
230 0 0 0
201 0 0 0
202 0 0 0
206 0 0 0
207 0 0 0
231 0 0 0
232 0 0 0
236 0 0 0
203 0 0 0
208 0 0 0
209 0 0 0
233 0 0 0
234 0 0 0
238 0 0 0
204 0 0 0
205 0 0 0
210 0 0 0
235 0 0 0
239 0 0 0
240 0 0 0
237 0 0 0
241 0 0 0
242 0 0 0
246 0 0 0
247 0 0 0
276 0 0 0
243 0 0 0
244 0 0 0
248 0 0 0
279 0 0 0
249 0 0 0
250 0 0 0
255 0 0 0
275 0 0 0
251 0 0 0
252 0 0 0
256 0 0 0
257 0 0 0
253 0 0 0
254 0 0 0
258 0 0 0
264 0 0 0
283 0 0 0
289 0 0 0
259 0 0 0
260 0 0 0
284 0 0 0
290 0 0 0
261 0 0 0
262 0 0 0
266 0 0 0
267 0 0 0
292 0 0 0
326 0 0 0
263 0 0 0
268 0 0 0
245 0 0 0
265 0 0 0
269 0 0 0
270 0 0 0
294 0 0 0
296 0 0 0
271 0 0 0
272 0 0 0
277 0 0 0
301 0 0 0
302 0 0 0
306 0 0 0
307 0 0 0
273 0 0 0
278 0 0 0
303 0 0 0
304 0 0 0
308 0 0 0
274 0 0 0
280 0 0 0
305 0 0 0
309 0 0 0
310 0 0 0
335 0 0 0
281 0 0 0
282 0 0 0
286 0 0 0
287 0 0 0
312 0 0 0
316 0 0 0
317 0 0 0
288 0 0 0
313 0 0 0
314 0 0 0
318 0 0 0
285 0 0 0
311 0 0 0
315 0 0 0
319 0 0 0
320 0 0 0
355 0 0 0
291 0 0 0
297 0 0 0
321 0 0 0
322 0 0 0
327 0 0 0
356 0 0 0
293 0 0 0
298 0 0 0
299 0 0 0
323 0 0 0
324 0 0 0
328 0 0 0
295 0 0 0
300 0 0 0
325 0 0 0
329 0 0 0
330 0 0 0
332 0 0 0
336 0 0 0
337 0 0 0
333 0 0 0
334 0 0 0
338 0 0 0
339 0 0 0
340 0 0 0
342 0 0 0
346 0 0 0
347 0 0 0
343 0 0 0
344 0 0 0
348 0 0 0
341 0 0 0
345 0 0 0
349 0 0 0
350 0 0 0
352 0 0 0
357 0 0 0
360 0 0 0
353 0 0 0
354 0 0 0
358 0 0 0
361 0 0 0
362 0 0 0
331 0 0 0
351 0 0 0
359 0 0 0
