LAMMPS data file via write_data, version 11 Feb 2026, timestep = 398, units = metal

362 atoms
8 atom types

0 12.447907776 xlo xhi
0 12.9362452296 ylo yhi
0 52.3600831054 zlo zhi

Masses

1 26.9815
2 10.811
3 12.011
4 51.9961
5 55.845
6 95.95999999999999
7 58.6934
8 1.008

Atoms # atomic/kk

1 7 1.1139550471160133 0.8096668878186324 14.641983447857294 0 0 0
2 7 3.5524297345923412 0.725366861649962 14.870566444586748 0 0 0
6 7 12.264232249694649 3.465531400568258 14.642833600896754 -1 0 0
7 7 2.2246884095134822 2.9586743913313254 15.106822308874536 0 0 0
31 6 12.391577721369401 1.8768103043115076 16.485557505551558 -1 0 0
32 7 2.3060588923037577 1.2417831086795255 16.93075632207815 0 0 0
36 7 1.1355418113819633 3.9566499372416604 17.062685502388867 0 0 0
37 7 3.5685286509781506 3.634121137816633 17.093165291554104 0 0 0
3 5 6.013133780668809 0.8545524270360767 14.93715825012947 0 0 0
8 7 4.778245385986741 2.9729585555123488 15.02048619471086 0 0 0
9 7 7.284106285398953 3.0499555244185372 14.892477670339652 0 0 0
33 7 4.827592647700996 1.523536704565831 16.982573340716968 0 0 0
34 7 7.355358222171187 1.6993222354564468 16.94617662522855 0 0 0
38 5 6.074384873206777 3.7298680495805767 16.97006795162878 0 0 0
4 6 8.6341084658607 0.9586219574254856 14.945657061627427 0 0 0
5 7 11.021979375222072 1.2404648917162142 14.461441479685046 0 0 0
10 7 9.806328727842452 3.367090381679546 14.722370307679494 0 0 0
35 7 9.919356462077413 1.7014048712541783 16.904340247794217 0 0 0
39 7 8.633694657124959 3.8521462971887432 16.81400454432173 0 0 0
40 7 11.07004696258745 3.9408890610769505 16.964618579070923 0 0 0
11 7 1.1327507106202117 5.42067414464126 15.025837367344112 0 0 0
12 7 3.550791801224017 5.134305715824985 15.121685411681398 0 0 0
16 4 0.21409376466072566 7.661418042825046 14.611958609037453 0 0 0
17 7 2.4266624329600024 7.493270237281825 15.091342542539397 0 0 0
41 7 12.314831430858662 6.0979460777554255 17.127912034466807 -1 0 0
42 7 2.371139245872104 6.063410922911036 17.111947522603263 0 0 0
46 7 0.8168284640490031 8.401690476193536 16.86027691025569 0 0 0
47 7 3.814232652816348 7.997692484965584 17.02703592969743 0 0 0
13 7 6.044624939801571 5.173997286771309 15.008237487770643 0 0 0
18 7 4.893840152897595 7.290179801505787 14.976937174335703 0 0 0
19 2 6.841686332540787 6.963250448003179 15.316189949995733 0 0 0
43 7 4.852926728399622 5.799052317759309 17.077021626576972 0 0 0
44 7 7.341140945724955 5.86848897256391 17.02319478032217 0 0 0
48 7 6.224038530808321 7.980865801453621 17.018044993602064 0 0 0
14 7 8.572738517264632 5.626790628260451 14.893309677096479 0 0 0
15 6 11.045989116902117 5.6268430519136725 15.085310412904256 0 0 0
20 7 10.226407300302373 7.645603196212038 13.989310295121019 0 0 0
45 7 9.806187132105684 6.098985149800146 17.179500575060025 0 0 0
49 7 8.468648585355918 7.846291670968164 16.02220935677306 0 0 0
50 7 10.904595441967617 8.104889731223961 16.214672725407492 0 0 0
21 2 1.5471384351771638 9.46121715675083 15.210480411604298 0 0 0
22 7 3.615635697674769 9.500352640953617 14.919014714359646 0 0 0
26 7 0.3132071357585448 10.790643644928807 16.82939670292928 0 0 0
27 7 2.030923115246961 11.465113499012189 15.151124339802664 0 0 0
51 3 11.61944044781424 9.358876063649308 17.49936013902922 -1 0 0
52 7 2.61272741414913 10.069267246976992 17.043313408366597 0 0 0
56 2 0.9258425021436213 12.693210704493417 16.35447368529826 0 0 0
57 7 3.7023689312663346 12.214113119487962 16.929607234188026 0 0 0
23 7 6.583358793532179 9.074664175412922 14.851243535652685 0 0 0
28 7 4.816166288369236 11.597992992187905 14.818854591787662 0 0 0
29 6 7.3725409226713765 11.486816006630821 14.91701394971066 0 0 0
53 7 5.1269207897671425 10.098931382224931 16.7793987348848 0 0 0
54 7 7.692736848366026 10.03234244154664 16.921607000492074 0 0 0
58 6 6.293295814826349 12.327072766455904 17.01218643227148 0 0 0
24 7 9.050605480261071 9.655741502861867 14.655993408985092 0 0 0
25 7 11.943640218748953 9.866996029964639 14.711211702668077 0 0 0
30 7 9.922232984570181 11.84498300350807 14.578639340825024 0 0 0
55 7 10.242390971224754 10.396748933090684 16.646185030380405 0 0 0
59 7 8.841649164071889 12.359454325236621 16.890467468665143 0 0 0
60 7 11.297582095105257 12.611134047274847 16.35057102299288 0 0 0
61 6 0.1039727737222889 12.902575293909079 18.57619971699476 0 -1 0
62 7 2.5617673751688668 0.024694056420111077 19.143818099271666 0 0 0
66 6 1.352369568731353 2.2203272800590645 19.06675568461488 0 0 0
67 5 3.7967698353854438 2.1729938997191423 19.104907541065828 0 0 0
91 4 1.3636840388669191 0.7758827097077649 21.253221377195306 0 0 0
92 7 3.7945236099206014 0.7316853472785836 21.133583665959684 0 0 0
96 7 0.08210810956891217 2.8549860909474187 21.177369097408825 0 0 0
97 7 2.6040017727973903 2.8529332249627273 21.209864975392914 0 0 0
63 5 5.013301978752884 0.10865691618775185 19.06432361187202 0 0 0
64 7 7.4958513919288166 0.09882941138120482 19.093322787562773 0 0 0
68 7 6.191413362825786 2.1660501063868343 19.050156836213166 0 0 0
93 7 6.321847070412802 0.730758089012514 21.2075775442696 0 0 0
98 7 5.046742990614759 2.86733810720091 21.152628635898008 0 0 0
99 5 7.501489825141129 2.8342462060778404 21.14259500141478 0 0 0
65 7 10.080351403139638 0.09503520414994585 18.96482920518532 0 0 0
69 7 8.731318319532237 2.177435773019907 18.963109070166205 0 0 0
70 7 11.290626818696563 2.2811843383364065 18.908063498067627 0 0 0
94 7 8.777595497754003 0.7439697427438338 21.178383351343932 0 0 0
95 7 11.363092957788028 0.7148445530325747 21.03132028260177 0 0 0
100 6 10.04497109149076 2.8317183099051126 21.019694873343095 0 0 0
71 1 12.328261268331204 4.4452820140630065 19.195976645359753 -1 0 0
72 7 2.448647285045316 4.411643385602818 19.1168734056123 0 0 0
76 7 1.1661345161137975 6.487975862162899 19.1905320346082 0 0 0
77 7 3.759089974954297 6.489079227052854 19.144730665787595 0 0 0
101 7 1.208878805460328 5.021256528466819 21.232722725330508 0 0 0
102 6 3.7383818234534365 5.037257418060551 21.226857851188747 0 0 0
106 7 12.442191541539826 7.12786911256242 21.273999101732294 -1 0 0
107 7 2.4727420800264115 7.161922671572753 21.23808335189678 0 0 0
73 7 4.940229263680086 4.300074732204494 19.076792704794098 0 0 0
74 6 7.469248968301093 4.306572157702186 19.026439972979475 0 0 0
78 7 6.170476274148065 6.514567225373441 19.10541148625388 0 0 0
103 7 6.278725161633849 5.0479772578443285 21.156663490951402 0 0 0
108 7 5.019563974977891 7.212083117935889 21.20772459304882 0 0 0
109 7 7.426837405592521 7.256483103503276 21.23984159043851 0 0 0
75 5 9.861411665971305 4.355410657584123 19.010547483854346 0 0 0
79 7 8.613541082194772 6.50796739915731 19.28567303354325 0 0 0
80 7 11.092874588176656 6.500686117712393 19.28343237098319 0 0 0
104 7 8.739218820846228 5.052337769363694 21.215948404552492 0 0 0
105 3 10.089359822027614 4.413937735833365 22.26258825163199 0 0 0
110 7 9.901973836545734 7.184835797992892 21.27141965116274 0 0 0
81 4 12.370343144119465 8.573870795841922 19.18842547929241 -1 0 0
82 6 2.4334138084445907 8.527557284585448 19.024595264990985 0 0 0
86 7 1.3042678862926482 10.748057985235114 19.17085263275161 0 0 0
87 1 3.846229920564721 10.871107469045617 19.00982063665159 0 0 0
111 7 1.2015546658998841 9.324963091941644 21.216963951747307 0 0 0
112 6 3.74815450671657 9.330013031672772 21.23907809031028 0 0 0
116 1 0.05894393536156397 11.539422645945256 21.176856871320517 0 0 0
117 7 2.522301580030056 11.53060457031095 21.175424007303718 0 0 0
83 7 4.968889221367093 8.719176587332598 19.033378006244636 0 0 0
84 7 7.422924980433249 8.629526741229006 19.01139588605637 0 0 0
88 7 6.275392540836554 10.812844516675396 19.021889261407726 0 0 0
113 7 6.241020281130973 9.38789256418595 21.034328547155372 0 0 0
118 7 5.041827943340643 11.550417821535394 21.143488879778698 0 0 0
119 4 7.472554060142612 11.566628595351101 21.07709525732642 0 0 0
85 6 9.82951961044672 8.5059090260822 18.450055116063606 0 0 0
89 6 8.783180602627002 10.86137780706065 18.979820417646636 0 0 0
90 4 11.285481778062314 10.799471981906459 18.89171982041828 0 0 0
114 7 8.707451874752946 9.334540785331505 20.93431587851444 0 0 0
115 6 11.120593307850186 9.281684722216292 21.168060764494918 0 0 0
120 7 10.01938140287386 11.54893543336236 21.122807791307743 0 0 0
121 7 0.08390380912462297 1.399386087053636 23.257074751882637 0 0 0
122 7 2.5722865611046 1.3962222935286492 23.31769137571953 0 0 0
126 6 1.3553172799575337 3.595714265101746 23.26087279067105 0 0 0
127 7 3.8564640978458327 3.5804512483268724 23.365846317266566 0 0 0
152 7 2.657160571277344 0.0025853587709951465 25.37582221549732 0 0 0
156 1 1.4897047697966028 2.131965743110649 25.502496817176123 0 0 0
157 7 3.9780944633921074 2.129731751351423 25.44428733488973 0 0 0
162 7 2.606949234358038 4.259471286349417 25.42800957172691 0 0 0
123 7 5.013190908727172 1.4221240527907681 23.2003064795079 0 0 0
124 7 7.418561111011799 1.5132438306977671 23.47912802982033 0 0 0
128 7 6.311065711603231 3.658849550929727 23.170735105502995 0 0 0
153 7 5.202808301795483 0.056527664247263215 25.33089206279278 0 0 0
154 7 7.614318694610848 0.0031942080826565327 25.45838465816978 0 0 0
158 2 5.803369752390829 2.4744442953953167 24.643447806583563 0 0 0
163 7 5.123463049601387 4.24275251654839 25.422559795095037 0 0 0
164 5 7.4831354636797744 4.055875516899679 25.343339938681797 0 0 0
125 7 10.06746803689395 1.4378488339320867 23.300992740075266 0 0 0
129 7 8.762767313870295 3.555325624130228 23.328714636949073 0 0 0
130 4 11.365753566443619 3.6344937381527944 23.38263472832185 0 0 0
155 4 10.138660961871693 0.06580427418470378 25.51874126632982 0 0 0
159 7 8.892511580631403 2.0991633753025676 25.42250122755411 0 0 0
160 7 11.416243950748738 2.16080612675762 25.391937348034816 0 0 0
165 7 10.073169038316474 4.223478266027764 25.396807732503667 0 0 0
131 7 0.07895819209812913 5.785595037288773 23.385542410186925 0 0 0
132 7 2.5521006685688636 5.787911553881082 23.365005965132813 0 0 0
136 7 1.3162533897112052 7.9137233419978905 23.29603862524051 0 0 0
137 7 3.792175725901921 7.955371206943047 23.321790911376212 0 0 0
161 4 0.11841812839551398 4.3444200710923395 25.453815436678664 0 0 0
166 7 1.3462725839763396 6.4153098338099985 25.423962271217757 0 0 0
167 7 3.818055970230856 6.4275390825689005 25.448709951840133 0 0 0
133 6 5.076436799618414 5.841774903238354 23.384602865415715 0 0 0
134 7 7.566447189342737 5.77822189450781 23.30115102095045 0 0 0
138 7 6.319970982535929 7.9869787349841985 23.339156992535386 0 0 0
168 7 6.373577980913351 6.38584338640465 25.42974837709444 0 0 0
173 7 5.121200523492974 8.543603278883063 25.353641951619952 0 0 0
135 7 10.071281650806716 5.838780510773986 23.372700069598142 0 0 0
139 4 8.706895940219576 7.947447516419832 23.211485046814765 0 0 0
140 4 11.295560235929555 7.899906982621399 23.29450456059903 0 0 0
169 7 8.782124796231075 6.335042162222364 25.370246762421743 0 0 0
170 7 11.299111148527734 6.411138961043125 25.433998989894064 0 0 0
175 6 9.90203144926451 8.567997756490946 25.500349290922344 0 0 0
141 7 0.028934011491969728 10.084428564326815 23.328421673553112 0 0 0
142 7 2.510595218155044 10.098607478386187 23.29927521131014 0 0 0
146 7 1.3084257863252482 12.23294441286705 23.31438659520495 0 0 0
147 7 3.8225312076295572 12.232459578860324 23.230637092655595 0 0 0
151 4 0.10236515059863754 12.877677581989849 25.37127362684655 0 -1 0
171 6 0.12134910186876698 8.620395925659983 25.410622652153517 0 0 0
172 7 2.631434917370428 8.601757801585464 25.395777553817098 0 0 0
176 7 1.352246790155806 10.80367544005308 25.4325660456385 0 0 0
177 6 3.8936688639988217 10.806368866109052 25.31559992800299 0 0 0
143 7 5.081979437960244 10.101176669860017 23.2348009535715 0 0 0
144 7 7.517306310796867 10.088216115631237 22.9040233333911 0 0 0
148 4 6.2378598635794065 12.272360032271228 23.26150356176781 0 0 0
178 6 6.652269909030782 10.515932536271466 25.23850173683444 0 0 0
145 7 10.004507550822563 10.089111897250897 23.29930246119013 0 0 0
149 6 8.729160541680784 12.28890297618395 23.290480798605547 0 0 0
150 7 11.266453393995157 12.227652229427246 23.333257810928696 0 0 0
174 3 8.427032759146295 9.504477242583029 24.405402182812534 0 0 0
179 5 9.020071885424201 10.929031667124436 25.558561786410774 0 0 0
180 5 11.352160130159202 10.877053564896627 25.481303969843648 0 0 0
181 7 1.3946588603938683 0.6610566319769706 27.486320747984646 0 0 0
182 7 3.8833900110025956 0.6956165779209027 27.44508360716723 0 0 0
186 7 0.1798800307653699 2.8576030099637584 27.479621521490895 0 0 0
187 7 2.6677123505055236 2.8452082634635234 27.564017631748875 0 0 0
211 7 0.216010011832967 1.442373077390655 29.580819742070524 0 0 0
212 7 2.716267629550404 1.3557334296489119 29.58045655396531 0 0 0
216 7 1.4182436802624194 3.549752816523208 29.584546928073223 0 0 0
217 4 3.832181229916638 3.5640683945795315 29.599586139213447 0 0 0
183 7 6.3221558552732535 0.7106632751165909 27.568764457951204 0 0 0
188 7 5.092386580809197 2.8654909124460075 27.575041090480852 0 0 0
189 7 7.607937594429037 2.788308246904391 27.44694992803471 0 0 0
213 5 5.143932085535954 1.4164956862696776 29.60003664075405 0 0 0
214 7 7.626358165354942 1.3506087599267327 29.582309349240113 0 0 0
218 7 6.374159480918399 3.527587857065679 29.53912818633236 0 0 0
184 7 8.902850139092942 0.7190867156064715 27.549484169939237 0 0 0
185 4 11.39545926384475 0.7224531259944565 27.518389436789608 0 0 0
190 7 10.157549085298635 2.8333240320272655 27.474084483765246 0 0 0
215 7 10.135754096991354 1.4039880735221977 29.618836823373254 0 0 0
219 7 8.848279486987076 3.509688793955933 29.516686866676253 0 0 0
220 7 11.378227443264514 3.558596161083412 29.51107552222698 0 0 0
191 7 1.398891178252806 5.003929849010485 27.469298813074523 0 0 0
192 7 3.841574600078925 4.980411785483447 27.487194196542543 0 0 0
197 7 2.588037178105561 7.184057429764586 27.48142445368467 0 0 0
221 7 0.12869447905411688 5.724708598134449 29.56443733824897 0 0 0
222 7 2.599257748393344 5.719962761287505 29.55330301938229 0 0 0
226 7 1.370618535906159 7.8976729529108045 29.550592937852898 0 0 0
227 7 3.8690099387332686 7.9025445586387155 29.47710244218849 0 0 0
193 7 6.380044084344504 4.966846172330723 27.412941311978383 0 0 0
198 7 5.112152163438157 7.162028090447501 27.41887807418386 0 0 0
199 7 7.625315568406636 7.184126552684482 27.444654182152 0 0 0
223 6 5.162907896711545 5.709717517615737 29.49281830311672 0 0 0
224 7 7.654401690485157 5.733379255029705 29.575794351230094 0 0 0
228 7 6.401438258092459 7.903856397288274 29.497239146179197 0 0 0
194 6 8.8564679875338 4.997377745005289 27.480842225726718 0 0 0
195 7 11.369922535197217 4.996386930036995 27.497479595185478 0 0 0
196 7 0.1446343278950664 7.159894062588466 27.487603763579017 0 0 0
200 7 10.130468856464613 7.15953477338541 27.526199641132134 0 0 0
225 7 10.11037798887179 5.740717789197029 29.594008362967497 0 0 0
229 7 8.854246262401743 7.882641081664587 29.513728177784614 0 0 0
230 7 11.37612000969622 7.930514328258448 29.513316743738237 0 0 0
201 5 1.3859100153754507 9.324146121574508 27.515017156595615 0 0 0
202 7 3.8808903917232938 9.309807480132482 27.396523561683484 0 0 0
206 4 0.1954584650606595 11.479478769496868 27.518131376107043 0 0 0
207 7 2.618708448963971 11.454783028722469 27.453040399502665 0 0 0
231 7 0.17078754079720293 10.07739897550962 29.56160599688391 0 0 0
232 7 2.6385522937269084 10.018924033316809 29.435131579531657 0 0 0
236 7 1.4772016969776265 12.180538464850377 29.557015117473988 0 0 0
203 7 6.380404204111873 9.282069020934747 27.407544593343697 0 0 0
208 7 5.15017064750742 11.490523248304589 27.353200228534284 0 0 0
209 6 7.599730243901021 11.526970822029618 27.6304863990187 0 0 0
233 7 5.154746548961716 10.044571996154353 29.342130608861364 0 0 0
234 7 7.61102244339205 10.083871439580676 29.65521320790947 0 0 0
238 7 6.230041064977238 12.230585275883445 29.679132831498535 0 0 0
204 7 8.845762837315176 9.36779469354002 27.602905810846288 0 0 0
205 7 11.354558979091602 9.418486340997557 27.530345210402654 0 0 0
210 7 10.164578920984644 11.556514414233341 27.565635997622913 0 0 0
235 7 10.093422313789999 10.177644397246523 29.58513252922951 0 0 0
239 4 8.892280055162788 12.253908737051473 29.72206839148842 0 0 0
240 7 11.402402755718319 12.267065800925263 29.55175144390007 0 0 0
237 3 4.038715948774326 0.29872175784077515 30.56098795905162 0 1 0
241 7 0.20639944738868604 0.10066774236013451 31.630902081873693 0 0 0
242 7 2.5724829179726667 0.14182932916810823 31.74215086763764 0 0 0
246 4 1.3491292215644128 2.243142800306694 31.66196812981169 0 0 0
247 7 3.889110099749349 2.1487396352515846 31.641902846717123 0 0 0
276 7 0.1841366304871733 2.998809148822664 33.73495451632754 0 0 0
243 7 5.177809178090679 12.90305671393001 32.09938069338215 0 -1 0
244 7 7.636251173874985 0.004567220557399665 31.70612344096751 0 0 0
248 7 6.4166755514716804 2.1489732122118825 31.641402617239844 0 0 0
279 7 7.736750445551407 3.0472635240242423 33.72353622775046 0 0 0
249 7 8.860024195407123 2.1056809083832766 31.67203173153894 0 0 0
250 7 11.391406613385124 2.142294496860946 31.652359517792878 0 0 0
255 1 10.111974672002296 4.223520064337695 31.492178713813747 0 0 0
275 4 11.450470159315206 0.8021451201217918 33.711493157998014 0 0 0
251 7 0.1544181913432732 4.327035024375733 31.643697741394583 0 0 0
252 7 2.6403919462465497 4.317882809301617 31.666947344802992 0 0 0
256 7 1.3374087731740225 6.502799371152105 31.632462648833354 0 0 0
257 6 3.8001586881114995 6.499831507813189 31.66452388702461 0 0 0
253 7 5.120804079173179 4.308366057536516 31.622222535186975 0 0 0
254 7 7.629585818321674 4.3133870132115435 31.584997554325813 0 0 0
258 7 6.361047535970336 6.494487303675815 31.620869521413294 0 0 0
264 7 7.59793760855232 8.581762795480355 31.61546730906259 0 0 0
283 7 6.387521342750689 5.104642592447313 33.66657840259203 0 0 0
289 7 7.641645337809325 7.192295687362907 33.708291363909915 0 0 0
259 4 8.830325000181858 6.466410751509599 31.619772214889117 0 0 0
260 7 11.32308378428049 6.495392269971245 31.58440210300232 0 0 0
284 5 8.89407411187498 5.123649225247187 33.572202470748564 0 0 0
290 7 10.092584165090617 7.2666778684129545 33.58677130933843 0 0 0
261 7 0.1841813891447004 8.713650614719663 31.647413234336 0 0 0
262 7 2.6706718263872897 8.719538132929387 31.53450982175472 0 0 0
266 7 1.570422688874758 10.834449490089401 31.57164337225291 0 0 0
267 4 3.9239217610767056 11.282924066158557 30.852715598034443 0 0 0
292 7 3.965044709131043 9.373824397195486 33.506787782408814 0 0 0
326 7 0.5157001106698603 11.658010655756403 33.674907573736256 0 0 0
263 1 5.1008369148613495 8.760381703181745 31.428872659013127 0 0 0
268 7 6.269723220239917 10.763278671958536 31.577155448892213 0 0 0
245 7 10.119218439428833 12.8906771606004 31.864525909481753 0 -1 0
265 6 10.109447289291245 8.68884435618659 31.531949401512435 0 0 0
269 7 8.783679700727982 10.806783669367256 31.739187701945845 0 0 0
270 7 11.434518047881081 10.910703001136113 31.606336641195618 0 0 0
294 7 8.776992487687368 9.296424991048113 33.683982103231756 0 0 0
296 3 11.08374099427382 11.836523453749034 33.325094843108495 -1 0 0
271 7 1.4845052161930976 0.9076543007737731 33.77630179568968 0 0 0
272 7 3.931360696797854 0.9591166860789113 33.92323588067906 0 0 0
277 7 2.6520225482427366 3.0823296299370786 33.79542303266571 0 0 0
301 7 0.2018949995199403 1.5565905209212667 35.75809694982265 0 0 0
302 7 2.628862272572428 1.6721915975860222 35.85870705879056 0 0 0
306 4 1.4268992595485126 3.834563205947536 35.956439234834754 0 0 0
307 7 4.007224761127636 3.7363520104561108 35.831648372109846 0 0 0
273 7 6.471747227112994 0.9780409912193292 33.89961080869258 0 0 0
278 1 5.226538359559444 2.999943514546687 33.717991617077296 0 0 0
303 7 5.258103388817183 1.6721819203242845 35.93867726812133 0 0 0
304 4 7.772796522138243 1.6425830690415817 35.917609037917444 0 0 0
308 7 6.5389876688475095 3.7125847220972306 35.79489158992 0 0 0
274 7 8.846765594535011 0.9056232300883644 33.83408765199486 0 0 0
280 7 10.211232341792948 2.99985984877102 33.699440876617864 0 0 0
305 7 10.236341603486409 1.571370657222108 35.72294965221676 0 0 0
309 7 9.028275883382301 3.6798503141131667 35.76992207340333 0 0 0
310 4 11.601016418683482 3.9493237937871215 35.86366202472143 0 0 0
335 5 9.915514091929333 12.915252841708003 37.384335314022906 0 -1 0
281 7 1.3311037597552033 5.184688750915792 33.85761929180295 0 0 0
282 4 3.8553694289195932 5.1368384475770315 33.76812919167663 0 0 0
286 7 0.10156953026507992 7.285077683692643 33.616956354646135 0 0 0
287 7 2.6403141018180216 7.288970576086513 33.743116767622006 0 0 0
312 7 2.736692526088524 5.794195079849847 35.783165849563325 0 0 0
316 7 1.2231765738539482 7.612562606977041 35.781141319036585 0 0 0
317 7 3.937811816844487 8.066094976361956 35.73212500321963 0 0 0
288 7 5.192172535379469 7.273044458781794 33.665023345363274 0 0 0
313 7 5.2722849536841006 5.92115301304793 35.713359774944074 0 0 0
314 7 7.729823365070524 5.827774086321652 35.737888953218665 0 0 0
318 4 6.561603216679089 8.126205082897082 35.80158759575202 0 0 0
285 4 11.353259378111959 5.158789557007973 33.62265725970646 0 0 0
311 2 12.378917027582903 6.008144100245542 35.3090606683261 -1 0 0
315 7 10.14207186072666 5.814159400498949 35.56800212088059 0 0 0
319 7 8.963596466433033 7.983830750268618 35.80981792896119 0 0 0
320 7 11.355415602692625 7.939620782593772 35.586422434333606 0 0 0
355 3 10.440306816092503 7.9152497424275925 37.26587661169783 0 0 0
291 7 1.4743899290721478 9.428915941986276 33.72909097375092 0 0 0
297 6 3.0331611904351057 11.577549961931162 33.670149802720495 0 0 0
321 6 0.21660156459961977 10.065953375320753 35.90940659727737 0 0 0
322 7 2.706363651307396 10.201445829978365 35.758768683090544 0 0 0
327 6 3.929938082966837 12.511260090277405 36.10490794658703 0 0 0
356 4 1.4067174047570554 12.361910559881526 35.844284522405424 0 0 0
293 4 6.4594347856119505 9.324659059807066 33.6479715917413 0 0 0
298 2 5.211166150325725 12.28900074633961 34.20328993265998 0 0 0
299 7 7.003143509371845 11.5842960519243 33.67421733060256 0 0 0
323 6 5.2394174368829844 10.242793520465936 35.57428694416535 0 0 0
324 7 7.919840858742762 10.362824092389534 35.7048107466873 0 0 0
328 7 6.4764441550339304 12.524381329570897 35.91152666821532 0 0 0
295 6 11.278775120311943 9.703966821425741 33.754047037105224 0 0 0
300 7 9.389623356463883 11.553216242798023 34.15755606212083 0 0 0
325 7 10.26458242325201 9.859029694588653 37.02786254503617 0 0 0
329 3 9.535533003568139 11.410691036791661 36.19156328970714 0 0 0
330 4 11.26780356377643 12.079109965850426 35.56833291360973 0 0 0
332 7 2.490197271023465 0.10775212930195824 38.03078134541307 0 0 0
336 7 1.3440422628318685 2.194009914690718 37.83127535688535 0 0 0
337 7 3.887337473611283 2.2009586146098705 37.86236924247552 0 0 0
333 7 5.227646966346166 0.17143264131832417 38.11579552413277 0 0 0
334 7 7.660404194502584 0.0775300843012492 37.99868742673694 0 0 0
338 7 6.541013160619376 2.272139870446445 37.89827356829337 0 0 0
339 7 9.00213047429558 2.202230811405141 37.85136292436282 0 0 0
340 7 11.379384396371654 2.2059367191135966 37.72747835445847 0 0 0
361 8 11.498527173953592 6.794373516764554 41.494461387913205 0 0 0
362 8 11.510865411921593 6.028436681541689 41.52480033747706 0 0 0
342 7 2.7255969347337357 4.297160184802888 37.921933703896556 0 0 0
346 7 1.5311667988658648 6.416341219994486 37.988800110593495 0 0 0
347 6 3.9747818898610867 6.480198234336991 37.764598781113364 0 0 0
343 7 5.316563246034813 4.437532909274292 37.8317715766563 0 0 0
344 7 7.8472199996819585 4.449821883184349 37.84235400905128 0 0 0
348 6 6.671369162276881 6.6758396666955795 37.81337492404593 0 0 0
341 7 0.22838322985629667 4.259437390472123 38.07567195908002 0 0 0
345 4 10.233976192071912 4.347276166646041 37.816008653358715 0 0 0
349 7 9.248317587859164 6.6349628503288836 37.8460967726214 0 0 0
350 7 11.703228518151297 6.270526205032487 37.27532281877669 0 0 0
352 6 2.5000874791847765 8.668450168231347 37.686657513451216 0 0 0
357 7 3.853580404845809 10.814492081197793 37.95059243886991 0 0 0
360 7 1.3961940308652119 10.90814556144484 37.889280723210206 1 0 0
353 7 5.136973484724143 8.70253868822308 37.825335853455364 0 0 0
354 7 7.969409890377885 8.962504838949913 37.8088937420555 0 0 0
358 6 6.4277661054554525 10.860343013170777 37.78480494500267 0 0 0
331 7 12.398691186368541 12.890802751215157 37.621978694140914 -1 -1 0
351 7 12.239684259460889 8.559566673321317 37.843214428272766 -1 0 0
359 2 8.60954440332114 11.173717165467648 37.4186218111222 0 0 0

Velocities

1 0 0 0
2 0 0 0
6 0 0 0
7 0 0 0
31 0 0 0
32 0 0 0
36 0 0 0
37 0 0 0
3 0 0 0
8 0 0 0
9 0 0 0
33 0 0 0
34 0 0 0
38 0 0 0
4 0 0 0
5 0 0 0
10 0 0 0
35 0 0 0
39 0 0 0
40 0 0 0
11 0 0 0
12 0 0 0
16 0 0 0
17 0 0 0
41 0 0 0
42 0 0 0
46 0 0 0
47 0 0 0
13 0 0 0
18 0 0 0
19 0 0 0
43 0 0 0
44 0 0 0
48 0 0 0
14 0 0 0
15 0 0 0
20 0 0 0
45 0 0 0
49 0 0 0
50 0 0 0
21 0 0 0
22 0 0 0
26 0 0 0
27 0 0 0
51 0 0 0
52 0 0 0
56 0 0 0
57 0 0 0
23 0 0 0
28 0 0 0
29 0 0 0
53 0 0 0
54 0 0 0
58 0 0 0
24 0 0 0
25 0 0 0
30 0 0 0
55 0 0 0
59 0 0 0
60 0 0 0
61 0 0 0
62 0 0 0
66 0 0 0
67 0 0 0
91 0 0 0
92 0 0 0
96 0 0 0
97 0 0 0
63 0 0 0
64 0 0 0
68 0 0 0
93 0 0 0
98 0 0 0
99 0 0 0
65 0 0 0
69 0 0 0
70 0 0 0
94 0 0 0
95 0 0 0
100 0 0 0
71 0 0 0
72 0 0 0
76 0 0 0
77 0 0 0
101 0 0 0
102 0 0 0
106 0 0 0
107 0 0 0
73 0 0 0
74 0 0 0
78 0 0 0
103 0 0 0
108 0 0 0
109 0 0 0
75 0 0 0
79 0 0 0
80 0 0 0
104 0 0 0
105 0 0 0
110 0 0 0
81 0 0 0
82 0 0 0
86 0 0 0
87 0 0 0
111 0 0 0
112 0 0 0
116 0 0 0
117 0 0 0
83 0 0 0
84 0 0 0
88 0 0 0
113 0 0 0
118 0 0 0
119 0 0 0
85 0 0 0
89 0 0 0
90 0 0 0
114 0 0 0
115 0 0 0
120 0 0 0
121 0 0 0
122 0 0 0
126 0 0 0
127 0 0 0
152 0 0 0
156 0 0 0
157 0 0 0
162 0 0 0
123 0 0 0
124 0 0 0
128 0 0 0
153 0 0 0
154 0 0 0
158 0 0 0
163 0 0 0
164 0 0 0
125 0 0 0
129 0 0 0
130 0 0 0
155 0 0 0
159 0 0 0
160 0 0 0
165 0 0 0
131 0 0 0
132 0 0 0
136 0 0 0
137 0 0 0
161 0 0 0
166 0 0 0
167 0 0 0
133 0 0 0
134 0 0 0
138 0 0 0
168 0 0 0
173 0 0 0
135 0 0 0
139 0 0 0
140 0 0 0
169 0 0 0
170 0 0 0
175 0 0 0
141 0 0 0
142 0 0 0
146 0 0 0
147 0 0 0
151 0 0 0
171 0 0 0
172 0 0 0
176 0 0 0
177 0 0 0
143 0 0 0
144 0 0 0
148 0 0 0
178 0 0 0
145 0 0 0
149 0 0 0
150 0 0 0
174 0 0 0
179 0 0 0
180 0 0 0
181 0 0 0
182 0 0 0
186 0 0 0
187 0 0 0
211 0 0 0
212 0 0 0
216 0 0 0
217 0 0 0
183 0 0 0
188 0 0 0
189 0 0 0
213 0 0 0
214 0 0 0
218 0 0 0
184 0 0 0
185 0 0 0
190 0 0 0
215 0 0 0
219 0 0 0
220 0 0 0
191 0 0 0
192 0 0 0
197 0 0 0
221 0 0 0
222 0 0 0
226 0 0 0
227 0 0 0
193 0 0 0
198 0 0 0
199 0 0 0
223 0 0 0
224 0 0 0
228 0 0 0
194 0 0 0
195 0 0 0
196 0 0 0
200 0 0 0
225 0 0 0
229 0 0 0
230 0 0 0
201 0 0 0
202 0 0 0
206 0 0 0
207 0 0 0
231 0 0 0
232 0 0 0
236 0 0 0
203 0 0 0
208 0 0 0
209 0 0 0
233 0 0 0
234 0 0 0
238 0 0 0
204 0 0 0
205 0 0 0
210 0 0 0
235 0 0 0
239 0 0 0
240 0 0 0
237 0 0 0
241 0 0 0
242 0 0 0
246 0 0 0
247 0 0 0
276 0 0 0
243 0 0 0
244 0 0 0
248 0 0 0
279 0 0 0
249 0 0 0
250 0 0 0
255 0 0 0
275 0 0 0
251 0 0 0
252 0 0 0
256 0 0 0
257 0 0 0
253 0 0 0
254 0 0 0
258 0 0 0
264 0 0 0
283 0 0 0
289 0 0 0
259 0 0 0
260 0 0 0
284 0 0 0
290 0 0 0
261 0 0 0
262 0 0 0
266 0 0 0
267 0 0 0
292 0 0 0
326 0 0 0
263 0 0 0
268 0 0 0
245 0 0 0
265 0 0 0
269 0 0 0
270 0 0 0
294 0 0 0
296 0 0 0
271 0 0 0
272 0 0 0
277 0 0 0
301 0 0 0
302 0 0 0
306 0 0 0
307 0 0 0
273 0 0 0
278 0 0 0
303 0 0 0
304 0 0 0
308 0 0 0
274 0 0 0
280 0 0 0
305 0 0 0
309 0 0 0
310 0 0 0
335 0 0 0
281 0 0 0
282 0 0 0
286 0 0 0
287 0 0 0
312 0 0 0
316 0 0 0
317 0 0 0
288 0 0 0
313 0 0 0
314 0 0 0
318 0 0 0
285 0 0 0
311 0 0 0
315 0 0 0
319 0 0 0
320 0 0 0
355 0 0 0
291 0 0 0
297 0 0 0
321 0 0 0
322 0 0 0
327 0 0 0
356 0 0 0
293 0 0 0
298 0 0 0
299 0 0 0
323 0 0 0
324 0 0 0
328 0 0 0
295 0 0 0
300 0 0 0
325 0 0 0
329 0 0 0
330 0 0 0
332 0 0 0
336 0 0 0
337 0 0 0
333 0 0 0
334 0 0 0
338 0 0 0
339 0 0 0
340 0 0 0
361 0 0 0
362 0 0 0
342 0 0 0
346 0 0 0
347 0 0 0
343 0 0 0
344 0 0 0
348 0 0 0
341 0 0 0
345 0 0 0
349 0 0 0
350 0 0 0
352 0 0 0
357 0 0 0
360 0 0 0
353 0 0 0
354 0 0 0
358 0 0 0
331 0 0 0
351 0 0 0
359 0 0 0
