LAMMPS data file via write_data, version 11 Feb 2026, timestep = 487, units = metal

362 atoms
8 atom types

0 12.447907776 xlo xhi
0 12.9362452296 ylo yhi
0 52.3600831054 zlo zhi

Masses

1 26.9815
2 10.811
3 12.011
4 51.9961
5 55.845
6 95.95999999999999
7 58.6934
8 1.008

Atoms # atomic/kk

1 7 1.142800717610301 1.397223094437996 14.172772188920744 0 0 0
2 7 3.6065652558687007 1.0628540937365285 14.666543340303704 0 0 0
6 7 12.369915030710938 3.4488703219664574 14.818929485548113 -1 0 0
7 7 2.4257143977335867 3.267452543817128 14.988325322655927 0 0 0
31 6 0.13018841072301313 1.5595904443946838 16.54179320231089 0 0 0
32 7 2.6028609495933925 1.677956933550576 16.91187975958383 0 0 0
36 7 1.2176052148973813 3.8489705254610347 17.02608052834591 0 0 0
37 7 3.7084460076116774 3.8300397612099886 17.053312277724626 0 0 0
3 5 6.074707457662935 0.9397192098937484 14.908779233296388 0 0 0
8 7 4.926843963931931 3.1200624335260634 15.007056481838728 0 0 0
9 7 7.388576005416653 3.148120076107684 14.917483602899964 0 0 0
33 7 4.983578113030473 1.6577228989002373 16.951205732257474 0 0 0
34 7 7.408262117424357 1.7618758198457818 16.976379932049685 0 0 0
38 5 6.176834686482876 3.8527657876849117 16.985419596682863 0 0 0
4 6 8.638720182576355 0.9894868593343704 14.997221819544489 0 0 0
5 7 11.04785684336364 1.2458603989169357 14.598625153134043 0 0 0
10 7 9.911182014929327 3.3832610060658177 14.777413870014232 0 0 0
35 7 9.983565143976746 1.6552135730619535 16.9403559673684 0 0 0
39 7 8.728818583432869 3.8555678587310225 16.858562094730882 0 0 0
40 7 11.188636751535967 3.7996892936232647 16.996879900973212 0 0 0
11 7 1.2329635538943435 5.487898266438269 15.07681477317664 0 0 0
12 7 3.7213931409770065 5.309098202790975 15.08759794601962 0 0 0
16 4 0.46750245003838053 7.805374128230394 14.795545417895656 0 0 0
17 7 2.650951132772534 7.4880949074872065 15.149746192518593 0 0 0
41 7 12.44023160165703 5.99118455371549 17.222886791315535 -1 0 0
42 7 2.451903721027331 6.120477978657766 17.137566807025184 0 0 0
46 7 0.7926286361817612 9.36013143356237 16.870663650018713 0 0 0
47 7 3.8848659700228145 8.190512905537458 17.05927761266439 0 0 0
13 7 6.176897346285493 5.298241541769353 15.030586881924924 0 0 0
18 7 5.077966948628795 7.471464445527578 15.064595745851957 0 0 0
19 2 7.057937533721394 7.011718456657237 15.385606970394747 0 0 0
43 7 4.950821420467438 5.955669995078495 17.09091112565587 0 0 0
44 7 7.475228541399737 5.93340017978531 17.084194500836045 0 0 0
48 7 6.34491768955876 8.047805230915932 17.045663033654783 0 0 0
14 7 8.702312622166202 5.651366807486785 14.961849519353368 0 0 0
15 6 11.178697457526141 5.5973342111479045 15.181130642720333 0 0 0
20 7 10.44359430699342 7.6624692503385345 14.18065278104127 0 0 0
45 7 9.921555554067575 6.031404163428802 17.249394464105716 0 0 0
49 7 8.714743393840044 7.914774849174181 16.065544512735485 0 0 0
50 7 11.183517186857278 7.983802526858048 16.449653239655987 0 0 0
21 2 1.1635203209091753 10.471270879230989 15.208795814061856 0 0 0
22 7 2.9679251052371094 9.858095751140752 15.641497322720754 0 0 0
26 7 0.12620698395013288 12.19736940005075 14.906356961026482 0 0 0
27 7 2.480490509904856 11.80121624147745 14.459931212240766 0 0 0
51 3 11.517728589389298 9.363128485530273 17.65815100326104 -1 0 0
52 7 1.3484278813324129 11.857525955967699 16.984898377069037 0 0 0
56 2 1.9120791976948441 0.3136689693602079 15.605344339189868 0 1 0
57 7 3.751977957716995 12.429479437222154 16.60584863947957 0 0 0
23 7 6.919661162487698 8.998480648988052 14.775295529672823 0 0 0
28 7 4.957847836961478 11.779960401522903 14.60340176980737 0 0 0
29 6 7.485595433619434 11.48530397261952 14.917341919942736 0 0 0
53 7 5.3340358733827795 10.114908865182764 16.323458528297397 0 0 0
54 7 7.731754266733941 10.046618064556844 16.942915042780033 0 0 0
58 6 6.317727126829321 12.359632806256897 16.95097390258759 0 0 0
24 7 9.20937339108401 9.731123896352907 14.538024706402815 0 0 0
25 7 11.760954658415093 9.867416134575528 14.78669870532137 0 0 0
30 7 10.059818865362775 11.938019240559452 14.757758475049698 0 0 0
55 7 10.183364243021703 10.268835137841423 16.67737538957998 0 0 0
59 7 8.834842209610626 12.373840607417963 16.958178756415883 0 0 0
60 7 11.240987094999728 12.459893641404639 16.878744601610123 0 0 0
61 6 0.04579369171478559 12.92791962714681 18.99065451941889 0 -1 0
62 7 2.5855246032849117 12.847361246401709 19.034029462780413 0 -1 0
66 6 1.3910420617135342 2.158878861676013 19.04973772675978 0 0 0
67 5 3.829162749914108 2.162769856831116 19.073557391811388 0 0 0
91 4 1.3589888095033376 0.7419230931807608 21.29604383816465 0 0 0
92 7 3.7512666707357827 0.717284406685872 21.05112271243707 0 0 0
96 7 0.08010968394012408 2.790031882779312 21.183757103120925 0 0 0
97 7 2.590741184761617 2.8427970707899997 21.195495193678084 0 0 0
63 5 4.954882011209138 0.04595348904886446 18.95767833978452 0 0 0
64 7 7.439792308115055 0.07506894707651253 19.0973573777417 0 0 0
68 7 6.193047535918501 2.151829198023251 19.076212057330007 0 0 0
93 7 6.257895122458715 0.7123944444612884 21.169506300449758 0 0 0
98 7 5.023781829135182 2.866706522695416 21.14969057768273 0 0 0
99 5 7.477395350048977 2.807921278169986 21.165531785399267 0 0 0
65 7 9.999892607792987 0.0731042265794029 19.092136394912558 0 0 0
69 7 8.73666547889835 2.1468963060383257 18.99169100774088 0 0 0
70 7 11.285141317541843 2.2311609130162675 18.950428117899744 0 0 0
94 7 8.712134251466688 0.7063581122420396 21.232346895315217 0 0 0
95 7 11.302660788808904 0.663345408284685 21.19549741542923 0 0 0
100 6 10.029000931259558 2.777445435657107 21.051378658492855 0 0 0
71 1 12.38168024044267 4.371192187573766 19.182430573487608 -1 0 0
72 7 2.481940323985458 4.381893452227861 19.103150807051012 0 0 0
76 7 1.1982373037360388 6.427572855999484 19.256116940626065 0 0 0
77 7 3.7820935405564677 6.500212518454837 19.161164397928136 0 0 0
101 7 1.20248586141313 4.979323976268314 21.255636498230924 0 0 0
102 6 3.7278848321914433 5.035439571245901 21.22585601313679 0 0 0
106 7 12.43338726291833 7.089778038765773 21.311942790229924 -1 0 0
107 7 2.4666764764869473 7.165761358070358 21.228487416349388 0 0 0
73 7 4.974092523105778 4.3093641253248975 19.0832850113527 0 0 0
74 6 7.49995055403104 4.278298306884681 19.05090689516928 0 0 0
78 7 6.194700542329241 6.511932703937685 19.135976098598835 0 0 0
103 7 6.273295632868856 5.039936463491817 21.172214296835946 0 0 0
108 7 5.009830667905659 7.221507674274319 21.222777976197268 0 0 0
109 7 7.4174228181874975 7.241375093461661 21.261174473180226 0 0 0
75 5 9.906828760658277 4.298334083395628 19.029846959867946 0 0 0
79 7 8.623799891640072 6.464923816762986 19.31956037220793 0 0 0
80 7 11.111590609533021 6.413609815058499 19.354369726784846 0 0 0
104 7 8.738900321929776 5.015919325435093 21.240082287295376 0 0 0
105 3 10.0824370222553 4.364833456030928 22.285014552920995 0 0 0
110 7 9.88846449984486 7.1586470312142785 21.298724156358173 0 0 0
81 4 12.340765939922795 8.465761405650554 19.196350802147055 -1 0 0
82 6 2.356924909684652 8.48185891524365 18.910936093587146 0 0 0
86 7 1.279734086759101 10.683173100423339 19.1570416332716 0 0 0
87 1 3.6632339543540104 10.708637217286963 18.262098861043413 0 0 0
111 7 1.1777591646765686 9.282463485496903 21.191539130196308 0 0 0
112 6 3.6997453858384373 9.34864145044389 21.138643927307168 0 0 0
116 1 0.03502678256510855 11.479468882561179 21.293242552751412 0 0 0
117 7 2.468495086900339 11.521314133230481 21.140722465175628 0 0 0
83 7 4.944430826378122 8.725813634774124 19.079127810360884 0 0 0
84 7 7.395587006150287 8.632503886942963 19.081551637753666 0 0 0
88 7 6.160675875599814 10.794167383402332 18.925907594443853 0 0 0
113 7 6.212120875250085 9.402049000513074 21.03101947587844 0 0 0
118 7 4.962060974831842 11.53364582517923 21.038185253476733 0 0 0
119 4 7.397631243898083 11.52905684103282 21.070644768282452 0 0 0
85 6 9.785454616896665 8.466211351550417 18.536403712283224 0 0 0
89 6 8.729432362190568 10.842895577066008 19.034388912144234 0 0 0
90 4 11.27026723682039 10.81383420733604 18.93432940064493 0 0 0
114 7 8.697844765233425 9.308688328843388 20.988688747153482 0 0 0
115 6 11.107045915450104 9.244649495040445 21.171233655852134 0 0 0
120 7 9.98393825211238 11.509224853761323 21.178065877554417 0 0 0
121 7 0.07548310066602357 1.3664965537652751 23.30981933020865 0 0 0
122 7 2.566754936762732 1.378377473269698 23.32918140667706 0 0 0
126 6 1.3464496603219964 3.561227681730542 23.265863261896374 0 0 0
127 7 3.841957480856304 3.564918223663965 23.361472337619734 0 0 0
152 7 2.6447690502476933 12.915113408003135 25.373201607736352 0 -1 0
156 1 1.4710043704460873 2.104891826108077 25.515344696982062 0 0 0
157 7 3.9570840825732065 2.1113815369486493 25.44354560661286 0 0 0
162 7 2.589968509013385 4.237234467098571 25.428091218986307 0 0 0
123 7 4.983796031879231 1.4035032197519868 23.161801634306304 0 0 0
124 7 7.385279990557263 1.4744515535093103 23.486304685596675 0 0 0
128 7 6.294909755108443 3.6384207204504224 23.183311275019786 0 0 0
153 7 5.188409882228224 0.04610455533280372 25.292191406710455 0 0 0
154 7 7.59135717632667 12.913573794984426 25.475148700811733 0 -1 0
158 2 5.7666657614744485 2.431760167065583 24.62850941733883 0 0 0
163 7 5.109225864040963 4.218357355167081 25.421007995755854 0 0 0
164 5 7.468434632665009 4.035766748243568 25.359824251672276 0 0 0
125 7 10.034613347257082 1.4007083429288156 23.354755681516462 0 0 0
129 7 8.74267433787227 3.5193709659339545 23.34766330516425 0 0 0
130 4 11.358243664006954 3.589657456692932 23.402751639883082 0 0 0
155 4 10.111055870137225 0.03480019169011358 25.557959970670165 0 0 0
159 7 8.860920481504609 2.0717764928901072 25.44755740517856 0 0 0
160 7 11.392364819914583 2.1274263410227956 25.421498080483197 0 0 0
165 7 10.056701555577659 4.189697805350873 25.412840490437446 0 0 0
131 7 0.06183000376620377 5.743664521303857 23.40418890524954 0 0 0
132 7 2.5333885255031023 5.771823202513691 23.36016114300824 0 0 0
136 7 1.2936819639878068 7.885186235690235 23.304390921074415 0 0 0
137 7 3.767334054838884 7.95292659188471 23.27764419042767 0 0 0
161 4 0.10000073325493307 4.312403983795064 25.46994077025712 0 0 0
166 7 1.3282884679104563 6.386299768547979 25.43075137323587 0 0 0
167 7 3.798579391189874 6.410375547489918 25.442623435079923 0 0 0
133 6 5.055745680650313 5.831018868972277 23.387183223204136 0 0 0
134 7 7.550051494701989 5.7500029034652576 23.31484551608619 0 0 0
138 7 6.300713006185892 7.968294401228132 23.34071166995974 0 0 0
168 7 6.355798805431735 6.367344976066944 25.433001251086154 0 0 0
173 7 5.094855433790387 8.525715526376699 25.331763685586946 0 0 0
135 7 10.054909698901124 5.796330608136373 23.38863270262115 0 0 0
139 4 8.684333646348305 7.913327367487683 23.2445948210484 0 0 0
140 4 11.272205056829941 7.860880949041695 23.318178303799296 0 0 0
169 7 8.766112237909079 6.301721476500573 25.384138809648956 0 0 0
170 7 11.279595164430841 6.378546415290967 25.449707059945858 0 0 0
175 6 9.874765295857465 8.537549872750729 25.52474542021071 0 0 0
141 7 0.010079241674067065 10.038178274644329 23.343294740843202 0 0 0
142 7 2.4861354443780437 10.076921039427623 23.253930795726546 0 0 0
146 7 1.292401392979216 12.205887999627302 23.349988786242694 0 0 0
147 7 3.7964935497963035 12.215290212059903 23.179580509008986 0 0 0
151 4 0.0826808308199578 12.84556567759248 25.414961732509923 0 -1 0
171 6 0.09944710527382886 8.584562251704659 25.429767525505486 0 0 0
172 7 2.6128860632415045 8.580034621298335 25.375293101896208 0 0 0
176 7 1.3321683552018926 10.769502404188934 25.430874250777947 0 0 0
177 6 3.869399878650846 10.787617417669907 25.27297836317905 0 0 0
143 7 5.044889924116722 10.076295381346382 23.18072846965858 0 0 0
144 7 7.495362811594309 10.060069054224432 22.919743168270234 0 0 0
148 4 6.202651663324925 12.24143675747097 23.185033209788497 0 0 0
178 6 6.607075862157361 10.514194763705966 25.220177984487265 0 0 0
145 7 9.9856343995149 10.044770422221465 23.315998035202966 0 0 0
149 6 8.697988152978054 12.243200916221392 23.330283691985446 0 0 0
150 7 11.237021413816315 12.188483763319349 23.405605520150775 0 0 0
174 3 8.40343675038535 9.480043661854124 24.42402420212525 0 0 0
179 5 8.98823436276686 10.8930159611332 25.583786138898997 0 0 0
180 5 11.325907817063257 10.837267163913745 25.50670566675726 0 0 0
181 7 1.3814181418161324 0.6366319194170315 27.497047414634107 0 0 0
182 7 3.8680856196495106 0.6740210203369381 27.436137518422477 0 0 0
186 7 0.16351304366246092 2.828869239930404 27.496995074781136 0 0 0
187 7 2.6521576109406406 2.8247949941892485 27.56887576224123 0 0 0
211 7 0.2030193006741284 1.4162163662970804 29.59577747768315 0 0 0
212 7 2.7041207011135815 1.3338915658659802 29.58110114043197 0 0 0
216 7 1.4036385557807818 3.5262732773630576 29.59457768666785 0 0 0
217 4 3.8170879890539204 3.545899223223396 29.60195756058821 0 0 0
183 7 6.301604903344176 0.6866020570493999 27.57228423195618 0 0 0
188 7 5.075054708491687 2.845338251995439 27.57826911209149 0 0 0
189 7 7.587241146914673 2.7645348459978383 27.46504999367169 0 0 0
213 5 5.127388757265081 1.3991870299395877 29.602764783992804 0 0 0
214 7 7.605370890527367 1.3269625890374197 29.594055817439532 0 0 0
218 7 6.356272646601968 3.509341264626676 29.54646997578052 0 0 0
184 7 8.878416204461923 0.6899702998599991 27.57034018211219 0 0 0
185 4 11.376278512743387 0.6936626283031883 27.54334423558612 0 0 0
190 7 10.137439979182505 2.8028080621423404 27.49444958892269 0 0 0
215 7 10.11771018755042 1.3749970048192297 29.637327832068486 0 0 0
219 7 8.831392804817174 3.4833134539904465 29.53431060924228 0 0 0
220 7 11.362245989455728 3.5296977202829596 29.528454866281095 0 0 0
191 7 1.3832456492257756 4.977645264979949 27.476332336405246 0 0 0
192 7 3.825759038951637 4.961905360996418 27.484862466382086 0 0 0
197 7 2.571087710660998 7.164395758999607 27.47759207331499 0 0 0
221 7 0.11256874393870188 5.697298047619586 29.577759840341397 0 0 0
222 7 2.5836678668945763 5.700215112280513 29.555261607791795 0 0 0
226 7 1.3561827531098067 7.87398357229022 29.555030088376903 0 0 0
227 7 3.8534233211073263 7.8858778703021 29.46970770707846 0 0 0
193 7 6.361810213095638 4.9469834830589 27.416043220610213 0 0 0
198 7 5.094579067790144 7.145374729959881 27.41295509323568 0 0 0
199 7 7.613589819760012 7.159684036415019 27.450972917990743 0 0 0
223 6 5.145411339358898 5.69385740206118 29.492358036076336 0 0 0
224 7 7.636565755820225 5.7098009404062715 29.5847631872235 0 0 0
228 7 6.386958477452056 7.885581720608258 29.493982321776873 0 0 0
194 6 8.839948679454881 4.967713901250383 27.49680348192459 0 0 0
195 7 11.352919140730517 4.964734722219437 27.513449188863152 0 0 0
196 7 0.12803437918629879 7.128002638210078 27.50245918511625 0 0 0
200 7 10.115778926739369 7.128084931504476 27.5446188402998 0 0 0
225 7 10.093715760974355 5.7112322110791665 29.611072364348708 0 0 0
229 7 8.838612537913326 7.853920172367693 29.530421570674644 0 0 0
230 7 11.360444238700662 7.901719776029469 29.53035796758873 0 0 0
201 5 1.3709386535848167 9.296062019453915 27.515625438647543 0 0 0
202 7 3.864416110768299 9.292790454093346 27.376044441027222 0 0 0
206 4 0.17963819935913117 11.448339970746133 27.52696995757875 0 0 0
207 7 2.6030007252666314 11.428921577499652 27.438628219578824 0 0 0
231 7 0.1581159625023754 10.050173575790582 29.57046980265072 0 0 0
232 7 2.6251868725015974 9.997995941819903 29.42702871741891 0 0 0
236 7 1.4662862901282783 12.155811042109951 29.55681283879106 0 0 0
203 7 6.367268455443592 9.257197413882077 27.3886704775306 0 0 0
208 7 5.130227236309263 11.472265927193899 27.320061212990627 0 0 0
209 6 7.574477136157457 11.49596516818442 27.642090487876892 0 0 0
233 7 5.1426647233569085 10.027551633225492 29.32338489685164 0 0 0
234 7 7.594392966550501 10.061440165504784 29.66882405594032 0 0 0
238 7 6.203932639788999 12.208925691252158 29.680966820518584 0 0 0
204 7 8.830752277145093 9.339647132755111 27.627823199435905 0 0 0
205 7 11.337079061084884 9.386726725765786 27.550222110370814 0 0 0
210 7 10.143785538949462 11.52488751530382 27.58825459587423 0 0 0
235 7 10.077713231593728 10.150557317739382 29.605662274530356 0 0 0
239 4 8.871690771035984 12.225988825793452 29.735397450738624 0 0 0
240 7 11.38979240735258 12.23919926597532 29.565710951595698 0 0 0
237 3 4.024848080208922 0.26528571272475404 30.549237543329674 0 1 0
241 7 0.19386200238622514 0.07450356348957879 31.642527699816934 0 0 0
242 7 2.5618450549669527 0.12134509881000444 31.738846179239978 0 0 0
246 4 1.336270628343086 2.220315964004643 31.671560306253838 0 0 0
247 7 3.8718902047640253 2.1335616881040695 31.643454477429188 0 0 0
276 7 0.16791212640767475 2.9695138049785808 33.745900948255944 0 0 0
243 7 5.160872512375684 12.884924584961423 32.092273191910174 0 -1 0
244 7 7.619750541389595 12.917730712711535 31.709939751250083 0 -1 0
248 7 6.399233625250562 2.129439166917254 31.64793323928744 0 0 0
279 7 7.720348243433407 3.020427551120112 33.73438046531153 0 0 0
249 7 8.843248940733432 2.0805009487843455 31.686871887430488 0 0 0
250 7 11.376968723608618 2.1145787471972546 31.668608985579795 0 0 0
255 1 10.096972037047975 4.195768136791151 31.510072056372834 0 0 0
275 4 11.432381893604493 0.7682128615817975 33.72680621012529 0 0 0
251 7 0.13939273412805928 4.301608669334019 31.65802902417915 0 0 0
252 7 2.6251839108034543 4.299930913483251 31.672805550609286 0 0 0
256 7 1.321698661729322 6.479851133893116 31.640187782187866 0 0 0
257 6 3.784700380028893 6.483624819661411 31.66478956650841 0 0 0
253 7 5.105013001125834 4.29188687565919 31.625443153536086 0 0 0
254 7 7.613732067295541 4.291049090067182 31.595946444616686 0 0 0
258 7 6.344426150451959 6.474969251897973 31.623726459860308 0 0 0
264 7 7.581858575539148 8.558623514560782 31.625471782358638 0 0 0
283 7 6.372844290039065 5.0814122244766144 33.671981175347014 0 0 0
289 7 7.623903440583586 7.168845176709204 33.71834949186273 0 0 0
259 4 8.813037814907881 6.438887332151919 31.63361888648869 0 0 0
260 7 11.306144935054743 6.467288008299113 31.599644428710413 0 0 0
284 5 8.87802619659032 5.095619864820488 33.588993563051474 0 0 0
290 7 10.073311868595647 7.238695561702221 33.60199382641835 0 0 0
261 7 0.1691625418605096 8.686345406718447 31.65410714445775 0 0 0
262 7 2.656827432378047 8.70109023804635 31.531197570626382 0 0 0
266 7 1.5537903445914478 10.813226029636137 31.572415117675845 0 0 0
267 4 3.909718498083412 11.254646923307353 30.849612672805794 0 0 0
292 7 3.95087802267253 9.34839551257593 33.50597872310232 0 0 0
326 7 0.4967993945532794 11.628904652618385 33.684432700478 0 0 0
263 1 5.086290309161123 8.74320940482155 31.420533059100485 0 0 0
268 7 6.252342125674769 10.744210573821256 31.584119344059623 0 0 0
245 7 10.104995940152087 12.864727362273198 31.87289604754071 0 -1 0
265 6 10.092949156680119 8.660355551103164 31.55004231092354 0 0 0
269 7 8.769832695472589 10.782576485065695 31.758491399835442 0 0 0
270 7 11.42185210078924 10.882998661914797 31.615319745890545 0 0 0
294 7 8.758404157328464 9.272657354557293 33.70279328203138 0 0 0
296 3 11.068487792653904 11.807270060308111 33.329919966932174 -1 0 0
271 7 1.4703178505647683 0.880175486878656 33.78111410460726 0 0 0
272 7 3.9169133946008894 0.9366691911854216 33.91761143092173 0 0 0
277 7 2.6356201643669497 3.0595361959975644 33.80080120949172 0 0 0
301 7 0.18399127504618584 1.5299259820203865 35.76932139577273 0 0 0
302 7 2.6136632624828366 1.6481784334881422 35.86499195514003 0 0 0
306 4 1.4117481941500767 3.8107521961104376 35.96868018636534 0 0 0
307 7 3.9905369380086753 3.714022660133803 35.8373592853047 0 0 0
273 7 6.4504687284807165 0.9529011216854438 33.90157327869296 0 0 0
278 1 5.210097245920894 2.9788587506097315 33.72169225218498 0 0 0
303 7 5.236551093107551 1.6508808035987752 35.94536438862629 0 0 0
304 4 7.748148646544321 1.6201377863639206 35.921861950641045 0 0 0
308 7 6.5208488762982295 3.6895333803234416 35.80183349259881 0 0 0
274 7 8.825183252592078 0.8734712252294211 33.84320920613558 0 0 0
280 7 10.194916285795584 2.969474454666491 33.716327077726696 0 0 0
305 7 10.212944317953328 1.5364297998685907 35.735554747535296 0 0 0
309 7 9.013104451772515 3.652663004433253 35.783826360522426 0 0 0
310 4 11.584764691393161 3.9264772552112186 35.869161676432654 0 0 0
335 5 9.907836798111408 12.888720880745362 37.41217420217529 0 -1 0
281 7 1.3135608492335549 5.1599394421960705 33.86731066577951 0 0 0
282 4 3.839939376099199 5.116182571573587 33.76981885403156 0 0 0
286 7 0.08354698659603817 7.259033443747283 33.62706732559623 0 0 0
287 7 2.623129829339668 7.264552684148076 33.7472446484824 0 0 0
312 7 2.7227532982921003 5.767564352098336 35.78767721253102 0 0 0
316 7 1.2052095563548482 7.577847268495278 35.79020994375424 0 0 0
317 7 3.9199799180211183 8.040902529885587 35.73476404875857 0 0 0
288 7 5.176959329536745 7.250195305129343 33.66816929373508 0 0 0
313 7 5.2572586377974195 5.898272313828479 35.717656706798245 0 0 0
314 7 7.7137472985315725 5.8021743504417875 35.748199708609675 0 0 0
318 4 6.5483204345366675 8.10331369241155 35.810121865909274 0 0 0
285 4 11.33596044234803 5.131374838233107 33.64062285518207 0 0 0
311 2 12.361995688003333 5.979655244257734 35.32676417237921 -1 0 0
315 7 10.124873742867555 5.78899917480035 35.58638583003574 0 0 0
319 7 8.947444282924863 7.958347720343724 35.828750318783946 0 0 0
320 7 11.339225744185924 7.910143227985634 35.597265372566575 0 0 0
355 3 10.431646471755586 7.880452384024853 37.28299856144759 0 0 0
291 7 1.4597864966230334 9.403225609505084 33.72488580918806 0 0 0
297 6 3.0159858529174675 11.55160815948194 33.66350334663373 0 0 0
321 6 0.20542040494766953 10.03322707220874 35.90588277233649 0 0 0
322 7 2.688713031198079 10.175832302874117 35.75446549753799 0 0 0
327 6 3.916898168248896 12.481721280693634 36.07656862412324 0 0 0
356 4 1.3814028196900663 12.33673991121103 35.84852666147492 0 0 0
293 4 6.441821767307677 9.305385211263452 33.64871524397399 0 0 0
298 2 5.201955391269716 12.252070173521984 34.185005346350074 0 0 0
299 7 7.007019170586195 11.561434677692024 33.68035288491315 0 0 0
323 6 5.223404267571019 10.213868731272463 35.578960847393915 0 0 0
324 7 7.9056595955000715 10.343622162920385 35.721170800182186 0 0 0
328 7 6.454300549872264 12.50102942926943 35.91077838735275 0 0 0
295 6 11.260150382658754 9.676495308986233 33.76325458166788 0 0 0
300 7 9.38937864378561 11.52792073183955 34.186932787185306 0 0 0
325 7 10.249870048859334 9.822794426212523 37.040551476241355 0 0 0
329 3 9.52743580443213 11.38395388128348 36.218454241987615 0 0 0
330 4 11.264383015053939 12.05976411056624 35.602399917391104 0 0 0
332 7 2.4837355088171305 0.08193662624705737 37.991459954652825 0 0 0
336 7 1.3286143121716287 2.172804721745356 37.843589163657036 0 0 0
337 7 3.869215130082318 2.187607187088836 37.87488558200488 0 0 0
333 7 5.198312829790044 0.1471464364991331 38.10626063016854 0 0 0
334 7 7.638184713911141 0.05460012938604181 37.99697457306622 0 0 0
338 7 6.516788146826591 2.2472996071251066 37.90630933085842 0 0 0
339 7 8.97988351234978 2.174841633937127 37.856813616578705 0 0 0
340 7 11.358736131765182 2.183698791391619 37.73489224802415 0 0 0
342 7 2.7058304048503214 4.280369081771287 37.9321704977489 0 0 0
346 7 1.5104554492096471 6.396754075968371 38.00233853287634 0 0 0
347 6 3.957093063445413 6.4610580599839 37.767168103667224 0 0 0
343 7 5.295278884762568 4.416017120701241 37.83834506976486 0 0 0
344 7 7.823357406475017 4.426198068055565 37.85056316841219 0 0 0
348 6 6.649820153881707 6.655181903083193 37.821396158070506 0 0 0
341 7 0.2057825581040625 4.236541742286126 38.07887540451583 0 0 0
345 4 10.211227351407985 4.322426095488466 37.81626717017054 0 0 0
349 7 9.229854183445632 6.61292409595406 37.87152854084698 0 0 0
350 7 11.673025661113613 6.254155194580242 37.306678468463794 0 0 0
352 6 2.4829815670581405 8.650889916433556 37.68799408450383 0 0 0
357 7 3.8317245918354157 10.804695876029031 37.94694968582982 0 0 0
360 7 1.3709316532989737 10.890930394693902 37.89482529845851 1 0 0
361 8 2.154728411382256 0.622956267823972 41.3875339088158 0 1 0
362 8 2.446461480057037 12.862730007960018 41.466293575989205 0 0 0
353 7 5.115168118136728 8.686358518193954 37.83062745282911 0 0 0
354 7 7.946292522248733 8.944887307859585 37.82221332790917 0 0 0
358 6 6.40568549919304 10.842748902446077 37.79006256031835 0 0 0
331 7 12.398147042517117 12.885319077562201 37.655357029478566 -1 -1 0
351 7 12.239263329695094 8.541710659188816 37.84546693881542 -1 0 0
359 2 8.595431626838863 11.144046532580944 37.44075453381969 0 0 0

Velocities

1 0 0 0
2 0 0 0
6 0 0 0
7 0 0 0
31 0 0 0
32 0 0 0
36 0 0 0
37 0 0 0
3 0 0 0
8 0 0 0
9 0 0 0
33 0 0 0
34 0 0 0
38 0 0 0
4 0 0 0
5 0 0 0
10 0 0 0
35 0 0 0
39 0 0 0
40 0 0 0
11 0 0 0
12 0 0 0
16 0 0 0
17 0 0 0
41 0 0 0
42 0 0 0
46 0 0 0
47 0 0 0
13 0 0 0
18 0 0 0
19 0 0 0
43 0 0 0
44 0 0 0
48 0 0 0
14 0 0 0
15 0 0 0
20 0 0 0
45 0 0 0
49 0 0 0
50 0 0 0
21 0 0 0
22 0 0 0
26 0 0 0
27 0 0 0
51 0 0 0
52 0 0 0
56 0 0 0
57 0 0 0
23 0 0 0
28 0 0 0
29 0 0 0
53 0 0 0
54 0 0 0
58 0 0 0
24 0 0 0
25 0 0 0
30 0 0 0
55 0 0 0
59 0 0 0
60 0 0 0
61 0 0 0
62 0 0 0
66 0 0 0
67 0 0 0
91 0 0 0
92 0 0 0
96 0 0 0
97 0 0 0
63 0 0 0
64 0 0 0
68 0 0 0
93 0 0 0
98 0 0 0
99 0 0 0
65 0 0 0
69 0 0 0
70 0 0 0
94 0 0 0
95 0 0 0
100 0 0 0
71 0 0 0
72 0 0 0
76 0 0 0
77 0 0 0
101 0 0 0
102 0 0 0
106 0 0 0
107 0 0 0
73 0 0 0
74 0 0 0
78 0 0 0
103 0 0 0
108 0 0 0
109 0 0 0
75 0 0 0
79 0 0 0
80 0 0 0
104 0 0 0
105 0 0 0
110 0 0 0
81 0 0 0
82 0 0 0
86 0 0 0
87 0 0 0
111 0 0 0
112 0 0 0
116 0 0 0
117 0 0 0
83 0 0 0
84 0 0 0
88 0 0 0
113 0 0 0
118 0 0 0
119 0 0 0
85 0 0 0
89 0 0 0
90 0 0 0
114 0 0 0
115 0 0 0
120 0 0 0
121 0 0 0
122 0 0 0
126 0 0 0
127 0 0 0
152 0 0 0
156 0 0 0
157 0 0 0
162 0 0 0
123 0 0 0
124 0 0 0
128 0 0 0
153 0 0 0
154 0 0 0
158 0 0 0
163 0 0 0
164 0 0 0
125 0 0 0
129 0 0 0
130 0 0 0
155 0 0 0
159 0 0 0
160 0 0 0
165 0 0 0
131 0 0 0
132 0 0 0
136 0 0 0
137 0 0 0
161 0 0 0
166 0 0 0
167 0 0 0
133 0 0 0
134 0 0 0
138 0 0 0
168 0 0 0
173 0 0 0
135 0 0 0
139 0 0 0
140 0 0 0
169 0 0 0
170 0 0 0
175 0 0 0
141 0 0 0
142 0 0 0
146 0 0 0
147 0 0 0
151 0 0 0
171 0 0 0
172 0 0 0
176 0 0 0
177 0 0 0
143 0 0 0
144 0 0 0
148 0 0 0
178 0 0 0
145 0 0 0
149 0 0 0
150 0 0 0
174 0 0 0
179 0 0 0
180 0 0 0
181 0 0 0
182 0 0 0
186 0 0 0
187 0 0 0
211 0 0 0
212 0 0 0
216 0 0 0
217 0 0 0
183 0 0 0
188 0 0 0
189 0 0 0
213 0 0 0
214 0 0 0
218 0 0 0
184 0 0 0
185 0 0 0
190 0 0 0
215 0 0 0
219 0 0 0
220 0 0 0
191 0 0 0
192 0 0 0
197 0 0 0
221 0 0 0
222 0 0 0
226 0 0 0
227 0 0 0
193 0 0 0
198 0 0 0
199 0 0 0
223 0 0 0
224 0 0 0
228 0 0 0
194 0 0 0
195 0 0 0
196 0 0 0
200 0 0 0
225 0 0 0
229 0 0 0
230 0 0 0
201 0 0 0
202 0 0 0
206 0 0 0
207 0 0 0
231 0 0 0
232 0 0 0
236 0 0 0
203 0 0 0
208 0 0 0
209 0 0 0
233 0 0 0
234 0 0 0
238 0 0 0
204 0 0 0
205 0 0 0
210 0 0 0
235 0 0 0
239 0 0 0
240 0 0 0
237 0 0 0
241 0 0 0
242 0 0 0
246 0 0 0
247 0 0 0
276 0 0 0
243 0 0 0
244 0 0 0
248 0 0 0
279 0 0 0
249 0 0 0
250 0 0 0
255 0 0 0
275 0 0 0
251 0 0 0
252 0 0 0
256 0 0 0
257 0 0 0
253 0 0 0
254 0 0 0
258 0 0 0
264 0 0 0
283 0 0 0
289 0 0 0
259 0 0 0
260 0 0 0
284 0 0 0
290 0 0 0
261 0 0 0
262 0 0 0
266 0 0 0
267 0 0 0
292 0 0 0
326 0 0 0
263 0 0 0
268 0 0 0
245 0 0 0
265 0 0 0
269 0 0 0
270 0 0 0
294 0 0 0
296 0 0 0
271 0 0 0
272 0 0 0
277 0 0 0
301 0 0 0
302 0 0 0
306 0 0 0
307 0 0 0
273 0 0 0
278 0 0 0
303 0 0 0
304 0 0 0
308 0 0 0
274 0 0 0
280 0 0 0
305 0 0 0
309 0 0 0
310 0 0 0
335 0 0 0
281 0 0 0
282 0 0 0
286 0 0 0
287 0 0 0
312 0 0 0
316 0 0 0
317 0 0 0
288 0 0 0
313 0 0 0
314 0 0 0
318 0 0 0
285 0 0 0
311 0 0 0
315 0 0 0
319 0 0 0
320 0 0 0
355 0 0 0
291 0 0 0
297 0 0 0
321 0 0 0
322 0 0 0
327 0 0 0
356 0 0 0
293 0 0 0
298 0 0 0
299 0 0 0
323 0 0 0
324 0 0 0
328 0 0 0
295 0 0 0
300 0 0 0
325 0 0 0
329 0 0 0
330 0 0 0
332 0 0 0
336 0 0 0
337 0 0 0
333 0 0 0
334 0 0 0
338 0 0 0
339 0 0 0
340 0 0 0
342 0 0 0
346 0 0 0
347 0 0 0
343 0 0 0
344 0 0 0
348 0 0 0
341 0 0 0
345 0 0 0
349 0 0 0
350 0 0 0
352 0 0 0
357 0 0 0
360 0 0 0
361 0 0 0
362 0 0 0
353 0 0 0
354 0 0 0
358 0 0 0
331 0 0 0
351 0 0 0
359 0 0 0
