LAMMPS data file via write_data, version 11 Feb 2026, timestep = 378, units = metal

362 atoms
8 atom types

0 12.447907776 xlo xhi
0 12.9362452296 ylo yhi
0 52.3600831054 zlo zhi

Masses

1 26.9815
2 10.811
3 12.011
4 51.9961
5 55.845
6 95.95999999999999
7 58.6934
8 1.008

Atoms # atomic/kk

1 7 0.20891571436642714 12.460599019502391 14.821063887726789 0 -1 0
2 7 3.6999432119825224 0.633990506525562 14.809129186431335 0 0 0
6 7 12.304354691656014 3.425639517114011 14.772843189094436 -1 0 0
7 7 2.1924693312130388 2.6270853489930115 15.054387046618006 0 0 0
31 6 0.12367013887584444 1.580847870768979 16.470433843964067 0 0 0
32 7 2.609468088002428 1.4450719444957716 17.07246786095208 0 0 0
36 7 1.1798432310249207 3.8108136869633484 16.978873357968627 0 0 0
37 7 3.648937187455764 3.64713144801499 17.0638625781353 0 0 0
3 5 6.121716950541965 0.8202803458927408 14.95699204035973 0 0 0
8 7 4.8283442200511315 2.917503794562664 15.002945175881019 0 0 0
9 7 7.315295738809149 3.0529251850616683 14.899561204561229 0 0 0
33 7 4.9841006422452665 1.5587231171058265 16.996080036577016 0 0 0
34 7 7.419434230386695 1.7133626558865669 16.993978444658534 0 0 0
38 5 6.14772112270286 3.7616719529111564 16.97073536700428 0 0 0
4 6 8.686843557479456 1.0283490745076196 15.00314456300601 0 0 0
5 7 11.037423051829936 1.2916461410077638 14.572889974707904 0 0 0
10 7 9.827199358732493 3.41889873596792 14.651897002937677 0 0 0
35 7 10.009293190677164 1.6494432996440558 16.97132055146061 0 0 0
39 7 8.698279712556495 3.8478349179751183 16.809247656559485 0 0 0
40 7 11.143941836663634 3.839751690135412 16.96072534523497 0 0 0
11 7 1.1653892169918463 5.440088816198981 14.994668670810052 0 0 0
12 7 3.642453924934154 5.032457105722003 15.069086746213765 0 0 0
16 4 0.35404928885006137 7.808973066641241 14.590299042137767 0 0 0
17 7 2.6226397766849643 7.347437041285274 14.820005879236213 0 0 0
41 7 12.384084289292788 5.988714575668164 17.15884579659341 -1 0 0
42 7 2.461496660703228 5.903949218631177 17.040713961682787 0 0 0
46 7 1.277200158904361 8.012342676675928 16.783949722767005 0 0 0
47 7 3.768484114136789 7.97042528214694 16.97948623466317 0 0 0
13 7 6.1540054671031 5.170727644851808 15.021500565621762 0 0 0
18 7 5.026440539099007 7.2282996278638185 14.97944171471742 0 0 0
19 2 6.957446495622373 6.999847266818078 15.327764031343907 0 0 0
43 7 4.922487210668721 5.803186300047349 17.06082987680769 0 0 0
44 7 7.43982952835169 5.923391012337702 17.03893346945637 0 0 0
48 7 6.2384920460221505 7.975283376377466 17.02569734777822 0 0 0
14 7 8.647160517824659 5.661736358656655 14.913512372161508 0 0 0
15 6 11.1355937347805 5.579658121008021 15.101614653709827 0 0 0
20 7 10.324151911915306 7.610936113855262 14.109920524874667 0 0 0
45 7 9.877317781366834 6.088578959987516 17.170051406151032 0 0 0
49 7 8.592382362919764 7.956153722770692 15.92334671338614 0 0 0
50 7 11.181617119647107 8.004287547647596 16.32823870404718 0 0 0
21 2 1.8955582168556897 9.273952835091155 15.194610344913778 0 0 0
22 7 3.8510558953799925 9.400849288944842 14.934346418066466 0 0 0
26 7 1.2839324968558465 12.236939115641757 17.035315226165718 0 0 0
27 7 2.364874313140341 11.373872057834731 14.919660958628342 0 0 0
51 3 11.386923092367297 9.598541329017618 17.260779902648874 -1 0 0
52 7 2.517121330114592 10.117714864117419 16.995481379364087 0 0 0
56 2 1.8396356164407204 0.49333561433713913 15.40236034280414 0 1 0
57 7 3.778571500625839 12.2440901105295 16.87136172256802 0 0 0
23 7 6.569945769424005 9.11820959085995 14.878896576599814 0 0 0
28 7 5.057814615244631 11.500367196582575 14.813986470277483 0 0 0
29 6 7.590096392169763 11.494053895616807 15.000815139052236 0 0 0
53 7 5.073251161576703 10.093132714368767 16.88238814044883 0 0 0
54 7 7.571260508883935 10.027351956722683 17.012156309066807 0 0 0
58 6 6.314783071790719 12.316852843664046 17.0513746952714 0 0 0
24 7 8.943972995267483 9.659988823857354 14.24350935380291 0 0 0
25 7 0.1733013455551468 10.1357354944606 15.88666791321164 1 0 0
30 7 10.054687248143582 11.965036188948444 14.629059250312247 0 0 0
55 7 9.913884328561748 10.280543733872461 16.368449027526 0 0 0
59 7 8.838849260544308 12.405144792475749 16.977929691786805 0 0 0
60 7 11.228583135856226 12.39299818892685 16.76795223330622 0 0 0
61 6 12.416349301066582 0.12175728945021834 19.015292422032267 -1 0 0
62 7 2.517540439412728 0.053623369434823105 19.1476459064314 0 0 0
66 6 1.3610995398780037 2.2674763058119627 19.060487700485815 0 0 0
67 5 3.8218423310065597 2.1999782033159203 19.137793032445273 0 0 0
91 4 1.3365604324452223 0.7675649707495047 21.32976250895532 0 0 0
92 7 3.7596053454386564 0.7407973519910943 21.142985850715284 0 0 0
96 7 0.06994467321820966 2.8404784051400664 21.182732307804528 0 0 0
97 7 2.5846366660568036 2.8610648175097704 21.205142757220024 0 0 0
63 5 4.983472370793025 0.13766765909396264 19.06985644924942 0 0 0
64 7 7.463204838650904 0.13584895150812243 19.135591084354946 0 0 0
68 7 6.209324177697104 2.204022894253775 19.087865251947036 0 0 0
93 7 6.288428406786398 0.7447424478977953 21.224743727726853 0 0 0
98 7 5.0313172850248185 2.8771471928106442 21.174393804875105 0 0 0
99 5 7.491483805736849 2.847928612652817 21.158110476431368 0 0 0
65 7 9.98717246951819 0.13870364520572473 19.09113516411483 0 0 0
69 7 8.745342243142707 2.2294836382310135 18.986050253415016 0 0 0
70 7 11.265672133714721 2.3553342991829385 18.951274618419387 0 0 0
94 7 8.742494532472875 0.752877715632109 21.237866095966854 0 0 0
95 7 11.288893996680343 0.7092334549419754 21.24148469619918 0 0 0
100 6 10.030761914952553 2.8394281496038536 21.04425442412672 0 0 0
71 1 12.340472203089245 4.509435735078248 19.183664134765152 -1 0 0
72 7 2.4479528093770715 4.446218379036304 19.073937318527584 0 0 0
76 7 1.2033779383287226 6.554346588480075 19.132367270268098 0 0 0
77 7 3.7577097073200707 6.517223705308882 19.11066055355031 0 0 0
101 7 1.211970811519281 5.026080773015358 21.20698629060692 0 0 0
102 6 3.7348156729254587 5.041997421243672 21.198929852738548 0 0 0
106 7 0.018616108733957925 7.1369753393309825 21.222354318352867 0 0 0
107 7 2.4777410514827163 7.172237774203027 21.214042647563552 0 0 0
73 7 4.954306301498587 4.317254748467795 19.06768482368924 0 0 0
74 6 7.495107381762601 4.347451873843508 19.02027599416876 0 0 0
78 7 6.175849979013708 6.521401783689083 19.10550817690518 0 0 0
103 7 6.276449746146856 5.049073724141149 21.1593450883815 0 0 0
108 7 5.008202771622457 7.2194491068053965 21.19688669567901 0 0 0
109 7 7.419282509024775 7.2494316310551445 21.249855698387382 0 0 0
75 5 9.895049842447483 4.415611913125438 19.001154341430123 0 0 0
79 7 8.645193470797162 6.548279148900348 19.289808263191937 0 0 0
80 7 11.111860155420622 6.643386579934508 19.25994782078239 0 0 0
104 7 8.739981468397884 5.0605704435721455 21.21585457392033 0 0 0
105 3 10.081055676334964 4.427109312109899 22.277168362230118 0 0 0
110 7 9.90818608139412 7.174463079714833 21.330222474013894 0 0 0
81 4 12.340952867235645 8.665339909451344 18.735137191194216 -1 0 0
82 6 2.429775388458992 8.602421687576586 19.043693881007865 0 0 0
86 7 1.2118301476940336 10.809292624985504 19.134485156093124 0 0 0
87 1 3.771719118758539 10.92014840153251 18.988959379548444 0 0 0
111 7 1.1723606754476608 9.314811014920078 21.148979848088594 0 0 0
112 6 3.7343791214032422 9.351640817276685 21.250959624735003 0 0 0
116 1 0.0017465022564109947 11.491385237798223 21.244539362587187 0 0 0
117 7 2.4699285008258887 11.538419310333076 21.1677734625903 0 0 0
83 7 4.934450717848452 8.732506490406106 19.024473409229234 0 0 0
84 7 7.367770055953281 8.640335514479856 19.081904871723246 0 0 0
88 7 6.2193941848450365 10.84068251275368 19.080920304466776 0 0 0
113 7 6.213396980821507 9.39134039989771 21.067426401831106 0 0 0
118 7 5.002284201508942 11.566392016239394 21.15526192242188 0 0 0
119 4 7.444077461668005 11.57233806097295 21.105084448798276 0 0 0
85 6 9.696483437242119 8.560816637260654 18.29067009948874 0 0 0
89 6 8.737951451423738 10.87293909352133 19.030460199245844 0 0 0
90 4 11.242342413258074 10.871734810322867 18.7343937025875 0 0 0
114 7 8.71223795292922 9.317735623819576 20.969139831608086 0 0 0
115 6 11.13837782765239 9.229067056847898 20.84127226804268 0 0 0
120 7 10.007139988013025 11.528650733848014 21.11835065046269 0 0 0
121 7 0.07367209815439647 1.4117184351248255 23.332082729582265 0 0 0
122 7 2.5654542187015443 1.411487632021635 23.351456079653826 0 0 0
126 6 1.3432907153395985 3.607487982870807 23.25374846800217 0 0 0
127 7 3.8434478316792267 3.588675717211341 23.36095570860965 0 0 0
152 7 2.6461335453517782 0.012339637050073005 25.39257144901727 0 0 0
156 1 1.4793007677835348 2.1483870097624327 25.513727234952892 0 0 0
157 7 3.971179438371434 2.1376941572953965 25.45422033833567 0 0 0
162 7 2.6003113900123247 4.267748965396808 25.42267083062834 0 0 0
123 7 4.999736138296833 1.4280587485874479 23.213896673423037 0 0 0
124 7 7.413188980570215 1.5075327663733444 23.48362360631072 0 0 0
128 7 6.301712040647227 3.658369633682871 23.18335405096136 0 0 0
153 7 5.19643011795769 0.06070584977493283 25.33462544852395 0 0 0
154 7 7.613950378706463 0.006117991067312924 25.46135278612572 0 0 0
158 2 5.798655526432166 2.474069027167189 24.655138539002834 0 0 0
163 7 5.11370158175792 4.2489398777859755 25.421902633149653 0 0 0
164 5 7.472546743654933 4.071073137999392 25.356686937673956 0 0 0
125 7 10.038027811785572 1.4434087647486376 23.3702653778898 0 0 0
129 7 8.750881717365637 3.5631177141695063 23.341537095790322 0 0 0
130 4 11.354458725652579 3.6417411712304637 23.397962517254882 0 0 0
155 4 10.130782606169433 0.08383349890921903 25.549945808766203 0 0 0
159 7 8.865631435076748 2.1147190571000594 25.45161329114631 0 0 0
160 7 11.396830103453599 2.177501328094229 25.424436305283894 0 0 0
165 7 10.057951976471932 4.233198838136242 25.4116370300969 0 0 0
131 7 0.07266668392255331 5.796500278154463 23.357147065908205 0 0 0
132 7 2.5446704653082644 5.79298550008428 23.34610664287019 0 0 0
136 7 1.3184440970235034 7.918660958562169 23.262826621758922 0 0 0
137 7 3.7838246038349252 7.962690171189798 23.317836502429564 0 0 0
161 4 0.10757815636553396 4.354647721458362 25.44937687781007 0 0 0
166 7 1.34321493993905 6.417922849403915 25.40712785071993 0 0 0
167 7 3.8122270823000877 6.434280771138874 25.440653496034052 0 0 0
133 6 5.062411640604718 5.840321341686876 23.372957887310424 0 0 0
134 7 7.553846663630118 5.773763197524082 23.311189979607246 0 0 0
138 7 6.296306507547309 7.983508471221169 23.328474749556104 0 0 0
168 7 6.358950531939828 6.3951522983669005 25.425352667392527 0 0 0
173 7 5.1160330205090965 8.555232679202405 25.352379483937796 0 0 0
135 7 10.061922281846082 5.8403918902262415 23.39894301929107 0 0 0
139 4 8.675252840502298 7.934449177590352 23.229386162911148 0 0 0
140 4 11.312899689601942 7.897715706851224 23.203301403252937 0 0 0
169 7 8.77035088204577 6.351272636915772 25.383023539283013 0 0 0
170 7 11.29921451919496 6.420541044439251 25.422694466485744 0 0 0
175 6 9.929125521988402 8.578222005277748 25.468171516597707 0 0 0
141 7 0.007964385810041427 10.058765674520114 23.288015959737177 0 0 0
142 7 2.4852430814188557 10.106999825213865 23.284536823148642 0 0 0
146 7 1.2838034241546326 12.234522410665313 23.343881929618963 0 0 0
147 7 3.795796263958707 12.24104600373492 23.232012264513024 0 0 0
151 4 0.09263143302055811 12.89157983384077 25.415246086234696 0 -1 0
171 6 0.12078167173971521 8.616651421249665 25.3790894507564 0 0 0
172 7 2.6267594544247324 8.607073269761756 25.38746986967839 0 0 0
176 7 1.3398793821451103 10.805249891535158 25.42552270042195 0 0 0
177 6 3.876217856924818 10.815407590309645 25.316422361925415 0 0 0
143 7 5.065363302486007 10.11331316882702 23.25234184900753 0 0 0
144 7 7.495157245031242 10.08088414954288 22.918440554671353 0 0 0
148 4 6.2241348029860735 12.277829662554726 23.262723398141002 0 0 0
178 6 6.657336229608159 10.519401951796196 25.246469771019072 0 0 0
145 7 10.010607229910532 10.022336406738583 23.158864649035426 0 0 0
149 6 8.729838627268995 12.259175137019932 23.309060442795246 0 0 0
150 7 11.242538945882078 12.210205243865316 23.395026619946826 0 0 0
174 3 8.45929557191887 9.527011485903566 24.383902345494725 0 0 0
179 5 9.037454533962224 10.930344712476169 25.536286807162604 0 0 0
180 5 11.348960421278814 10.869913896484807 25.478340183633602 0 0 0
181 7 1.3885907698193394 0.6757360200574622 27.501387430787354 0 0 0
182 7 3.8780933763647085 0.7012959968297054 27.453791818144293 0 0 0
186 7 0.17109639263508525 2.8712545761986425 27.490500173386486 0 0 0
187 7 2.660745933757609 2.8553643269046445 27.56877537889352 0 0 0
211 7 0.20589533891351477 1.453753506317704 29.59055473866456 0 0 0
212 7 2.7077620379886724 1.3659295818129347 29.58635761576425 0 0 0
216 7 1.4090782484016051 3.5602949706304274 29.58789444051774 0 0 0
217 4 3.8232743365766093 3.5721479304034847 29.602373323125867 0 0 0
183 7 6.317607280112928 0.7139128784638037 27.57083445735772 0 0 0
188 7 5.084548028028087 2.872162936023616 27.58093227988089 0 0 0
189 7 7.593933676404494 2.7989487911035003 27.466338755890664 0 0 0
213 5 5.137660046844376 1.4190729761438865 29.605755086537844 0 0 0
214 7 7.616242182069465 1.3597484611235453 29.593036917563325 0 0 0
218 7 6.3616141366170575 3.5362585004870732 29.548130130097952 0 0 0
184 7 8.892102850546458 0.7268656596242971 27.56517710187799 0 0 0
185 4 11.386561071547455 0.7348193337366092 27.539313456834755 0 0 0
190 7 10.143841138842209 2.8434529970794284 27.49312959394846 0 0 0
215 7 10.124680573445636 1.4127605426318681 29.63390516514047 0 0 0
219 7 8.836809433440681 3.519675060553436 29.53023340657208 0 0 0
220 7 11.36802174092211 3.5707388536492624 29.51828125941658 0 0 0
191 7 1.389966662662075 5.013008827065558 27.464283677549226 0 0 0
192 7 3.8313932194290166 4.98828921056955 27.485481637022858 0 0 0
197 7 2.578146223669196 7.190326403559984 27.474575858745972 0 0 0
221 7 0.11951237871055467 5.7343937137422465 29.560044227704566 0 0 0
222 7 2.589155914828753 5.728374563033255 29.551693181075706 0 0 0
226 7 1.3592113162996364 7.904910911441338 29.543010581763046 0 0 0
227 7 3.8565844113551484 7.910608187470587 29.475072033333277 0 0 0
193 7 6.365837183431056 4.975823046262974 27.41564493242831 0 0 0
198 7 5.09794562137331 7.169373927856612 27.417017748960067 0 0 0
199 7 7.605065197957192 7.185860570489411 27.45084627790329 0 0 0
223 6 5.150403012743205 5.718364955940262 29.494442247753987 0 0 0
224 7 7.6419273802265835 5.741017664817931 29.582635506520795 0 0 0
228 7 6.388601394242205 7.910540198168446 29.49967435017378 0 0 0
194 6 8.844100813071195 5.005738260377203 27.491606202673648 0 0 0
195 7 11.35950908147716 5.007846176753126 27.496252348056718 0 0 0
196 7 0.13623258445768402 7.168024842985528 27.47266471623321 0 0 0
200 7 10.11819991801681 7.168954357008513 27.510741470622595 0 0 0
225 7 10.100488275269965 5.751730247763573 29.59326805368259 0 0 0
229 7 8.844000721549111 7.890236423144405 29.505311516327005 0 0 0
230 7 11.365729525425454 7.935073165154983 29.504026758578565 0 0 0
201 5 1.3751880920333224 9.328761295225386 27.504359647724336 0 0 0
202 7 3.8700122344763153 9.316944387805723 27.393968206216698 0 0 0
206 4 0.18483835783738603 11.486774666496038 27.514912277618162 0 0 0
207 7 2.605443239635314 11.461809819028003 27.453076903964718 0 0 0
231 7 0.1589158421238098 10.082781999167194 29.556390312087274 0 0 0
232 7 2.625221869355118 10.026607224273032 29.431031080789733 0 0 0
236 7 1.464789870531671 12.188947842512597 29.558688685785267 0 0 0
203 7 6.3719193978817765 9.285338792912274 27.407568141448184 0 0 0
208 7 5.142664003589009 11.4944952681543 27.35166045657662 0 0 0
209 6 7.600004620892588 11.527501384238606 27.617729145702818 0 0 0
233 7 5.1432207222619795 10.05145930294792 29.340613974553417 0 0 0
234 7 7.604104002614721 10.087086253009783 29.64492710677588 0 0 0
238 7 6.230299546767586 12.233263891186686 29.6717669448914 0 0 0
204 7 8.83974765238478 9.366074635121844 27.579715510115594 0 0 0
205 7 11.351174948021963 9.418231733817175 27.517488969036304 0 0 0
210 7 10.159411438640515 11.560509738060505 27.56499490042931 0 0 0
235 7 10.08386250235622 10.179466027094648 29.57428470376196 0 0 0
239 4 8.883148564923886 12.258074186982787 29.7216653489226 0 0 0
240 7 11.391472672097366 12.273159536535765 29.554139930169523 0 0 0
237 3 4.026381295237054 0.30508557580211276 30.563096471189937 0 1 0
241 7 0.1939773472994463 0.10896569899304216 31.6332779022034 0 0 0
242 7 2.5605454033095407 0.14948941708452987 31.743784275628993 0 0 0
246 4 1.3401132991724805 2.2528638093543782 31.666076451773407 0 0 0
247 7 3.879934058529274 2.1571593390632167 31.645455071733192 0 0 0
276 7 0.1741320777756366 3.008348041620988 33.73626326932603 0 0 0
243 7 5.168114504767406 12.908852523486237 32.09802004757031 0 -1 0
244 7 7.626794408974482 0.011998709787642576 31.706895589278854 0 0 0
248 7 6.405920611107376 2.1575469881593974 31.648277867564357 0 0 0
279 7 7.724759635898646 3.0552919547335557 33.73212839564699 0 0 0
249 7 8.849263356140813 2.116560926218985 31.683009950103127 0 0 0
250 7 11.38145833897683 2.15343924675212 31.65997176499924 0 0 0
255 1 10.103089594922116 4.235002535139405 31.498299332541286 0 0 0
275 4 11.438033196375585 0.8100499427013694 33.71283628372882 0 0 0
251 7 0.14564932447800044 4.3378135104987265 31.645867915075485 0 0 0
252 7 2.631094265109339 4.326944585749789 31.668370978901127 0 0 0
256 7 1.3274873045312015 6.51289913620601 31.628957913735334 0 0 0
257 6 3.7895628732392956 6.508633047449019 31.6655668473041 0 0 0
253 7 5.110406920144776 4.317645517037993 31.62753568213351 0 0 0
254 7 7.618406751615395 4.322500659366976 31.593203167551735 0 0 0
258 7 6.3495196164803716 6.502852306407187 31.625041927306572 0 0 0
264 7 7.58834114715185 8.589046347437366 31.611255247721754 0 0 0
283 7 6.378202223609769 5.113575488877383 33.673333477011724 0 0 0
289 7 7.631815569686363 7.200736038802561 33.70909696533877 0 0 0
259 4 8.819853363500991 6.47556823964513 31.619765314300665 0 0 0
260 7 11.31410483162189 6.50382297730242 31.5829312869407 0 0 0
284 5 8.884534015050663 5.131819492539756 33.575378853438146 0 0 0
290 7 10.082832692677428 7.27561375970722 33.5835042875697 0 0 0
261 7 0.17314091844273155 8.720681974563034 31.642902749230547 0 0 0
262 7 2.6592831448796237 8.727846072559773 31.53071269704344 0 0 0
266 7 1.5581544191942125 10.841948108104571 31.569783760378616 0 0 0
267 4 3.91180801022558 11.288794853635439 30.851936822939855 0 0 0
292 7 3.9549348430794034 9.383353845623343 33.503075958722924 0 0 0
326 7 0.5043589362334426 11.66671689361844 33.67456059996345 0 0 0
263 1 5.0896308437870195 8.768498230974782 31.4277531084413 0 0 0
268 7 6.262950558843254 10.770146863315611 31.57119592362717 0 0 0
245 7 10.107539619758615 12.898287092722384 31.865896112285498 0 -1 0
265 6 10.09975851461948 8.695279172150132 31.523984138641826 0 0 0
269 7 8.774728016681369 10.812853691667137 31.73315240769745 0 0 0
270 7 11.422304775951051 10.917172966762097 31.60302132317659 0 0 0
294 7 8.76638868005329 9.305045759874721 33.67833158855589 0 0 0
296 3 11.073118675160593 11.844149464847737 33.32275171288632 -1 0 0
271 7 1.4735148382762628 0.9171102926265611 33.777679966412116 0 0 0
272 7 3.920584882814765 0.9667531335549348 33.923968855738345 0 0 0
277 7 2.6419811501518473 3.0916783479378296 33.79880038074392 0 0 0
301 7 0.18919233870050828 1.5658803921742255 35.75810594527378 0 0 0
302 7 2.6177274927713166 1.6826488587278023 35.860739725017666 0 0 0
306 4 1.4141813991027954 3.8473564464925345 35.9552225959245 0 0 0
307 7 3.996913750909235 3.7467213413819933 35.838639317887115 0 0 0
273 7 6.459244356471807 0.985124673015078 33.90036759995833 0 0 0
278 1 5.2158006556739736 3.0089116952554376 33.72368191024649 0 0 0
303 7 5.246215846774163 1.6807140900901532 35.94151084270883 0 0 0
304 4 7.75679259907608 1.6510182830715638 35.919317233932766 0 0 0
308 7 6.525765235091917 3.7225930956553284 35.804134526194154 0 0 0
274 7 8.833771809679632 0.9120963501627692 33.83830586321392 0 0 0
280 7 10.20048409830404 3.0102615700864432 33.70778466686422 0 0 0
305 7 10.221860901096115 1.5767597642251905 35.7244550311598 0 0 0
309 7 9.016644105076018 3.68842880374343 35.777507660180696 0 0 0
310 4 11.585919422341025 3.959101334608197 35.86070280647553 0 0 0
335 5 9.902989086715555 12.922529467256185 37.38649998981961 0 -1 0
281 7 1.3225048012264409 5.195264131278011 33.8542364790527 0 0 0
282 4 3.8453337000385663 5.145495574496796 33.7701199485789 0 0 0
286 7 0.09199539552868201 7.2933579931991614 33.61558761466778 0 0 0
287 7 2.6305961540288667 7.2993128436139605 33.74291289092885 0 0 0
312 7 2.7246787947494986 5.803643767326271 35.781268070749626 0 0 0
316 7 1.2098074058677362 7.617893769439988 35.78099023761234 0 0 0
317 7 3.9321426154084165 8.074707037308068 35.72925282833432 0 0 0
288 7 5.182474474692479 7.281251696146785 33.66827232103533 0 0 0
313 7 5.259824991271574 5.928153823965214 35.714623861597744 0 0 0
314 7 7.720876429945311 5.836124740278305 35.73830307498323 0 0 0
318 4 6.554798383374741 8.133337940562186 35.79575221447221 0 0 0
285 4 11.345638966132976 5.169686540304307 33.6277861982951 0 0 0
311 2 12.37238247287084 6.013009370247032 35.31789127365098 -1 0 0
315 7 10.131678720427088 5.824397348303195 35.56829861575404 0 0 0
319 7 8.956278003867011 7.995166327765765 35.804754843636466 0 0 0
320 7 11.346705989778101 7.945679072916612 35.584294596196344 0 0 0
355 3 10.430257028348342 7.917165114832497 37.265555276746746 0 0 0
291 7 1.4642320055947045 9.4373588546731 33.725061173382414 0 0 0
297 6 3.021053932314013 11.585458367641827 33.67034949305223 0 0 0
321 6 0.20660647239079255 10.07875333576553 35.902100636948674 0 0 0
322 7 2.6971693768213907 10.208467396916578 35.75662713909073 0 0 0
327 6 3.918554124304707 12.518255142527744 36.10360809999439 0 0 0
356 4 1.3967807292134962 12.37319309345211 35.843645743803975 0 0 0
293 4 6.448926153196675 9.334322675289801 33.64378231623758 0 0 0
298 2 5.19997323510777 12.29497684397235 34.201406222216235 0 0 0
299 7 6.993084067876164 11.592073558376237 33.6723594220698 0 0 0
323 6 5.230097758608402 10.249968528549406 35.57171937949888 0 0 0
324 7 7.90969458143585 10.369049098757465 35.70218407592454 0 0 0
328 7 6.464303762035412 12.53133393288047 35.91044761395808 0 0 0
295 6 11.267760439252532 9.711057661938217 33.75033013723472 0 0 0
300 7 9.37997932012376 11.55949732137643 34.15776692167667 0 0 0
325 7 10.250583097173799 9.859252999668817 37.02177127437897 0 0 0
329 3 9.525833788049383 11.417780397743462 36.19285571096068 0 0 0
330 4 11.256465360931008 12.088846223403424 35.56960524124378 0 0 0
332 7 2.482586432133061 0.11679104857735366 38.03095645989801 0 0 0
336 7 1.3301223413433794 2.201313297474549 37.832237930398115 0 0 0
337 7 3.8755128219487447 2.212104556468256 37.8658708895178 0 0 0
333 7 5.2149142988791555 0.17813076708616998 38.11562649390902 0 0 0
334 7 7.6477883817433865 0.08618866010986674 37.997664835759394 0 0 0
338 7 6.52669616769228 2.282739549320109 37.90364677904117 0 0 0
339 7 8.986689347442349 2.208395981275666 37.85178851995032 0 0 0
340 7 11.364031962074025 2.2127403195999356 37.725396329617 0 0 0
342 7 2.7090753050783927 4.306031517343294 37.921919741965716 0 0 0
346 7 1.5072707836718997 6.42060612410917 37.98983074648615 0 0 0
347 6 3.958423630543545 6.490694011849866 37.765028630495856 0 0 0
343 7 5.305261427771937 4.452480785539528 37.84772573665783 0 0 0
344 7 7.830752950036583 4.457981731155214 37.8500279537252 0 0 0
348 6 6.653789069366617 6.676176273605036 37.81502922389156 0 0 0
361 8 6.371096968918354 6.758603462881883 41.245824421668175 0 0 0
362 8 7.12507397171161 6.770265169560072 41.34968194460165 0 0 0
341 7 0.20922966697829312 4.268366876092356 38.06704485837179 0 0 0
345 4 10.219369740883504 4.35461164367237 37.805061638927285 0 0 0
349 7 9.227385466408439 6.6454181434373405 37.847051036209386 0 0 0
350 7 11.670371230723964 6.290566409100445 37.29572249837301 0 0 0
352 6 2.4908603397298634 8.670818907837344 37.680279359960196 0 0 0
357 7 3.8474153581116313 10.8156885812096 37.946629863101364 0 0 0
360 7 1.391424971079147 10.916486612936655 37.88313497411071 1 0 0
353 7 5.14080706534498 8.704023099108984 37.82189085964264 0 0 0
354 7 7.951453177470307 8.96438469541161 37.80378533521954 0 0 0
358 6 6.418959954944266 10.867788225453722 37.78588037566813 0 0 0
331 7 12.388982933081396 12.900091821410886 37.62251066976947 -1 -1 0
351 7 12.242104642439378 8.578009144942136 37.83253676404226 -1 0 0
359 2 8.598481268069717 11.178103610242104 37.41739460889244 0 0 0

Velocities

1 0 0 0
2 0 0 0
6 0 0 0
7 0 0 0
31 0 0 0
32 0 0 0
36 0 0 0
37 0 0 0
3 0 0 0
8 0 0 0
9 0 0 0
33 0 0 0
34 0 0 0
38 0 0 0
4 0 0 0
5 0 0 0
10 0 0 0
35 0 0 0
39 0 0 0
40 0 0 0
11 0 0 0
12 0 0 0
16 0 0 0
17 0 0 0
41 0 0 0
42 0 0 0
46 0 0 0
47 0 0 0
13 0 0 0
18 0 0 0
19 0 0 0
43 0 0 0
44 0 0 0
48 0 0 0
14 0 0 0
15 0 0 0
20 0 0 0
45 0 0 0
49 0 0 0
50 0 0 0
21 0 0 0
22 0 0 0
26 0 0 0
27 0 0 0
51 0 0 0
52 0 0 0
56 0 0 0
57 0 0 0
23 0 0 0
28 0 0 0
29 0 0 0
53 0 0 0
54 0 0 0
58 0 0 0
24 0 0 0
25 0 0 0
30 0 0 0
55 0 0 0
59 0 0 0
60 0 0 0
61 0 0 0
62 0 0 0
66 0 0 0
67 0 0 0
91 0 0 0
92 0 0 0
96 0 0 0
97 0 0 0
63 0 0 0
64 0 0 0
68 0 0 0
93 0 0 0
98 0 0 0
99 0 0 0
65 0 0 0
69 0 0 0
70 0 0 0
94 0 0 0
95 0 0 0
100 0 0 0
71 0 0 0
72 0 0 0
76 0 0 0
77 0 0 0
101 0 0 0
102 0 0 0
106 0 0 0
107 0 0 0
73 0 0 0
74 0 0 0
78 0 0 0
103 0 0 0
108 0 0 0
109 0 0 0
75 0 0 0
79 0 0 0
80 0 0 0
104 0 0 0
105 0 0 0
110 0 0 0
81 0 0 0
82 0 0 0
86 0 0 0
87 0 0 0
111 0 0 0
112 0 0 0
116 0 0 0
117 0 0 0
83 0 0 0
84 0 0 0
88 0 0 0
113 0 0 0
118 0 0 0
119 0 0 0
85 0 0 0
89 0 0 0
90 0 0 0
114 0 0 0
115 0 0 0
120 0 0 0
121 0 0 0
122 0 0 0
126 0 0 0
127 0 0 0
152 0 0 0
156 0 0 0
157 0 0 0
162 0 0 0
123 0 0 0
124 0 0 0
128 0 0 0
153 0 0 0
154 0 0 0
158 0 0 0
163 0 0 0
164 0 0 0
125 0 0 0
129 0 0 0
130 0 0 0
155 0 0 0
159 0 0 0
160 0 0 0
165 0 0 0
131 0 0 0
132 0 0 0
136 0 0 0
137 0 0 0
161 0 0 0
166 0 0 0
167 0 0 0
133 0 0 0
134 0 0 0
138 0 0 0
168 0 0 0
173 0 0 0
135 0 0 0
139 0 0 0
140 0 0 0
169 0 0 0
170 0 0 0
175 0 0 0
141 0 0 0
142 0 0 0
146 0 0 0
147 0 0 0
151 0 0 0
171 0 0 0
172 0 0 0
176 0 0 0
177 0 0 0
143 0 0 0
144 0 0 0
148 0 0 0
178 0 0 0
145 0 0 0
149 0 0 0
150 0 0 0
174 0 0 0
179 0 0 0
180 0 0 0
181 0 0 0
182 0 0 0
186 0 0 0
187 0 0 0
211 0 0 0
212 0 0 0
216 0 0 0
217 0 0 0
183 0 0 0
188 0 0 0
189 0 0 0
213 0 0 0
214 0 0 0
218 0 0 0
184 0 0 0
185 0 0 0
190 0 0 0
215 0 0 0
219 0 0 0
220 0 0 0
191 0 0 0
192 0 0 0
197 0 0 0
221 0 0 0
222 0 0 0
226 0 0 0
227 0 0 0
193 0 0 0
198 0 0 0
199 0 0 0
223 0 0 0
224 0 0 0
228 0 0 0
194 0 0 0
195 0 0 0
196 0 0 0
200 0 0 0
225 0 0 0
229 0 0 0
230 0 0 0
201 0 0 0
202 0 0 0
206 0 0 0
207 0 0 0
231 0 0 0
232 0 0 0
236 0 0 0
203 0 0 0
208 0 0 0
209 0 0 0
233 0 0 0
234 0 0 0
238 0 0 0
204 0 0 0
205 0 0 0
210 0 0 0
235 0 0 0
239 0 0 0
240 0 0 0
237 0 0 0
241 0 0 0
242 0 0 0
246 0 0 0
247 0 0 0
276 0 0 0
243 0 0 0
244 0 0 0
248 0 0 0
279 0 0 0
249 0 0 0
250 0 0 0
255 0 0 0
275 0 0 0
251 0 0 0
252 0 0 0
256 0 0 0
257 0 0 0
253 0 0 0
254 0 0 0
258 0 0 0
264 0 0 0
283 0 0 0
289 0 0 0
259 0 0 0
260 0 0 0
284 0 0 0
290 0 0 0
261 0 0 0
262 0 0 0
266 0 0 0
267 0 0 0
292 0 0 0
326 0 0 0
263 0 0 0
268 0 0 0
245 0 0 0
265 0 0 0
269 0 0 0
270 0 0 0
294 0 0 0
296 0 0 0
271 0 0 0
272 0 0 0
277 0 0 0
301 0 0 0
302 0 0 0
306 0 0 0
307 0 0 0
273 0 0 0
278 0 0 0
303 0 0 0
304 0 0 0
308 0 0 0
274 0 0 0
280 0 0 0
305 0 0 0
309 0 0 0
310 0 0 0
335 0 0 0
281 0 0 0
282 0 0 0
286 0 0 0
287 0 0 0
312 0 0 0
316 0 0 0
317 0 0 0
288 0 0 0
313 0 0 0
314 0 0 0
318 0 0 0
285 0 0 0
311 0 0 0
315 0 0 0
319 0 0 0
320 0 0 0
355 0 0 0
291 0 0 0
297 0 0 0
321 0 0 0
322 0 0 0
327 0 0 0
356 0 0 0
293 0 0 0
298 0 0 0
299 0 0 0
323 0 0 0
324 0 0 0
328 0 0 0
295 0 0 0
300 0 0 0
325 0 0 0
329 0 0 0
330 0 0 0
332 0 0 0
336 0 0 0
337 0 0 0
333 0 0 0
334 0 0 0
338 0 0 0
339 0 0 0
340 0 0 0
342 0 0 0
346 0 0 0
347 0 0 0
343 0 0 0
344 0 0 0
348 0 0 0
361 0 0 0
362 0 0 0
341 0 0 0
345 0 0 0
349 0 0 0
350 0 0 0
352 0 0 0
357 0 0 0
360 0 0 0
353 0 0 0
354 0 0 0
358 0 0 0
331 0 0 0
351 0 0 0
359 0 0 0
