LAMMPS data file via write_data, version 11 Feb 2026, timestep = 512, units = metal

362 atoms
8 atom types

0 12.447907776 xlo xhi
0 12.9362452296 ylo yhi
0 52.3600831054 zlo zhi

Masses

1 26.9815
2 10.811
3 12.011
4 51.9961
5 55.845
6 95.95999999999999
7 58.6934
8 1.008

Atoms # atomic/kk

1 7 1.1143771188859886 0.8141946896003487 14.642293815633048 0 0 0
2 7 3.5528964458332997 0.7298371440880591 14.870734415223723 0 0 0
6 7 12.264670966121447 3.470010327671194 14.643206675353044 -1 0 0
7 7 2.2251579729368216 2.9631603757535983 15.107020000647633 0 0 0
31 6 12.391973451726168 1.8812750186666494 16.485923838407317 -1 0 0
32 7 2.3065041168169387 1.24621063575586 16.930916791865407 0 0 0
36 7 1.1359878267232077 3.9611704650776094 17.062837064656218 0 0 0
37 7 3.56899057899122 3.638577169478103 17.09336662576933 0 0 0
3 5 6.013638931859943 0.8589796145456122 14.937499506705084 0 0 0
8 7 4.778739293199239 2.9774109046601294 15.02074572358548 0 0 0
9 7 7.284614567112958 3.0543675903008576 14.892883999204933 0 0 0
33 7 4.828067664756637 1.5279896176353955 16.98281186632293 0 0 0
34 7 7.355841766482459 1.7037496092719229 16.946609583275006 0 0 0
38 5 6.074863305525704 3.734301126854161 16.970404552502526 0 0 0
4 6 8.634595191738192 0.9630060556240194 14.946135987156563 0 0 0
5 7 11.022427033272184 1.2449110359406388 14.461785267579238 0 0 0
10 7 9.806796275027926 3.3715040679481683 14.722807819900009 0 0 0
35 7 9.919775845336035 1.705831980588099 16.90484127045882 0 0 0
39 7 8.634153417035163 3.8565611398978055 16.81444562859923 0 0 0
40 7 11.07047146790371 3.9453354028224177 16.96505630270874 0 0 0
11 7 1.13317737595757 5.4251867449682125 15.026069494239579 0 0 0
12 7 3.551220528714025 5.138785443648266 15.121920643577393 0 0 0
16 4 0.2145119026313666 7.665853133205341 14.612202808330242 0 0 0
17 7 2.427107488787635 7.497783527620896 15.091546675504958 0 0 0
41 7 12.315227838744537 6.102457641031306 17.12825918121684 -1 0 0
42 7 2.3715567285860697 6.067962535303639 17.11216936848525 0 0 0
46 7 0.8172163949235646 8.406203850022054 16.86048076594418 0 0 0
47 7 3.8147259918244356 8.002183036910479 17.02719959911118 0 0 0
13 7 6.045082052277212 5.178401947990889 15.008544171658986 0 0 0
18 7 4.894322936842993 7.294622934213862 14.977148846590632 0 0 0
19 2 6.842149079397643 6.967627319079893 15.3165061491496 0 0 0
43 7 4.853372486025474 5.803508003340569 17.077263298458266 0 0 0
44 7 7.341595474171885 5.87289260123669 17.023561565611086 0 0 0
48 7 6.224516449141556 7.985274992888589 17.01831794211693 0 0 0
14 7 8.573170835506247 5.6311388361527595 14.89367504664108 0 0 0
15 6 11.04639545659167 5.6312824722786585 15.085709976998029 0 0 0
20 7 10.226819041193478 7.649963966035549 13.989578569482806 0 0 0
45 7 9.806626684610087 6.103402746498296 17.17994700337458 0 0 0
49 7 8.469112777315468 7.850661744147726 16.022504998129268 0 0 0
50 7 10.905010616068498 8.10935341755493 16.214916571116365 0 0 0
21 2 1.5475830328215403 9.465699540489172 15.210670534043008 0 0 0
22 7 3.6160976891961925 9.504853999749503 14.919197660134762 0 0 0
26 7 0.31360135374041354 10.795140620293182 16.829685901422827 0 0 0
27 7 2.0313090142754078 11.469629247947447 15.151363890123795 0 0 0
51 3 11.619862965285096 9.36333229773601 17.499651692028134 -1 0 0
52 7 2.6131640223470103 10.07374347255082 17.043461200621508 0 0 0
56 2 0.9261799447402723 12.697681846794703 16.354744615278243 0 0 0
57 7 3.70287444979578 12.218578865886329 16.929767422270046 0 0 0
23 7 6.583885180518665 9.079071245745139 14.851542928247701 0 0 0
28 7 4.816682951305994 11.602472841867993 14.81908614509329 0 0 0
29 6 7.37302700986511 11.491190992274985 14.917413442294233 0 0 0
53 7 5.127448711493152 10.103381949368131 16.779578522935946 0 0 0
54 7 7.693253060563901 10.036717644068746 16.92199802075874 0 0 0
58 6 6.293809827575828 12.331512856985487 17.01254648233335 0 0 0
24 7 9.051114517319078 9.660128703540126 14.656331077290387 0 0 0
25 7 11.944099633328923 9.87143819665751 14.71150289118928 0 0 0
30 7 9.922683923394493 11.849386559162545 14.578992095733094 0 0 0
55 7 10.242837267852254 10.401220035472583 16.646532272102704 0 0 0
59 7 8.842102190584239 12.36387387243992 16.890968410002063 0 0 0
60 7 11.297954857508849 12.615615267229108 16.350913906996063 0 0 0
61 6 0.10432012784133549 12.906997333178907 18.576551104008743 0 -1 0
62 7 2.5621950267027036 0.02915911841658054 19.143918118845615 0 0 0
66 6 1.3527798263381086 2.224799296340721 19.066871234628383 0 0 0
67 5 3.797213202298474 2.1774576316470338 19.105059668095542 0 0 0
91 4 1.3640743373078739 0.7803290553977793 21.25330629151904 0 0 0
92 7 3.7949673743969403 0.7361626672981558 21.13366652302295 0 0 0
96 7 0.08247633262815682 2.85939560192091 21.177574249510403 0 0 0
97 7 2.604416884507391 2.8573997489107077 21.20989956028679 0 0 0
63 5 5.013733221055651 0.11309898742971444 19.064502299632366 0 0 0
64 7 7.496298317628181 0.10318340519961784 19.093836822439005 0 0 0
68 7 6.191868825673227 2.170467645454317 19.0505078493912 0 0 0
93 7 6.322239272066657 0.7351730235066317 21.207882469523764 0 0 0
98 7 5.047177074242001 2.8718077020371804 21.152890664896447 0 0 0
99 5 7.501916079271737 2.8385235526090478 21.143181103080984 0 0 0
65 7 10.080739688388602 0.09939123763152237 18.9654187314387 0 0 0
69 7 8.731744016646191 2.18176705349605 18.96367777820847 0 0 0
70 7 11.290998570136198 2.285588353250403 18.90854840860712 0 0 0
94 7 8.777939875022815 0.7481735051568704 21.179224907713866 0 0 0
95 7 11.36347111022819 0.7191414401990406 21.03183157487491 0 0 0
100 6 10.045320012110903 2.8359007950091284 21.020292956081484 0 0 0
71 1 12.328702897219921 4.449751624827911 19.19614685216681 -1 0 0
72 7 2.4490727246885715 4.416130791384832 19.11700560910091 0 0 0
76 7 1.1665472319847485 6.492466346663419 19.19078407114884 0 0 0
77 7 3.7595415385528073 6.493549686581665 19.144901066009623 0 0 0
101 7 1.2092843458852676 5.025708893648771 21.23283114905859 0 0 0
102 6 3.738792825012821 5.041717909938047 21.226980625896672 0 0 0
106 7 12.442647023788544 7.132363897059516 21.274314782857793 -1 0 0
107 7 2.4731669132151226 7.1664045758982216 21.238221017531384 0 0 0
73 7 4.940690808260122 4.3045119179252245 19.077036831639468 0 0 0
74 6 7.469731492673261 4.310945715447133 19.0268684313387 0 0 0
78 7 6.170962395563805 6.518922894452998 19.105740804064045 0 0 0
103 7 6.279185296475953 5.052278244210816 21.157066921294298 0 0 0
108 7 5.020021322229786 7.216467384930145 21.20788289311976 0 0 0
109 7 7.42732529149705 7.260725803520499 21.24030104491211 0 0 0
75 5 9.861854020822133 4.359761295519683 19.01108147688228 0 0 0
79 7 8.614070432483414 6.512332150673976 19.28623141129402 0 0 0
80 7 11.093275115692814 6.505162353356462 19.283934386150893 0 0 0
104 7 8.739642202773588 5.0565553679203585 21.21648138567932 0 0 0
105 3 10.089700952136898 4.418136684581 22.26317506872223 0 0 0
110 7 9.902432165296862 7.188999832062434 21.272196025242884 0 0 0
81 4 12.370745624055639 8.57832291058028 19.188710611993635 -1 0 0
82 6 2.4338437249549285 8.532005620308919 19.024693112938238 0 0 0
86 7 1.3047181581922083 10.752511228719461 19.171019440199494 0 0 0
87 1 3.846693636536374 10.875550610957704 19.009909222405717 0 0 0
111 7 1.2020056785207274 9.329433895747053 21.217110407610193 0 0 0
112 6 3.748615810034794 9.334447869833559 21.239095908673555 0 0 0
116 1 0.059367544283639 11.543770196141557 21.177119241847524 0 0 0
117 7 2.5227708799272457 11.535079883147255 21.17549920941632 0 0 0
83 7 4.969368197559689 8.723590629679238 19.033557082827496 0 0 0
84 7 7.423390755750319 8.633834481977381 19.011710436022668 0 0 0
88 7 6.275870727636311 10.817224309502606 19.022187035618522 0 0 0
113 7 6.241544183265463 9.392214858579798 21.03456622440026 0 0 0
118 7 5.042298222012182 11.554825049545427 21.143568098990887 0 0 0
119 4 7.472991985832122 11.570921720265295 21.077611472277948 0 0 0
85 6 9.829902483706322 8.510290441182208 18.45023994273998 0 0 0
89 6 8.783617022113399 10.865705966695486 18.980322514037965 0 0 0
90 4 11.285886301225208 10.803856961642307 18.89209404436716 0 0 0
114 7 8.707929363046372 9.33870346639994 20.934685469960915 0 0 0
115 6 11.120985262396944 9.285966808520339 21.168468074200227 0 0 0
120 7 10.01976896102715 11.553182925845281 21.123425360903955 0 0 0
121 7 0.08435085228531237 1.4037841501769832 23.257329175597405 0 0 0
122 7 2.5727800354435315 1.4007273382757082 23.317645545542568 0 0 0
126 6 1.3557522591895534 3.6001776257180733 23.260893923390423 0 0 0
127 7 3.85690193790866 3.584934090043954 23.36591359007871 0 0 0
152 7 2.657831708847357 0.007170382676418055 25.37565514922907 0 0 0
156 1 1.4901390506445216 2.136475630378762 25.5023351337252 0 0 0
157 7 3.9785298045617585 2.1343732021207473 25.444435683135993 0 0 0
162 7 2.607430507700037 4.264039576977254 25.427912316404225 0 0 0
123 7 5.013705503718294 1.4266620343896406 23.200474600345878 0 0 0
124 7 7.419070325935037 1.517446229673718 23.48004700958021 0 0 0
128 7 6.311561270218603 3.6631052976849285 23.171286983031315 0 0 0
153 7 5.203597408197691 0.06146622758444555 25.331093325507155 0 0 0
154 7 7.61495413932671 0.007371257363709876 25.459446273425982 0 0 0
158 2 5.804068403468103 2.4784440923054873 24.6440301120438 0 0 0
163 7 5.124033364882565 4.247160062379375 25.422774561955258 0 0 0
164 5 7.48357793424782 4.0595255456755925 25.34423326876747 0 0 0
125 7 10.067839350113566 1.4420468573390701 23.301744271629197 0 0 0
129 7 8.76325020871639 3.55953239795573 23.329510466207683 0 0 0
130 4 11.366171491357088 3.6387396773328695 23.38316173790553 0 0 0
155 4 10.139094189113171 0.06982234554391625 25.519595552366813 0 0 0
159 7 8.89306705796388 2.1032491405684053 25.423601532255013 0 0 0
160 7 11.416637874219514 2.164988630989233 25.392382027262617 0 0 0
165 7 10.073710465493456 4.227561522596048 25.39768274150241 0 0 0
131 7 0.07930355934938296 5.789975053170509 23.38565058696789 0 0 0
132 7 2.55249029523592 5.7923969736284215 23.36500835472458 0 0 0
136 7 1.316630742545166 7.9182156140443105 23.296205596192223 0 0 0
137 7 3.7926049462656315 7.959798901721076 23.32180724203774 0 0 0
161 4 0.11884587227009778 4.3488187011328625 25.453878717955202 0 0 0
166 7 1.3466800673640058 6.419899148486434 25.423826410839215 0 0 0
167 7 3.8185289712194384 6.432051445937023 25.448639233614376 0 0 0
133 6 5.076871895759238 5.846131927312068 23.384731222655606 0 0 0
134 7 7.566936655072516 5.782407303523764 23.301694055981027 0 0 0
138 7 6.32038462992694 7.991229734399775 23.339251253170126 0 0 0
168 7 6.374132972734607 6.390148066999364 25.429921896833108 0 0 0
173 7 5.121733952915845 8.54807372580955 25.35355944692177 0 0 0
135 7 10.071672306307542 5.842934882648236 23.373358869011284 0 0 0
139 4 8.707295597745562 7.951671495713762 23.212197463831043 0 0 0
140 4 11.29589199816109 7.9042030663354215 23.295038956013585 0 0 0
169 7 8.782647074449255 6.338757290779761 25.37108089224706 0 0 0
170 7 11.299616013747265 6.415464350450888 25.434396504381482 0 0 0
175 6 9.902065631087186 8.571972495174581 25.50121060057273 0 0 0
141 7 0.02937539170093871 10.088838068970894 23.328618809160105 0 0 0
142 7 2.5111084261150833 10.103109928965376 23.299275887769717 0 0 0
146 7 1.3089524177433869 12.23742028312899 23.314416605593056 0 0 0
147 7 3.8231211526563906 12.236991827285632 23.23061536221067 0 0 0
151 4 0.10288633697234739 12.882030702904856 25.37143866013569 0 -1 0
171 6 0.12164783384763271 8.624932193896944 25.41090017127055 0 0 0
172 7 2.6318796808313536 8.606409562412427 25.3956791750673 0 0 0
176 7 1.3526899899011364 10.80819251980182 25.432461228630874 0 0 0
177 6 3.8943503641598127 10.81100132935666 25.31541468353332 0 0 0
143 7 5.08252742622922 10.10552466969513 23.234744085700374 0 0 0
144 7 7.51785311944111 10.092355140029515 22.90440364125819 0 0 0
148 4 6.238402891273805 12.276737526284782 23.261659619565346 0 0 0
178 6 6.652577816393251 10.52073087554647 25.238628364409283 0 0 0
145 7 10.00501394894596 10.093289123531854 23.300009029344324 0 0 0
149 6 8.729684315017224 12.292968489175982 23.291442587433536 0 0 0
150 7 11.26693444277072 12.2319577807447 23.333726550318865 0 0 0
174 3 8.427512247177372 9.508946763927161 24.405969232085596 0 0 0
179 5 9.020330799334364 10.932926299713724 25.55979749893712 0 0 0
180 5 11.352386503026668 10.881287040406923 25.481797523098333 0 0 0
181 7 1.3953180474926796 0.6656743611816178 27.485817615020576 0 0 0
182 7 3.8842378524888734 0.7001468348593347 27.44498517892344 0 0 0
186 7 0.18037192518183418 2.8621231713186344 27.4795502925364 0 0 0
187 7 2.6684061985611502 2.849796390140205 27.56380446291257 0 0 0
211 7 0.21673275747493811 1.447068335253388 29.579868800777728 0 0 0
212 7 2.7177578803814595 1.3600297399463996 29.579789815490425 0 0 0
216 7 1.418746146652533 3.5546803872918358 29.583820939056277 0 0 0
217 4 3.832910100331745 3.5686361888853755 29.59954010393652 0 0 0
183 7 6.3230908571955 0.7150486314244454 27.569983929285968 0 0 0
188 7 5.093344962755602 2.8699656335282886 27.575449325620106 0 0 0
189 7 7.608997664625674 2.792540638778794 27.448545277277486 0 0 0
213 5 5.144981328709146 1.4212378289555996 29.600693899901394 0 0 0
214 7 7.627278976408822 1.3545349727338738 29.584359597489314 0 0 0
218 7 6.375305248447396 3.532079797829771 29.540092763779686 0 0 0
184 7 8.903381332895249 0.7230930082715559 27.55078097570473 0 0 0
185 4 11.395897805092961 0.7265470115945254 27.51860905506171 0 0 0
190 7 10.158196928619112 2.8374851380583674 27.475101125842247 0 0 0
215 7 10.136374727052809 1.4080776696989752 29.6196146733902 0 0 0
219 7 8.849463800654854 3.5138888480661685 29.51870759407892 0 0 0
220 7 11.378863279545568 3.5632023942293074 29.511730408037447 0 0 0
191 7 1.3994679112266328 5.008560611736028 27.46894922359714 0 0 0
192 7 3.8422917323587247 4.984898847523052 27.48707749595584 0 0 0
197 7 2.5886082489213416 7.188704182697775 27.48097896135222 0 0 0
221 7 0.12942280766024034 5.729483423553716 29.564690109942266 0 0 0
222 7 2.5997807385362237 5.724730144192584 29.55266490591719 0 0 0
226 7 1.3713996301815765 7.902454138792517 29.550283138976543 0 0 0
227 7 3.869802472073809 7.907127701282942 29.476260456783255 0 0 0
193 7 6.38092133367041 4.971206428029397 27.41329345655608 0 0 0
198 7 5.1128706822552665 7.166410882516016 27.418657428945547 0 0 0
199 7 7.626332809331555 7.188289361022882 27.444912645662882 0 0 0
223 6 5.163668430074178 5.714170949271508 29.492779098865384 0 0 0
224 7 7.655464416540004 5.737396539773036 29.576871765879375 0 0 0
228 7 6.402634545485374 7.907941330511869 29.496545154874447 0 0 0
194 6 8.857354594925015 5.001425274040768 27.482201084653454 0 0 0
195 7 11.370637971759033 5.000739562823227 27.497959776829713 0 0 0
196 7 0.14526769871317358 7.16437927169627 27.487736643924126 0 0 0
200 7 10.131341199040907 7.163556219099405 27.527008796946784 0 0 0
225 7 10.111525838372762 5.74465404123734 29.59551378159405 0 0 0
229 7 8.855638893938577 7.886334900607665 29.514574969631532 0 0 0
230 7 11.37714194067809 7.934693243300029 29.514070458109877 0 0 0
201 5 1.3864016687844187 9.328833669661366 27.515029808308462 0 0 0
202 7 3.8815787011546714 9.314476487105209 27.396196087526537 0 0 0
206 4 0.19576247795880625 11.48386764015276 27.518064544813683 0 0 0
207 7 2.619236822553185 11.459466594731959 27.452497392578564 0 0 0
231 7 0.17125331490884832 10.081924650020262 29.562060314390077 0 0 0
232 7 2.6394258898270664 10.024047639711448 29.43463814562058 0 0 0
236 7 1.4771903062936969 12.18525012055052 29.55601196816766 0 0 0
203 7 6.381124052581517 9.286367444298353 27.407316486065852 0 0 0
208 7 5.150849134246687 11.495197213182607 27.35315364403314 0 0 0
209 6 7.600085571596999 11.531099348308418 27.63166722646874 0 0 0
233 7 5.155560279597199 10.049201136832227 29.341901447463066 0 0 0
234 7 7.611284321968338 10.088039907718914 29.65599850150118 0 0 0
238 7 6.23024077355629 12.235129276546992 29.680689358143116 0 0 0
204 7 8.84637228806332 9.371848393415855 27.604072350490593 0 0 0
205 7 11.354989548354808 9.42275204592591 27.530964471399187 0 0 0
210 7 10.16480257668445 11.560524455060948 27.566685613425417 0 0 0
235 7 10.09393343063545 10.181551045045637 29.58640803143688 0 0 0
239 4 8.89239927511529 12.257812755676088 29.723773378942415 0 0 0
240 7 11.402582470635304 12.271288436415007 29.55207798141911 0 0 0
237 3 4.040507373542848 0.3013792101445704 30.55996204124245 0 1 0
241 7 0.20689588834603678 0.1057497713035582 31.628975625294263 0 0 0
242 7 2.5730277161467416 0.14709709395420073 31.740038759996843 0 0 0
246 4 1.3502199690202839 2.2484431657636743 31.659501940785177 0 0 0
247 7 3.889761120979971 2.153850245857584 31.641994317669404 0 0 0
276 7 0.18611393821353367 3.005076186694417 33.73222732339177 0 0 0
243 7 5.177375660371128 12.908357054125178 32.1006436928969 0 -1 0
244 7 7.63635731779708 0.0075406291463611975 31.710034654796416 0 0 0
248 7 6.417750527927543 2.153404920906238 31.642575054747034 0 0 0
279 7 7.739039972740214 3.051331154542352 33.726030199747036 0 0 0
249 7 8.86105106873459 2.109545014248021 31.673992974491924 0 0 0
250 7 11.392092061433626 2.1471529246529015 31.651876447514045 0 0 0
255 1 10.113824899302568 4.228001376723684 31.49496922421204 0 0 0
275 4 11.452258343697448 0.8093965342455074 33.709308069844006 0 0 0
251 7 0.1551770736520398 4.332680697291051 31.643969906542196 0 0 0
252 7 2.6408863495466806 4.322901636869376 31.66599776528506 0 0 0
256 7 1.337937776990441 6.508388705149274 31.632599736975482 0 0 0
257 6 3.8002308992143377 6.504464250233846 31.663660768780225 0 0 0
253 7 5.121806354142227 4.312989224409905 31.622454261066988 0 0 0
254 7 7.631506814774403 4.3175004708047675 31.586828409777947 0 0 0
258 7 6.3621132229869755 6.498442719370156 31.620846188797756 0 0 0
264 7 7.600126397985518 8.584492669397578 31.614911983928433 0 0 0
283 7 6.389670158444419 5.1077627506753975 33.66632286614761 0 0 0
289 7 7.644349388986046 7.192927005649749 33.709334979250045 0 0 0
259 4 8.832177130698648 6.46976916622668 31.621337156338676 0 0 0
260 7 11.324409293731124 6.499962785243154 31.58596580783191 0 0 0
284 5 8.897404027475174 5.1262273292730685 33.57655779170674 0 0 0
290 7 10.094286013052495 7.270108841182662 33.58944352318664 0 0 0
261 7 0.18544172829129016 8.718526275700176 31.647925293644334 0 0 0
262 7 2.671220857677161 8.724077148231974 31.533089514202526 0 0 0
266 7 1.571017786386967 10.839295299204455 31.57089847272613 0 0 0
267 4 3.9250612664368507 11.286076118958837 30.854551378095053 0 0 0
292 7 3.9668772124747798 9.380506864186215 33.50241332564782 0 0 0
326 7 0.5160175786927046 11.664733795370259 33.6729691868165 0 0 0
263 1 5.1023396280714675 8.763990829798935 31.427312775603692 0 0 0
268 7 6.270240835178889 10.767296032601951 31.578432775121264 0 0 0
245 7 10.118999420161432 12.894669391184005 31.86560607820774 0 -1 0
265 6 10.111387192279413 8.692369599512707 31.533308629477595 0 0 0
269 7 8.783772823863888 10.809317792167231 31.740169424464863 0 0 0
270 7 11.434753506670413 10.915545321387564 31.607075402128885 0 0 0
294 7 8.77973581567278 9.29683029752622 33.686464959219045 0 0 0
296 3 11.082595859075788 11.84278108606833 33.32606577195204 -1 0 0
271 7 1.4852645664771698 0.9144171587944048 33.773767057303985 0 0 0
272 7 3.9303392669648285 0.9663788231599083 33.923965303444554 0 0 0
277 7 2.652429908870275 3.0887250421875128 33.795238249956654 0 0 0
301 7 0.20278380455374678 1.5636128175210442 35.75512297146585 0 0 0
302 7 2.6287702606432597 1.6794658928238502 35.857909611134474 0 0 0
306 4 1.428797202454719 3.8447670934656233 35.95466325953683 0 0 0
307 7 4.008086268895366 3.741515603397932 35.83144154917828 0 0 0
273 7 6.473640424570317 0.9839664330858947 33.89926119243664 0 0 0
278 1 5.227647529834296 3.0049281752594186 33.7188291814664 0 0 0
303 7 5.257423307342056 1.676362133692003 35.93864380670858 0 0 0
304 4 7.774827515863471 1.644448595731935 35.92240983827266 0 0 0
308 7 6.540900940472633 3.714669525741097 35.796219541408625 0 0 0
274 7 8.84826075999013 0.9098586483732906 33.83672578411029 0 0 0
280 7 10.213389514860665 3.0047234630651416 33.702542943081866 0 0 0
305 7 10.237556336490508 1.5731774928023459 35.72274450832357 0 0 0
309 7 9.032378003810793 3.683048308307648 35.77490877084718 0 0 0
310 4 11.600972743432628 3.95544202975947 35.85717339581148 0 0 0
335 5 9.911587975631432 12.917992111511671 37.38575173656882 0 -1 0
281 7 1.3327353721183062 5.192317215225947 33.856474405021544 0 0 0
282 4 3.8563793553113728 5.141848357932961 33.76671565827812 0 0 0
286 7 0.1029581612284889 7.291025264474641 33.619117502603814 0 0 0
287 7 2.6410708947535735 7.295930324355879 33.74318341638758 0 0 0
312 7 2.7394838265378763 5.8016700148973435 35.781248705001005 0 0 0
316 7 1.2222817280406297 7.616397183374188 35.78492775735788 0 0 0
317 7 3.944103423802117 8.072823777917371 35.72761265190108 0 0 0
288 7 5.193006865817804 7.276450174934063 33.66326786626084 0 0 0
313 7 5.275688556270577 5.923513341316466 35.71107317364996 0 0 0
314 7 7.732826121239943 5.828852430715772 35.73909162856851 0 0 0
318 4 6.562330465615791 8.126366393618836 35.79603828901245 0 0 0
285 4 11.355351575333444 5.165462318124162 33.62752346343508 0 0 0
311 2 12.38182061782576 6.0122965720566794 35.31672144099056 -1 0 0
315 7 10.144535859547721 5.82139877309718 35.57471177471997 0 0 0
319 7 8.961887229968525 7.98695884627624 35.81971274460274 0 0 0
320 7 11.356948466650561 7.94590510587014 35.58714896514917 0 0 0
355 3 10.450389397811715 7.913669884711013 37.272116657557255 0 0 0
291 7 1.4758095164899476 9.435246178090294 33.729503185034616 0 0 0
297 6 3.033553510098632 11.584131728096093 33.66839392625044 0 0 0
321 6 0.21725216230931713 10.08035052427113 35.90653309426826 0 0 0
322 7 2.71198880027111 10.20946917094085 35.757733355474976 0 0 0
327 6 3.9294784637949096 12.516531335600472 36.10845439272576 0 0 0
356 4 1.411231970283417 12.370828944192104 35.84074306240086 0 0 0
293 4 6.464161606548052 9.32266581920558 33.64416038227456 0 0 0
298 2 5.208656443367964 12.302071445895306 34.20714466787907 0 0 0
299 7 6.995218708624494 11.585368564938808 33.678968818443515 0 0 0
323 6 5.243650166982117 10.250659121534623 35.55947654189978 0 0 0
324 7 7.919466594725792 10.364079115701383 35.70369991353619 0 0 0
328 7 6.481957075124047 12.531552611071554 35.91250199557176 0 0 0
295 6 11.27958662724879 9.709538667023764 33.75470354275348 0 0 0
300 7 9.385231986636484 11.555779925033262 34.154633569292855 0 0 0
325 7 10.25934937584477 9.85670711059665 37.02396049249453 0 0 0
329 3 9.537129818720402 11.414593671239437 36.191363613668635 0 0 0
330 4 11.263932688568792 12.084388438589599 35.563161408825806 0 0 0
332 7 2.493284150721215 0.11746147705411433 38.03445306183158 0 0 0
336 7 1.3434072720358863 2.200644586534343 37.82977933028244 0 0 0
337 7 3.8861853201704415 2.2097800403546684 37.86156036743419 0 0 0
333 7 5.226788942780594 0.17968651473210606 38.11738468894009 0 0 0
334 7 7.658700877881936 0.07995055824280076 38.010120552923624 0 0 0
338 7 6.541677333733502 2.2751734338746017 37.900559993654866 0 0 0
339 7 9.002714882751114 2.2028005748358344 37.85359461941563 0 0 0
340 7 11.379805350325183 2.210283227598819 37.72317149377733 0 0 0
342 7 2.7245786285838194 4.308189318593854 37.920335919888245 0 0 0
346 7 1.5296972947247713 6.426622387964892 37.99606459238819 0 0 0
347 6 3.977929035210039 6.489736712855456 37.76041792738653 0 0 0
343 7 5.3156787261937355 4.442598848920046 37.83194433245019 0 0 0
344 7 7.845403361376074 4.452864727408963 37.84267923147586 0 0 0
348 6 6.671536354409061 6.6772414433864204 37.812918071292735 0 0 0
341 7 0.22490981525199266 4.267860053701084 38.06608052895023 0 0 0
345 4 10.233710577042855 4.351468676132492 37.80518534575577 0 0 0
349 7 9.250685707854366 6.644417746156029 37.86207516495616 0 0 0
350 7 11.69357715569296 6.288154494545851 37.293944930530536 0 0 0
352 6 2.5093977812932042 8.678137154753069 37.683137024513655 0 0 0
357 7 3.8686632779675327 10.825668764175946 37.96026143446393 0 0 0
360 7 1.4115975021263656 10.916945886480356 37.88343160789422 1 0 0
353 7 5.148015222854626 8.711873183217447 37.81985647332698 0 0 0
354 7 7.94990148480969 8.97612604905434 37.81275396873626 0 0 0
358 6 6.416865591002991 10.870151257952678 37.774235924158454 0 0 0
361 8 6.060720850723433 10.73443309123306 41.507976668217395 0 0 0
362 8 6.811624882380448 10.805686726438813 41.41675738517327 0 0 0
331 7 12.399474338561761 12.893791971962385 37.61525673172161 -1 -1 0
351 7 12.256976535293745 8.577083965133372 37.83532096810341 -1 0 0
359 2 8.609708423402287 11.175743900076323 37.41599381403764 0 0 0

Velocities

1 0 0 0
2 0 0 0
6 0 0 0
7 0 0 0
31 0 0 0
32 0 0 0
36 0 0 0
37 0 0 0
3 0 0 0
8 0 0 0
9 0 0 0
33 0 0 0
34 0 0 0
38 0 0 0
4 0 0 0
5 0 0 0
10 0 0 0
35 0 0 0
39 0 0 0
40 0 0 0
11 0 0 0
12 0 0 0
16 0 0 0
17 0 0 0
41 0 0 0
42 0 0 0
46 0 0 0
47 0 0 0
13 0 0 0
18 0 0 0
19 0 0 0
43 0 0 0
44 0 0 0
48 0 0 0
14 0 0 0
15 0 0 0
20 0 0 0
45 0 0 0
49 0 0 0
50 0 0 0
21 0 0 0
22 0 0 0
26 0 0 0
27 0 0 0
51 0 0 0
52 0 0 0
56 0 0 0
57 0 0 0
23 0 0 0
28 0 0 0
29 0 0 0
53 0 0 0
54 0 0 0
58 0 0 0
24 0 0 0
25 0 0 0
30 0 0 0
55 0 0 0
59 0 0 0
60 0 0 0
61 0 0 0
62 0 0 0
66 0 0 0
67 0 0 0
91 0 0 0
92 0 0 0
96 0 0 0
97 0 0 0
63 0 0 0
64 0 0 0
68 0 0 0
93 0 0 0
98 0 0 0
99 0 0 0
65 0 0 0
69 0 0 0
70 0 0 0
94 0 0 0
95 0 0 0
100 0 0 0
71 0 0 0
72 0 0 0
76 0 0 0
77 0 0 0
101 0 0 0
102 0 0 0
106 0 0 0
107 0 0 0
73 0 0 0
74 0 0 0
78 0 0 0
103 0 0 0
108 0 0 0
109 0 0 0
75 0 0 0
79 0 0 0
80 0 0 0
104 0 0 0
105 0 0 0
110 0 0 0
81 0 0 0
82 0 0 0
86 0 0 0
87 0 0 0
111 0 0 0
112 0 0 0
116 0 0 0
117 0 0 0
83 0 0 0
84 0 0 0
88 0 0 0
113 0 0 0
118 0 0 0
119 0 0 0
85 0 0 0
89 0 0 0
90 0 0 0
114 0 0 0
115 0 0 0
120 0 0 0
121 0 0 0
122 0 0 0
126 0 0 0
127 0 0 0
152 0 0 0
156 0 0 0
157 0 0 0
162 0 0 0
123 0 0 0
124 0 0 0
128 0 0 0
153 0 0 0
154 0 0 0
158 0 0 0
163 0 0 0
164 0 0 0
125 0 0 0
129 0 0 0
130 0 0 0
155 0 0 0
159 0 0 0
160 0 0 0
165 0 0 0
131 0 0 0
132 0 0 0
136 0 0 0
137 0 0 0
161 0 0 0
166 0 0 0
167 0 0 0
133 0 0 0
134 0 0 0
138 0 0 0
168 0 0 0
173 0 0 0
135 0 0 0
139 0 0 0
140 0 0 0
169 0 0 0
170 0 0 0
175 0 0 0
141 0 0 0
142 0 0 0
146 0 0 0
147 0 0 0
151 0 0 0
171 0 0 0
172 0 0 0
176 0 0 0
177 0 0 0
143 0 0 0
144 0 0 0
148 0 0 0
178 0 0 0
145 0 0 0
149 0 0 0
150 0 0 0
174 0 0 0
179 0 0 0
180 0 0 0
181 0 0 0
182 0 0 0
186 0 0 0
187 0 0 0
211 0 0 0
212 0 0 0
216 0 0 0
217 0 0 0
183 0 0 0
188 0 0 0
189 0 0 0
213 0 0 0
214 0 0 0
218 0 0 0
184 0 0 0
185 0 0 0
190 0 0 0
215 0 0 0
219 0 0 0
220 0 0 0
191 0 0 0
192 0 0 0
197 0 0 0
221 0 0 0
222 0 0 0
226 0 0 0
227 0 0 0
193 0 0 0
198 0 0 0
199 0 0 0
223 0 0 0
224 0 0 0
228 0 0 0
194 0 0 0
195 0 0 0
196 0 0 0
200 0 0 0
225 0 0 0
229 0 0 0
230 0 0 0
201 0 0 0
202 0 0 0
206 0 0 0
207 0 0 0
231 0 0 0
232 0 0 0
236 0 0 0
203 0 0 0
208 0 0 0
209 0 0 0
233 0 0 0
234 0 0 0
238 0 0 0
204 0 0 0
205 0 0 0
210 0 0 0
235 0 0 0
239 0 0 0
240 0 0 0
237 0 0 0
241 0 0 0
242 0 0 0
246 0 0 0
247 0 0 0
276 0 0 0
243 0 0 0
244 0 0 0
248 0 0 0
279 0 0 0
249 0 0 0
250 0 0 0
255 0 0 0
275 0 0 0
251 0 0 0
252 0 0 0
256 0 0 0
257 0 0 0
253 0 0 0
254 0 0 0
258 0 0 0
264 0 0 0
283 0 0 0
289 0 0 0
259 0 0 0
260 0 0 0
284 0 0 0
290 0 0 0
261 0 0 0
262 0 0 0
266 0 0 0
267 0 0 0
292 0 0 0
326 0 0 0
263 0 0 0
268 0 0 0
245 0 0 0
265 0 0 0
269 0 0 0
270 0 0 0
294 0 0 0
296 0 0 0
271 0 0 0
272 0 0 0
277 0 0 0
301 0 0 0
302 0 0 0
306 0 0 0
307 0 0 0
273 0 0 0
278 0 0 0
303 0 0 0
304 0 0 0
308 0 0 0
274 0 0 0
280 0 0 0
305 0 0 0
309 0 0 0
310 0 0 0
335 0 0 0
281 0 0 0
282 0 0 0
286 0 0 0
287 0 0 0
312 0 0 0
316 0 0 0
317 0 0 0
288 0 0 0
313 0 0 0
314 0 0 0
318 0 0 0
285 0 0 0
311 0 0 0
315 0 0 0
319 0 0 0
320 0 0 0
355 0 0 0
291 0 0 0
297 0 0 0
321 0 0 0
322 0 0 0
327 0 0 0
356 0 0 0
293 0 0 0
298 0 0 0
299 0 0 0
323 0 0 0
324 0 0 0
328 0 0 0
295 0 0 0
300 0 0 0
325 0 0 0
329 0 0 0
330 0 0 0
332 0 0 0
336 0 0 0
337 0 0 0
333 0 0 0
334 0 0 0
338 0 0 0
339 0 0 0
340 0 0 0
342 0 0 0
346 0 0 0
347 0 0 0
343 0 0 0
344 0 0 0
348 0 0 0
341 0 0 0
345 0 0 0
349 0 0 0
350 0 0 0
352 0 0 0
357 0 0 0
360 0 0 0
353 0 0 0
354 0 0 0
358 0 0 0
361 0 0 0
362 0 0 0
331 0 0 0
351 0 0 0
359 0 0 0
