LAMMPS data file via write_data, version 11 Feb 2026, timestep = 396, units = metal

362 atoms
8 atom types

0 12.447907776 xlo xhi
0 12.9362452296 ylo yhi
0 52.3600831054 zlo zhi

Masses

1 26.9815
2 10.811
3 12.011
4 51.9961
5 55.845
6 95.95999999999999
7 58.6934
8 1.008

Atoms # atomic/kk

1 7 1.1135146895147205 0.8127760794689645 14.643275867645974 0 0 0
2 7 3.551985110312286 0.7284545692095892 14.871882812709554 0 0 0
6 7 12.263798113207399 3.468583864489069 14.644148366589048 -1 0 0
7 7 2.2242535150992904 2.961760083822389 15.108156197754761 0 0 0
31 6 12.391117492327293 1.8798705510351352 16.486879913953974 -1 0 0
32 7 2.3056036256356003 1.244859146939084 16.932072616005957 0 0 0
36 7 1.1350950520381904 3.9597105448267986 17.06403199873798 0 0 0
37 7 3.568092418361497 3.6371794693090296 17.09450549246316 0 0 0
3 5 6.012692730313571 0.8576041097257447 14.938487198226643 0 0 0
8 7 4.777812781523464 2.9760090770124306 15.02183781407168 0 0 0
9 7 7.283674531177041 3.052999979457696 14.89383343827024 0 0 0
33 7 4.827149975962154 1.5265841340092248 16.983918426994535 0 0 0
34 7 7.354911938704833 1.7023527761399828 16.947523707773417 0 0 0
38 5 6.073954230384452 3.7329070488939933 16.9714314467582 0 0 0
4 6 8.633664892457638 0.9616679561635123 14.946988328704355 0 0 0
5 7 11.021529881111084 1.2435269091245609 14.462747911067597 0 0 0
10 7 9.805894430043496 3.370137399730177 14.723738593668227 0 0 0
35 7 9.918906828477896 1.7044461388390757 16.905680361604343 0 0 0
39 7 8.633247022743333 3.855181634647461 16.81537305616101 0 0 0
40 7 11.069600433742474 3.9439486686062417 16.96595817246838 0 0 0
11 7 1.1323202476071774 5.4237233367674555 15.027163161398907 0 0 0
12 7 3.5503650989780735 5.137354327687514 15.123002962632723 0 0 0
16 4 0.2136822577975953 7.664454078185984 14.613135735799794 0 0 0
17 7 2.42624471611911 7.496307961439065 15.092572450040812 0 0 0
41 7 12.314378896972883 6.101011002612722 17.129227536689914 -1 0 0
42 7 2.370707915746362 6.066486632324327 17.113242695519347 0 0 0
46 7 0.8163956539595377 8.404741814232132 16.861440148114824 0 0 0
47 7 3.813824477140184 8.00073229121763 17.02826248628922 0 0 0
13 7 6.04419640586623 5.177019457490986 15.009576977556765 0 0 0
18 7 4.893423775060312 7.293196886884675 14.978192383926034 0 0 0
19 2 6.841262189478574 6.966266613164014 15.317487288932771 0 0 0
43 7 4.852501313010329 5.802092392718253 17.078345093017152 0 0 0
44 7 7.340716421168922 5.87153593873836 17.02452845099794 0 0 0
48 7 6.22361409937357 7.983899302127781 17.019313756568504 0 0 0
14 7 8.572307327663971 5.629805905489125 14.894630521487818 0 0 0
15 6 11.045565584314428 5.629890765862449 15.086611804248172 0 0 0
20 7 10.225972620053405 7.648610675458278 13.990523825081972 0 0 0
45 7 9.805740687938776 6.102028857800265 17.180795854244913 0 0 0
49 7 8.46822210052907 7.849333612286245 16.023441406871026 0 0 0
50 7 10.904164570552089 8.107914662085996 16.21585124478264 0 0 0
21 2 1.546714929453696 9.46428084406945 15.21168125992824 0 0 0
22 7 3.615210330453935 9.503397867907058 14.920222917597233 0 0 0
26 7 0.3127707734691069 10.79369156422983 16.83056988784459 0 0 0
27 7 2.0304989705707777 11.468197558894255 15.152354865489201 0 0 0
51 3 11.618987013166004 9.361923472298455 17.500509584172946 -1 0 0
52 7 2.612303595947136 10.07230587811098 17.044507342041037 0 0 0
56 2 0.9254096415229679 12.696277698716031 16.3557276969544 0 0 0
57 7 3.7019121686584953 12.217174651124745 16.930888943226066 0 0 0
23 7 6.582912745734251 9.07769330059282 14.852505443940142 0 0 0
28 7 4.815705890216807 11.601068881387196 14.820133805509679 0 0 0
29 6 7.372079178673634 11.489848298987313 14.918308134240197 0 0 0
53 7 5.126494131661606 10.10197158218882 16.780628693932957 0 0 0
54 7 7.692305860926922 10.035356203629519 16.92287592174731 0 0 0
58 6 6.292848372799591 12.330106590471527 17.01348506919542 0 0 0
24 7 9.050135230471524 9.65877489278733 14.657169926440794 0 0 0
25 7 11.94320593541503 9.870026224852717 14.712398630799857 0 0 0
30 7 9.921762949164226 11.84803477757441 14.579889478220192 0 0 0
55 7 10.241933288304894 10.399781797020816 16.64735009856895 0 0 0
59 7 8.841207120389038 12.362479792293781 16.89175992768045 0 0 0
60 7 11.297125987015903 12.614182831593581 16.351835238824926 0 0 0
61 6 0.10353318691179376 12.905646697320853 18.577440142400178 0 -1 0
62 7 2.5613212206930203 0.02775714243471125 19.145097006735305 0 0 0
66 6 1.351912933692992 2.2233920556734565 19.0681022311135 0 0 0
67 5 3.796325982914642 2.1760471058682698 19.10625697089867 0 0 0
91 4 1.3632202613407278 0.7789401489853877 21.254519506425343 0 0 0
92 7 3.7940669334338857 0.7347257855359846 21.13488425953963 0 0 0
96 7 0.08164547552845522 2.858063225789728 21.17871491139483 0 0 0
97 7 2.6035543621093975 2.8559839259530344 21.211224717154206 0 0 0
63 5 5.0128615378679395 0.11169390856546446 19.065641843547535 0 0 0
64 7 7.495408366588552 0.10186345925902421 19.09461976291446 0 0 0
68 7 6.190975052767629 2.169089011004672 19.051528375461604 0 0 0
93 7 6.321409567499577 0.7337745612144106 21.208932440710612 0 0 0
98 7 5.046300686618353 2.870365639506953 21.154027110674196 0 0 0
99 5 7.50103576023836 2.8372836576316236 21.144007559845114 0 0 0
65 7 10.079911153268515 0.0980770293864111 18.96611332725053 0 0 0
69 7 8.730872340515006 2.1804890446014813 18.964462985516317 0 0 0
70 7 11.290169440708754 2.2842524089835137 18.90941248443032 0 0 0
94 7 8.777158086169411 0.7470095110017291 21.179671951918348 0 0 0
95 7 11.362640702738227 0.7179087996710609 21.032617044924535 0 0 0
100 6 10.044501145089704 2.8347758433353225 21.021070137959654 0 0 0
71 1 12.32779420526948 4.448355996507597 19.197308263301142 -1 0 0
72 7 2.448215086917939 4.414690251638495 19.118211244603927 0 0 0
76 7 1.1656941640843521 6.491003964479511 19.19179879188351 0 0 0
77 7 3.758666319908306 6.492109567755583 19.146051735072913 0 0 0
101 7 1.2084384368519117 5.024303603385835 21.23402607005772 0 0 0
102 6 3.737948519556196 5.040280464986523 21.228224606845163 0 0 0
106 7 12.441751432551415 7.130924515162676 21.275195124361932 -1 0 0
107 7 2.472311194347685 7.164942092210235 21.239312504848684 0 0 0
73 7 4.939794625030382 4.303108806460735 19.078155566148602 0 0 0
74 6 7.46880668599638 4.309622486359602 19.027821809349945 0 0 0
78 7 6.170042778207635 6.517588645815963 19.10675409674887 0 0 0
103 7 6.278264667049318 5.0509865776489375 21.15807527870341 0 0 0
108 7 5.019131883244862 7.215080629290788 21.209090285344846 0 0 0
109 7 7.426374301627193 7.259490271720465 21.241171875568963 0 0 0
75 5 9.860961332010005 4.358474488289896 19.01190888175837 0 0 0
79 7 8.613115557314217 6.511014910255192 19.28701613163086 0 0 0
80 7 11.09240037034294 6.503781471074089 19.284729216733155 0 0 0
104 7 8.738725697637202 5.0553699976984205 21.217342172644326 0 0 0
105 3 10.088836510054541 4.416962894891289 22.263999041725366 0 0 0
110 7 9.901528473752085 7.187819164828912 21.272793493336188 0 0 0
81 4 12.369895465108467 8.576895278997606 19.189541462741293 -1 0 0
82 6 2.432969800273897 8.530566018320771 19.025763031330328 0 0 0
86 7 1.3038285864147177 10.75109251197109 19.17198667725754 0 0 0
87 1 3.8457838963009063 10.87413744050695 19.01105082424226 0 0 0
111 7 1.2011088077941083 9.327991439338108 21.218056684688765 0 0 0
112 6 3.7477058933222733 9.333002751778931 21.24027536690563 0 0 0
116 1 0.05848193373286083 11.542462001996036 21.17796314206189 0 0 0
117 7 2.5218462286447867 11.533623770426525 21.17659554535725 0 0 0
83 7 4.9684489585644895 8.72218950201827 19.034627110491837 0 0 0
84 7 7.422476280784902 8.632544019584117 19.01267140406988 0 0 0
88 7 6.274946273874236 10.815859063667173 19.02315197375264 0 0 0
113 7 6.240565361804194 9.390892937146544 21.035574145132088 0 0 0
118 7 5.041379198466208 11.553435490580396 21.144752411091584 0 0 0
119 4 7.472098387434595 11.569648115617698 21.07834402611809 0 0 0
85 6 9.829015822882216 8.50894535579193 18.451167081790565 0 0 0
89 6 8.782739959485877 10.864392248734543 18.981089881350105 0 0 0
90 4 11.285030843145842 10.802518457647304 18.89286075585934 0 0 0
114 7 8.706992572170137 9.3375369451629 20.935592590386165 0 0 0
115 6 11.120125993639363 9.28469660580569 21.169147812917455 0 0 0
120 7 10.018924777612206 11.551967832849753 21.12402859428752 0 0 0
121 7 0.08340582058810622 1.402482404558888 23.25838474897919 0 0 0
122 7 2.5718069482675783 1.399299402907592 23.319003640086905 0 0 0
126 6 1.3548620182780389 3.5988039957522333 23.262224511695855 0 0 0
127 7 3.8560202947115307 3.583482580600016 23.36730601809501 0 0 0
152 7 2.6567106355261645 0.005662533806384186 25.377005185266245 0 0 0
156 1 1.4892690446737116 2.135091905013288 25.503831619566228 0 0 0
157 7 3.977670208743936 2.132773058817073 25.44581730893465 0 0 0
162 7 2.6065355864367152 4.262545899544362 25.42945829176898 0 0 0
123 7 5.012704250925043 1.4251482088878813 23.201660979425235 0 0 0
124 7 7.418089501723464 1.5162662734076842 23.480522728160732 0 0 0
128 7 6.31061300754786 3.6618857735992445 23.17219462377842 0 0 0
153 7 5.202314786893264 0.05955912823057816 25.33220444076295 0 0 0
154 7 7.613801935831626 0.006175943980735173 25.459731627997638 0 0 0
158 2 5.80283998031221 2.4774514876946445 24.644804500542577 0 0 0
163 7 5.123001758203146 4.245693802863727 25.42418077661852 0 0 0
164 5 7.4826146763199555 4.05886128156772 25.344972460432455 0 0 0
125 7 10.066937621178983 1.4409221676688755 23.302388198104204 0 0 0
129 7 8.762290663734412 3.558386592454251 23.330221352760837 0 0 0
130 4 11.365273654073377 3.6375757523327983 23.38402451058245 0 0 0
155 4 10.138094569936053 0.06888616431177969 25.51992257503711 0 0 0
159 7 8.89193226453722 2.1022434481323726 25.42407531787981 0 0 0
160 7 11.415710913550726 2.1639282193629774 25.393282204308747 0 0 0
165 7 10.072690850425271 4.226501692936788 25.398332116228094 0 0 0
131 7 0.07847116886773747 5.788670252033254 23.386744491276552 0 0 0
132 7 2.5516538437234884 5.790958132085322 23.366313729264306 0 0 0
136 7 1.3158055724831954 7.916776877639179 23.297166053535424 0 0 0
137 7 3.791733824813102 7.958377965420822 23.32305174263409 0 0 0
161 4 0.11797710671535626 4.347537141110734 25.45510986859127 0 0 0
166 7 1.345807819653962 6.418392127785098 25.425127340952194 0 0 0
167 7 3.8175954002747234 6.43048042458831 25.450134872350446 0 0 0
133 6 5.075971203857973 5.844778703877486 23.38605195292488 0 0 0
134 7 7.565954117420738 5.781227680729189 23.30258113202807 0 0 0
138 7 6.319526321605191 7.989979015012286 23.34055652219122 0 0 0
168 7 6.373088413920184 6.388676406260252 25.431263788398788 0 0 0
173 7 5.120705561898532 8.546474146456504 25.35498965611741 0 0 0
135 7 10.070773739685412 5.841812310714156 23.374095266385776 0 0 0
139 4 8.706377071355895 7.9503983166643755 23.212744697106377 0 0 0
140 4 11.295074477454321 7.902943132224325 23.295656640654443 0 0 0
169 7 8.781646289228872 6.337935446929381 25.371688987443875 0 0 0
170 7 11.298645237892169 6.41417786661708 25.43523302582645 0 0 0
175 6 9.901489320765696 8.570921458860836 25.501555353284946 0 0 0
141 7 0.028429143137814212 10.087483407026681 23.329409967570754 0 0 0
142 7 2.510120212692254 10.101639053585368 23.300373734108227 0 0 0
146 7 1.3079369931421416 12.236017070999807 23.315511704292664 0 0 0
147 7 3.8220401109440907 12.235492781216788 23.23185298406371 0 0 0
151 4 0.10188129591717683 12.880786345590533 25.37243284170375 0 -1 0
171 6 0.12082385200759324 8.62347843788458 25.41161641119318 0 0 0
172 7 2.6309515240685966 8.604778060024374 25.396919864286406 0 0 0
176 7 1.351720528445128 10.806751756226053 25.433474390781864 0 0 0
177 6 3.8931913794191235 10.809333106108447 25.316710146944786 0 0 0
143 7 5.081515954174536 10.104150865257678 23.235997607844368 0 0 0
144 7 7.516814718950024 10.091243204641405 22.90526840879137 0 0 0
148 4 6.23735307260515 12.2753634652873 23.262851839014925 0 0 0
178 6 6.651728934680563 10.518817975745915 25.23977038824264 0 0 0
145 7 10.003981253140514 10.092066923753091 23.300444304746918 0 0 0
149 6 8.728663287848345 12.29192902752251 23.29172749923671 0 0 0
150 7 11.265947451798962 12.230714092629158 23.334399463944102 0 0 0
174 3 8.426480609006186 9.50735953274253 24.40661865857169 0 0 0
179 5 9.019509556893173 10.931999473103309 25.55962626310477 0 0 0
180 5 11.351589358628722 10.880086372895146 25.482234448173877 0 0 0
181 7 1.3941310147025088 0.6642754267011833 27.487392431184933 0 0 0
182 7 3.8829303928767183 0.698602940208743 27.446454572589033 0 0 0
186 7 0.17934536329339582 2.860856145510358 27.480866051613628 0 0 0
187 7 2.6673067062286617 2.8483163438193237 27.56551593108435 0 0 0
211 7 0.21546874539085084 1.44581506189548 29.581640415147312 0 0 0
212 7 2.7161083865159825 1.3586900874590084 29.581745435589415 0 0 0
216 7 1.4177658623726461 3.5532044581716695 29.58557355283875 0 0 0
217 4 3.8318978081087867 3.56710725666021 29.60157418972876 0 0 0
183 7 6.3216667757735845 0.7137168068052067 27.57027081975886 0 0 0
188 7 5.091946361695149 2.8684687106136115 27.576981637491066 0 0 0
189 7 7.6075172950712995 2.791436168560152 27.448888690681386 0 0 0
213 5 5.143529804415074 1.4194616418482189 29.602053927280924 0 0 0
214 7 7.625826423033801 1.3538757085050737 29.58388343706272 0 0 0
218 7 6.373745799952372 3.5306860251782344 29.54126324243981 0 0 0
184 7 8.902263683159854 0.7221287856007401 27.550876541050233 0 0 0
185 4 11.394825778715207 0.7256106511614916 27.51938904182363 0 0 0
190 7 10.157022938494025 2.8364409792799377 27.475746950537008 0 0 0
215 7 10.135074829902216 1.4071459166967064 29.62031716752112 0 0 0
219 7 8.848009276022387 3.513023607645779 29.518872954948602 0 0 0
220 7 11.377692641450986 3.561903383407052 29.512665841423313 0 0 0
191 7 1.398483039494714 5.007160747701474 27.47057606370117 0 0 0
192 7 3.8411695972081255 4.983412660552758 27.488910143625485 0 0 0
197 7 2.587571579845184 7.187109154631899 27.48259834656915 0 0 0
221 7 0.1282499638197908 5.728009385312179 29.565549815313506 0 0 0
222 7 2.5988987382976676 5.723228088781166 29.554897283042422 0 0 0
226 7 1.3701541819708083 7.900997712677928 29.551354924815673 0 0 0
227 7 3.8685400288867715 7.905451450466179 29.478246908255603 0 0 0
193 7 6.3794683840849595 4.96980653810442 27.414747230190073 0 0 0
198 7 5.111682544692598 7.164861180232274 27.420392741815302 0 0 0
199 7 7.624857818287295 7.187026987249709 27.445988287315984 0 0 0
223 6 5.162366926722491 5.712718052766953 29.494889898351953 0 0 0
224 7 7.65386824336525 5.7362365516392995 29.577486665513504 0 0 0
228 7 6.401217171540337 7.9065301562525265 29.498393605915446 0 0 0
194 6 8.85593871709192 5.0003632926845185 27.482466323825673 0 0 0
195 7 11.369445706419114 4.999497039895254 27.49881498948857 0 0 0
196 7 0.14414764152347412 7.163028145512733 27.48862620605309 0 0 0
200 7 10.130000213522207 7.1624809918565955 27.52745727633987 0 0 0
225 7 10.1099341116963 5.743623627452195 29.595615082426367 0 0 0
229 7 8.853864462210044 7.885496647503849 29.514925517537826 0 0 0
230 7 11.375654766320833 7.93354336456376 29.514367710067788 0 0 0
201 5 1.3853838808922643 9.327307580516516 27.515857531984953 0 0 0
202 7 3.880418600270727 9.312791312833243 27.397681102287834 0 0 0
206 4 0.19485586419902837 11.482607105621954 27.5189234785124 0 0 0
207 7 2.618114137044926 11.457897522305025 27.453849689555852 0 0 0
231 7 0.1702311697601349 10.0805752604986 29.5624671536627 0 0 0
232 7 2.6380924664801118 10.022213886807839 29.435919313832834 0 0 0
236 7 1.4764325156121245 12.183823705269063 29.557650806237046 0 0 0
203 7 6.379878622397477 9.284943272127315 27.40882656843904 0 0 0
208 7 5.149646571514155 11.49350830924179 27.35436565845972 0 0 0
209 6 7.599138473715513 11.529894612926794 27.631698868113766 0 0 0
233 7 5.154271635828308 10.047488097829314 29.343347112698247 0 0 0
234 7 7.610426633747335 10.086865600677008 29.656500581792418 0 0 0
238 7 6.229249641195575 12.233573069748434 29.680358795489727 0 0 0
204 7 8.845159128377887 9.370722541815292 27.604074003606037 0 0 0
205 7 11.354000474080198 9.421543436926854 27.53133374371961 0 0 0
210 7 10.163977087249876 11.559573860770763 27.566549523221813 0 0 0
235 7 10.092818958050202 10.180868064446223 29.58597974902206 0 0 0
239 4 8.89143313654265 12.256919202052666 29.72302401790082 0 0 0
240 7 11.401748669887345 12.270323124618272 29.552483303301273 0 0 0
237 3 4.03828250688959 0.3003577271815317 30.561553727150983 0 1 0
241 7 0.20573455641314112 0.10418247669052648 31.631228348704326 0 0 0
242 7 2.5719622435959235 0.1450034780663701 31.74283973383933 0 0 0
246 4 1.3489497001247424 2.2466090862303405 31.661898676136328 0 0 0
247 7 3.8885779705235897 2.152046426132328 31.64385196545854 0 0 0
276 7 0.18402198001879908 3.0021149234424485 33.73399281591092 0 0 0
243 7 5.176580249386239 12.906295736178174 32.1005892193049 0 -1 0
244 7 7.635276245389343 0.007794296330454235 31.706782127888935 0 0 0
248 7 6.416095423299087 2.1520204004560846 31.643423647715334 0 0 0
279 7 7.735533377132946 3.049831428936221 33.72698288197509 0 0 0
249 7 8.859482108967633 2.1094196376927177 31.674098036222468 0 0 0
250 7 11.390685128075777 2.1457046977897725 31.65355815867752 0 0 0
255 1 10.112428058228618 4.227008214694651 31.494881287702995 0 0 0
275 4 11.448976347915494 0.8053197607571445 33.71149593785718 0 0 0
251 7 0.1541352157208935 4.330881686063273 31.64495980314485 0 0 0
252 7 2.6401033566789613 4.32098827469644 31.668264624861262 0 0 0
256 7 1.3371051518557382 6.506839898719105 31.63306888683985 0 0 0
257 6 3.799829145388498 6.502692859179245 31.66674945735248 0 0 0
253 7 5.120757161283217 4.311532423343781 31.624888448764192 0 0 0
254 7 7.6294885547730455 4.316336277149958 31.587308469241005 0 0 0
258 7 6.360956325366468 6.497119235534054 31.62329248689736 0 0 0
264 7 7.597662867438645 8.584525953528155 31.616496371107523 0 0 0
283 7 6.388776747200441 5.107858166755754 33.67062910856335 0 0 0
289 7 7.641787002227026 7.195116233553781 33.71009464186988 0 0 0
259 4 8.830124728226908 6.46920804730225 31.620891404925384 0 0 0
260 7 11.32268952573469 6.498577098769203 31.585647293891093 0 0 0
284 5 8.895021032656867 5.125439526610355 33.57369349327446 0 0 0
290 7 10.092031963798297 7.269875859141201 33.586695031826956 0 0 0
261 7 0.18365582513006304 8.716770166967828 31.64807854234904 0 0 0
262 7 2.670562494553538 8.72272402343471 31.535054378542856 0 0 0
266 7 1.569706635393277 10.837763872702514 31.572037043078613 0 0 0
267 4 3.9234407345470483 11.284810172098704 30.855010150235408 0 0 0
292 7 3.9661186532000348 9.378969424498072 33.5058379322796 0 0 0
326 7 0.5146536820828451 11.662111397061839 33.67539164495213 0 0 0
263 1 5.100928276912416 8.762641820348087 31.429356002792815 0 0 0
268 7 6.269272365515286 10.766459036401196 31.578932541955872 0 0 0
245 7 10.118285871013992 12.893845542295383 31.864891282045292 0 -1 0
265 6 10.109110393653541 8.69218371163602 31.53269806670009 0 0 0
269 7 8.783353732664574 10.81013979627788 31.74057271310065 0 0 0
270 7 11.433896553626134 10.914017033964468 31.606891906512747 0 0 0
294 7 8.775779663697433 9.29996899738988 33.68467099482832 0 0 0
296 3 11.082654581965995 11.839875617234094 33.32546426412196 -1 0 0
271 7 1.484071536445691 0.9119295798267574 33.776604509191806 0 0 0
272 7 3.9303943815251783 0.9624434457224755 33.925522345778695 0 0 0
277 7 2.651674693013504 3.086294009030201 33.798321528554766 0 0 0
301 7 0.19979760724186804 1.5599626024920765 35.75720144743049 0 0 0
302 7 2.627708636781911 1.6775328082278982 35.86082132451394 0 0 0
306 4 1.424948889487286 3.8415849924240866 35.9549562512737 0 0 0
307 7 4.007542992371047 3.7410355079248703 35.8373589669209 0 0 0
273 7 6.46948758543965 0.9810496828165933 33.90117106079935 0 0 0
278 1 5.226149745362176 3.0034816042800516 33.720872943305075 0 0 0
303 7 5.256606521231687 1.6758970395849502 35.941412584781766 0 0 0
304 4 7.7678950950096235 1.6458729261236584 35.91787243509362 0 0 0
308 7 6.536825788977545 3.716719553473929 35.80091469730302 0 0 0
274 7 8.84385886447239 0.9072729034830148 33.83415810856457 0 0 0
280 7 10.21060713218191 3.0031262817418316 33.70325759714849 0 0 0
305 7 10.232156737250072 1.571108425373839 35.72205111362421 0 0 0
309 7 9.027538501515332 3.6824283433002183 35.77410841774153 0 0 0
310 4 11.59670382383518 3.9525904372566987 35.85903630699459 0 0 0
335 5 9.914620998426578 12.918861970397481 37.3874842364761 0 -1 0
281 7 1.331661333711167 5.189543573874364 33.85530837086764 0 0 0
282 4 3.8553336331796104 5.139455109095492 33.76969894835784 0 0 0
286 7 0.10104425279773072 7.287824550304048 33.618000662382165 0 0 0
287 7 2.6409977809774396 7.29408313960262 33.74453207654567 0 0 0
312 7 2.7357051208677086 5.798129180158261 35.781394190598284 0 0 0
316 7 1.219735350429144 7.611464221166203 35.78252625683689 0 0 0
317 7 3.943834120501012 8.069644050132633 35.729969529371814 0 0 0
288 7 5.1933191963510685 7.276035267371138 33.66766598032194 0 0 0
313 7 5.270928966631486 5.922512991650961 35.71332003740092 0 0 0
314 7 7.731650123205885 5.830055179380665 35.737352352165225 0 0 0
318 4 6.565589505154443 8.12822115627153 35.79657920978616 0 0 0
285 4 11.354360919446146 5.163119435663155 33.62711387581349 0 0 0
311 2 12.380993755672824 6.007285138988051 35.318017018735716 -1 0 0
315 7 10.142552254539048 5.8184428418059 35.5693894372816 0 0 0
319 7 8.966439197920772 7.9888353594755275 35.80829367079199 0 0 0
320 7 11.356784192979829 7.940816080961086 35.586459767537 0 0 0
355 3 10.441442195860377 7.911042854929888 37.268116163864065 0 0 0
291 7 1.4746092040421301 9.432517011029118 33.72814857215335 0 0 0
297 6 3.0320683669657353 11.581365801146843 33.671314047146616 0 0 0
321 6 0.21775587671012067 10.073749332789326 35.905014606948775 0 0 0
322 7 2.708771514453273 10.20381354201706 35.75799364014534 0 0 0
327 6 3.9291567188642302 12.513980080238 36.10624841473194 0 0 0
356 4 1.4082005105076103 12.368005444468215 35.84420761251136 0 0 0
293 4 6.458676427046627 9.33012882715169 33.64729860036368 0 0 0
298 2 5.2104425290725755 12.29123794731433 34.2040460962501 0 0 0
299 7 7.004256087085808 11.588695387671345 33.67628075173277 0 0 0
323 6 5.240958383607709 10.246092240972176 35.57496240243571 0 0 0
324 7 7.920247988525394 10.365020266016836 35.706329341683656 0 0 0
328 7 6.4746397296882225 12.527197520133097 35.9132567663134 0 0 0
295 6 11.277398077867304 9.707303894899256 33.75471546184058 0 0 0
300 7 9.39013370654421 11.555532862591432 34.16177521858383 0 0 0
325 7 10.261533915986082 9.853138501786498 37.02349622189866 0 0 0
329 3 9.537825797323151 11.412751190036877 36.195840125619554 0 0 0
330 4 11.268047472210576 12.084529971937958 35.57111975075322 0 0 0
332 7 2.493341860689239 0.11170880536057254 38.03293895317233 0 0 0
336 7 1.34059508456066 2.1957040109827077 37.83208921305221 0 0 0
337 7 3.8861085816429797 2.2064125894961015 37.86540101563031 0 0 0
333 7 5.226325727606977 0.17325198711943815 38.11766970494632 0 0 0
334 7 7.659518396101093 0.08143443091767794 37.999448693055925 0 0 0
338 7 6.537955708416869 2.277243305830671 37.90222368539817 0 0 0
339 7 8.997663967799864 2.20340412800602 37.850256615412576 0 0 0
340 7 11.37458792842455 2.2067971879408077 37.7237337548914 0 0 0
342 7 2.720250212132826 4.3004143757084945 37.921173993989505 0 0 0
346 7 1.51885788995194 6.41498012383779 37.99097654871256 0 0 0
347 6 3.970156568687855 6.485075049509599 37.76454439381945 0 0 0
343 7 5.316515243122238 4.4464246914987235 37.84555858274664 0 0 0
344 7 7.841719168681849 4.45179517916541 37.847568503511454 0 0 0
348 6 6.665194712163729 6.670362008422833 37.81440117142671 0 0 0
361 8 6.381466942696786 6.749206700627068 41.245988401609544 0 0 0
362 8 7.135433518627976 6.761232482066603 41.34991124133506 0 0 0
341 7 0.2199573557467066 4.262583928065812 38.06612250691368 0 0 0
345 4 10.230217482378436 4.348900854555504 37.80358198673793 0 0 0
349 7 9.238759778512554 6.639078962251854 37.84942438376929 0 0 0
350 7 11.681827686977986 6.284901060065484 37.29627523729893 0 0 0
352 6 2.5023615775743395 8.665313173462737 37.6807348820746 0 0 0
357 7 3.8590057900970107 10.810399946777162 37.9488282419446 0 0 0
360 7 1.403422451741279 10.911324872855927 37.88473631119415 1 0 0
353 7 5.152339952154251 8.69870349390734 37.82313530523406 0 0 0
354 7 7.961943357512276 8.958772401175779 37.8063680505301 0 0 0
358 6 6.4307860061376925 10.863145172299706 37.78921641220853 0 0 0
331 7 12.400987350599946 12.894923366156775 37.623566046743676 -1 -1 0
351 7 12.253400307971622 8.572021908839652 37.83443696336207 -1 0 0
359 2 8.610810492481288 11.173451270587469 37.42079402231743 0 0 0

Velocities

1 0 0 0
2 0 0 0
6 0 0 0
7 0 0 0
31 0 0 0
32 0 0 0
36 0 0 0
37 0 0 0
3 0 0 0
8 0 0 0
9 0 0 0
33 0 0 0
34 0 0 0
38 0 0 0
4 0 0 0
5 0 0 0
10 0 0 0
35 0 0 0
39 0 0 0
40 0 0 0
11 0 0 0
12 0 0 0
16 0 0 0
17 0 0 0
41 0 0 0
42 0 0 0
46 0 0 0
47 0 0 0
13 0 0 0
18 0 0 0
19 0 0 0
43 0 0 0
44 0 0 0
48 0 0 0
14 0 0 0
15 0 0 0
20 0 0 0
45 0 0 0
49 0 0 0
50 0 0 0
21 0 0 0
22 0 0 0
26 0 0 0
27 0 0 0
51 0 0 0
52 0 0 0
56 0 0 0
57 0 0 0
23 0 0 0
28 0 0 0
29 0 0 0
53 0 0 0
54 0 0 0
58 0 0 0
24 0 0 0
25 0 0 0
30 0 0 0
55 0 0 0
59 0 0 0
60 0 0 0
61 0 0 0
62 0 0 0
66 0 0 0
67 0 0 0
91 0 0 0
92 0 0 0
96 0 0 0
97 0 0 0
63 0 0 0
64 0 0 0
68 0 0 0
93 0 0 0
98 0 0 0
99 0 0 0
65 0 0 0
69 0 0 0
70 0 0 0
94 0 0 0
95 0 0 0
100 0 0 0
71 0 0 0
72 0 0 0
76 0 0 0
77 0 0 0
101 0 0 0
102 0 0 0
106 0 0 0
107 0 0 0
73 0 0 0
74 0 0 0
78 0 0 0
103 0 0 0
108 0 0 0
109 0 0 0
75 0 0 0
79 0 0 0
80 0 0 0
104 0 0 0
105 0 0 0
110 0 0 0
81 0 0 0
82 0 0 0
86 0 0 0
87 0 0 0
111 0 0 0
112 0 0 0
116 0 0 0
117 0 0 0
83 0 0 0
84 0 0 0
88 0 0 0
113 0 0 0
118 0 0 0
119 0 0 0
85 0 0 0
89 0 0 0
90 0 0 0
114 0 0 0
115 0 0 0
120 0 0 0
121 0 0 0
122 0 0 0
126 0 0 0
127 0 0 0
152 0 0 0
156 0 0 0
157 0 0 0
162 0 0 0
123 0 0 0
124 0 0 0
128 0 0 0
153 0 0 0
154 0 0 0
158 0 0 0
163 0 0 0
164 0 0 0
125 0 0 0
129 0 0 0
130 0 0 0
155 0 0 0
159 0 0 0
160 0 0 0
165 0 0 0
131 0 0 0
132 0 0 0
136 0 0 0
137 0 0 0
161 0 0 0
166 0 0 0
167 0 0 0
133 0 0 0
134 0 0 0
138 0 0 0
168 0 0 0
173 0 0 0
135 0 0 0
139 0 0 0
140 0 0 0
169 0 0 0
170 0 0 0
175 0 0 0
141 0 0 0
142 0 0 0
146 0 0 0
147 0 0 0
151 0 0 0
171 0 0 0
172 0 0 0
176 0 0 0
177 0 0 0
143 0 0 0
144 0 0 0
148 0 0 0
178 0 0 0
145 0 0 0
149 0 0 0
150 0 0 0
174 0 0 0
179 0 0 0
180 0 0 0
181 0 0 0
182 0 0 0
186 0 0 0
187 0 0 0
211 0 0 0
212 0 0 0
216 0 0 0
217 0 0 0
183 0 0 0
188 0 0 0
189 0 0 0
213 0 0 0
214 0 0 0
218 0 0 0
184 0 0 0
185 0 0 0
190 0 0 0
215 0 0 0
219 0 0 0
220 0 0 0
191 0 0 0
192 0 0 0
197 0 0 0
221 0 0 0
222 0 0 0
226 0 0 0
227 0 0 0
193 0 0 0
198 0 0 0
199 0 0 0
223 0 0 0
224 0 0 0
228 0 0 0
194 0 0 0
195 0 0 0
196 0 0 0
200 0 0 0
225 0 0 0
229 0 0 0
230 0 0 0
201 0 0 0
202 0 0 0
206 0 0 0
207 0 0 0
231 0 0 0
232 0 0 0
236 0 0 0
203 0 0 0
208 0 0 0
209 0 0 0
233 0 0 0
234 0 0 0
238 0 0 0
204 0 0 0
205 0 0 0
210 0 0 0
235 0 0 0
239 0 0 0
240 0 0 0
237 0 0 0
241 0 0 0
242 0 0 0
246 0 0 0
247 0 0 0
276 0 0 0
243 0 0 0
244 0 0 0
248 0 0 0
279 0 0 0
249 0 0 0
250 0 0 0
255 0 0 0
275 0 0 0
251 0 0 0
252 0 0 0
256 0 0 0
257 0 0 0
253 0 0 0
254 0 0 0
258 0 0 0
264 0 0 0
283 0 0 0
289 0 0 0
259 0 0 0
260 0 0 0
284 0 0 0
290 0 0 0
261 0 0 0
262 0 0 0
266 0 0 0
267 0 0 0
292 0 0 0
326 0 0 0
263 0 0 0
268 0 0 0
245 0 0 0
265 0 0 0
269 0 0 0
270 0 0 0
294 0 0 0
296 0 0 0
271 0 0 0
272 0 0 0
277 0 0 0
301 0 0 0
302 0 0 0
306 0 0 0
307 0 0 0
273 0 0 0
278 0 0 0
303 0 0 0
304 0 0 0
308 0 0 0
274 0 0 0
280 0 0 0
305 0 0 0
309 0 0 0
310 0 0 0
335 0 0 0
281 0 0 0
282 0 0 0
286 0 0 0
287 0 0 0
312 0 0 0
316 0 0 0
317 0 0 0
288 0 0 0
313 0 0 0
314 0 0 0
318 0 0 0
285 0 0 0
311 0 0 0
315 0 0 0
319 0 0 0
320 0 0 0
355 0 0 0
291 0 0 0
297 0 0 0
321 0 0 0
322 0 0 0
327 0 0 0
356 0 0 0
293 0 0 0
298 0 0 0
299 0 0 0
323 0 0 0
324 0 0 0
328 0 0 0
295 0 0 0
300 0 0 0
325 0 0 0
329 0 0 0
330 0 0 0
332 0 0 0
336 0 0 0
337 0 0 0
333 0 0 0
334 0 0 0
338 0 0 0
339 0 0 0
340 0 0 0
342 0 0 0
346 0 0 0
347 0 0 0
343 0 0 0
344 0 0 0
348 0 0 0
361 0 0 0
362 0 0 0
341 0 0 0
345 0 0 0
349 0 0 0
350 0 0 0
352 0 0 0
357 0 0 0
360 0 0 0
353 0 0 0
354 0 0 0
358 0 0 0
331 0 0 0
351 0 0 0
359 0 0 0
