LAMMPS data file via write_data, version 11 Feb 2026, timestep = 2000000, units = metal

501 atoms
9 atom types

0 17.8543191579 xlo xhi
0 17.8543191579 ylo yhi
0 17.8543191579 zlo zhi

Masses

1 26.9815
2 10.811
3 12.011
4 51.9961
5 55.845
6 95.95999999999999
7 58.6934
8 15.999
9 1.008

Atoms # atomic/kk

2 7 0.33915768630388976 1.453348769501619 1.9164556228499843 0 0 0
23 6 1.7498204692193495 3.4970136903734983 1.8582934364038373 0 0 0
102 7 3.5805289026470626 1.688809693365385 1.73768926531889 0 0 0
123 6 5.326076135393382 3.4485573937567864 1.7394257713600059 0 0 0
202 4 6.98613771689714 1.5209108405690812 1.9059111570528446 0 0 0
103 4 5.122444058780406 0.021554824720762866 1.983508345903286 0 0 0
223 7 8.816821868434685 3.4235719233391624 1.9465851442837576 0 0 0
302 1 10.595640217380543 1.7330961752470257 1.8850715661133408 0 0 0
204 7 8.645240047606126 1.6984086760930368 0.009845407815642379 0 0 0
323 7 12.623361656169699 3.50617333799803 1.8101248216859316 0 0 0
304 1 12.4717184302627 1.8144111840609776 0.08073028056640279 0 0 0
308 7 12.666082222023778 1.582969498008375 3.469891895063512 0 0 0
325 7 10.804111584119209 3.3425771853411033 3.55027548303307 0 0 0
402 7 14.430789939699114 1.8027929368646638 1.748586885040724 0 0 0
404 7 16.30330725385726 1.6385504247026863 0.09115704053358015 0 0 0
423 7 16.25147621277894 3.508839708718077 1.7318409400749206 0 0 0
421 4 14.486950017621783 3.450380480857854 0.028476185319959768 0 0 0
408 6 16.316643361385925 1.679685943155204 3.4404029152040003 0 0 0
21 7 0.1385673715398792 3.6502154437172623 0.027674779692226537 0 0 0
122 6 3.478365299630804 5.390665266255529 1.8647572848851017 0 0 0
143 7 5.357266338582289 7.080599792734766 1.8610393980420041 0 0 0
124 7 5.399193930335138 5.420713180005755 0.14075641072805922 0 0 0
221 7 7.115219149154124 5.236786767284369 2.0504727099906064 0 0 0
228 7 9.403878750007397 5.681441044730474 1.1632439781757007 0 0 0
245 5 7.431399054405735 7.0191706685345485 3.5215374878970884 0 0 0
345 7 10.517499156528695 7.008216642546238 3.207375871149833 0 0 0
238 3 7.7978748257020305 5.22461048792543 0.2662425482679341 0 0 1
322 2 10.68136408030951 4.668719324925266 2.150638579332881 0 0 0
321 7 10.726213618254242 3.583260406107393 0.27607535826282603 0 0 0
324 4 12.378400913395312 5.491767059331252 0.4812656695918203 0 0 0
441 6 14.241542879122532 7.121313693849367 0.08292742264627506 0 0 0
328 5 12.417180111322876 5.337202289628298 3.395387695937011 0 0 0
22 7 17.822425921353446 5.423395908780522 1.8086570964270265 -1 0 0
422 7 14.549678904543386 5.168908239634438 1.9350540975094546 0 0 0
424 7 16.052964739806757 5.273383925760566 0.15142762061519477 0 0 0
41 7 0.0529678308614443 7.234283890090466 0.064120312710351 0 0 0
43 7 1.770432588860122 7.280709933210864 1.6940410200172986 0 0 0
142 7 3.36134774218867 9.09385110977492 1.809598600206062 0 0 0
45 7 0.10179417404154864 7.216824035642766 3.537891783142029 0 0 0
144 3 5.257841643630866 8.869793736952749 1.8830395563163358 0 0 0
222 4 7.3725606496308975 7.2370775293438685 0.027119404481248475 0 0 0
242 7 7.171053836704215 8.784377385350107 1.8246861278811501 0 0 0
243 2 9.231838473030933 7.7036985222805585 1.8204913315814324 0 0 0
244 4 8.975377938462799 8.935099768069582 0.032438865530226936 0 0 0
263 6 9.06648221866353 10.559302985430957 1.8013666821601313 0 0 0
341 7 10.74981437426892 7.254684948326294 0.1293034074894561 0 0 0
343 7 12.6445460432425 7.352113834070342 1.8264729739191938 0 0 0
342 7 10.932798668492442 8.991634400039871 1.9727626726784824 0 0 0
443 7 16.02908024633029 7.217018087365179 1.8576353252355005 0 0 0
42 7 17.79920940457004 9.01772406247689 1.8064213428520468 -1 0 0
442 7 14.296853959627581 9.202428432866784 1.8887519527895227 0 0 0
445 6 14.304890218468966 7.3019289622112 3.5343426657093566 0 0 0
448 4 16.061822467527133 9.032521769107605 3.5394568984379684 0 0 0
444 4 16.09994020771253 8.959442724476595 0.017286976633296466 0 0 0
63 7 1.7529800839537883 10.783247578753318 1.7352039313194514 0 0 0
68 2 1.6248243384234926 12.54938344451731 2.7694812286958217 0 0 0
83 7 1.822427464315577 14.136495692973217 1.585455126741126 0 0 0
162 7 3.51284113111077 12.53234547553229 1.5763733843629424 0 0 0
163 6 5.292793226925729 10.87226274479715 1.8492179681233694 0 0 0
183 4 5.300299188756404 14.075382448007788 1.8374520066313909 0 0 0
281 6 6.911558802794441 14.2116141731585 0.05999923095393811 0 0 0
262 7 7.155066312700943 12.511053249880074 1.7611941607195845 0 0 0
362 7 10.67679944860159 12.430258670595908 1.7235606538114165 0 0 0
268 7 9.041915883085679 12.535125526568944 3.506664541765708 0 0 0
363 7 12.60487790625431 10.753035160575783 1.8935035642295357 0 0 0
368 7 12.390684608112966 12.524013862352135 3.524542390729192 0 0 0
383 7 12.652748685857633 14.245429200207143 1.7179468026015385 0 0 0
361 7 10.75247908266673 10.809323728974656 0.031161164464172553 0 0 0
364 7 12.533722420355813 12.4202477149365 0.14992931425387745 0 0 0
463 7 16.212968425288985 10.758006395858812 1.9377954683055325 0 0 0
462 7 14.572480449067895 12.621960385498737 1.685076472985442 0 0 0
62 7 17.674627175834246 12.69443446474793 1.7647659974360186 -1 0 0
483 2 16.140889235865647 14.083687307151207 1.2684678955312243 0 0 0
485 7 14.536268270633531 14.11312312054491 3.531807377520731 0 0 0
3 5 2.0577896437720646 17.54023918789044 1.799387836383857 0 -1 0
182 4 3.441451396472395 15.771590417130385 2.0219601590669933 0 0 0
82 7 0.12873323423921826 15.88038022722199 1.6878512837361135 0 0 0
282 7 6.80106791136662 16.137548380898547 1.8552898275715652 0 0 0
201 7 6.928998558180879 17.85260894749461 0.10831825426264174 0 -1 0
184 6 5.0967144365418715 16.23176321718841 0.02105423279641272 0 0 0
203 7 8.830805161086408 17.815891827064974 1.9438169858960859 0 -1 0
283 1 8.64981465196659 14.30415653733846 1.9847741660089322 0 0 0
301 5 10.611749013477795 17.801611006317106 0.1715929201256141 0 -1 0
284 7 8.786509123962535 16.06764195950935 0.17155919628855898 0 0 0
381 6 10.655791391729592 14.298784056139828 0.056127843651325636 0 0 0
303 7 12.651344179670577 17.845008099537207 1.6608089724197461 0 -1 0
382 5 10.92801268973734 16.263709704861334 1.763562084276449 0 0 0
385 6 10.80618115241049 14.32233158027867 3.39796527962548 0 0 0
388 7 12.518229925862844 16.15826066185874 3.50594676498852 0 0 0
384 1 12.56413646499759 16.005074677533354 0.02371658669425682 0 0 0
401 6 14.621823655701284 17.7624839513184 0.08322136050335927 0 -1 0
405 7 14.457782209855145 17.773475917864843 3.352565473145389 0 -1 0
488 3 14.338632454713371 15.964341981739347 3.505184094434586 0 0 0
403 7 16.482272755843205 17.618482332569908 1.7255079331879237 0 -1 0
482 7 14.685636436032425 15.771990468679041 1.6574104559206004 0 0 0
407 6 16.449872144887383 15.896352081233767 3.5672466677752444 0 -1 0
8 7 1.9271035472416822 1.7441454551825308 3.903730071950396 0 0 0
27 1 1.891158057875421 3.4394339699098255 5.515629636386447 0 0 0
125 7 3.558574710302936 3.4364263337511067 3.6796515007886548 0 0 0
108 6 5.233927780138051 1.5763496578188783 3.767122405689599 0 0 0
106 7 3.8182823239180537 1.7186903782649283 5.787823694017286 0 0 0
206 7 6.868729479698728 1.508706811633658 5.697231436428868 0 0 0
112 3 5.2187965390922635 2.708042296335183 7.075115838119233 0 0 0
225 7 7.145048808820914 3.3694607936774936 3.7692068434223556 0 0 0
208 7 8.702711572858256 1.6580247177486587 3.8322996976225263 0 0 0
212 7 8.980709631711678 3.2948804264402667 5.742526749575429 0 0 0
207 4 8.81802332444779 0.10957770711579257 5.6739334858708155 0 0 0
309 3 9.559651310195799 1.8931009567126198 7.110494607360615 0 0 0
306 6 10.83042382986761 1.5714485785046235 5.452662625935526 0 0 0
312 7 12.833844740974943 1.7612678967934539 6.82231054521353 0 0 0
327 5 12.485702485379989 3.4477187372851845 5.076453353328799 0 0 0
6 4 17.79370950789426 1.6192362743813975 5.35470257450178 -1 0 0
406 7 14.531016037128177 1.7294002827038895 5.176897471689254 0 0 0
425 7 14.472485300730881 3.4913709296967155 3.656108512878139 0 0 0
412 7 16.18471286622085 1.7399140390130439 7.062615911509579 0 0 0
427 2 16.22753866067465 3.3931400513206915 5.519896994174244 0 0 0
429 7 14.44334793603454 3.4449395659316435 6.819576866836851 0 0 0
409 5 14.50374396944935 0.012553695940969334 6.898726179266634 0 0 0
28 7 1.6450728407422461 5.442081598452024 3.5979556837369975 0 0 0
32 7 1.7754808359813243 5.416115735009553 6.9299132637041945 0 0 0
126 4 3.5065295213756564 5.406301495371294 5.315033712270792 0 0 0
145 7 3.472525565894054 7.110598186759738 3.6750994576466476 0 0 0
127 7 5.349238080144341 3.5918766257940713 5.499990195361811 0 0 0
128 7 5.22399442692694 5.198330613147159 3.684765789134264 0 0 0
147 6 5.515646411171526 7.068775891256984 5.434628352828413 0 0 0
227 7 8.991264623563724 4.999772460225673 3.713646416412704 0 0 0
226 6 7.2463598651304 5.114398206747223 5.468714694192195 0 0 0
247 7 9.074511496438273 7.051737152603298 5.364359880738707 0 0 0
232 7 9.063337687103639 5.170189472380921 7.099209115306891 0 0 0
349 7 10.682035929081218 6.962063919457602 7.012628603460541 0 0 0
326 7 10.729417253572603 5.085664118251995 5.233182177209622 0 0 0
426 7 14.21997650252242 5.411014032854948 5.190713216935306 0 0 0
347 7 12.376048695408574 6.970349007888322 5.255972276301998 0 0 0
449 5 14.200603528329202 7.107032594242873 7.0903579344378205 0 0 0
332 7 12.58784664368214 5.220146440367013 7.035281133444727 0 0 0
25 4 17.75679772269696 3.5978831931516657 3.9914822253554614 -1 0 0
29 7 17.74779504424317 3.616452063118221 6.994445137862873 -1 0 0
428 1 16.19425433397435 5.505473225757757 3.644752598496103 0 0 0
26 4 17.81241884981784 5.531520918697508 5.422950600697071 -1 0 0
432 7 15.913416578020685 5.246353480075957 7.018024433498903 0 0 0
47 7 1.8051038585066042 7.146164121399019 5.537000261552155 0 0 0
48 7 1.7872886952808442 9.05878816701711 3.691636983903136 0 0 0
146 4 3.554934157359594 8.902510166678525 5.34104830274381 0 0 0
67 7 1.8091540576170773 10.578830782147227 5.680011262302194 0 0 0
148 4 5.33423994304729 9.079682187766993 3.8143966481017584 0 0 0
167 7 5.2612955781174 10.703826641217468 5.4778746087097 0 0 0
265 7 7.138329142207722 10.632788366090306 3.6115973248408824 0 0 0
152 7 5.331039791672755 8.820880667951569 7.10847287883216 0 0 0
248 7 8.98543530889674 8.899568214172193 3.649705359862603 0 0 0
246 7 7.286150762469042 8.992401371157431 5.501524100818121 0 0 0
252 7 9.119985504983255 8.852804943704601 7.054783233326989 0 0 0
501 9 9.193847641681597 10.637388177145542 7.091072131366503 0 0 0
348 4 12.601069842426783 9.100987050975943 3.6252714721216655 0 0 0
346 7 10.815838757968015 8.787549913007581 5.240950300031442 0 0 0
352 7 12.445826348685266 8.768477225562856 6.913314139486724 0 0 0
446 7 14.167560896736862 8.983391981165806 5.320837384329154 0 0 0
46 7 17.843605379372796 8.927892484823422 5.455291059200597 -1 0 0
447 7 15.938370715510588 7.282275791648297 5.4596774572349345 0 0 0
467 7 16.027069551714682 10.665641789089527 5.409041365463685 0 0 0
185 7 3.365245207026966 13.89121143380302 3.643063756570013 0 0 0
65 7 0.48295502712390004 11.130940267120266 3.683591523952839 0 0 0
165 6 3.237239601107634 11.092396656574897 3.676095005751333 0 0 0
85 7 0.6002225132158253 14.014060143269745 3.6686358243894146 0 0 0
66 4 0.003817230314750815 12.299534971545636 5.589698523318877 0 0 0
87 7 1.57982280601026 14.199773318071678 5.829999736966636 0 0 0
166 7 3.4528876825169195 12.506297693462152 5.748629499757036 0 0 0
168 4 5.467584078399876 12.498343606597402 3.7732046814592053 0 0 0
285 7 6.764125726456328 14.224515644844416 3.6325856894883417 0 0 0
187 7 5.196348414605713 14.199013871385423 5.484915418193045 0 0 0
267 7 9.03995964654033 10.803010291898389 5.4957833591698 0 0 0
266 7 7.243466658360062 12.45354393263213 5.24741116152544 0 0 0
366 7 10.703305950996034 12.659521583484418 5.385676308493206 0 0 0
269 7 7.312447399056761 10.849945322979629 7.1399974656074 0 0 0
365 7 10.809283950148478 10.788613041382856 3.635136020663236 0 0 0
367 1 12.266287674704985 10.882651908624034 5.489109068562319 0 0 0
465 7 14.299118302691863 10.724601180040388 3.5878501956485103 0 0 0
466 7 14.296436894851354 12.443123377002996 5.377953983952493 0 0 0
468 7 16.25070750402996 12.325160995983335 3.6932592780216016 0 0 0
487 7 16.457872350834197 14.241653912250268 5.3929191560523755 0 0 0
469 7 14.305830819950557 10.783250895049159 7.0758363729249725 0 0 0
105 7 3.500556109841362 17.764299951689207 3.74804929979527 0 -1 0
5 7 0.22620537126276327 17.76857156150193 3.7467664270709364 0 -1 0
88 7 1.8304721442501215 15.944078058266054 3.7448434951968803 0 0 0
7 4 1.895211622839272 17.84000639635233 5.653688603244049 0 -1 0
86 7 0.12349916728757197 16.157924041371757 5.449762828655052 0 0 0
186 1 3.502146460618831 15.851987523933762 5.583973074154993 0 0 0
188 7 5.180967003489628 15.984210156521998 3.5734025119931063 0 0 0
205 4 7.107946906137955 17.69789365774497 3.7126562729228105 0 -1 0
107 7 5.171530893932184 17.680671038361005 5.50847589036397 0 -1 0
286 7 6.951607967291008 16.089756471073596 5.421459467203475 0 0 0
209 2 6.940982891662754 17.536686238455598 6.981996257031037 0 -1 0
288 7 8.875602196770867 16.23285465210971 3.62043069419306 0 0 0
287 6 8.853971757023345 14.34752895813498 5.3198518280378 0 0 0
292 7 8.84710353984141 16.128905655766967 7.037016324832381 0 0 0
305 7 10.768088428745394 17.83365718735725 3.673275077337963 0 -1 0
307 7 12.711676765514081 17.73084234500004 5.25339340558381 0 -1 0
387 4 12.505454425807757 14.290029719979856 5.333879332556315 0 0 0
386 7 10.746040330767402 16.094510494304078 5.333052245254671 0 0 0
389 7 10.957679392707703 14.450806003035035 7.040874986942697 0 0 0
486 7 14.571726989032118 15.911728324372 5.414187581719301 0 0 0
12 7 1.7893956489163625 1.8439096528479926 7.36048965131923 0 0 0
9 7 0.13243266654514993 0.04704240711781525 7.254267490900378 0 0 0
110 7 3.5213465360220364 1.75377510664333 8.824225267119507 0 0 0
10 7 0.02052537353430051 1.8059998841007099 9.01660586654161 0 0 0
16 6 1.9086793509868207 2.0075531060337783 10.703100931514138 0 0 0
111 7 5.563025064763372 0.9094549832988209 7.8123165519226 0 0 0
131 7 5.352361359359685 3.338476302636564 8.870231141727373 0 0 0
213 7 6.907453891373448 0.4712734772127122 9.922905112569849 0 0 0
229 7 7.044475830465509 3.1841826710200296 7.310512956025903 0 0 0
113 7 3.596101729570035 0.0649398977668193 10.691299800762474 0 0 0
116 7 5.155562654460541 1.7850592224141024 10.614574001871276 0 0 0
210 7 7.51867228360447 3.2191244908435874 10.529644879259129 0 0 0
211 7 8.21493580701071 0.9339561862489559 7.941686023440406 0 0 0
231 7 9.224179207286705 3.2476817807861753 8.754332165561246 0 0 0
216 6 9.203756175091863 1.2530136431805887 10.483977537459099 0 0 0
333 7 10.635834962992869 3.493682820707804 10.69581579322648 0 0 0
329 7 11.052955745754696 3.411074183023991 7.143306582851048 0 0 0
310 7 10.715696196424695 1.0546928434264635 8.269634067034495 0 0 0
311 7 13.045921055573588 0.3786720505666093 8.710293008092913 0 0 0
331 7 12.927889473298697 2.93799678824422 9.02175610426121 0 0 0
316 7 11.868032889007516 1.2913560069179457 10.618688387103717 0 0 0
410 2 14.381745940414838 1.7577676889107166 8.12233030483589 0 0 0
431 6 15.945697753404042 3.3844048451803332 9.00370308906305 0 0 0
411 7 15.865853813953555 0.358734847284628 8.849166566223836 0 0 0
31 7 1.7016880910747247 3.6438776589422694 8.885793418160533 0 0 0
129 7 3.4682982193206224 3.638154821074241 7.279938405013403 0 0 0
130 7 3.5515952069009002 5.400004693772908 9.03060300950684 0 0 0
51 7 1.726429840965709 7.0915338162949775 8.949435134149333 0 0 0
149 7 3.555213351211746 7.097607687886811 7.2567012498280725 0 0 0
36 7 1.560843512078668 5.40649216064404 10.668240449913982 0 0 0
133 7 3.574875288925049 3.646406476088284 10.6313707945203 0 0 0
132 7 5.382661894460747 5.3598454416819195 7.297309476701736 0 0 0
136 7 5.609225631498991 5.255684395734428 10.328157552804827 0 0 0
249 7 7.33548593239841 6.896139946877436 7.161695625325462 0 0 0
230 7 7.455756721199799 5.111180490959244 8.77781678408088 0 0 0
251 7 9.050614628119801 7.071447777066047 8.820973168143638 0 0 0
253 7 7.301644560408886 6.981884553379585 10.637696297209557 0 0 0
236 7 9.089338147021698 5.196875360683992 10.60958076025398 0 0 0
330 7 10.837653531092165 5.251964241133103 8.923310856187731 0 0 0
351 7 12.494024582689098 6.9963191754330625 8.820542810282195 0 0 0
453 7 14.22073617834888 7.0031918099935835 10.706357989793048 0 0 0
430 7 14.156836044810522 5.109146641297139 8.846085141132088 0 0 0
336 4 12.451837174217436 5.150123574450736 10.707749332509737 0 0 0
49 7 17.757245095951387 7.0299612285836615 7.348551710481323 -1 0 0
30 7 17.69312975501376 5.329510752029104 8.837812970355982 -1 0 0
451 7 15.918926999312353 7.0161449894544194 8.92571027706017 0 0 0
436 7 16.058593558447793 5.363616349227672 10.700324072004017 0 0 0
52 7 1.8425162165707631 8.747606280499765 7.333370287860146 0 0 0
71 7 1.7342110471242984 10.564874493988055 9.008556887499102 0 0 0
169 7 3.5264157178945488 10.365340466876734 7.466188022917824 0 0 0
153 4 3.4841537381583163 7.344146022191208 10.557334048294978 0 0 0
151 7 5.440496134225554 7.142996722233488 9.014813033414585 0 0 0
173 7 3.710625440109461 10.098493866613142 10.33796224176055 0 0 0
150 2 4.34592697813179 8.813149102710808 8.873602557326162 0 0 0
250 6 7.2879584181073875 8.90078809843023 8.769564881724506 0 0 0
350 7 10.738635796988548 8.724147534376488 8.82597459497505 0 0 0
371 3 12.546312052251192 8.957639342477599 8.723191815219833 0 0 0
356 7 12.524986072394404 8.869961060837227 10.680183224009808 0 0 0
450 7 14.279788694329191 8.783125778604731 8.923622139705357 0 0 0
452 7 16.022440108438968 8.865093072625758 7.192267473123181 0 0 0
69 7 17.81609625378679 10.56621986402589 7.290980242613535 -1 0 0
50 7 17.72112957772396 8.801253921688545 8.824748914731568 -1 0 0
456 7 15.987182462668741 8.86399047113062 10.630883281662198 0 0 0
72 6 1.7961713567518323 12.37530565656747 7.462906169131396 0 0 0
91 7 1.7030990638821875 14.218293584790782 9.143208275219097 0 0 0
189 7 3.5365502577615455 14.271588633872707 7.38262802705033 0 0 0
170 7 3.57982683771236 12.353727688190268 9.03380525449946 0 0 0
172 7 5.375797814782431 12.409717474035252 7.218179285427645 0 0 0
171 7 5.511430728346119 10.79355581689719 8.913577171190378 0 0 0
270 7 7.114533374285203 12.600297637986737 9.093378503945967 0 0 0
193 6 3.6813069477685403 14.22797771094352 10.680328991042265 0 0 0
271 7 9.117560740751335 10.880261191148058 8.856987372001496 0 0 0
272 7 8.853003621065758 12.593904339129365 7.144352256882259 0 0 0
276 7 9.077905077670623 12.742620663589467 10.626916830146348 0 0 0
289 7 7.153466086857981 14.257254553447344 7.310455549754625 0 0 0
273 5 7.207202133060926 10.7396139194349 10.600255215655173 0 0 0
369 7 12.430107546989639 10.794174337306877 8.923224487819715 0 0 0
370 7 10.80337755696103 12.672589347138194 8.871275335258796 0 0 0
372 7 12.443584128295262 12.505353370412665 7.2055762782599695 0 0 0
376 7 12.361060722212919 12.61550819932746 10.547649788319838 0 0 0
373 7 10.72743141291934 10.821202111310948 10.660281568045258 0 0 0
471 7 15.915285201173205 10.76349791999954 9.101584523044162 0 0 0
470 7 14.291464700721352 12.58209221165125 8.993712535919126 0 0 0
70 7 17.810067336217614 12.353577983110906 9.069348559738772 -1 0 0
472 6 16.12583498027063 12.384754439191413 7.217021978178871 0 0 0
491 7 16.096941313647193 14.255701113398052 9.138078846914118 0 0 0
92 7 1.7917941783753237 15.937110419068352 7.38467545631472 0 0 0
11 7 1.6690578380022463 17.821679260491447 9.10947348672017 0 -1 0
109 7 3.4578867655517773 17.649158910089643 7.278722826624131 0 -1 0
190 7 3.5327937740589292 16.081908250066313 9.173655539598434 0 0 0
191 7 5.379670403226977 14.289305911754479 8.893814758660378 0 0 0
192 7 5.450702397376584 16.251119947537937 7.365172967565565 0 0 0
313 3 10.624637156267983 17.759546154948847 9.997915413362646 0 -1 0
290 7 7.334024610767302 16.277949090488416 8.879094725590008 0 0 0
291 7 9.125006952436333 14.381237493876535 8.99480001669015 0 0 0
296 7 9.139521842866982 16.472344387761925 10.600998338168312 0 0 0
390 7 10.587498054510524 16.285968636656975 8.595669560053299 0 0 0
392 7 12.716328644117544 16.234973741606197 7.150076142840221 0 0 0
391 4 12.348344197491969 14.466466113546721 8.898968372184765 0 0 0
396 6 12.299625437603703 16.524798122066894 10.422274145427096 0 0 0
489 6 14.190420615620948 14.30473274727317 7.233393459861249 0 0 0
493 7 13.969946725459273 14.500386233546816 10.55726020525912 0 0 0
89 7 17.621624260187325 14.284609582181949 7.3523266573358335 -1 0 0
90 5 17.852424631743347 16.05654963879093 9.100106260665092 -1 0 0
490 7 14.29472329758941 16.21292120638815 8.896207731389719 0 0 0
492 6 16.167620107562424 16.062388077270175 7.243326283997972 0 0 0
496 7 15.971403988192959 16.14943805861225 10.69561513424025 0 0 0
114 7 3.5622883800734026 1.833499800658022 12.549053859803713 0 0 0
14 7 0.032243629294253395 1.8986900842821601 12.568354657023567 0 0 0
20 7 1.8537605409690818 1.9621498905606625 14.250080961657039 0 0 0
135 7 5.653617406876384 3.3978736680491304 12.208325543239036 0 0 0
120 7 5.326013579722687 1.9145454124514512 14.259552629666867 0 0 0
115 7 5.258220701343633 0.03135437197319746 12.7392427165095 0 0 0
214 7 7.348485800684743 1.2877074830843906 12.432543680414838 0 0 0
235 6 8.796361697119806 3.290884540284478 12.555049385278927 0 0 0
314 7 10.685888254881243 1.7813886641323615 12.744512352634706 0 0 0
315 1 12.576652630384002 0.1936756571736462 12.569093683934021 0 0 0
414 7 14.22227978202479 1.9004490641712968 12.810941625235337 0 0 0
335 7 12.489066558264906 3.434467641654659 12.426239296840096 0 0 0
433 7 14.247731273257774 3.4631679996798317 10.87119322703733 0 0 0
413 7 14.206798950105917 0.16730255021883472 10.750976273222863 0 0 0
17 6 17.79537689224654 0.06974911342208212 14.256905566893467 -1 0 0
13 6 17.642306410196486 0.03177649630066881 10.800230903592684 -1 0 0
416 7 16.0152706465281 1.9458519937494931 10.898588118701863 0 0 0
415 7 15.93396242468538 0.09458876568949037 12.544928694202024 0 0 0
35 7 1.7956173902750594 3.6919232143765193 12.518540227509385 0 0 0
134 4 3.5544270977158123 5.435993081465907 12.134729523280667 0 0 0
55 7 1.7692581524828817 7.072765861055399 12.460721282343824 0 0 0
234 3 5.506461145416648 5.211689969547546 12.331887925687779 0 0 0
140 7 5.38545367754448 5.321694328576012 14.238992615558278 0 0 0
137 7 3.5813312795527534 3.663062554606497 14.20247591953824 0 0 0
233 7 7.309930536186466 5.329680096241313 12.423772941154118 0 0 0
255 7 8.89546790562599 7.08245431921451 12.55956855837759 0 0 0
353 7 10.625326360869607 7.047480211347456 10.890624472055515 0 0 0
240 7 9.001295248328093 5.216070585687509 14.162682529207151 0 0 0
334 7 10.747598698925707 5.263815427851171 12.466129792320858 0 0 0
355 4 12.443863644224265 6.931751800331369 12.358032659353048 0 0 0
357 7 10.74739832703843 7.025720814716818 14.195032707833589 0 0 0
434 7 14.231698989716307 5.238037321549577 12.530023069605809 0 0 0
457 6 14.27399388767579 7.080856022765567 14.265930297561397 0 0 0
33 5 17.807292368350577 3.6092268811743438 10.805790364645928 -1 0 0
34 7 17.79066034062064 5.4475655608203 12.598390852850843 -1 0 0
435 7 16.145639756378074 3.693624019414036 12.596039926196728 0 0 0
56 7 1.6480512777507164 8.800691722399634 10.773450912208766 0 0 0
60 7 1.8036877433398886 8.937633681469096 14.019732187305516 0 0 0
177 5 3.554320858396743 10.626638292612192 14.182421004143475 0 0 0
156 7 5.573159488902799 8.820774990632152 10.723301710578538 0 0 0
157 7 3.6029831521246347 7.168120014831706 14.017857265131498 0 0 0
155 4 5.484742816873687 7.145021014955281 12.259444411919969 0 0 0
154 7 3.6222544841370934 8.905512471869473 12.43866866994407 0 0 0
257 7 7.158320969614722 7.176623566933578 14.159302125246933 0 0 0
254 7 7.205106473594593 9.06917778814174 12.489775447074726 0 0 0
256 6 9.004254365537046 8.790262100943428 10.73526127109268 0 0 0
260 6 9.061692785631012 8.964882732252478 14.19843617699062 0 0 0
277 7 7.267191307039924 10.680418501319505 14.224799549177064 0 0 0
473 5 14.154794139224693 10.71028818141099 10.734400239438855 0 0 0
354 7 10.81412816041712 9.006554570721327 12.430733341645512 0 0 0
454 7 14.229445484530514 8.895823108871662 12.39144350833523 0 0 0
477 7 14.206545031587796 10.693231433881614 14.222433003809213 0 0 0
53 6 17.817257526575897 7.175685068697296 10.717184658799368 -1 0 0
455 7 15.961113510576366 7.201944742345844 12.60668586231277 0 0 0
54 4 17.78489333037523 8.93498189400093 12.51692641005206 -1 0 0
73 7 17.81607303353627 10.612601215373585 10.913344281587074 -1 0 0
475 5 15.87586481897283 10.70201916015181 12.412004248644955 0 0 0
460 7 15.994579190527046 8.954773492800372 14.215964283637252 0 0 0
75 7 1.8503992725285754 10.715148262105721 12.406229252399 0 0 0
76 7 1.9602988710562885 12.315748487076329 10.808144636883577 0 0 0
80 7 1.8624229183797643 12.561117095805947 14.193199694158986 0 0 0
93 7 0.12332000750155103 14.181468531268468 10.89287808753863 0 0 0
175 7 5.576045385664488 10.815104537041718 12.36136646499306 0 0 0
174 7 3.6699771898672577 12.504521581733881 12.534456751501601 0 0 0
176 7 5.4648181540615175 12.55178598621098 10.849430286641445 0 0 0
180 7 5.521934593103523 12.554320101559103 14.13090866755996 0 0 0
275 7 9.026198714760001 10.894939826720066 12.46797159317793 0 0 0
274 7 7.353028756507347 12.593954637015006 12.534353341308746 0 0 0
375 4 12.455765452995191 10.810939648395207 12.436468651101062 0 0 0
374 7 10.918394336071103 12.635627193981039 12.40410589485847 0 0 0
380 7 12.654442727555981 12.466747818589393 14.222418020453647 0 0 0
474 7 14.175297603497533 12.534962067726449 12.363328832785534 0 0 0
497 7 14.200874958859043 14.256072493254674 14.079780885934914 0 0 0
74 7 17.80731604360379 12.592086754775174 12.56884183666349 -1 0 0
476 7 16.11372222135763 12.400605720385416 10.771391720583155 0 0 0
480 6 16.010166576492246 12.583686368599938 14.115476902097633 0 0 0
15 7 1.580265652545909 17.824092780724566 12.39776336522851 0 -1 0
95 4 1.7898944762707285 14.34711315816764 12.569473520934029 0 0 0
96 7 1.7848974605913064 16.027204167710817 10.91152386951351 0 0 0
100 7 1.6104740673384008 16.07505438353449 14.104517603882243 0 0 0
196 7 5.495072154418925 16.116989439041443 10.741558697810756 0 0 0
197 4 3.7852797067035047 14.322462992834726 14.22569286328747 0 0 0
195 4 5.243493413480683 14.427216174780204 12.458162037817845 0 0 0
194 4 3.5817617490982125 16.15991291667014 12.364302823164405 0 0 0
200 5 5.328968143669679 16.10236932831767 14.197057112541545 0 0 0
297 7 7.0817772625406175 14.351669721223562 14.171887670747582 0 0 0
293 6 7.305036384184804 14.44935718800882 10.787397187349095 0 0 0
215 3 7.946324462912931 17.681039314470908 11.394184707495405 0 -1 0
294 7 7.272499380752637 16.26841237683475 12.396926851006958 0 0 0
295 7 9.075341800651962 14.356373014707097 12.539898923184513 0 0 0
300 6 8.965884790531433 16.27041591345993 14.25226120555866 0 0 0
393 7 10.797039769738097 14.468262358349186 10.743014400685185 0 0 0
394 7 10.74470900136319 16.162122371989238 12.614296642912619 0 0 0
395 4 12.518068806481764 14.325249441319016 12.481810487944797 0 0 0
494 7 14.034514898835202 16.166803423378465 12.481198990560545 0 0 0
94 4 17.659289743851275 15.922898917410286 12.613290918753215 -1 0 0
495 7 16.053409830447226 14.297522858166083 12.352266848223557 0 0 0
500 7 15.942109472756426 15.991673202506359 14.124974784429227 0 0 0
4 7 1.7917063185203341 1.9290841925018416 17.671923843339943 0 0 -1
19 2 1.8342581467349492 0.7113190055327566 15.775069513343086 0 0 0
117 7 3.231103608527316 0.06979330379795141 14.488625345184468 0 0 0
18 7 0.09157932095246493 1.8559026017874691 16.015413264904414 0 0 0
101 7 3.2673054321089134 0.17493826791159675 17.350727224506095 0 0 -1
118 4 3.7615213950146162 1.9893829036999513 15.913713080682 0 0 0
104 7 5.1867293264132455 1.5672065504316883 17.830516920552434 0 0 -1
139 7 5.386167071280281 3.5408938242014516 16.1820359458847 0 0 0
119 7 5.335871025053138 0.048800914035930607 15.771499891440763 0 0 0
218 7 7.14228633449965 3.535221053625443 17.812369011108544 0 0 0
237 7 7.1576753385467695 3.3298236313031366 14.335509376801907 0 0 0
220 7 8.948127492198934 1.6564784484165433 14.47304705718604 0 0 0
219 7 8.834498175765207 0.002113804830637612 16.203182490365165 0 0 0
337 5 10.714642714476037 3.4613054389986893 14.441937002164215 0 0 0
317 7 10.729173049734749 0.00892704180432253 14.432448608649326 0 0 0
318 7 10.721064754447145 1.7540809868652607 16.264352738836852 0 0 0
320 6 12.506434494092877 1.844014183564728 14.611746914153672 0 0 0
420 7 16.06414911672433 1.7909919699087173 14.494097716733537 0 0 0
418 7 14.427897979175572 1.730929966766221 16.209852550233556 0 0 0
141 4 3.5496515921964003 7.030106376901973 17.819067076828937 0 0 -1
37 7 0.0210934764462678 3.6466792431846256 14.315970647520638 0 0 0
40 6 1.802221539896861 5.49394956167112 14.312093207976298 0 0 0
39 7 1.819610935948238 3.6130141643646954 15.97432634778811 0 0 0
24 6 1.8215758125654355 5.3695165198348835 17.65044268316561 0 0 -1
121 7 3.6643200206388467 3.5782612653400814 17.76772641545073 0 0 -1
138 7 3.742749137436015 5.367739532142266 16.04421382624726 0 0 0
159 7 5.529186634331372 7.012314346219464 16.01577036684429 0 0 0
239 7 9.055757443722804 3.583530385709608 15.952424500167766 0 0 0
224 6 7.237497615988534 5.303436323511909 16.070539537330948 0 0 -1
338 6 10.702851016996744 5.243299983051178 16.261384217534577 0 0 0
259 1 8.946761022368982 7.125177717329073 15.99404842283691 0 0 0
340 4 12.217575026318974 5.1126162842534 14.345843961747683 0 0 0
437 7 14.272182285531747 3.80577477842596 14.494445298838414 0 0 0
339 7 12.571916006521258 3.6569588930329426 16.2913777903499 0 0 0
359 7 12.358296547600537 7.052641079699092 16.125823669844138 0 0 0
438 7 14.145611380960835 5.32036336305046 16.26897785061553 0 0 0
440 7 16.087222564978724 5.35409251329072 14.365345747210569 0 0 0
439 7 16.126273866955483 3.6292356187959895 16.07864547695461 0 0 0
38 7 17.74241373310881 5.4484556971676374 16.10533505819675 -1 0 0
459 7 16.03109228262589 7.132782659472342 16.092910514135365 0 0 0
58 3 0.14645827325510438 9.020122258080685 17.690544259481282 0 0 0
44 7 1.9017997928870565 8.88309791885373 17.667544765444273 0 0 -1
59 7 1.8788781960497385 7.151983005018999 15.991076105605384 0 0 0
158 7 3.54891779788078 8.850755655684198 15.892741916215105 0 0 0
79 7 1.7573604676443926 10.68818276242441 15.808796397032944 0 0 0
161 7 3.597568111366206 10.685549329345058 17.60919608291746 0 0 -1
160 7 5.455433099883786 8.87478589687702 14.308797006729328 0 0 0
241 6 5.400146845558852 8.853155507956716 17.727035441047338 0 0 -1
179 7 5.396018117867553 10.68289715075297 15.946093094972223 0 0 0
261 7 7.047738161542682 10.668399941767992 17.748163576795868 0 0 -1
258 7 7.192246042378768 8.94708695132917 15.984026780311519 0 0 0
279 7 9.052242841244595 10.61464649654089 16.060920676468 0 0 0
344 7 12.475225134687618 8.935810006719999 17.773943647128142 0 0 -1
360 6 12.521337334124379 8.854558770104866 14.337962800988842 0 0 0
358 7 10.836149597599727 8.952995946756294 16.032007574397355 0 0 0
57 7 17.844976528402047 7.291969005558818 14.344916504670186 -1 0 0
77 7 17.791362761320737 10.593706845796877 14.311695090847802 -1 0 0
458 7 14.460198539440114 8.96268709063137 16.111332522283128 0 0 0
64 6 1.7950736641670426 12.465781770484394 17.62766259076197 0 0 -1
99 7 1.9782145838613554 14.249000375116951 15.93407818823881 0 0 0
78 7 0.04847588860541177 12.869018559011392 15.679712964468871 0 0 0
81 7 0.09988147637051625 14.223721468360274 17.761714867705273 0 0 -1
178 7 3.8015315032823787 12.51805227303008 15.871083644223384 0 0 0
164 7 5.387371680489262 12.366256541040867 17.775056481858513 0 0 -1
181 7 3.690259652049781 14.13791057449078 17.781075367063753 0 0 -1
278 7 7.126995000592676 12.607346558963378 15.909813309059384 0 0 0
280 7 9.100776861590928 12.485868266828819 14.464663359747544 0 0 0
264 6 8.903431679127467 12.499980327961817 17.837165356192447 0 0 -1
377 4 10.779842982882167 10.897758106428512 14.302601499847935 0 0 0
378 7 10.879579343261403 12.444915632932167 16.114295104711346 0 0 0
379 7 12.506506772933655 10.725967706242786 16.03838932870754 0 0 0
478 7 14.212194323179673 12.445160536751127 15.944907696220765 0 0 0
479 7 15.997069791701133 10.737489727110257 15.862424558986211 0 0 0
481 7 14.305964259510292 14.263198498396731 17.75647879861405 0 0 -1
461 7 14.454939021204227 10.730128736724296 17.84727650864231 0 0 -1
61 7 17.689589720299658 10.855542372977908 17.80194547490193 -1 0 -1
464 7 16.07283618373044 12.50840598052534 17.57060737809063 0 0 -1
499 7 15.917440433514363 14.19257718733357 15.954626597941386 0 0 0
97 2 0.5652402413069793 14.315721835529814 14.337306001871275 0 0 0
84 7 1.8887140564389013 15.978068056385471 17.68959442224049 0 0 -1
1 5 0.4374413265665224 17.642471876378167 17.33627507947464 0 -1 -1
199 7 5.4247020312808925 14.376359873703725 15.956212452323067 0 0 0
198 7 3.6258363129769924 15.977748218338798 15.925653019358899 0 0 0
298 7 6.997540692420522 16.036592251666434 16.082696638538227 0 0 0
217 7 7.190837992033652 17.770116875531563 14.423458636710729 0 -1 0
299 5 8.828532474493857 14.40907254829574 16.03767533298207 0 0 0
398 7 10.627095699850415 16.0810822600976 16.33674915727393 0 0 0
319 7 12.572425097211465 17.822572082234107 16.369951143863197 0 -1 0
397 7 10.87368373103639 14.383422113513001 14.33090404250069 0 0 0
399 7 12.525537544178212 14.296133266329083 16.02451682951116 0 0 0
400 6 12.503628796886657 16.12197716006927 14.495813397567177 0 0 0
417 7 14.368331495177257 17.823604755044087 14.37377693959736 0 -1 0
98 7 17.80986964819276 15.739920395885095 15.828893789009511 -1 0 0
419 7 16.177423645219953 17.820019413817963 16.02774076070775 0 -1 0
484 4 16.429589790802964 15.912880278084756 17.809086796202376 0 0 -1
498 7 14.523415533873187 16.087688955100415 16.197331311131933 0 0 0

Velocities

2 4.733869961917061 -1.1717267348198974 0.5355563824345102
23 0.9412799351940958 -1.3551238240613661 0.2839979307205008
102 1.0565147465276092 -2.9923338206694567 0.5666940248185254
123 0.22528084242575744 3.0204971867241457 1.0478254574306003
202 1.4475045294442939 1.8885011630841209 2.1453104822468254
103 1.109148657457505 2.6167682562579757 -0.29666969177887337
223 -3.493026641476421 -0.861808873001296 -3.7181973826759966
302 -4.90918767821659 -0.33770575220924076 4.3790243272363485
204 0.6825439946180654 -1.2517050944171155 0.45772029606920095
323 0.015602927330793126 0.7166522989916082 3.012811862688828
304 -2.86554876796711 7.89864424409243 4.200625601512104
308 1.8067824479947034 1.6299210524060739 -0.9330423927180657
325 0.45258167975613933 3.1963317120906574 1.6004322504598736
402 -1.5578430891609338 -1.371612649951844 -1.1880747025831797
404 4.2204506054708615 -3.0970091951111933 1.1689739553369078
423 3.3767028976519176 -1.7330310398271522 -0.11618524251521331
421 -0.9205667226662362 0.4773114865398726 -3.7462317031582124
408 -1.899052410145938 1.227631852580686 0.6005665749097067
21 -2.6905491533230412 1.6094795665545756 -4.069465710752776
122 1.4469461293171912 -1.4761495686357449 -2.404926972763936
143 0.08374495016633308 -1.494026953014646 -3.039994427818648
124 -4.290205698656032 -0.9230801278066876 2.186274743049661
221 2.2522561449496123 -0.24053429148232988 -0.37188116313535996
228 -0.6911110040050988 0.34118092114255716 2.4063232146509264
245 -1.8055187679601508 -2.800095405770868 0.840713429174797
345 2.4848183564732804 0.3680198654869556 -0.24553279905320835
238 3.565633114634238 -8.802770333001943 -3.1711613853684795
322 -7.5724619953895775 -8.826072421836118 6.255972970369651
321 2.6577406832731456 1.3947737111145233 -1.6134378171176267
324 -0.8696384459621321 3.041913813445719 -3.388573829100221
441 -0.6462852743803521 -0.8949391884723396 1.9641869521712025
328 -0.6070073688799889 2.047690396186558 -2.158775936843675
22 -4.101596593754741 -0.41253419032045135 1.0455553765373975
422 1.9655658103983693 2.5580070484669433 -1.9622832769357188
424 -1.548784899476498 -2.832522258680383 -0.3136954090512342
41 1.083414444928985 1.8162508274555138 -0.8103677392816218
43 4.624748236867008 -2.223935623851225 2.3931798587203814
142 -5.377755762101464 -2.1476202650641167 0.8436210848451491
45 1.4301281558589929 -1.3938716313939485 5.464873482106494
144 0.8055051203374838 -2.4662987529053297 6.507724161444556
222 -1.908474303664121 -1.9505181335444104 0.006516716307092505
242 -0.9230171472959696 -0.556277577277935 -1.8686178571823064
243 -2.688206930498538 3.6722139116717702 -7.033614268775999
244 1.0105492189160425 3.4257020218845247 2.1865596588992586
263 0.6726306424989901 1.4161990015633275 2.5372598248651537
341 2.752066876892397 1.1146286983342646 -3.316300016707479
343 4.506126640886939 1.5585396831775153 0.04466924943662333
342 1.5821891437064108 1.4581309733763337 -3.3123723496939914
443 0.5143715746918778 0.5566528039765464 -0.7810130880922768
42 0.8415554928186805 1.2524924881334072 -1.0622387928892396
442 -3.896249476031584 1.741834430776639 1.444726485987706
445 1.2086078004418777 2.620035913724945 -0.672319267393489
448 3.0763763866370835 0.5602854615365387 -4.641215443891456
444 2.6280288661810514 2.495658388739407 -0.1094853013022035
63 3.1263299066618173 0.998751668206683 1.0915012542174345
68 7.42099011830194 9.363270580451246 4.211432816741936
83 4.039941067378711 -1.2534491961689522 2.719770226527763
162 3.369743928965667 -2.816227024047395 -4.202876373095437
163 0.9636043552117493 1.3299186020616203 0.34712456480921244
183 4.0532390204828825 -2.167887362914056 -6.256812484372407
281 -1.0968010097722887 -1.5443393958884288 0.1383687418394594
262 4.21123685568685 -1.291517123538001 -0.8941496145358704
362 0.171564016454592 3.7236400166999024 -0.8006466786294936
268 -0.9856823331560809 4.462768502638712 0.24862615234348484
363 1.867745125269852 5.713569525053049 -2.741051955155455
368 -3.2168305590715462 2.0118740712711563 0.6142978650859933
383 2.201969740679473 -2.0126908472970007 -2.1745422054314596
361 0.05985166417864914 -3.0975177545568444 0.04424221522309793
364 -0.10035936827135816 -1.6916310047070116 1.0656374609028643
463 0.9191757058159205 -1.0982838107113877 -3.3238929786039395
462 -4.534333079791249 -1.8698112918363992 -1.8313510687276882
62 3.7132173359886056 -2.4263784063555005 2.185869045610661
483 -0.43484336835858234 -7.346393158598478 -6.403750331326352
485 1.7845261133115669 -3.0772279099836073 -0.8863641505301253
3 -2.2901868710909112 1.2968600389838567 -3.806229112139098
182 -2.8509402779105537 -3.1208252634535474 2.5470236114459373
82 0.47235979752308 3.1057005348989963 1.7441043005739103
282 4.0326476776225 -4.274762293489981 1.7885049840725844
201 -1.356041157336806 0.9378702351522649 0.010960005725223354
184 1.3931561626219386 2.028832099540431 0.890620768561357
203 4.057797119435987 -1.0179726133031946 1.0335194176089717
283 -8.237137494314181 12.679251416162689 1.7577237614427652
301 0.8465952138677453 -0.6260297540933714 1.5814216719091936
284 -0.8913288139362425 3.7958939043914635 -3.8427549265868186
381 1.9490575726425907 1.499432773509133 -1.5364409659404938
303 -1.1998331168784337 2.4692581172365005 0.45828022285831693
382 2.326346572387594 -0.4723736821004422 3.2454610335591982
385 -1.6538579214935407 0.33420919088105433 1.5639176940669093
388 -4.223895858010912 -0.7027176032942501 2.8316308915032704
384 1.6526654922423496 1.4561746089758856 2.2668376390315856
401 1.1787345241813203 -4.3995050615670666 0.26191341899649667
405 4.9229079845479795 -0.19187008058610022 3.6877479044298145
488 -11.06281239695638 -5.070076376703814 2.662917471245156
403 0.29505309465576607 -3.771757879677004 -6.926341485356696
482 -2.082543084975235 1.2256010972816238 -2.8372842644478613
407 1.4863973845848932 -0.8052926109263296 -2.0313244167046185
8 4.624050690732724 -2.7352695479632816 1.305358802948797
27 -3.885513961690966 -1.9501881739330507 2.1229708411834998
125 -3.387527393528684 -2.719323963419356 -1.8595057314470267
108 -0.35868576227793963 0.2031686794823057 1.3851176487193206
106 -3.5545112152426874 -1.5785896505339967 0.6916912761665861
206 0.378435765314941 0.38585165327703336 -0.6153345334305155
112 1.7203697382878331 -0.24210715684373046 -8.930030360041277
225 -2.581007939316543 0.2580753981807142 2.4870513929878326
208 -1.762861051324769 -2.23115497327123 -2.0172024733865257
212 1.915070972869841 -3.255426249707394 0.2249306969261218
207 0.807010621625043 2.3380053038341133 0.16970761747761745
309 1.609298837604853 7.402649261485097 -5.1233303614315435
306 0.7643299917858871 -3.36833260458025 1.0864180397313157
312 -0.3862205418185478 -2.732498530396433 -1.0680062805336659
327 0.3535686231021171 1.6061797905841362 -3.2087673903536413
6 3.0038119145765645 3.304596571323974 0.5905496113211116
406 0.27460873934654456 -3.21441277557982 1.4008131263301826
425 -1.6158639519888323 5.383246681184624 0.49961883239924343
412 2.372989258179882 -0.06625837411184389 -1.3169646271608755
427 -0.17916675665048587 -0.797037229451734 1.0349982066788252
429 0.4839780043724637 -5.500984512229919 0.002499296689639847
409 0.3174760451813862 -4.137810886083844 -4.443560212755192
28 -3.339582227846482 -2.628216049245626 1.4768062887527984
32 4.565614515547535 -0.3859242546318683 -0.08099823930516226
126 -4.998109171203359 0.5890915610730362 -1.3111922716854376
145 3.8169180033801653 -0.14086987804651876 0.4279379658930298
127 0.8328405969810204 2.5811198513767333 -5.779768720321533
128 0.15222022022449705 0.371857447362639 -1.6264683290768476
147 -0.8204832230035758 -0.9330822171075576 -0.3035351095030531
227 0.18949240506194515 -0.6343242320479158 -6.595920375348248
226 0.7496734805594806 1.3510085904587041 2.3032331416598506
247 1.523802273145022 -0.6012484230645959 -1.9512813842817096
232 -1.0721807985161533 0.9087539099789276 -0.39972655642377125
349 -4.313797851028343 -0.06272691718960048 -1.9314202843084498
326 -0.5798052581331533 1.0806147655356793 -2.8425531047918966
426 -3.1729017614781143 0.44323943215569384 -2.2652301851398717
347 -0.9402705514328638 -3.9100755746365734 -0.32537489688169724
449 1.7594164177128602 -3.670194832749565 -0.6894105093888991
332 -0.7760653571684275 0.6481510242393274 -0.2175374560725487
25 2.31602640863755 1.4099411719847723 -0.28716019987304814
29 -1.3148818642449047 1.710871945927176 0.8229469574946885
428 -3.180313177174921 -3.655402207525081 -5.363993979593155
26 -3.5272449113655164 0.500245369059549 -0.5790189557800004
432 1.7602298001033916 -0.06658721044083168 3.430313006938846
47 -0.30434370408026673 1.9275430922660446 -0.1712666758080057
48 -0.7848348650114036 5.96278868313989 -2.4019091347824624
146 -0.6814082489087558 1.8166668292110322 -1.4736125246796097
67 -2.2098843668060097 -1.0789227142633713 2.395789395744494
148 1.582075354115192 -2.8012071666935485 1.1150932079793174
167 2.2786780468451235 -2.1284290834925517 -2.3427284334459926
265 0.5047854095426113 -1.8791409558483971 1.5015254436467436
152 -4.373448702457951 -0.466112934662271 0.776357927244973
248 -0.19581963384564882 -2.1122593871060737 0.9167919541928388
246 -1.3192661177049358 -1.6431924339623278 1.5684663597828867
252 -2.122410862524461 -2.850839671741268 0.067859428683365
501 11.616049159254873 25.429208393859778 -42.681953773270564
348 0.6982416577914843 -2.2762968780847577 3.7441104578042546
346 -5.604151138123583 5.100299213061027 0.5177648928244765
352 -3.828563488508024 -3.7323114187261295 0.6933513521043876
446 2.039233128236278 -1.5774740566228824 0.9886286828311512
46 0.3121894606496695 1.226352065980186 -0.2588001233040671
447 -2.322544240155558 1.7352670097897345 -0.5610006242109489
467 1.4764967545113912 0.593478223059697 5.092286349615872
185 -2.0383232112103156 2.0083587846475024 1.7906501555450485
65 1.1395323329485032 0.8689282356000283 -0.795263787287147
165 -2.1490847066279057 -2.9976415914767993 -1.2486092113238223
85 0.16104841322394037 -1.566444839955926 1.1577168319127462
66 -0.7699844052383658 -2.2578344904363488 1.7496369511102825
87 -4.1959584440041935 3.149233977466748 4.312220487219534
166 -3.1514673504720356 0.3904215632054169 1.4157253400192953
168 2.834095489875247 -3.245087265814641 -2.1605404294200623
285 1.17338533670909 -5.351457627526543 2.6701262029304016
187 -2.0352906418116548 -5.428944148244665 0.4249331353850425
267 -5.931697832306303 1.2343584779624504 -0.3992768840345773
266 2.738825616540854 1.403618731528927 0.8357790968272995
366 -1.295438802608669 1.0735112988229158 -0.8760146387043416
269 -1.1560809654842623 0.8153105795477954 0.510587069143488
365 -0.273321868871626 -1.5973349704937665 -0.3350692166919604
367 -0.9592435852097332 0.38842101428622205 1.8620099349805683
465 -2.9293994581518765 -0.3655171110704159 4.035364047129457
466 1.372963417465718 0.040173786298198275 0.3703319945795893
468 -2.1874684291449733 0.9852785681216423 -0.5563375180341324
487 3.24631967691903 1.933906008663531 5.348619476728925
469 -3.342580275707538 1.922699970826734 -0.6419414648239191
105 -0.7228384720530975 -4.783489427728662 -0.10835393336327769
5 -2.6028061929497333 4.16111937303656 -0.09866399666690741
88 -0.14077037707144754 -2.775703519343624 1.8737858472031133
7 0.049161213116395264 2.1114385614467945 -1.3461485388373495
86 1.4960167711536776 4.271555364972322 -1.034480164567885
186 -0.35789109452867085 1.871171194449821 6.27223267840895
188 -2.6222771342497317 2.3500347148184857 -1.0161811808383823
205 -0.53062516888901 0.1926976193374893 1.5431108468024122
107 0.9261609477008114 -0.3039586204945326 2.225053156472089
286 3.182270044803649 0.4912806305562297 0.1032933967552314
209 -4.024333937834167 1.156693079220689 -1.2294503366305942
288 0.8734463268136919 2.0426998506831335 -0.42022199053194403
287 0.9801685269817981 -3.1608627703766463 -1.6834463308771288
292 -0.3606988048869098 -1.6460566504842515 3.571862472126262
305 -0.3913264864058924 1.5750293399985522 1.5624622915772222
307 0.49114822820019377 -2.7378393130736445 7.003713439727096
387 4.0909744856287915 2.5048633577642825 2.6758430242326865
386 4.130713451898485 0.9708760079663912 0.15290502633346764
389 0.33101112156695506 -2.942663154906752 0.6588420902088544
486 0.6026636089913744 4.574028384390861 1.8671364464938307
12 -1.4678764161357836 1.3811442401613336 -2.427115176668472
9 -2.2861815213979004 3.6233582490138554 -0.32906076188945926
110 0.32330140914203476 -2.5069853640884254 -0.3835266003911745
10 -1.4837368074758654 -2.002550194978262 0.7591091752253407
16 -0.5748290056602198 0.5571747543725731 -1.4030604793052626
111 -3.036799564686594 0.8481274410517567 -6.230299688479242
131 -2.263741739038762 3.80735475745429 6.2025611638642815
213 -4.007596915168731 0.8366715361952433 -0.48357853394880446
229 0.7737261968207549 0.5256524547248361 1.239341494507223
113 3.6837293664856365 -1.9012282439891637 4.214774184918697
116 0.2508696507446728 -1.4861288319432227 -3.066066983455553
210 -0.09947874227546319 -0.9943432009145389 0.2191152029340329
211 1.4963019286874673 3.6434533481385585 2.4827839341164313
231 1.2943947807726233 -1.6648566657983812 1.2357271713281635
216 2.441341900373938 0.7260884767804429 -0.2491141201739229
333 -2.6192130355865673 -4.13099390831156 0.25162966049759117
329 -1.1374321075936726 1.1229562190806375 3.21113526275796
310 -2.7072467188923395 -0.8372331425225298 -3.2488586651258715
311 -3.704106366037798 -1.612851166737266 -1.1400129196838331
331 2.250845802875137 -1.1939078400111471 -3.6331550660182117
316 0.8897498116976146 -3.1677479231599044 2.3432370028122302
410 8.879960911300277 -1.1645130626705478 -1.0817627033247441
431 -1.926294897585313 1.0169990835811882 -0.6259484882346673
411 -0.2696518767717224 -1.527795732250965 3.2329536854565304
31 -1.0025618984833347 -1.7960138104334002 0.6794440524512768
129 -0.9366079038291235 -0.29289578815432865 1.509166359014759
130 1.656991029062041 -1.2438337877872732 -0.5302323676145755
51 -1.8228677269315825 2.446637740421898 -1.3480934411659342
149 3.924738139900798 3.028448419674357 2.5882528335294026
36 -1.1993458008240478 -1.692125269728379 -2.365075578047492
133 0.8221274227876243 -1.0047857178104078 -1.1188588255065188
132 -1.7128542138797793 -0.5698607685393106 2.8041005806472072
136 0.4183212180916375 -1.0176386793737249 3.1827126661548397
249 -7.349316627937139 -3.8044352012865077 1.090638689780011
230 -4.545254549331369 1.0647765863338827 2.7445676496227756
251 0.269978135559724 -2.1877895417202406 3.722847007838748
253 1.9540785268108496 1.9506297273158426 -1.1660727893702936
236 3.2841347343651415 3.015532808849574 2.8780550351697443
330 -3.6067860427473777 -4.796153791340953 0.489337072116731
351 0.4729771460650954 2.176242869169194 -0.3705229253607731
453 3.022055413562076 -1.7554841973288382 3.872941770403377
430 2.625537757340782 1.9239406968687922 -2.408504044556516
336 3.226821203695964 0.37721082447031423 0.7065795846743211
49 2.7130094178758406 0.6821207735565926 2.693124067464499
30 2.3841661037316855 0.9667791990040051 0.6466873780040475
451 0.1627474882929694 -1.7097195512736123 -1.8350630551936942
436 -2.970054425341801 0.8314365852095064 3.5822172588258425
52 2.461255631592887 -1.8641032870603509 0.01493550754251712
71 -0.8013169190931397 1.8189841157994924 0.34501557687915685
169 -1.6160208475724995 -0.4706464253972681 -0.0419265056299272
153 -0.5451034747022957 -0.9899531617082081 7.567003739540765
151 2.318244859101915 -1.1359024680008432 -0.7447766144727086
173 -1.1693387164138904 -0.5836066721603295 -6.227779429495351
150 -2.3676287073872704 -14.222751285112658 4.470505984098553
250 -1.4149149882385017 0.4370213992402545 -0.7159348573853731
350 0.306700903524711 2.7515830058209203 3.119540586373313
371 -5.7371579603055585 0.7789409061113891 -4.494724020177082
356 -0.8985939857723881 -3.8125135810377153 0.2167587908829222
450 -0.710544885520807 2.35352105815347 -2.340084895692611
452 4.006416499495951 0.025481031180725054 -2.0930473542478376
69 0.1517067713361741 -4.49561582402494 -1.9896841442649533
50 -0.5399100412793211 -1.631879716615448 -1.0943910715594434
456 -3.621999266997753 -0.16949613764481947 1.1170790525376724
72 2.1037080556997254 0.6963490916464244 1.8307633815716073
91 -4.350479553760088 0.26970001264378 -2.943051893524646
189 -0.30827938469536736 -0.15163771840617532 2.5492698625901817
170 0.5908107281417814 0.2275165841927071 -0.38368082098895784
172 -2.424923664997408 0.21660088767309466 0.17571093593911968
171 -2.789069671490193 -5.80052624725521 -2.492416386956776
270 0.13618195929857999 -0.5067324195138947 0.17818193869962592
193 -2.5057555202419413 -0.4496430878750953 -0.1677969157717569
271 -1.2057740225347529 -2.36494605271183 -1.1907416445838694
272 1.984202852801762 0.058068618658836876 -0.45489050127595065
276 1.2265724570893974 0.1296394925237143 -6.523221977044333
289 -1.9392525601207826 -0.6682383262078091 -1.697582158248379
273 0.8440166878940722 1.678510579248912 0.8043330234366076
369 0.9841862825127725 -0.8828994240426853 5.278599964476231
370 -2.919822390142748 1.2062994652110148 1.5955671841032402
372 3.6390751487632644 -0.2362219434357074 1.255765900169471
376 -0.6736751117574495 0.23635458890287875 1.1911273275777927
373 1.4985890758737088 1.722127294674779 -3.119851699896103
471 -2.8097274800596588 4.347490120156781 -1.5076935225408086
470 -0.19855825350153686 -1.322834720934431 0.1874178172808767
70 0.4377189610943727 -2.6718015165879456 -3.8872047282856257
472 1.1802449040505694 1.88191556612089 0.5210017307331772
491 -4.325143780778143 1.9086398428622142 0.38480167298195406
92 -0.06810690066422823 2.0006712420022046 -3.5678513497048496
11 -1.5931475988003188 -0.020198418842833396 -3.126239495445623
109 0.2371605095869264 4.050178937444301 -1.4967630346906002
190 -1.661208673244727 -0.8953666051687822 4.638053974503389
191 -0.41437109733318095 2.2005143751341905 2.6693783918968856
192 -0.2890257418738082 0.13615573335017542 2.3687908500329664
313 2.48509667281936 -8.346051589535337 -3.096161967345024
290 -1.1226345548338859 0.3972198294701316 -1.5584555162001565
291 -1.1090517080953892 -3.778905437190524 1.8121261952909928
296 0.7605666801984388 0.739773883423369 -3.0788430684807526
390 -3.432053093381148 -1.4314337936566957 -2.286673516820756
392 2.0138943030362206 -1.7887203106773522 3.063715344869584
391 -2.0637635674247736 -0.2689820365603445 0.025984814215820745
396 1.3280324373437522 1.855487562484384 -1.255953612308955
489 1.1387766351738515 -1.2630632952909788 -0.6171078039792468
493 -1.8596914884311344 0.00985664922573211 3.5407456958444747
89 -5.420580219456507 0.3730568364910747 -0.2043556212551748
90 -2.59620949566145 0.4219318224137428 -4.773637452481488
490 1.3112540185511958 -0.7908630272808317 -1.4977527269071265
492 0.7239800993752387 1.7179114566811764 2.0343400395161537
496 0.19501404319110907 -0.17962156668136972 2.2159670977606396
114 0.6821780714601611 -2.5743411285811826 -1.2447820332712927
14 2.35232274013337 -0.46045763938625117 -0.870619858931019
20 -3.3416902910406567 -1.2881383724792426 -2.483083062985518
135 3.0716138796288557 -5.724634754851107 1.6644077867582059
120 1.0420863034206225 0.22625358282859262 0.40584078681342434
115 2.2232265343905357 1.0784678895229662 1.7874131330971228
214 0.8744655911653301 0.17911807017292658 3.063816836288401
235 -1.5645337248513556 0.17927373331293953 1.4493296553645942
314 1.2620866326076277 0.15669216608673406 0.814473972860998
315 -0.6057304455372757 2.3978119035614114 -2.183693657492399
414 2.6557127532651372 3.3706524540348832 1.414819695744434
335 1.551278696166295 -1.2553708265550134 -1.1934573584664856
433 0.9816492128466212 4.46287733679748 -0.33973076247492207
413 -2.230911856152395 0.3930547914687943 -0.11724614585480639
17 1.2167962774128673 -0.7816498075513161 0.16514384689436074
13 0.4770377479650991 1.1824769353304228 -0.6794774400070341
416 2.2223827699724135 4.061557335228498 -2.700945691213484
415 -3.411981577459437 3.0530449004149034 1.8027733184439716
35 -2.6033990420860467 3.369733022531856 -4.239393997969214
134 1.9575034736947534 1.8089854229165894 -0.08697003962887352
55 -0.5395339467359095 -0.034845112689809395 1.882136006540795
234 7.841017079863205 -3.1315934551916684 3.018899170833169
140 2.2210999965145994 -2.9013392836749774 -0.8205829425545675
137 2.641898955293085 -1.959924718007663 1.132715575926546
233 0.1881690224099143 1.9741538545948056 -0.9179552729334982
255 1.0694087317493788 -0.9172200209198474 0.568996152830163
353 -4.411015914882861 -0.31214835498739507 4.518033975771054
240 1.8215527868679182 -2.6590102837264973 -3.83333619526106
334 -2.1959023396492374 -0.7155339296454404 -0.019892375849559957
355 3.251683639118985 -2.5279249660322938 3.8179957200770183
357 -5.237948279263885 -0.34367350815430314 -0.3908622218037338
434 2.5016532190778795 -1.8917747781288299 -5.694611117701498
457 -1.3890301086280628 1.7754480944568785 3.48567872640039
33 -2.9318798736534473 1.3061681291571263 1.2704675816666446
34 0.7080433654915601 2.6797861909176466 1.9109126521901376
435 -1.288810827604499 5.543389325374816 2.6997073625537245
56 0.7169219602526858 2.6908385937178654 2.64208968520792
60 2.1639483747354955 -1.9352176959620928 -1.130716665707559
177 2.117529582769 4.473817856099706 2.208360014682468
156 -2.1801741716665077 4.260153042836548 -3.093035563728165
157 -2.7885401281622455 1.4016324334057015 1.751125797373167
155 1.890851864847816 1.4302939715079555 5.568234836687678
154 0.15775465016200851 1.611105433261901 2.610407151411039
257 1.7001635702669993 -2.3319268195556195 -3.3886190353903363
254 2.1403313602505114 -4.515559954258094 1.5231983991499662
256 1.5209696924395952 0.3783451160649309 0.08144392779718146
260 1.9532235005688132 -0.28587369967482046 1.3727954970486396
277 -0.90469720202487 -1.6090997876314788 1.8417103277887452
473 -0.9176962286974514 0.3158464967486494 -1.4927339647870084
354 -3.312037250939031 0.6404869780478096 -3.767889964864606
454 -2.0346198029012235 3.51416655727833 1.12853878937973
477 -2.3180965096265727 -0.5781833834696137 -0.9710081799645042
53 2.020817228204675 -0.9005497729440533 0.16097914316484174
455 2.0480452718798228 -1.5787658918172773 -1.4694647996446026
54 0.05234238458324485 -1.7201227783661388 -4.481999457273592
73 -0.9128369754310733 1.2878609431385404 1.42169528919376
475 0.41087679521828663 -3.5311748336474857 3.278116027655513
460 -2.0041041926538723 -2.277787049014149 0.7002626408496454
75 2.1552844810018765 -0.9911566519519959 2.324917756898559
76 0.21167044775136645 0.091823274233248 2.5978433651097017
80 0.31871767002386137 0.6536714671568243 -1.2887575735757406
93 0.4935693265562524 1.3657532980319096 -4.739519247083813
175 0.26957983866574564 -0.7586729665030243 -0.10038637781388765
174 -1.0667636930876887 -0.9145409209101139 -3.3178389015132232
176 2.496732384716779 -1.396476968052075 0.5536678231087063
180 -0.38028330863415793 2.2595816368963653 3.832042100707316
275 -2.1589335889867765 -0.7600724425061591 2.264149113250987
274 -1.9809498663853984 -0.9300945692439602 1.7655236414488527
375 2.0300856898246384 1.098313448356962 -1.6988710145245927
374 1.270336067236019 1.1343685002379946 0.8397773625250804
380 -3.333472332163081 -0.04921352945084552 1.9724430160338506
474 -2.0352465245848417 3.149456225616544 -2.2550233839098763
497 0.006229419005565978 -0.09078305886589225 0.6949140715038508
74 1.5787875594999319 -2.1433562573316975 1.50942683285679
476 -7.1960872970913545 -0.7181240585093701 -3.248961376312159
480 -0.3234805833070311 3.3648606591846395 1.3987415025625625
15 -0.5432552362227305 -5.273960039527796 -0.6416095042207816
95 -2.0465514696718152 -3.780467733480494 -1.4539807592742473
96 -2.195462276945401 1.0336769499009797 -3.1812364450763058
100 2.2480947036237033 -2.71070545906441 -2.2445913453989355
196 0.6802859771446733 6.808060536224334 -0.8105200638649833
197 2.3534545255181483 0.8432886829135764 -2.765911033574165
195 -4.90963805693804 -0.8861047191365823 1.657468112408182
194 1.4850898632998286 0.12341331419365592 -0.19234317773244985
200 -1.4905293297534639 5.27066879955229 2.3199229163683386
297 -1.646383072666254 -0.7385703225357364 -1.4084356284059627
293 1.4542103289264205 -2.10188970846449 -0.5828574925034389
215 3.076659903999659 -6.254481085195808 -4.676162546684038
294 -4.401626609587299 -1.571826164658118 -0.28548066794273186
295 1.1303595987619286 -1.957451622424786 -1.8498751066013135
300 2.102217822026631 -0.9500045637363882 -2.054745783374343
393 -1.8715920038488558 -0.016746680606902247 0.6985158924344319
394 4.277546931778304 2.5891383675530135 -0.5632198478870878
395 -0.8296504241506485 -3.9661703667368915 0.879833756722243
494 5.302874183582903 -1.054884486322517 1.2635992567696674
94 1.3592486743450214 -0.9256202211281745 -3.3595091502855383
495 0.9856462897157022 -1.5321542808436057 2.2741800187494605
500 1.7184087701868278 -1.803665138376522 0.5448020062123882
4 -1.3251654154199157 -1.8276841812633744 -3.1183715871848388
19 -7.198997677506179 -3.268449412144394 4.375515772458756
117 0.4913543203481861 0.5235114712609674 -0.43660509369354966
18 -0.6222293735390754 -3.3703993301156556 -2.5033310949575536
101 5.155344738658221 -4.195007240640583 -1.9526002021515516
118 -2.636551643093928 -0.9177845565416606 1.227192007591244
104 2.888295049410222 1.5999347339337016 -1.3992262085897544
139 -0.5867051119174582 -4.353759584392578 -1.7921335454893597
119 1.1992051107264445 1.8580626661525452 2.11170418666586
218 -2.418727499955531 2.4470307682679517 1.233599665292177
237 -0.6276546521622935 3.718986630772087 -4.262766232916471
220 1.5380298093703928 2.350073859498824 -5.138577307946609
219 -1.0713304425994787 4.788053078118793 1.1180508121077923
337 -3.286695320562574 -0.4346624441246231 1.0623120997926765
317 -0.3407881023003158 0.26085311585036935 -4.218432928715228
318 1.4503497080902552 0.8430054049013275 -0.28327562456684763
320 -1.5210611652052801 0.9490995141105426 0.3386746887402918
420 0.575336685869528 -0.4673004079758392 1.8813623152404177
418 1.6237151534136147 2.456090415034341 -1.8394355948216152
141 3.050872118998954 0.06943436345310684 -2.7403861934960383
37 -0.19186844188873037 2.3382140428209217 -1.6952557492582883
40 3.2457914799074876 2.298907020098903 -1.8896647178220685
39 1.0838449200748506 -1.8297819496214363 -3.680323407506558
24 1.651770933915017 -2.200980226508962 2.683401707331572
121 -0.6377077580328964 -1.9328311397045526 7.873464435004061
138 1.3826568796027687 3.3690894534723093 0.16043261233553557
159 2.214616496200221 1.3492960662216036 3.781612704545303
239 2.051735384825157 -3.8862266365771756 1.2526711611820838
224 1.63258020522486 1.6304647149840876 -0.541707474920816
338 -0.013244913218267085 -1.6583756151972873 -0.16370538704507986
259 2.720851969054864 5.143934202540242 2.7438519621529367
340 -5.20132244897032 4.192249790587401 -2.7969804537165412
437 -4.411378868195914 0.7465846082672036 -3.489921555459163
339 1.6213351607331312 -2.793900016978128 0.5847511559332481
359 0.09684592950422279 -0.3843350013536819 0.879102513395363
438 1.8034774379015126 1.050521259526882 -1.0723496593263397
440 -2.6627350279858155 0.5567994560736179 0.2725020635160472
439 -0.8870606589157319 2.0207489957917812 -0.6881889427151654
38 -3.9477139668139385 -1.8957886998212279 -0.8547461580716849
459 0.5763431989464463 4.003264851332881 2.175772481760797
58 5.6562780117006275 -2.894834837142783 -3.4951811677164177
44 2.137738470233204 1.989553273907699 0.40174610836400443
59 -0.9508599594965664 -2.72259250499814 -0.8255845540072259
158 0.7765720490895314 -0.819343013248056 0.6017605175456313
79 -0.2297819457337206 3.9376870411991782 -0.3697813331208096
161 2.367854911723764 2.6013015961616173 0.3484518867603668
160 2.024275912207247 2.2417512922779093 3.0106183920477796
241 1.843662816014171 -0.892743887966951 -1.3356903332731522
179 -4.2653343304582805 0.19695296328143685 -3.231316895534024
261 1.0762556666054517 0.6444421247320108 1.2741414113747755
258 0.7130522696178899 -0.445981954252538 -2.7783848233405033
279 0.6854103534242781 -0.4872129499827086 -5.219779393542434
344 0.5963467723982294 1.9610719988224652 2.9956400795357694
360 -0.24147201396183818 1.013537925486069 -2.002993923770155
358 2.208063447316018 1.2489937593659934 1.3487200211193537
57 2.6076204613203067 0.27893137178170113 -2.518027106009432
77 2.976318012941351 3.765389894741357 0.22764646849008646
458 0.7998552105776833 -0.6989845772242576 -0.687922394565287
64 -3.1946608971324366 0.6874983905579027 2.505681379470493
99 0.23423800781412285 2.5598097655373464 1.2544950561732036
78 -1.8546605136133254 0.5850835009239174 -0.07178188564511939
81 1.791948169455878 0.4401503525119958 -3.99861549794163
178 -1.244193573341765 -0.9756098479368444 -0.03433188328857427
164 -3.52958527397797 -0.5107554128582671 1.2550396688271954
181 0.20392976814149322 0.5407861285540956 -0.2111671467575876
278 1.4565091605351561 2.2654577463254975 1.0916407049950025
280 -2.8061583484345003 3.114813738593289 -2.514347519092477
264 0.28076770318127087 -2.6269738279698975 0.32442227975236604
377 0.31552928091253524 1.2082877505588367 2.4006819139982536
378 0.24314453383018034 -2.0453012640266066 -1.17133472957357
379 -1.3323114510987901 0.9179329855244392 1.1213063114626618
478 0.5670849531796559 -5.179090951676551 0.2098761125319802
479 0.4372065193120769 -2.8939425598553243 -1.2651632339142316
481 2.981494999060573 -0.9799101494378427 0.7226834644379071
461 3.0495080983800125 -2.989303717240305 -0.8748124830889772
61 1.7008246275435528 0.3715973469599439 -2.001262242399446
464 -1.081392188259296 -3.374200223183436 -0.4983119003387903
499 -1.9148285277591524 -0.16321190871707827 -0.38259456906292205
97 -7.862002738558883 0.1758087072854797 2.523236714203652
84 3.9525017900302952 -2.056898747324777 2.8701710578016204
1 1.3563704387929671 3.1772977385461036 -2.5350953077733176
199 -3.2397862492559812 -1.7201986369260365 0.6737243289150847
198 -0.21703830724879875 0.09902497721807395 -0.2940345502835183
298 -0.9566044934856262 3.478479103727229 0.010867663389758012
217 1.4022622912653382 2.8354946820847946 -0.15935535822998795
299 3.0956845445971077 3.053536569614306 1.6193211764814741
398 2.1787418949018016 -5.892748707810676 0.15025634412937905
319 0.3527501916105294 -0.11898794036736923 -1.43809853080444
397 1.9238978019894848 1.4989415341998682 1.3323601208091087
399 1.714115933042949 -3.2337555283447226 3.8526714818219543
400 -2.050314271610826 0.34675734815450243 -0.7222245860949903
417 5.256712504195722 4.1448551634967234 -0.6782805235634127
98 -3.7893459558808784 2.5584118413317203 2.383354676644422
419 -0.40347731622419286 1.2652157090381544 -0.7145740298942179
484 -0.4120049128866849 -2.726631723920046 -4.384616477229433
498 -5.498440160992908 1.692129630755729 -0.2880296349809748
