LAMMPS data file via write_data, version 11 Feb 2026, timestep = 2000000, units = metal

501 atoms
9 atom types

0 17.8543191579 xlo xhi
0 17.8543191579 ylo yhi
0 17.8543191579 zlo zhi

Masses

1 26.9815
2 10.811
3 12.011
4 51.9961
5 55.845
6 95.95999999999999
7 58.6934
8 15.999
9 1.008

Atoms # atomic/kk

23 6 1.614095518042369 3.434576677009283 2.18131895588698 0 0 0
488 3 0.23684393932874875 1.8574047369762354 3.389341583184923 1 1 0
4 7 2.261932259735107 1.453360000626264 0.2089282969093509 0 0 0
121 7 3.5191678950061887 3.484778794717241 0.31346471751729027 0 0 0
2 7 0.013832117720972151 1.6654836506635509 1.5951160630248364 0 0 0
21 7 0.0737584950447729 3.447677713918611 0.10692794773640937 0 0 0
19 2 3.695424517734194 0.03969590232549219 0.801408798942815 0 0 1
102 7 3.71415598969002 1.7219408910202905 2.244721513764392 0 0 0
123 6 5.527632508950544 3.4769535187092924 1.9691842969814912 0 0 0
104 7 5.091660164408566 1.2536833447424018 0.15944990201300996 0 0 0
201 7 7.138169551568516 0.09095278312915275 0.19957252665242434 0 0 0
202 4 7.195711164670945 1.6597849523771402 1.780213852989603 0 0 0
223 7 9.051441904782525 3.234903677234753 2.0228971474462654 0 0 0
204 7 8.91487802622658 1.36851844880452 0.3217193801235879 0 0 0
221 7 7.205979860407932 3.416941018623539 0.3119071327661723 0 0 0
302 1 10.847542548415692 1.4705800701723568 1.939781904141052 0 0 0
323 7 12.625867210353912 3.34925060735065 1.8206535752156288 0 0 0
303 7 12.805886477051331 0.05394883987286742 1.7528735059961584 0 0 0
325 7 10.806122067260468 3.282571769642517 3.5098379897003755 0 0 0
308 7 12.812610858226376 1.7786533611095934 3.451437798963188 0 0 0
305 7 10.8821102645239 0.011298837473758015 3.5457838755071687 0 0 0
321 7 10.753282176294032 3.210253716369538 0.1609100378797581 0 0 0
402 7 14.469643668938396 2.0145267139349903 1.7400126091779269 0 0 0
122 6 3.4613419132624816 5.421396358664984 2.0304582575529304 0 0 0
22 7 0.048700241514577414 5.439777852557224 1.7757058669101986 0 0 0
24 6 1.7880749344956244 5.290201321662894 0.07443569451062519 0 0 0
124 7 5.227363745698069 5.249873308721129 0.14728363334377892 0 0 0
143 7 5.2599027222144885 7.114677306109924 1.8257415891272013 0 0 0
128 7 6.992894071663062 5.348664714526919 1.823045590129652 0 0 0
127 7 5.585078229206003 5.599870134942014 3.5533817780909787 0 0 0
227 7 9.427194126992955 5.311348573393093 3.2198827493266817 0 0 0
245 5 7.457920342415728 6.999934099856932 3.427579703504954 0 0 0
341 7 10.63490053059359 6.992723916595563 0.5888533416569935 0 0 0
222 4 7.29774471335803 7.083129184035045 0.19248536123685672 0 0 0
228 7 9.205017442613515 5.07900746933154 0.4720307689266227 0 0 0
322 2 10.757442424283923 4.714562110812024 1.6865517093129112 0 0 0
324 4 12.46856424444739 5.195585702081165 0.23060170867689145 0 0 0
328 5 12.375375386237112 5.245872368059107 3.212853378258206 0 0 0
423 7 16.496743625035418 3.6699093573807056 1.9027527235786126 0 0 0
422 7 14.348326060458426 5.292761516932681 1.7246851585947103 0 0 0
443 7 16.091384480033103 7.102666611965462 1.7538314112284463 0 0 0
428 1 16.074704526636552 5.392267183018611 3.551577020941904 0 0 0
421 4 14.386231941372383 3.703565460216769 0.11133300444836298 0 0 0
43 7 1.7744481696516452 7.230817499842888 1.9720274279796013 0 0 0
41 7 0.04021801100839184 7.20136791001813 0.05125191274125385 0 0 0
142 7 3.54521928044232 9.037706638430757 1.8668496785053754 0 0 0
144 3 3.5868004236062494 8.949916156656515 0.12347503741123425 0 0 0
241 6 5.68100742248166 8.990807291851546 0.09557451720424126 0 0 0
242 7 7.385276425548043 8.928313109886458 1.9692141450873437 0 0 0
243 2 9.097551739058241 7.9187651743409875 1.7781866231385375 0 0 0
342 7 10.679075961174547 9.169794487548215 1.7244482726983588 0 0 0
345 7 10.725554131755024 7.3054473775646755 3.166787888190484 0 0 0
343 7 12.674524094461828 7.409946180232226 1.7267255915498776 0 0 0
442 7 14.224942236627715 9.24623313303125 1.7916998791276963 0 0 0
348 4 12.477908424973668 9.190618076676103 3.462687577116484 0 0 0
344 7 12.556114931885453 9.18605283417912 0.06795978273164184 0 0 0
42 7 17.825979584684685 9.224650505183826 1.8589442108506922 -1 0 0
444 4 15.989545048481524 9.07370246126024 0.07557596889301266 0 0 0
45 7 17.698370467141146 7.391897468114457 3.5607115946792502 -1 0 0
445 6 14.391230669155298 7.288790212379363 3.456464498376561 0 0 0
448 4 16.034486165493472 9.182956020050234 3.5318220016736124 0 0 0
58 3 17.831131518851922 9.029779307465589 0.10597628256203163 -1 0 1
63 7 1.7489139189161036 10.779161140038553 1.7559043726415238 0 0 0
62 7 0.0820417250575019 12.59599039338579 1.8874052457470274 0 0 0
483 2 0.013348469712930466 14.265312651031593 0.779899899713828 1 0 0
162 7 3.4738983472779354 12.423774667344372 1.6635586586885853 0 0 0
83 7 1.9660232087185314 14.210695162733163 1.9796064888219878 0 0 0
163 6 5.492225445459073 11.029644431526382 1.7351632751737824 0 0 0
262 7 7.140490984221419 12.622748607947328 1.8351295979075015 0 0 0
263 6 8.96277755778244 10.759036677230592 1.8252043196351648 0 0 0
362 7 10.694310139081082 12.603640879704464 1.7421259315849735 0 0 0
363 7 12.599806747051003 10.821361270258262 1.8208249011418207 0 0 0
462 7 14.236194498542934 12.753189649719042 1.9911796093446086 0 0 0
365 7 10.742106009708657 10.794748190818055 3.5252045428589387 0 0 0
385 6 10.985360464298939 14.266673570626917 3.465425606196562 0 0 0
463 7 16.001100822740234 10.907774545229707 1.646849095727885 0 0 0
384 1 14.452289149628557 14.191866378534698 0.013976570521464263 0 0 0
468 7 16.11264471617238 12.495898754003782 3.556002869505212 0 0 0
3 5 1.890128284568068 17.51274856310761 2.0803369817104516 0 -1 0
82 7 0.4573463772212014 15.810515091182506 1.7631046466687226 0 0 0
103 4 5.273602765198985 17.811299487338385 2.161782139728175 0 -1 0
183 4 5.2992222800976645 14.296209667787503 1.894356667747596 0 0 0
182 4 3.5974022384084186 16.05809041709508 2.06503651825643 0 0 0
282 7 6.9178566970401265 16.05180074942798 1.8847717765184027 0 0 0
203 7 8.930661731837695 17.633083067382493 2.1753008139593186 0 -1 0
283 1 8.885831210216361 14.504080908965825 1.9743883388349228 0 0 0
284 7 9.014155199535635 16.185804848250466 0.2686006064791578 0 0 0
382 5 10.950366157675447 16.123718231228615 1.885712353597537 0 0 0
383 7 12.679403590667622 14.408952507878537 1.7242774469873356 0 0 0
381 6 10.844994396865781 14.579489143471545 0.0011934155749384167 0 0 0
301 5 10.841385266900907 17.613635936412987 0.103001582191215 0 -1 0
81 7 16.150310117969653 14.389273880377582 1.7096622114985236 -1 0 0
482 7 14.39657923701321 16.15943366046918 1.9557080032131031 0 0 0
403 7 16.489178326214134 17.592121601066378 1.6964911165922538 0 -1 0
401 6 14.480749382386822 17.44776445196291 0.08254503837284155 0 -1 0
8 7 1.910337275369945 1.7449025025290648 4.110412881514101 0 0 0
6 4 0.05942650133529197 1.6828711539125636 5.634215418355316 0 0 0
29 7 0.013664771020689415 3.539372829626376 6.953413916577274 0 0 0
27 1 1.9844712240272409 3.5594428889219927 5.594202104306461 0 0 0
106 7 3.7584454920749306 1.8162028993669936 5.574420008375764 0 0 0
108 6 5.5896453975486855 1.8242328871309255 3.9392954779974065 0 0 0
229 7 5.880402697117316 3.3200254266402407 5.8928992961988245 0 0 0
105 7 3.682040311361237 0.008233412851030408 3.827927786428094 0 0 0
208 7 8.728940862988962 1.4685142709136223 3.884900017735095 0 0 0
206 7 8.952866823842518 3.400908038455318 5.62235315190321 0 0 0
306 6 8.078111021181819 0.8882182351712202 6.1512114873176404 0 0 0
329 7 10.74386849204568 1.6447003520186245 5.316174528982321 0 0 0
406 7 14.238481660609041 1.8188160859918006 5.4975648479367125 0 0 0
327 5 12.319247982952511 3.5346173124683107 5.377754642134619 0 0 0
312 7 12.530688457941276 0.11962767947599812 5.531607986573125 0 0 0
408 6 16.023634324400877 1.8876469207240933 3.6654499246022594 0 0 0
427 2 16.209009846012894 3.226840061544831 5.473014309692974 0 0 0
486 7 16.11103777154037 0.20533301104645077 5.505361111558584 0 1 0
28 7 1.6089552298287968 5.574009239558773 3.663497139383251 0 0 0
26 4 0.10811529509214993 5.444642712173045 5.400653329378886 0 0 0
126 4 3.5553049344059375 5.4610620108604095 5.338091901395051 0 0 0
32 7 1.836746736041153 5.475291473070591 6.993350964796641 0 0 0
125 7 3.6553538427889065 3.677650009514599 3.7202417731254194 0 0 0
112 3 5.465263905692294 5.278904578534631 5.39470732765179 0 0 0
225 7 7.347131290139913 3.626948794485043 3.627012359247096 0 0 0
226 6 7.421427851205589 5.3635190648218245 5.378349750363505 0 0 0
326 7 10.642355821898054 5.452873595329651 5.330768758425307 0 0 0
349 7 10.69397687901161 7.089280333864327 7.097076195513774 0 0 0
332 7 12.47485612982404 5.380692467879931 6.9085175477082466 0 0 0
426 7 14.186614303624367 5.54047732653131 5.275131588906534 0 0 0
347 7 12.334785921597044 7.139462988050771 5.021957818980413 0 0 0
449 5 14.244014094430995 7.120554220007117 7.135857902765776 0 0 0
429 7 14.590587969087055 3.6410546657594507 6.899418289945754 0 0 0
25 4 17.775539338919113 3.6250558786163922 4.112200497492476 -1 0 0
425 7 14.495154047833193 3.707091356435441 3.851499456446128 0 0 0
432 7 16.24158330804141 5.2654210177100715 6.938616060042077 0 0 0
65 7 0.13510382266925883 10.709300173621928 3.6705767013409747 0 0 0
47 7 1.770472080508791 7.370726634872434 5.296755680595518 0 0 0
48 7 1.8136828403267855 9.022763148760339 3.850569624461873 0 0 0
146 4 3.4813360548238528 9.256697707828312 5.3815651826780275 0 0 0
145 7 3.5226729964824677 7.397138787045411 3.6688934198899013 0 0 0
148 4 5.3996316085396305 8.902398721011618 3.686439648499474 0 0 0
147 6 5.268734462317479 7.337849488535641 5.520665398889616 0 0 0
167 7 5.295548289606782 10.49353348572271 5.5846648145329185 0 0 0
248 7 9.023891063308279 8.926789819372917 3.616301669349255 0 0 0
247 7 8.937745665588492 7.14900606358877 5.44524874310183 0 0 0
246 7 7.163730285147459 8.831338759221605 5.496555161614453 0 0 0
265 7 7.191440997023121 10.651168126444915 3.6012733569702626 0 0 0
267 7 8.971787184234417 10.67012938644018 5.372946774821294 0 0 0
252 7 8.999425646648179 8.87942939639633 7.0911378223740975 0 0 0
269 7 7.17640087233672 10.694252653958879 7.082073281996608 0 0 0
346 7 10.717615390770924 8.763561444268097 5.301871202194519 0 0 0
352 7 12.554834645161534 8.864194252366339 7.035458960965771 0 0 0
446 7 14.129202567516991 8.93424823831908 5.363761142688834 0 0 0
367 1 12.338370272015508 10.634313929439328 5.584461549101715 0 0 0
447 7 16.282478219241693 7.359953963063048 5.470858701207679 0 0 0
46 7 17.739255549763463 9.234488875389758 5.42851616964298 -1 0 0
452 7 15.975795792937037 9.063599874964373 7.084413077260485 0 0 0
67 7 1.7634289886409524 10.763007085017545 5.536783923460351 0 0 0
68 2 2.1560458250117622 12.626774611846836 4.663884785736367 0 0 0
165 6 3.5068623700119272 11.047525126337927 3.649762409241637 0 0 0
168 4 5.492456518186289 12.464259627670973 3.850448074068989 0 0 0
185 7 3.5840305295881736 13.986683764774435 3.7558145708820403 0 0 0
166 7 3.7514504224557017 12.388797633794578 5.671102665632996 0 0 0
187 7 5.530016950758222 14.260085499321091 5.4034261396941305 0 0 0
266 7 7.343562600419138 12.573692733812038 5.372485372570199 0 0 0
268 7 8.906647580453054 12.667761286871729 3.7100813439548133 0 0 0
366 7 10.61669641071321 12.560298918158145 5.240772280779578 0 0 0
368 7 12.579790239918122 12.462350991911473 3.7866173789353903 0 0 0
467 7 15.921308643783824 10.849797139161595 5.538743404619645 0 0 0
66 4 17.72325694896793 12.525487328452643 5.237129061343182 -1 0 0
465 7 14.35810139972506 10.879105825448889 3.6325443801679373 0 0 0
466 7 14.288752234112973 12.591114204288296 5.478689494267106 0 0 0
5 7 0.2026801643780474 17.737793443123657 3.851537813459569 0 -1 0
109 7 3.4777386817969567 17.7344598448721 7.085151553114275 0 -1 0
87 7 1.7981658878271582 14.311040850846368 5.557266396709299 0 0 0
85 7 0.0443314478597513 14.379328369438692 3.7636997052377876 0 0 0
88 7 1.8380171416196966 15.913154510838185 3.605806428189388 0 0 0
7 4 1.8293899177111141 17.5526192274657 5.613605448163166 0 -1 0
186 1 3.719609134517619 15.871233580976218 5.592804030882828 0 0 0
188 7 5.430399415552979 16.036967554935746 3.8417785609385833 0 0 0
107 7 5.320337541423716 17.784195581562475 5.499433229735778 0 -1 0
286 7 7.034626428950561 16.223862521792935 5.71748681774244 0 0 0
205 4 7.230956995177327 17.319084222451814 3.765039127626111 0 -1 0
285 7 7.2753095402924775 14.366032147550664 3.898575070338459 0 0 0
287 6 8.950116738094085 14.309923366315157 5.7546327705842675 0 0 0
288 7 9.196882113315278 15.957460571827227 3.912279098530326 0 0 0
386 7 10.600947904416463 16.95227698334878 5.777641764603884 0 0 0
501 9 10.485748448168966 15.330978379321332 5.224785480838787 0 -1 0
485 7 14.248348855418254 14.418008365902072 3.7790902692578743 0 0 0
387 4 12.517246329344577 14.418071622510572 5.406002741895101 0 0 0
389 7 10.899468357257746 14.311260810478284 7.043350198820932 0 0 0
388 7 12.609504052359284 16.20866722147289 3.6487076804306167 0 0 0
307 7 14.176420162250643 16.115650799239912 5.590812099330358 0 -1 0
487 7 15.964067774987095 14.337199599624235 5.599578566541524 0 0 0
86 7 17.791186251258637 16.096867566185924 5.574179816258894 -1 0 0
405 7 14.455504658858256 17.831388901903047 3.7858444669102163 0 -1 0
407 6 16.11096606092007 16.115619201963483 3.8049193981529985 0 -1 0
12 7 1.7679289724140586 1.6630553735345799 7.232864451515887 0 0 0
111 7 5.549274977254091 1.5772086356342845 7.24494627388942 0 0 0
110 7 3.6961114456204895 1.7977656705317557 8.776835082512003 0 0 0
116 7 5.698783142234203 1.7785890025059286 10.61229219343382 0 0 0
131 7 5.485832092680826 3.4730371390173094 8.791135626894608 0 0 0
133 7 3.7076806903282375 3.5477448378134664 10.537422542190669 0 0 0
215 3 3.929405634665941 1.8136055533133792 10.641154685552372 0 0 0
129 7 3.6879217272976477 3.5475382747616453 7.153981476728502 0 0 0
309 3 9.086348682601788 2.449232617735738 7.257325492653346 0 0 0
207 4 7.703471164420677 1.300345846142736 8.713761625868834 0 0 0
231 7 9.398561363672716 2.9624424046906515 9.10060042782447 0 0 0
310 7 9.906694990993627 0.5593649924108246 9.992431177467457 0 0 0
311 7 10.33953318705436 0.8599170051417883 7.724133216280914 0 0 0
211 7 7.562689031240627 3.426157057537903 7.563610048405491 0 0 0
210 7 7.5741358422172 3.430391771195496 10.668858156901313 0 0 0
212 7 10.789538936880582 3.4234292117005736 7.176163247546621 0 0 0
331 7 12.419099551116906 1.8196129370516114 7.203037739741678 0 0 0
333 7 11.970766829555439 2.8114620781266133 9.680456996276458 0 0 0
316 7 12.260399679359434 0.35339038026413266 9.04656298799628 0 0 0
413 7 14.133208076004358 2.04171111405339 8.895479673899885 0 0 0
409 5 14.351273628231239 0.127250599453566 7.348006920903792 0 0 0
412 7 16.118192976339092 1.9159064013902525 7.145164327127359 0 0 0
10 7 17.803648210086855 1.9593538250406808 8.956455614151066 -1 0 0
411 7 16.059074990435807 0.28584832772584323 9.062361496517605 0 0 0
9 7 17.805124526195566 0.08175862092783401 7.337081269328405 -1 0 0
31 7 1.618350633992927 3.614930521650625 8.818124367680682 0 0 0
130 7 3.488917628652615 5.494223753055039 8.910730450525373 0 0 0
49 7 0.09334775090297498 7.091791593787599 7.20075016275031 0 0 0
132 7 5.475023146740777 5.35677190824481 7.297067891251071 0 0 0
136 7 5.558780694943762 5.172805596558137 10.569850049968428 0 0 0
153 4 3.626083285287436 7.095875264507907 10.645307602772561 0 0 0
151 7 5.387468594789279 7.05619898497229 9.054014925977368 0 0 0
232 7 9.155488195494843 5.286987795408934 7.388503103406195 0 0 0
230 7 7.252132119629373 5.390476325262461 8.97110952442271 0 0 0
251 7 8.999841439619164 7.085625022349049 8.955887339395895 0 0 0
236 7 9.396386783022736 5.098343015564927 10.622628572001048 0 0 0
410 2 12.85372212154277 3.71097303315096 7.928689804776594 0 0 0
330 7 11.148088468406568 5.150554234184647 8.928287115907802 0 0 0
351 7 12.478657042440732 7.039747703661614 8.70702690256007 0 0 0
430 7 14.02506907006006 5.157470740965391 8.82907487597821 0 0 0
453 7 13.93461197155567 6.805275836552299 10.561462587408027 0 0 0
431 6 16.09864437325029 3.638250430085468 8.98859166806166 0 0 0
30 7 17.762613554993962 5.491233479757118 8.983051871134561 -1 0 0
451 7 15.999608873882826 6.869029509677696 8.756934650148557 0 0 0
51 7 1.9801641568239698 7.239801830025955 9.033639962593494 0 0 0
52 7 1.7363481981120927 8.914424386678041 7.222569653713633 0 0 0
169 7 3.538831613915573 10.5563205878092 7.327865769027355 0 0 0
149 7 3.4228146984204195 7.230760198422498 7.206439630144795 0 0 0
71 7 1.7905109330831814 10.638846840839612 9.054389756378981 0 0 0
56 7 1.7642656534894792 8.958655782257813 10.594358200280418 0 0 0
150 2 3.8968703813292986 9.23095265594372 9.128716582863706 0 0 0
152 7 5.313693933329731 8.981671357926505 7.479247884350298 0 0 0
171 7 5.304134136794795 10.645130038012958 9.030303335652087 0 0 0
173 7 3.609177568730981 10.695987916116442 10.681096010094913 0 0 0
249 7 7.350862118391907 7.148814846490299 7.150900418599939 0 0 0
250 6 7.190229804510862 8.957703890880225 8.92112818564577 0 0 0
350 7 10.818228864714811 8.981714389160972 8.999503698061252 0 0 0
371 3 12.617758562203404 8.884032885881444 9.019741689018737 0 0 0
450 7 14.39744742609251 8.83365496659166 9.0859007739431 0 0 0
50 7 17.764847870086825 8.83757808788306 9.03681705370729 -1 0 0
471 7 16.060886031316212 10.696495647012116 9.023395945511163 0 0 0
72 6 1.7916598248542153 12.333205623000778 7.364722706563999 0 0 0
91 7 2.051129766690886 14.098369182194451 9.067595720200696 0 0 0
172 7 5.598430310840789 12.3390363924777 7.372658943599951 0 0 0
170 7 3.597615977505145 12.353386015196072 8.947826355301162 0 0 0
191 7 5.359082428527597 14.194941670480837 9.000655625211651 0 0 0
289 7 7.022738387789439 14.168720298040867 7.512756218711636 0 0 0
189 7 3.7282570193287965 14.149423369075881 7.329289256163504 0 0 0
272 7 8.96683277010676 12.364687254830308 7.2413632044559435 0 0 0
270 7 7.200538975230778 12.381462389457154 9.019933970467141 0 0 0
271 7 9.139080446972837 10.747188528722678 8.915656666524725 0 0 0
273 5 7.173839293704655 10.749567838059058 10.650792617545255 0 0 0
276 7 9.106855385096573 12.476634799676038 10.688261828986038 0 0 0
293 6 7.263473511102137 14.279373083766332 10.6908453088835 0 0 0
469 7 14.187128326582929 10.883005198857882 7.317290438744284 0 0 0
369 7 12.500646607048182 10.755924031693018 9.1946613495739 0 0 0
370 7 10.713139640295656 12.635111327993267 8.98073149646086 0 0 0
372 7 12.395937837877796 12.442184311569589 7.233343302896327 0 0 0
470 7 14.262439939083539 12.458029055603959 9.348680295733418 0 0 0
489 6 14.022331532140836 14.149163911885317 7.418626800051761 0 0 0
69 7 17.830137663740672 10.720932380184555 7.330635017597544 -1 0 0
472 6 16.091312652263127 12.587532654910598 7.355806460451082 0 0 0
70 7 17.807465029412196 12.48538466614894 9.073103806065324 -1 0 0
92 7 1.8553494830764834 15.996894172854867 7.4393024427532914 0 0 0
11 7 1.781701856554716 17.833454289709284 9.05518941813883 0 -1 0
89 7 0.16414788482325549 14.346142173598684 7.288458474254524 0 0 0
192 7 5.420302281700855 16.158390664101432 7.218891351527647 0 0 0
190 7 3.7139269476178596 15.953071012933858 9.007179217947836 0 0 0
213 7 5.4396888496684035 17.808337591588828 9.019379954642295 0 -1 0
209 2 6.765201007211384 17.57386852709819 7.394450225001409 0 -1 0
113 7 3.799779667492301 17.79803109437944 10.704000305382642 0 -1 0
196 7 5.651408892575202 16.075157882806824 10.644189003322595 0 0 0
292 7 7.212156174699062 16.220336641335876 8.925099278998076 0 0 0
390 7 8.90528856965243 16.569469776249832 7.25131899604411 0 0 0
291 7 9.04754533372674 14.479671854135537 8.696876821185507 0 0 0
296 7 8.994104155509625 16.04225047513357 10.69311886514457 0 0 0
290 7 7.347830096645029 17.80372480589997 10.640500015832789 0 0 0
396 6 10.718232095326654 16.228902785116237 9.104192888433925 0 0 0
391 4 12.454695280191224 14.295616506168242 9.155287976657663 0 0 0
392 7 12.384180039354838 16.36067593928134 7.301128684232885 0 0 0
490 7 14.06719694227441 16.073884495832033 9.01754757177444 0 0 0
393 7 10.747071331100694 14.327834304671596 10.711259691390396 0 0 0
90 5 17.732811113296272 16.115922657076744 9.108134245347193 -1 0 0
491 7 16.09578491764196 14.481168292997399 9.108152819757516 0 0 0
492 6 16.036458603921858 16.176488151929085 7.402549950699213 0 0 0
16 6 1.8587030327324838 1.9137791245596578 10.820515343315854 0 0 0
17 6 0.09169875210926491 0.1450400982999014 14.187693495213127 0 0 0
13 6 0.06386493414078132 0.2310433418964024 10.877063911898558 0 0 0
20 7 1.8056944218906075 1.9017309535804698 14.170944328017534 0 0 0
114 7 3.6113073724896694 1.9593967953572045 12.661943742484592 0 0 0
135 7 5.644704549558653 3.48141040142865 12.461863192892206 0 0 0
313 3 8.414274270248013 1.7550254450091023 10.748280895237928 0 0 0
214 7 7.365494550554626 1.8166636349553078 12.47824374738446 0 0 0
235 6 9.885112959596006 2.795247819370144 11.943215672945515 0 0 0
220 7 9.048195193899147 1.9710141867520214 14.112648623712913 0 0 0
337 5 10.680899683035403 3.3101613307529547 14.221985722721474 0 0 0
217 7 7.240675709450117 0.1241929106818418 14.149878104567483 0 0 0
315 1 14.060278557466233 0.3568739222096003 10.823916971633023 0 0 0
314 7 11.905033387333502 0.6903675362685311 12.067069090780137 0 0 0
335 7 12.284299589670624 3.2668004497056375 12.353780990768064 0 0 0
317 7 10.925167710465754 0.19260330410254412 14.085598815169732 0 0 0
416 7 16.133063494203846 1.993407333574147 10.926386895579933 0 0 0
414 7 14.335019031438407 2.0173010565647433 12.741484428017856 0 0 0
14 7 17.792564610425462 2.1361165236742248 12.631945544669417 -1 0 0
415 7 15.910991214471984 0.25548175972045684 12.55013205225466 0 0 0
33 5 0.05349167626204476 3.7435042762259445 10.745157225231747 0 0 0
35 7 1.7921405849749086 3.6378772426599633 12.61245670550941 0 0 0
36 7 1.8454589468370004 5.321648463913173 10.80019908545721 0 0 0
55 7 1.8886095022421874 6.974357188844099 12.583871623428163 0 0 0
53 6 0.03911419031479042 7.126425494948153 10.750496880727649 0 0 0
134 4 3.7159648560870573 5.316701332273829 12.50557726964006 0 0 0
234 3 5.659422773173906 5.264680187068172 12.404567104596342 0 0 0
155 4 5.387391967164744 7.1380414023177465 12.400537175402473 0 0 0
157 7 3.639091391515403 7.1362404524723395 14.234364582555084 0 0 0
233 7 7.477348040045031 5.0812655128957775 12.433618103608827 0 0 0
255 7 8.852870235067732 6.937617895460009 12.435737086419925 0 0 0
334 7 10.652407900670486 5.201226836292741 12.672203849520052 0 0 0
253 7 7.253775538539601 7.1227173387131355 10.714399004043623 0 0 0
433 7 14.268872097664135 3.619477153681188 10.87652196280437 0 0 0
336 4 12.268620121089976 5.086044532630298 10.893317281893399 0 0 0
355 4 12.420643512288262 6.786301160054909 12.53373173318687 0 0 0
434 7 14.000580208011506 5.155439786618023 12.602088367316952 0 0 0
353 7 10.725831441504203 7.0378846321869055 10.897648530908956 0 0 0
340 4 12.402799565769328 5.076859382237549 14.274752391835028 0 0 0
436 7 16.04681184708523 5.255935373415725 10.770495010158319 0 0 0
34 7 17.814221337646686 5.2924655490441985 12.399682956805728 -1 0 0
435 7 16.09411767457852 3.6824516301617645 12.729309000031595 0 0 0
455 7 15.896374946231592 7.135080312316126 12.461983770379067 0 0 0
440 7 16.06479632246511 5.392278621371489 14.213349235046858 0 0 0
75 7 1.7493427602194398 10.641705054927177 12.629940232505907 0 0 0
73 7 0.05998299217907643 10.614407958006229 10.846811167505763 0 0 0
60 7 1.7784541139255343 8.805046108044031 14.092388425102307 0 0 0
154 7 3.449473792233934 8.902675333752178 12.447258972537501 0 0 0
54 4 0.07355920221877099 8.766133078841332 12.542418134994842 0 0 0
156 7 5.192788655531445 8.99716925169704 10.793432503231994 0 0 0
175 7 5.465601165401608 10.586085248770452 12.471135816550191 0 0 0
254 7 7.137950058664115 8.791373246276674 12.644666071378811 0 0 0
256 6 9.057313481764647 8.900259961180922 10.788524754748977 0 0 0
354 7 10.697213573983227 8.96088037151654 12.612481838331451 0 0 0
275 7 8.86998284158667 10.69611325902965 12.626270610894922 0 0 0
260 6 9.012146262059263 8.880273839292148 14.234270695384925 0 0 0
356 7 12.332127593422403 8.876933666466874 10.972823994247157 0 0 0
454 7 14.345812353163076 8.645586666892587 12.54955413974974 0 0 0
456 7 16.070875724640974 8.855947126580068 10.720427616952776 0 0 0
475 5 15.798851853671286 10.642563089816555 12.595589656164687 0 0 0
473 5 14.360044233600343 10.61331464178045 10.770535989511432 0 0 0
460 7 16.003346294521123 8.796543375692142 14.165820969287145 0 0 0
76 7 1.919573145785373 12.545803857220895 10.779856859868994 0 0 0
95 4 1.5840655179244103 14.198194669684762 12.459937214324617 0 0 0
74 7 0.08213414972911069 12.432356929513135 12.325933883793386 0 0 0
80 7 1.8579948095189671 12.535790441937214 14.075469829856166 0 0 0
77 7 0.022814815799062204 10.72672370883553 14.060040301780065 0 0 0
174 7 3.677517331399569 12.331781234894782 12.481857902157062 0 0 0
197 4 3.6803195872735968 14.181282322548846 14.13588215995016 0 0 0
176 7 5.3812577904315715 12.350635216140674 10.763289017224128 0 0 0
180 7 5.366319769970537 12.28206334104847 14.200658136817438 0 0 0
274 7 7.121247832111682 12.369651457645887 12.486522017191282 0 0 0
193 6 3.645201326723072 14.219343702027214 10.888380193088658 0 0 0
195 4 5.48855212595803 14.201030525044018 12.681963261154689 0 0 0
374 7 10.691950296592548 12.58066326820219 12.628202189097692 0 0 0
373 7 10.751290078748553 10.88008164214537 10.787005516139041 0 0 0
375 4 12.545219881599841 10.718215594742452 12.530947295165108 0 0 0
376 7 12.461590945234734 12.490555036933033 10.753543790475538 0 0 0
380 7 12.588749216745818 12.633745423385964 14.275954158168215 0 0 0
477 7 14.261954231641909 10.764939923056506 14.283444958055345 0 0 0
474 7 14.170105002465137 12.4808714929429 12.45878936397507 0 0 0
493 7 14.34520252898465 14.23389300286227 10.860478432225793 0 0 0
476 7 16.14953215115734 12.336991288021798 10.910313594381611 0 0 0
495 7 16.20205604056407 14.230186291122195 12.38712501691744 0 0 0
97 2 17.58133168583802 14.197042486034215 14.113462808155086 -1 0 0
480 6 16.181416188741466 12.495275794984911 14.163843960608807 0 0 0
93 7 0.08616374715628794 14.347556803714832 10.756177862829865 0 0 0
15 7 2.003114602480402 17.800722121173866 12.517690032791 0 -1 0
96 7 1.705347701036168 16.023039467874955 10.76983747556762 0 0 0
194 4 3.5327764005519295 15.859049621777503 12.491503920113006 0 0 0
115 7 5.375534189923553 17.831601699204523 12.428227557628116 0 -1 0
216 6 9.124767803729226 17.845898940718172 12.30090275232881 0 -1 0
294 7 7.1754455765036464 16.146068659379406 12.471327906287646 0 0 0
295 7 9.008641421360405 14.33356162996188 12.583849287051551 0 0 0
300 6 8.965915682589863 16.241351259534074 14.161340077865184 0 0 0
394 7 10.906748068381205 16.059967776607976 12.521441731083938 0 0 0
494 7 12.4467347083673 16.019096799815554 10.751209058197416 0 0 0
395 4 12.474285951353705 14.398348945617087 12.439325108075828 0 0 0
417 7 14.254922767902766 16.40368176172283 12.558917854254942 0 -1 0
400 6 12.525167515691209 16.06467788116738 14.233151482624338 0 0 0
497 7 14.216637036033086 14.327780538046724 14.141401207008377 0 0 0
496 7 15.89602266834091 16.27628947530161 10.841298305002544 0 0 0
94 4 17.7850255385764 16.055343904910657 12.54937136990418 -1 0 0
499 7 16.164507909297946 16.131662453579928 14.086819512753644 0 0 0
117 7 3.3961910306710643 0.011841048914903497 14.338551975270313 0 0 0
39 7 1.8747054977921247 3.4167414711265334 16.259302584515826 0 0 0
18 7 0.029436949349468965 1.7663901878087906 16.36476280881743 0 0 0
118 4 3.4771214295680593 1.7053115551103262 15.948820860548532 0 0 0
120 7 5.363817050036121 1.7070803878012877 14.323567085946795 0 0 0
237 7 7.110456472046619 3.3968944379468082 14.459623781636193 0 0 0
137 7 3.723187987916333 3.465932631732405 14.340018157469023 0 0 0
139 7 5.186361591254834 3.304700853025892 16.339812783448536 0 0 0
218 7 6.9519922276423545 1.5428209326206004 16.106637090350656 0 0 0
238 3 6.971499260548853 3.2927666375982216 16.245816190417575 0 0 0
239 7 8.989686014207546 3.2759350428051937 16.132917765364343 0 0 0
219 7 8.896484908446155 0.18504969460853005 16.10746631285424 0 0 0
304 1 12.57161602919377 1.6558439068522066 17.73751317727125 0 0 -1
320 6 12.83070636471962 1.666978092055939 14.451233277466239 0 0 0
318 7 10.747700864641608 1.5294624282220004 16.034336759524514 0 0 0
339 7 12.575410519284864 3.4338445977770142 16.33861671843768 0 0 0
404 7 16.08038408527529 1.5905446686930227 17.803529788026495 0 0 -1
420 7 15.969092313076859 1.838964634745733 14.55190951519755 0 0 0
37 7 17.829829241425035 3.4542865868971306 14.442692016992881 -1 0 0
418 7 14.43985436174587 1.6833483568132381 16.260497785581016 0 0 0
40 6 1.8099959136698587 5.26579768578095 14.431773483003672 0 0 0
59 7 1.791895109699392 7.036540076099402 16.22125946888588 0 0 0
140 7 5.399059849744985 5.306791691774825 14.386097087784773 0 0 0
141 4 3.7482455946820696 7.070111773498004 17.735092117964722 0 0 -1
138 7 3.714919253082648 5.415156434673226 16.05905638637021 0 0 0
159 7 5.618403313477218 6.986409007259286 16.06594960878911 0 0 0
240 7 8.932015278564911 5.113211682210624 14.379399963629297 0 0 0
257 7 7.26934893231772 7.041012592573898 14.332473505567496 0 0 0
224 6 7.316567934582629 5.2000486991945225 16.28520386713097 0 0 -1
259 1 9.111375760377234 7.095405835410578 16.277743706807236 0 0 0
441 6 14.248563696541774 7.061002117551571 17.774485555709102 0 0 -1
338 6 10.747398856319363 5.026238601776051 16.13935982726537 0 0 0
438 7 14.19156197129684 5.253427603417401 16.24494207377099 0 0 0
357 7 10.760848992769441 7.076449911483333 14.429262332411236 0 0 0
457 6 14.215388636490651 7.08058753011205 14.518610951344932 0 0 0
359 7 12.43412511725077 6.989105147779038 16.278658528971924 0 0 0
424 7 16.131157788675573 5.332356308088993 17.775322788610605 0 0 -1
437 7 14.396128712942742 3.652438192086494 14.464908319728682 0 0 0
439 7 16.03103423390307 3.6866488226707053 16.14203839499795 0 0 0
38 7 17.816617027577713 5.328281693747748 16.109948981064917 -1 0 0
459 7 16.15085280123819 7.105712470464702 16.13061944615237 0 0 0
57 7 17.81872142935741 7.015341995932163 14.309173258076715 -1 0 0
44 7 1.8185981548571934 9.057109883090087 17.79309988712695 0 0 -1
79 7 0.06094820607065188 8.853257826740016 15.875239919677991 0 0 0
177 5 3.5066461425792244 10.68420772313669 14.289108382762045 0 0 0
160 7 5.333339881530594 8.981903708611176 14.366688729389193 0 0 0
158 7 3.708968326085469 8.924309645484216 16.091905785217108 0 0 0
244 4 8.921937608724328 9.054320304008314 17.76933351573895 0 0 -1
258 7 7.382697554553489 8.844868307963518 16.087775682312774 0 0 0
277 7 7.203765589005632 10.705940285446474 14.339873669417134 0 0 0
279 7 9.07906318780115 10.671661952230691 16.086423579456017 0 0 0
358 7 10.722634943586565 8.691984400862301 16.202972626324527 0 0 0
360 6 12.384331132405343 8.771722156084332 14.295434205313967 0 0 0
458 7 14.47228272407027 9.121986912463504 16.151847534056685 0 0 0
61 7 0.06833338569643077 10.859692245230681 17.605469687574306 0 0 -1
78 7 1.8271281683803475 10.870949249735741 15.922277914189449 0 0 0
64 6 1.6652146839317972 12.682995011656912 17.754589503453925 0 0 -1
464 7 0.434119048360138 12.757849974345016 15.801017549856976 1 0 -1
178 7 3.547392551199034 12.681544365161393 15.92777319429675 0 0 0
179 7 5.3668071740642675 10.817603781608993 16.152027645322516 0 0 0
161 7 3.587730460306043 10.851491615199977 17.772605470758286 0 0 -1
164 7 5.178054269480308 12.760713039900091 17.671884301965548 0 0 -1
278 7 7.031714363522124 12.5608057261397 15.985002976749628 0 0 0
261 7 7.269227809986443 10.974138322582759 17.82555939147075 0 0 -1
264 6 8.984218578857384 12.617751081865055 17.585437981313913 0 0 -1
280 7 8.794456137005126 12.615927326490812 14.375353775436922 0 0 0
361 7 10.87264287699439 10.816486091027889 17.814731109546287 0 0 -1
364 7 12.667561072309246 12.536990577732567 17.814204120532235 0 0 -1
377 4 10.757156487578053 10.780964071951834 14.328331193189701 0 0 0
379 7 12.709494453550573 10.823283797586884 15.991154673906088 0 0 0
378 7 10.821209220753733 12.699839398323082 16.09883818140262 0 0 0
397 7 10.779881581327981 14.255359399039522 14.431028743738754 0 0 0
461 7 14.550734630367959 11.154182572897993 17.70237117182301 0 0 -1
479 7 16.24732511973834 10.804172728053874 15.874235818964264 0 0 0
481 7 16.59267982062184 12.926423665576912 17.617679714986615 0 0 -1
478 7 14.398324487779304 12.709660858234122 15.886117186886478 0 0 0
101 7 2.4820097505797665 16.74119000268018 17.82665279172923 0 -1 -1
1 5 0.23459390372292177 17.408631835914825 17.728718538995896 0 -1 -1
98 7 1.5865890430670169 17.45380774672609 15.815463255070897 0 0 0
181 7 3.5033326435700807 14.4114264800654 17.77237351700346 0 0 -1
100 7 1.4393093793662222 15.466308421623596 14.532795805469075 0 0 0
84 7 1.110165794267989 15.210177876422438 17.05692576694357 0 0 -1
198 7 3.4426133294165524 15.984568367344732 15.719985570855142 0 0 0
200 5 5.4637160628776105 16.18892628359899 14.304580060421813 0 0 0
119 7 5.162571048877486 17.846538266256164 15.888464966852883 0 -1 0
184 6 5.09567277866285 16.413872722954526 17.710655556785426 0 0 -1
199 7 5.354017259307298 14.493737255338466 16.06558722363226 0 0 0
281 6 7.1648472531202 14.448820903490025 17.79509313428435 0 0 -1
297 7 7.14982141837562 14.609444144349597 14.411114230537247 0 0 0
298 7 7.179860073008835 16.4422521735086 15.991558381258999 0 0 0
299 5 8.888113422326446 14.374949415200573 16.00529816811523 0 0 0
399 7 12.704069495857933 14.371698739282532 16.05873299110667 0 0 0
398 7 10.761692071509026 16.130433155295947 15.910011404697137 0 0 0
319 7 12.558603715679565 17.7607211330606 16.242179871241696 0 -1 0
484 4 16.51029234117832 15.863571416679994 17.82586906116794 0 0 -1
500 7 14.321573991773855 17.65771241816264 14.500424883123006 0 0 0
498 7 14.58568242090449 15.890516659326423 16.0735239086312 0 0 0
99 7 16.45487086653888 14.32513846296908 15.865948213109851 -1 0 0
419 7 16.422235568100202 17.560125075033167 15.902909336355483 0 -1 0

Velocities

23 1.5190511662250403 -2.7900792928438 -2.6874533543440555
488 3.8000054507350214 -4.036026762355281 -4.730525154837049
4 -1.393264284030551 1.2383307990255823 1.779553898515158
121 3.1022487732900963 -1.5925568707502402 0.13684370823266076
2 -0.7994224340047968 3.9003954794803697 5.382779467688564
21 2.0448908465894653 0.30976139266075803 -0.7863750827778444
19 -6.3040688458148395 10.889724772581117 2.3573550885606815
102 -0.9524509229706425 8.342165970363107 -2.4508573930818764
123 -1.0850077793003525 3.067564243184362 -2.3904623679124137
104 1.6267409867157807 -0.5235141286150253 -1.07272539903007
201 -2.0297729710652006 -4.540695466010288 -3.7207183864731275
202 2.60225097635962 -0.31563951700895315 1.5908014672691204
223 -0.6121768045535609 -5.092785627635818 -3.274620458437505
204 1.4347765503938226 2.234529831995978 0.5745112838129592
221 -0.001499713802528381 2.9700084267485196 -1.827533462540236
302 -5.227899434127055 -7.946208239642391 -1.1596151437040985
323 -1.167845929773019 -3.6666411913688752 -2.285448079982086
303 3.9107905402919627 -5.435625485202625 -3.8026595023613123
325 -1.5290245193022731 -0.3690528571441379 8.524940785860448
308 -1.8894376456473227 0.9694121711272499 -1.1814324307734179
305 1.6038991435345022 2.7218808086283106 -2.911425106141101
321 3.5897673770095855 -2.1186809758312894 1.1383010424696145
402 3.882702098100432 -0.2773719224910358 2.87577781063033
122 -0.26247480657543465 2.6623709696399733 5.509921030838418
22 2.663380291693516 1.0012077265222028 -3.584797388607174
24 0.3530294989327601 2.5901695403966523 0.4627398812800926
124 -2.1426496727942386 -5.665964717484002 -0.20221117822786613
143 1.6909969646602154 2.6676704355690424 1.485406170532018
128 -0.13143959859401488 0.30051733823960813 0.5231926249382443
127 -2.4607449469607405 0.9422988186200807 -2.938123596202756
227 4.90549188035579 -0.9492725966753803 3.856106518727337
245 0.662093431399071 1.7928705704811085 1.8312516560274366
341 0.6063473921578816 -6.958743241378469 -0.8366890247534153
222 2.622500579775543 3.2742482432357263 1.6854706406208042
228 6.533681924376088 -3.0087873851438784 4.994394526374714
322 -4.004876482662084 4.810134567111335 1.7699721848707755
324 -6.617372844114061 -1.3297520450508957 -0.6439007174124088
328 -2.7755865363430408 1.8481655385010038 -1.966558102997804
423 -3.6352648839708808 -0.6944544014541545 2.3621916294343457
422 -5.570469980674799 -1.9245536579425129 -0.3760170771365861
443 0.9727049152916543 -3.341933637708397 2.135617770414078
428 2.006631882412981 -5.210121733267996 0.02368351038885319
421 -2.435640924131237 2.578372688541766 -0.3631090506884897
43 2.2881222373389547 2.4766156888440496 -0.4274963979940254
41 0.5783439862551577 5.653715940494271 -1.1292945348999885
142 -0.41728309675651953 0.21212703864830265 -1.1041577670414506
144 1.4970077342967314 11.158785544835656 1.3064869108377495
241 2.411396794844663 -2.476968123034487 -2.0738259263610033
242 1.9264863633257088 2.602931683206708 1.6466138122016152
243 5.796458160431714 -1.1877483535785012 3.6871923249543745
342 3.43371818804923 2.4625390199211883 1.8234390304438703
345 -1.6933067594700797 -1.6794334866769522 1.9229153522113955
343 0.5982972059021806 -2.4938132857913176 -0.9660997153545633
442 -4.5096863309423965 0.526667409620646 -1.973919175090785
348 1.6127645143388774 -1.0564805101986137 0.3651086369413086
344 -1.4216665506039439 -0.6909259458338548 -2.5910652364611386
42 -2.2646562961381096 1.722681030044489 -1.6841221618039963
444 -3.3786063843986827 -2.480251962326808 4.018459938339829
45 3.183047628273205 0.6172730252088363 1.0033658770790281
445 -2.0052832930861233 -1.6310002192551936 5.337464220695148
448 2.1798081361197243 -0.44036498221630926 1.7865383293826147
58 -10.172432431960889 -4.961464484558 -5.213761424834931
63 -1.7295236049401315 2.904714629641619 2.4068391521091907
62 -3.463090445902557 -0.1052633390940534 3.7786248863752436
483 -3.8512512171396804 -1.4628808517871645 5.198985192595737
162 -1.871607240671907 0.5114045950292759 1.7628194707463185
83 -0.3242770919853231 1.5262191669964433 -4.961067204054001
163 -2.0970703108750084 0.9560221543667262 3.057574786210954
262 -2.994349466928183 -0.058532252585731435 4.518954707217277
263 2.62874247851538 0.8313692351958951 0.26320194406344166
362 4.505769402086788 -2.4907824915147376 0.5998874240998902
363 4.875458373527767 -1.0867167674453755 0.21983631873018677
462 -1.1746276251328067 -6.415031772883441 0.033142544613393325
365 -2.27964621404703 2.4579900534748615 -1.3122356783825815
385 -0.35310546924873293 -0.4782311453558027 4.932764469051017
463 0.9547937202477788 -2.0793437573661557 4.964603338761906
384 -6.36705828366454 -5.461132642549862 0.5502390524381304
468 -2.9253331909136775 0.9010728681751072 -1.8458543262530283
3 2.731576902014255 -3.190816947817659 -1.6419959044366987
82 1.9503492384681598 5.066095905742404 -3.6355140867359617
103 -2.6321778148404573 3.45047716240481 1.160235738377137
183 -2.7102809757772945 2.8518928868495323 1.2149638751033236
182 0.8477894327149408 3.086440901527024 1.2439021768270369
282 1.309421906503578 -4.417945798558084 4.748513573472127
203 -1.1970973160748626 3.3350035280506365 2.4867091099413767
283 -6.749674940207167 3.489304464252029 1.1961342561690391
284 -1.7528419247188767 1.5304816873478864 -4.243372827753803
382 3.85843175378309 0.8247591739493936 3.689513639261818
383 -6.656140693077772 1.2697841631228217 1.0426761779853597
381 0.10205473534511661 -1.9022600442259727 -3.210689644544093
301 -2.6087214499738898 -5.65580182802583 2.1220821828327723
81 -1.540908886016711 -2.2995015844847337 2.849311356366215
482 3.141749998990548 0.815133906354514 -3.7485914939387746
403 -0.3254107865279083 0.5056495254988341 -1.558204859300616
401 -3.2400579673360848 1.0994014698230496 3.218110263794944
8 -2.2741973015110455 -1.6002840544456887 1.1842146914371314
6 -1.7640058409608712 -0.9671745411027214 -3.718329052805371
29 2.5497536390891393 -0.4730961436456828 1.56315046851606
27 -1.939573668103475 -3.25454259919653 0.9966258290466661
106 -5.937112356535538 -1.378731428876749 -4.395876056169587
108 -2.461491476580033 -0.29048564650376707 -1.371971242049391
229 1.638753795058756 3.0547374277026598 3.693341301744084
105 -1.8169999945707564 -3.1765794461968273 2.606600109162364
208 0.2900331803763764 -2.9120469038085144 -4.192208815829802
206 -0.2757780911833087 1.5040375708019882 -2.148532966891528
306 -2.7500354912268627 -1.1631161060933006 0.5425939502690436
329 2.999695971838262 -1.9281857206858055 -5.466821532656085
406 -2.094921646759983 -1.2646606901348802 0.2734756326810166
327 -5.153951072949782 0.36510247720250516 2.999227708768642
312 -4.510326753542704 1.7865997415892083 2.795767490924631
408 0.3491701758757162 -2.0354122029849777 -1.9370122816598625
427 5.315448726439054 -1.269049337250659 8.320957401176324
486 -0.5332366967343843 0.4573107273274082 3.7246446656612577
28 4.6052634583264975 0.7915020749132422 1.1443276540964056
26 1.69705465067889 -1.033283864844847 -0.673751995724271
126 0.11418324728155069 -0.0968019279839317 -0.3130468643727771
32 1.949143401544431 0.3557346223896927 0.6363815289814654
125 -2.7464351494798773 3.4484231143233686 3.9762496073273863
112 6.603449048851585 2.1641569388295943 -9.442086848049636
225 3.139309727259784 4.128942473090357 -0.44667917944912494
226 2.227056062973402 -0.7605259978734323 0.013928939837329594
326 -0.9192056844120159 0.8047968160534357 -4.400882889710752
349 -1.414700595017278 3.7276110072643385 2.7415025136031326
332 2.1860370862358494 -3.763739238853296 -3.14265326836761
426 -1.2084049819206133 4.1281039276431795 2.3273766263541567
347 -1.5031616799194316 1.0110139433846288 2.3173262646496693
449 -1.6239444287746516 -2.985559177134324 -0.6333948080651464
429 0.165697431601466 -0.8315890212617455 4.070650716209325
25 0.7535175143491091 -0.6433480710201869 -1.3646227406545826
425 -0.1213959743802575 -4.10947389750551 -4.638386628229716
432 -3.3248171487945046 -2.047774248328536 2.0262708785090364
65 -0.7464149944674967 -1.244262597668688 0.6414264286531767
47 -5.181867082738953 -0.41883073251221364 -5.375340032803836
48 0.5199640274931933 7.997101503327416 -3.335675546446394
146 2.138009745780582 0.1287487780724611 3.566789835253045
145 3.76336367522091 -1.1290080908587965 2.189668271550821
148 4.0249897980328155 1.8600901295305847 5.035501618901444
147 0.12072227871851807 0.10399733833931744 0.771864771066226
167 0.6355980368429863 -0.6853633910411387 -2.2652430060713393
248 1.587663144774629 -1.5716352572301875 0.9008044531168143
247 -6.665213781120442 -0.8796124304302442 -4.696434439285765
246 -2.2123577507019463 -0.15924120650556872 -0.7036457009241346
265 -0.14006837819148169 -0.41186711552811966 -1.4797681966592604
267 -1.2353074934153125 0.8421917183422447 0.6460967764665818
252 0.39076719401907145 1.6470288056499223 -0.9630793882102531
269 -1.1490438132722252 -0.7623784453805101 0.6324782054257232
346 1.8736319472163834 4.698592244033691 4.764265334658538
352 -0.6117358938809792 -0.2124665234499403 3.581183668527615
446 -3.5379931131327167 -1.4511406984444515 -0.4484387752209175
367 -2.6860999525583504 -0.7012697872689201 -4.72811977807512
447 -6.955362299114475 3.1971125365639894 3.025314636527053
46 -2.766321924059033 0.5464187979440933 1.968830983505165
452 -3.1634231494628233 1.829326094239065 -5.205032576310173
67 2.227036781975071 1.8064698569198125 0.4451809919931249
68 -9.064978087008024 -2.7842199588606413 1.917325880486601
165 -0.6067194605840937 0.8505352975628157 -0.6934839390196212
168 6.30972164094548 -2.638808113544576 3.4387138824041297
185 2.712065542163577 -3.3056737288001514 3.44653094345112
166 2.882768141674159 0.19084376155175736 -2.291410096848095
187 1.4272506314725655 -0.15007511310727542 -1.9468498847169562
266 1.322050026803157 -0.9021978203872172 -2.6048583099210196
268 -0.9385491485618835 0.7742885530727386 4.0025986313266
366 3.463348106924273 -2.383275156095006 1.2039318229748839
368 1.3915929435924126 -3.602490370357156 -0.44092096310185985
467 1.1383297549774154 -5.210885946591552 -5.527706352220606
66 -0.3758228206708577 -2.573893701559765 -0.03967543187375225
465 -1.305417594305338 0.42650321015538883 1.7533037559210254
466 -2.7122765606835615 2.8933463662768846 -1.9871630209961022
5 0.6391265865195405 2.973826587511395 4.910778993736988
109 3.4552341643074027 3.1211091371469015 -3.3797565239040974
87 -5.373922242630839 6.317011370247217 1.0076907575852028
85 -4.199238551038039 -1.4515572836351172 3.47985647746091
88 -3.2910675521327293 1.8328215816064688 0.21361247640954714
7 -1.8888938161455922 6.742207085444442 3.897609505080017
186 -2.572335823077878 -8.421956505059907 0.47095808541334483
188 -0.40433069382703096 -2.6283506829125076 0.3549433210924709
107 -0.28474091893048675 0.6045499848175078 -3.7490352409889596
286 -2.7291516605613695 1.8229881923383553 -2.801745847163721
205 0.9118106750166799 3.3707363233422756 -2.7313675038081384
285 -1.2238839514302804 -1.3644504206503854 -0.8519586187051679
287 0.6142072803180297 0.4648321449323934 -2.0129817232040144
288 -1.7412988324811272 2.149563276087003 -6.036528726183802
386 -4.452328281401271 -0.12401526495465576 5.6730876653349425
501 -54.23278414236777 5.197241232063352 -2.551396297124363
485 2.325988336759599 1.1669592242000686 2.9545123031494875
387 -6.260843236148678 2.9956797800288633 -0.32080882534116023
389 1.8216346255147988 -0.061373191075886305 -0.6923161242463947
388 0.21361473900631098 -1.434729515868724 3.6336080110660585
307 -4.300656059240403 -1.351312246153944 -0.05935357271155253
487 -2.98594125300498 -4.089309055011086 2.8397910808125193
86 -6.315139081089957 2.3030411046254837 1.3569888958062293
405 3.176811052064527 -8.058096170513906 0.180848244365375
407 1.211628750131153 0.049983124105864 -4.39341174993131
12 -0.41622414047663925 -0.4536355930101916 -6.715533298429763
111 2.970072118851393 -6.429944727692876 -0.7707849902220333
110 3.1261407718791374 -5.322163294801049 -1.1358416386654968
116 -0.7703103793360773 3.1096871900644087 -0.6826387075022999
131 2.093587387914397 -1.2937332261145493 -1.3985933945679374
133 0.1671012962218982 -5.080334470438478 -1.653162937497496
215 -4.588930680700569 -7.190360124253205 1.0684771542116682
129 -0.9634696957414761 0.2394033844268285 -4.442277140345536
309 -7.779985489691193 0.5040635498650516 5.420890837669225
207 -1.6174309880970084 3.981682229725531 4.963655470973241
231 2.451736474451467 5.2393259397893575 0.08762087934886686
310 -1.1233860879730975 -2.3850127115271227 8.787058441444172
311 1.6764207043723678 -1.0901654598033141 -0.6134320470006921
211 0.8000931549923093 5.682700720764189 2.4420459233924974
210 1.1897093139597033 -0.21335794625298193 0.9132059734844221
212 5.204145760235468 8.407094336152872 1.0945991167572076
331 -2.7267772751473425 3.8919313366529105 -1.9436549470479645
333 -0.8094850718377871 -7.372924502425305 1.553045370937323
316 3.672077471283522 0.9997271185704271 0.2544951085076758
413 -1.2752096043812386 -0.8865907451392506 -5.89145042150374
409 -3.845138341962501 3.7656646404360674 -8.21045510195879
412 0.35270206916165764 -3.9913410369080418 -1.7884238361306892
10 3.6794084543180072 0.02632125148095832 -4.005895531439694
411 1.8870977449456294 -7.744357768467213 0.9154582554815576
9 2.8423511083474704 1.524924509439581 0.23024091020855986
31 4.352167396441819 -0.4141653639879245 -3.718896399875932
130 3.442374799171833 1.0805102797657327 -3.6120690810905396
49 -0.9387981838936519 -1.0251592231264108 2.2624113098148078
132 1.442982595388723 -0.9555590365627482 2.711322143382992
136 0.18603124793628392 4.056242968686082 2.43604101291713
153 1.5802520707516325 2.5936021654175456 -0.4732930473132138
151 0.7891676581766519 2.3345910428106507 -0.35274698739381555
232 -0.7100422158350078 -3.191816619068752 0.24469364548463374
230 -1.4260362950587129 3.7680991894092912 -0.4887911511250588
251 -0.37896144314014196 -2.7362032352826793 -3.5500193957897226
236 -2.0376134610719827 0.2746565264762018 -2.0029326199222606
410 13.857502523745543 4.265122849900515 -6.655096782311205
330 2.307479651799629 -1.5577278816238291 1.9438263520399195
351 -4.430820642216951 0.886804333341207 4.4834712536918655
430 -0.15452101748760302 -3.7325061367600196 0.5117646293493063
453 3.674894932719122 -0.2966026683637997 0.385040059662264
431 -0.9958848319205008 -0.7910264064753356 -3.170203257512177
30 -1.4418947112615643 1.778315784054034 -3.115648783410099
451 1.760446472600036 -0.20801786299715297 0.1883077647442221
51 -0.05747155849873755 -3.168464177064027 4.907811228820718
52 -1.3893734752468676 -2.560483477312449 3.593695605243098
169 2.3881002258662085 2.519504170055976 2.8193783001412225
149 0.7097749434339918 2.273391110925102 -1.7150182767419515
71 2.6328769302742923 -0.6244455225796535 1.2572244784839501
56 -1.7387344314547435 2.0321181704086873 -2.2601398374878854
150 -1.125421405477614 0.8773981200310651 -1.797967890954786
152 2.87458779026465 1.1040745950212343 -2.649237546830863
171 -2.7677670055751347 -1.1682384874566156 -1.3959724953989183
173 6.0270074694157305 -1.081215693967921 -4.804943114539236
249 -2.301339045829365 -1.290120145204666 -1.0818691871784165
250 2.054629039473186 2.0754362001108326 -1.945052015642936
350 0.9791557864586455 0.3280778417577952 -0.15399561150423535
371 0.6101865818929937 -6.06370179852615 -1.5738503530104722
450 1.5450744890509438 -1.9745187450966477 -3.1432759785664524
50 1.1291099987306243 -6.892038135270964 2.887071802842082
471 4.441983057430331 4.390809242577197 -1.9556221786449273
72 -4.158113548254586 0.07606720092836886 -0.9742580345846326
91 -0.4977574536669019 -7.86887364032398 1.6893256965111825
172 0.2171086639848383 0.9530177007395285 -1.3943802420246483
170 2.9626400848286614 0.2850410763010909 1.16372649560097
191 3.4959571961334355 -0.9677308516818696 5.981407877349581
289 4.181957683897591 0.7169537967010017 -2.0494780781763606
189 -7.1601751344258195 -0.03247900169117443 -3.737622141328218
272 -2.3001845876445444 2.4394135406248028 2.299831220507526
270 1.1059178177394826 -1.3631649147203593 -2.4113285421592088
271 3.705512872764462 -3.249757139063578 2.055451660694474
273 -3.6329712134804732 2.2297000847599415 1.408154376800992
276 4.249753593383091 4.763866574746795 -2.8875406962937293
293 0.15503791251940494 1.2049228007345767 0.8081658774375474
469 -0.07657159742593163 -1.0653243157396572 -3.603160564313319
369 -2.4369174323662883 3.591718858288751 -0.8544296276377817
370 -0.014173152410627127 5.7327186323268045 0.005059411240612798
372 5.111378285160231 -2.0999487383595246 5.209670459255568
470 -1.0109932012389833 0.31891443232813443 0.10667561214081588
489 1.4237793861172392 -0.6242426381050902 -0.7814233487842632
69 3.5610428415565827 -1.5193130708908897 -4.293003390022722
472 -1.478644537658962 -4.433374675831174 0.5603946619269485
70 -7.035861815840234 -0.010854228937855079 -5.469817273497525
92 -0.9968178343052605 -2.1355785655503507 3.7726266203174665
11 3.5605983623053215 0.017373706323916105 0.09965470941767421
89 1.346113695131983 -1.4907287759900436 -4.0089902948492435
192 -2.4835314838042066 -0.4691192437846759 3.1569753772870044
190 -0.1738461419036635 -0.26775685868754145 -1.784696135842249
213 -8.283212001211078 0.48521601435039846 0.4715392486827462
209 -17.992954932195943 -7.132234209083895 5.365805693614395
113 3.2753310943978664 0.1186051851272468 -2.799772273750257
196 -2.190453869507772 -2.0064250211041497 -1.099945628344063
292 1.3929844688603477 -0.7754843421688256 2.2565573836252644
390 -3.075537034662855 -1.6966545204546404 0.337171182040547
291 -4.518852063257891 4.366675754897671 5.019159548602226
296 0.3940144741545284 -0.8295499509265248 0.5355765432327095
290 -6.499952061726994 3.3168356454956878 0.9913733252522567
396 -0.5514448298827658 0.40912240298205543 3.112934547838135
391 -4.315640207157401 0.7198919869688389 4.351251183575735
392 4.163813655645926 -2.8017366299038295 1.2539417919498161
490 0.7964690290701641 1.0178030120957131 2.3268029239373895
393 6.074520496670366 -2.664179157282447 -3.1118343515080955
90 -4.153466562711916 3.189118718505008 2.7443434207179367
491 -0.45725353672366725 -0.23780170093607955 4.965506970097486
492 -3.869378902527461 0.31819558483525406 4.150448864095875
16 -2.2385369581943158 -0.08947172439260413 4.502091293088332
17 -4.882088892159764 2.830833289644382 -1.2010750279093785
13 1.491314659911054 -0.6216163663120606 -0.3516723711250144
20 -1.0263945192065491 4.3906557365462024 0.0749714247903659
114 -2.3745319173902146 -3.772581766771371 4.199943202448208
135 0.596527629958423 -1.441819001597927 -3.953699651933975
313 -2.0819148390347464 10.001231614773593 -8.614037030494043
214 4.271602879438276 4.407171014467595 5.094556807889446
235 1.4310320420387985 2.90583245581801 -1.2397322410349312
220 4.210126086845071 -1.5822488879768657 -0.6037219920997574
337 2.374595996823149 0.20373438822995968 -2.574900208394126
217 -6.903131768549582 -0.19359554409152993 -3.798022637408121
315 -3.4356970222414023 1.9239186106296762 1.4630392231906353
314 -0.9402371955503899 3.9829838245180227 1.182774843559923
335 0.9787252597596203 5.607639086146847 -0.8422740054350308
317 -3.3156719023181194 4.542992529562958 -1.1832113775009516
416 3.4890825987746235 -0.6049983096561341 -2.427195054578906
414 -2.498059707515188 -2.453620581615506 -3.2047044999400547
14 -1.5341806614910063 3.937046533875451 1.0090758949187584
415 -0.5308125008406364 -1.0422145130114477 2.6184269019128616
33 4.906728837632455 -1.5384031246975263 0.8362375119211537
35 -2.429208551023389 3.441860875939999 -1.7052234059607827
36 -0.8194647733240701 0.695522390214042 -0.9117730523462607
55 3.5322482148304823 4.926305658045273 -5.552628385132655
53 -0.14620111983156975 0.9305382300173005 -4.104306542371871
134 -1.462354565492681 2.0084879118051875 -0.17526841788503744
234 8.618565925282832 4.529710045752554 -9.8811084029
155 1.8186031500341295 2.0008662789788416 -1.393397151129092
157 -0.8248041479335128 2.3469763248825193 3.538093479493621
233 -3.36689503397374 -1.4581778117872624 -2.3551984662094814
255 -3.6557423561403106 -2.9919474594708806 0.5564747426401544
334 -1.1589031017114346 -0.3181524599679031 -1.8721817165687191
253 -1.1216942543663184 -3.8676640694770117 -1.5364082888220587
433 -1.1641895911177402 -2.7707219098376434 -0.45108728785027086
336 -5.76348026328158 -1.9516498825996897 -1.4112491155046076
355 -12.134718415958059 1.9902845139889989 -1.911254386560231
434 -1.7127238475084021 3.271372568375351 1.4638995220261386
353 -3.081373905706247 2.8858056303909145 -1.1233109779129618
340 -0.43244177275912454 0.9993574412892579 -0.3293887139666827
436 -3.703721796881957 -1.4388527286323285 -1.6487323179060824
34 0.10976120207237358 1.6162304177602382 6.757095584704955
435 2.6163397328269093 -3.0720639893873045 5.864880734077358
455 5.999742986506801 1.75680620665662 -1.0957690419559465
440 -4.929167930394279 0.27914450288178394 -0.405578677613285
75 5.117220513098134 -2.8124328839200214 0.27712345426194906
73 8.562444217052978 -6.567763100965806 1.5475606472774341
60 3.5745896100907313 4.7525484322905 -4.733466129335078
154 4.853837003851359 3.0182623615603914 1.3019821671390348
54 -1.5721109064940018 4.8615480076891915 -6.4212573420978
156 0.647136040065486 1.0763517447251818 -1.0879651025043118
175 0.2638930572748274 -4.65573174504659 -2.277051460041631
254 0.8941862504662557 -3.5217107237834937 0.05748043471856187
256 3.5923350623379635 2.901453005023339 -0.9140925051526384
354 2.5963233208093865 -0.6333360192172806 -4.111130050673108
275 5.31333336375341 3.343842903853572 -0.6212081379546741
260 2.5121890180013495 0.014219208653598036 0.8509257771245984
356 0.5021087198735272 -1.908123701884135 4.369865778704298
454 0.24207854025666534 0.6600321025292029 0.37787757963888224
456 -3.0527972664430636 2.418716367155505 1.1706038032935648
475 -3.7678343671211962 -4.948700700511521 1.208929857022285
473 0.9940398690895575 6.305689349884526 3.3431242767672398
460 5.409306722469339 -3.344897752506257 -1.562435319341534
76 1.214315453392279 -5.753501294221656 -5.546376968193689
95 -5.962800448996649 0.636215317677134 1.216089281708324
74 2.719908871297153 -0.16903738709436839 3.7394353261421407
80 3.4000954648509665 2.634719561655988 -4.9119225845212515
77 -1.3001062150231553 -2.0978682218356983 -6.074918329301798
174 2.196217278751279 -2.0896687189354957 -1.1195403145688179
197 1.0898517314051464 -5.18596849895828 1.3319641991797468
176 -0.7275462616165035 -3.1303264533384914 -1.5563624341541584
180 -2.8515553498527013 -0.23722847243252673 1.4998812831486055
274 -1.2358929712423723 0.20985916421541517 2.4010841743374987
193 -1.8214100031457392 0.845926578850889 1.9544922983585928
195 -3.0590422360683536 6.746089265675295 4.387585215476075
374 4.843622406514852 -2.201237021431833 0.01827647267009641
373 3.803076381310476 3.1402974204597442 0.4383704400620004
375 1.0323474412112834 1.9404742222869278 2.9568889347900154
376 5.79415559842666 4.63821696408307 2.7662560600124735
380 2.626411725608299 -1.2582036608236093 2.505830515444772
477 1.0932455539534076 1.9789818767797143 -0.10617151709277682
474 0.9876828023891184 -0.33597935952109675 0.841535668484215
493 0.7909458711854818 0.9472272509303493 3.7753172359325635
476 -0.3176513629912877 1.5357936578572882 -2.681193444867044
495 -2.4475671707585565 -0.7742501903405246 -4.344435173507681
97 4.6862805697100445 10.288892300593986 -0.3468898074095556
480 0.7935078727359134 1.7837394729412877 0.5293512293897236
93 3.8412036738001145 3.7175008645571617 -0.05423150379968046
15 1.4369224260178601 -3.5038428312823697 1.0262125031227827
96 -1.3473754906943167 -1.633638143472036 0.6011745939262326
194 -1.4933487482397105 -2.366782143992706 -3.2145074987744295
115 0.529361995289281 0.06743819956794207 3.3354990202836454
216 -0.14351143839794753 2.320329733659845 3.5428440302096527
294 -2.656391234366306 -1.8107943951893246 -1.4474900995923707
295 -0.907179390437382 1.6177099996117643 3.0771834746007873
300 2.058874532645311 1.0540438588570726 3.9694485407543083
394 -0.8387287600753784 0.7641612308973349 2.273502703603974
494 0.17549786681618448 0.41703605776428826 -2.6266870984065536
395 -4.135302629354953 -2.605801506899806 5.319244594265817
417 1.9260019356831026 4.979925721603552 -1.928381984674183
400 2.1458666828540554 0.03479891370558304 -2.4336492705986954
497 2.280225425286363 -2.8494869950301824 0.7302010279028298
496 3.48031072754426 -4.293110595517728 1.6660934310696416
94 4.08940945759757 -2.468979496426169 -1.6543311927469233
499 1.0204567415569619 1.18621926711142 -1.1651675229861105
117 -1.2733472047781984 -2.2117801789826794 0.6980602959854131
39 0.9957939721178732 -1.8004910564534466 -3.4939202039824133
18 -0.6454430843749428 -5.451887335979494 -0.13479154118653944
118 6.3658077842546446 -1.559111140641387 -3.9098233638822686
120 0.7031203600941346 4.028297707976804 2.3400633167983633
237 0.8102926707261364 -3.689052106273023 1.9073923958207522
137 3.8462758891890267 -0.6929264393165581 2.7149259588583865
139 -1.0581987652835987 1.7376450551522205 -2.1297442520816303
218 4.716273837000711 -3.740469019581856 3.1893329175687777
238 -2.6590015839033994 0.43434828491635624 10.79635580639738
239 -3.264551384846163 -1.1895088853925782 -1.320280790244503
219 -0.8149426815853588 7.064475700029081 -3.266051194907797
304 -0.20662652122245304 2.8972110032178664 -2.1896303391782133
320 0.20981801794912264 -1.7302231749882226 -5.152322098188818
318 4.712163047814487 2.8855921138052114 -1.0408545942196519
339 -2.9868196240497866 -0.9349830958849665 -0.719462888754934
404 -3.1343677428422008 -4.574296660617596 -2.070278110950199
420 -1.4043822088221765 0.6657129534515203 -2.065359338367613
37 -3.298716997690895 8.963515074199561 1.9764960118998995
418 5.159572756449162 -2.3783040572595717 0.9598852844772507
40 0.14324262660100232 0.4315687342454247 -0.47531478718097375
59 0.3261359144206737 -1.0247410199780251 -1.38211455395767
140 -1.0755476298098985 2.001761397178805 -1.8178793665288306
141 4.140332425869414 -5.137102597640547 -2.522153520277927
138 -1.8046023924608443 -0.8004493362276104 6.127645990514651
159 6.778659689202061 -1.048408391325857 -0.7757448756044524
240 -0.5175465401246317 0.31405545391555045 -3.860012578816556
257 -3.524112318225485 -1.1585958744642852 2.420362825641601
224 0.5102823975871087 3.6557343920998306 2.4399950046608194
259 4.1429823623117965 0.40761667443256366 -13.646055398698747
441 0.43095804557160267 2.21680882218883 1.4422003075891736
338 -2.7486659775485456 -2.537917838264473 -1.727344751511287
438 -1.116313878739093 3.217687969030646 -0.20243983652735537
357 4.03003157598488 1.0069402938024812 -2.4904748112448063
457 -0.43276500567246484 1.6990002148948384 -0.44895228123930303
359 0.3269206307822201 0.9928156090526404 -0.6483454121532959
424 -1.4015235842164597 0.7224857046278943 -0.48954618261912797
437 2.029249864435157 -0.8616957223176003 0.5593608779774749
439 -0.4614919471686707 5.256333959014609 1.0293465140334863
38 -5.289212217344669 -1.3550171133329354 1.7083013945128132
459 0.9509789741695935 -0.18824665486484188 3.259687672986643
57 0.4894055021351656 4.074449843702395 1.2286923937132144
44 -3.5526048743813172 4.352270703705182 -0.19998991979502287
79 0.07009751797695561 2.0791341489076633 -0.615794222179943
177 -1.6149014256451044 1.9000780013631637 4.200078367271587
160 2.452101528542123 2.527853618540605 -0.2992725422137643
158 2.606035761810532 -4.271791649221542 -0.8971999688625103
244 -4.07818708427804 -3.360245328820504 0.3050499444504464
258 -4.985450286340426 -4.601323225422366 -2.5807163210470563
277 2.36971094168608 -1.6674042578252928 -8.904673620208246
279 0.022866983521880983 -0.5693230007280052 -0.17123167156333394
358 4.058346484722369 -4.054850942016912 -2.3975805338111167
360 0.09826756396436812 -0.01414138567360548 3.544984439245693
458 0.9651523285593228 -1.8229171679548244 -4.743021605306439
61 -6.040293726068987 2.9065709892627907 0.6089771166029252
78 -0.33768768843460045 -0.7393910174670667 0.06655174831139343
64 -1.7449786075861675 -0.4589427534854123 -1.2561224985639763
464 -0.6453687823705423 -1.8000417361555463 0.3796502537293846
178 1.6967848353281407 -6.108233989670018 1.1420535428928575
179 3.0703902531130907 0.34883474887842786 3.0282213553103916
161 1.2915455707062617 -1.0653853946948437 -4.691576073208827
164 0.44094602904379465 5.99099608664188 2.9270045445397472
278 5.232149372724589 1.0204727597793821 -0.7771235286004573
261 -2.292046654529003 3.6978332423365514 -2.257109719032428
264 -0.09503555790707606 1.3736593537571231 4.597382126962082
280 1.0173314050488056 -1.3909727857203118 6.328336227596429
361 -1.6223215574809033 -4.237493460469906 3.024338560857254
364 1.087469198410723 5.284920787801142 -2.808680912569394
377 -0.25954650076435365 -3.9043992738157223 2.7585464576595076
379 -0.4254489945214197 -1.5719167148703006 -3.8734302196625694
378 -1.790713922459804 -0.17105591518418536 4.372361837464718
397 -2.4530381331905042 -3.5462285878734456 -1.2540210721863032
461 0.48782259967010466 1.8227534311082525 5.889058641941813
479 -3.1783592747709326 -3.405514815055949 0.07600326621486912
481 3.4179842860665945 -2.6205325255992453 0.6305701403377512
478 -0.1710213882522918 4.025177274296355 0.06150967976649639
101 -4.518957011199613 -2.051696550326925 -6.326091612038532
1 1.9753350043867806 -2.5042365151234316 1.1013804340747015
98 -4.977882145196681 -1.9409985579886275 -1.5158832058796006
181 -3.146844215109432 0.624742270284665 -4.540935003543827
100 8.185325694304161 1.1907424569029121 -1.883944890082794
84 -0.5749099952524742 3.8756770327787513 1.8864402261735689
198 4.2568980694273915 -4.570493483658622 1.1185922613290535
200 0.8588297642045997 -4.2096932808654675 -1.3543739860941633
119 -3.1836558190782074 -9.408015609968581 0.6782270994753121
184 1.4589851601280097 -0.19555268254797764 1.6016151781495613
199 -3.2643185386715454 -1.6090830564681673 -3.0823184532837926
281 -1.088747057137775 -1.502061144986685 -1.587134509794811
297 4.720728584653603 5.585848112026325 -2.509294311142307
298 2.9113517001465574 -2.0266269029703445 -2.1242840404119687
299 2.4347953056804044 -1.581201237218311 3.6068203448439067
399 -0.5714686088096153 1.8116233104690451 -4.773495845741365
398 -0.7944539526181922 -3.3321204483972022 2.631293313499205
319 5.641904223953024 -0.30808524964680306 -3.1864282961803982
484 2.7541130863823917 0.8547545518863312 0.9600268872145202
500 -2.7535341488341007 2.0539339036919286 -4.503871477133183
498 -0.0324681694151207 -4.316351543986146 -0.9501280113573988
99 4.233263239963998 0.6245901633180382 1.038713341256851
419 5.0245251051461555 -1.7996612930751432 -0.5755398777868528
