LAMMPS data file via write_data, version 11 Feb 2026, timestep = 144, units = metal

362 atoms
8 atom types

0 12.447907776 xlo xhi
0 12.9362452296 ylo yhi
0 52.3600831054 zlo zhi

Masses

1 26.9815
2 10.811
3 12.011
4 51.9961
5 55.845
6 95.95999999999999
7 58.6934
8 1.008

Atoms # atomic/kk

1 7 1.1155432032 0.8154810691 14.6426922395 0 0 0
2 7 3.5540379235 0.7311193291 14.871234382 0 0 0
3 5 6.0147712069 0.8602266521 14.9379629301 0 0 0
9 7 7.2857571206 3.0556078576 14.8933255174 0 0 0
4 6 8.6357342334 0.9642635945 14.946529222 0 0 0
5 7 11.0235693741 1.246171845 14.4621858766 0 0 0
6 7 12.265830490799999 3.4712556766 14.6436173642 -1 0 0
10 7 9.8079526779 3.3727611183 14.723241807 0 0 0
16 4 0.2157245901 7.6670868716 14.6124933045 0 0 0
14 7 8.5743525544 5.6323755413 14.8940843716 0 0 0
20 7 10.2280081001 7.651188606 13.9898991177 0 0 0
22 7 3.6172766651 9.5060694916 14.9195551521 0 0 0
23 7 6.5850008354 9.0803043567 14.851931567 0 0 0
28 7 4.8177845477 11.6037374867 14.8195270069 0 0 0
29 6 7.374134827 11.4924346524 14.9178203839 0 0 0
24 7 9.0522037302 9.6613734718 14.6565743213 0 0 0
25 7 11.9452520245 9.8726549503 14.7117678659 0 0 0
30 7 9.9237909778 11.8506455634 14.5793216036 0 0 0
7 7 2.2262989738 2.9644358532 15.1075254028 0 0 0
32 7 2.3076382916 1.2474950013 16.93141614 0 0 0
36 7 1.1371212204 3.9624018566 17.0633809059 0 0 0
37 7 3.5701342229 3.6398251728 17.0938709997 0 0 0
8 7 4.7798804583 2.9786478866 15.021245032 0 0 0
33 7 4.8292084794 1.5292267501 16.9833232336 0 0 0
34 7 7.3569814563 1.7049736184 16.9470405118 0 0 0
38 5 6.0760208742 3.7355301865 16.9708735798 0 0 0
31 6 12.393122693999999 1.8825256553 16.4863359413 -1 0 0
35 7 9.9209334399 1.7070647117 16.9052297916 0 0 0
39 7 8.6353020296 3.8577967138 16.8148783227 0 0 0
40 7 11.0716253798 3.946589019 16.9654790206 0 0 0
11 7 1.1343465484 5.4264107168 15.0265725761 0 0 0
12 7 3.5523929388 5.1400159682 15.1223888363 0 0 0
17 7 2.42829739 7.4989893874 15.0919313308 0 0 0
42 7 2.3727215233 6.0692094397 17.112627951 0 0 0
46 7 0.8184091702 8.4074161916 16.8607807144 0 0 0
47 7 3.8159239428 8.0033984308 17.0275882134 0 0 0
13 7 6.0462513278 5.1796240804 15.0089948601 0 0 0
18 7 4.8954983617 7.2958254685 14.9775518616 0 0 0
19 2 6.8433167218 6.9688561572 15.3169162346 0 0 0
43 7 4.8545509904 5.804730799 17.0777174374 0 0 0
44 7 7.3427738295 5.8741463465 17.0239797027 0 0 0
48 7 6.2257021983 7.9865151379 17.0187296922 0 0 0
15 6 11.0475885949 5.6325360413 15.0861198838 0 0 0
41 7 12.316366892 6.1036997357 17.1287305994 -1 0 0
45 7 9.8077748534 6.1046562067 17.1803358623 0 0 0
49 7 8.4702872923 7.8519188923 16.022825097 0 0 0
50 7 10.9061958948 8.110556042 16.2152009271 0 0 0
85 6 9.8309812887 8.511545754 18.4504338843 0 0 0
21 2 1.5487619035 9.4669486705 15.2110238368 0 0 0
26 7 0.3147867127 10.796353666 16.8299290672 0 0 0
27 7 2.0325210742 11.4708881706 15.1517201938 0 0 0
52 7 2.6143532835 10.0749575125 17.0438096454 0 0 0
56 2 0.9273900242 12.698936143 16.3551042675 0 0 0
57 7 3.7039874388 12.2198301141 16.9302342929 0 0 0
61 6 0.1055180376 12.9082680047 18.5768523425 0 -1 0
53 7 5.1286010465 10.1046126207 16.7799750369 0 0 0
54 7 7.6944024083 10.0379264527 16.9223731648 0 0 0
58 6 6.2949302164 12.3327351373 17.0129749418 0 0 0
51 3 11.6210201236 9.3645583868 17.4998846247 -1 0 0
55 7 10.2439766594 10.4024310478 16.6467540456 0 0 0
59 7 8.8432493134 12.3650840636 16.8913129946 0 0 0
60 7 11.2991210295 12.6168397636 16.3512542109 0 0 0
62 7 2.563344739 0.0304124157 19.1443975825 0 0 0
66 6 1.3539100302 2.2260488983 19.0674232409 0 0 0
67 5 3.798347613 2.1787003209 19.1055969722 0 0 0
91 4 1.3652020138 0.7815652691 21.2538020118 0 0 0
92 7 3.7960824235 0.7373777849 21.1341905498 0 0 0
96 7 0.0836221333 2.8606820935 21.178103083 0 0 0
97 7 2.6055283019 2.8586324953 21.2105118083 0 0 0
63 5 5.0148889324 0.1143327321 19.065028131 0 0 0
64 7 7.4974509199 0.1044329834 19.0941906623 0 0 0
68 7 6.1930272817 2.1716979525 19.0509951455 0 0 0
73 7 4.9418445794 4.3057308549 19.0775230961 0 0 0
93 7 6.3234384559 0.7363636064 21.2084219761 0 0 0
98 7 5.0483110521 2.8729877826 21.1533943178 0 0 0
99 5 7.5030663839 2.8397917542 21.1435811528 0 0 0
65 7 10.0819232008 0.1006477908 18.9656760117 0 0 0
69 7 8.7329127767 2.183059518 18.9640587561 0 0 0
70 7 11.2921591391 2.2868712471 18.9089505828 0 0 0
94 7 8.7791735748 0.7495036246 21.1793518496 0 0 0
95 7 11.3646428242 0.7204580835 21.0321203917 0 0 0
100 6 10.0465016089 2.8373163211 21.0206976261 0 0 0
72 7 2.4502199665 4.4173571714 19.1175347387 0 0 0
76 7 1.1677035709 6.4936735739 19.1912198009 0 0 0
77 7 3.7607196119 6.494753163 19.1453647298 0 0 0
82 6 2.4350155748 8.5331923133 19.025029867 0 0 0
101 7 1.2104302855 5.0269504969 21.2333873965 0 0 0
102 6 3.7399497117 5.0429124748 21.227495169 0 0 0
107 7 2.4743549825 7.1675976472 21.2386063586 0 0 0
74 6 7.4708797855 4.3122205742 19.0273071436 0 0 0
78 7 6.172123303 6.5201655162 19.1061751373 0 0 0
103 7 6.2803052555 5.0535136869 21.1575206797 0 0 0
108 7 5.0211767767 7.2176772972 21.2083684102 0 0 0
109 7 7.428426365 7.2619817823 21.2407219341 0 0 0
71 1 12.3298098243 4.4510295745 19.1966835837 -1 0 0
75 5 9.8629992294 4.3610722657 19.0114883827 0 0 0
79 7 8.6152247737 6.513620131 19.2866528652 0 0 0
80 7 11.094387497 6.5064866402 19.2843590438 0 0 0
81 4 12.371908636299999 8.579532645 19.1889253307 -1 0 0
104 7 8.7407299033 5.0578557196 21.2169403696 0 0 0
105 3 10.090685536147676 4.419500810327774 22.263814119416516 0 0 0
106 7 12.443804479999999 7.1335902937 21.2746849189 -1 0 0
110 7 9.9035665651 7.1902180984 21.2726862615 0 0 0
86 7 1.3058820732 10.7537218543 19.1712644327 0 0 0
87 1 3.8478396392 10.8767745204 19.0103401049 0 0 0
111 7 1.2031712017 9.3306286581 21.2173288319 0 0 0
112 6 3.749774388 9.3356394877 21.2395239871 0 0 0
116 1 0.0605053148 11.5450042448 21.1772597837 0 0 0
117 7 2.5238974465 11.5362624979 21.1758431006 0 0 0
83 7 4.9705237277 8.7248099379 19.033983048 0 0 0
84 7 7.4245302442 8.6350999982 19.0121662328 0 0 0
88 7 6.2770041864 10.818450246 19.0226042006 0 0 0
113 7 6.2426606616 9.3934616382 21.035028777 0 0 0
118 7 5.0434305042 11.5560531098 21.144085558 0 0 0
119 4 7.4741365947 11.5721594064 21.0779288147 0 0 0
89 6 8.7847731589 10.8669311448 18.9806593201 0 0 0
90 4 11.2870456077 10.8051113805 18.892261561 0 0 0
114 7 8.709045166 9.3399792152 20.9351444591 0 0 0
115 6 11.1221209904 9.2871760168 21.1685965797 0 0 0
120 7 10.0209395468 11.5544516087 21.1235962433 0 0 0
121 7 0.08535969847547667 1.4050964101815038 23.257767988076353 0 0 0
122 7 2.5737873515635936 1.4018132469744597 23.318046905132128 0 0 0
126 6 1.3568543796467634 3.6014994320201965 23.26161394153474 0 0 0
127 7 3.8580073917896756 3.5860915288645776 23.366871103634452 0 0 0
152 7 2.658498668629975 0.0076940045065316594 25.37570888622537 0 0 0
156 1 1.4908346852009309 2.1373353209882016 25.50246696773352 0 0 0
157 7 3.9793888901462147 2.134826611631005 25.44482488434023 0 0 0
162 7 2.6083418274985237 4.26493050566446 25.42943056373123 0 0 0
123 7 5.0147302444127435 1.4275861154839595 23.201139324423366 0 0 0
124 7 7.420095924730253 1.5188524681947697 23.479625298863155 0 0 0
128 7 6.312590711673803 3.664553399181336 23.171869522644318 0 0 0
153 7 5.204031284162535 0.06117673889572831 25.3314744348593 0 0 0
154 7 7.615584530780606 0.008273606195189156 25.458232994307988 0 0 0
158 2 5.8044143931552945 2.4803420196991133 24.64422181576403 0 0 0
163 7 5.124604228564176 4.248129136725842 25.424253148253303 0 0 0
164 5 7.484205897112968 4.061364093404353 25.345369659209403 0 0 0
125 7 10.068889394414091 1.4435918990227274 23.30194720593874 0 0 0
129 7 8.764243359519241 3.561114240929436 23.33027144065316 0 0 0
130 4 11.367213123839822 3.6403474377162035 23.383884520405953 0 0 0
155 4 10.13983930341037 0.07127170262028057 25.518580420154024 0 0 0
159 7 8.893452331821472 2.1047288211468698 25.423786000546336 0 0 0
160 7 11.417304625518325 2.1665765635060144 25.39256741640224 0 0 0
165 7 10.074366915896437 4.229037980237953 25.398859069950415 0 0 0
131 7 0.080588284914729 5.79134737191544 23.386486516418092 0 0 0
132 7 2.5537348257331995 5.793517615651554 23.36598208351717 0 0 0
136 7 1.3180229051786045 7.919253108075878 23.296500692303688 0 0 0
137 7 3.7938279216259967 7.960877232598733 23.322520060216398 0 0 0
161 4 0.11992970992454928 4.350173161526438 25.455024399432222 0 0 0
166 7 1.3479991020322781 6.4207170714290145 25.425232245339604 0 0 0
167 7 3.819508636605511 6.432692019823764 25.45037339078311 0 0 0
172 7 2.63298692072621 8.60679581999772 25.39657208602649 0 0 0
133 6 5.077893514846432 5.847397923856605 23.38583727758603 0 0 0
134 7 7.567747961795964 5.783650356984866 23.302601160545446 0 0 0
138 7 6.321578143629565 7.99249810387444 23.34056272905846 0 0 0
168 7 6.374611907445269 6.390581274006112 25.43186115763325 0 0 0
173 7 5.122471279336421 8.548132542323318 25.355064624446506 0 0 0
135 7 10.07262961730246 5.844271293325356 23.37422145133404 0 0 0
139 4 8.708157557092703 7.952290942216707 23.212009955109867 0 0 0
140 4 11.297194382487296 7.905300435511998 23.294886727219215 0 0 0
169 7 8.783219957092069 6.3399553666731725 25.372159594692405 0 0 0
170 7 11.30068326739762 6.416442992952983 25.435097776914628 0 0 0
175 6 9.903693220372949 8.572693244335836 25.500228095348398 0 0 0
141 7 0.030373873637880536 10.089827287755156 23.32839859327781 0 0 0
142 7 2.5121658126526367 10.10405892572682 23.29954475685332 0 0 0
146 7 1.3098398614167346 12.238470168270787 23.31447263617099 0 0 0
147 7 3.82403604725744 12.237792116030096 23.231188983747842 0 0 0
151 4 0.10355765411252482 12.882934424847482 25.371247677371716 0 -1 0
171 6 0.12289327327361292 8.625575215461328 25.41060632693361 0 0 0
176 7 1.3536316028731603 10.808857350802983 25.432030882988826 0 0 0
177 6 3.895133465516018 10.811110261032647 25.31613208443412 0 0 0
143 7 5.083530291559009 10.106523807182716 23.23535256099079 0 0 0
144 7 7.518845961256399 10.093800463565984 22.904738572669796 0 0 0
148 4 6.239293768118112 12.277729079737544 23.26221874499089 0 0 0
178 6 6.653479146806819 10.52003303376246 25.239279290239306 0 0 0
145 7 10.00568990012137 10.094141933762275 23.299437549336396 0 0 0
149 6 8.730685131089988 12.294526905800785 23.290662768281415 0 0 0
150 7 11.267794909619191 12.233113145386955 23.333268480947353 0 0 0
174 3 8.427992853126277 9.50841045881063 24.40582164365196 0 0 0
179 5 9.02138466471518 10.934174411112734 25.55707658815182 0 0 0
180 5 11.353429712263896 10.882025589330267 25.480428218180407 0 0 0
181 7 1.39573267175683 0.666436834595778 27.485074941087312 0 0 0
182 7 3.884694883465427 0.7004312653750885 27.445035897774055 0 0 0
186 7 0.1810692099635132 2.8639416086803227 27.479663363372822 0 0 0
187 7 2.6689708831437433 2.8505692347060014 27.56427786223432 0 0 0
211 7 0.21663590120269893 1.449233133307757 29.577655192052752 0 0 0
212 7 2.716753710241932 1.3606665272388918 29.57959187305556 0 0 0
216 7 1.419743036220937 3.5562908657475387 29.584719314245024 0 0 0
217 4 3.8335902900774084 3.569303484542907 29.599500378727736 0 0 0
183 7 6.3238991027417475 0.7156738223033651 27.568602875047514 0 0 0
188 7 5.093888563186129 2.870331965331876 27.57558320650131 0 0 0
189 7 7.609680491061707 2.7940869277014393 27.449443870688675 0 0 0
213 5 5.145888976215048 1.421061792772027 29.59936694435313 0 0 0
214 7 7.627893404174457 1.356672919527575 29.58304255761809 0 0 0
218 7 6.374743472763243 3.5330265796186575 29.540975700360818 0 0 0
184 7 8.903960553656185 0.7242303806726917 27.549565404718976 0 0 0
185 4 11.396263815420507 0.7279736414578187 27.51726957663694 0 0 0
190 7 10.158765369140898 2.8391151664316308 27.475760686354672 0 0 0
215 7 10.136197352605512 1.4096128546239235 29.61842365602715 0 0 0
219 7 8.850143849796137 3.5165797207174867 29.520140938638505 0 0 0
220 7 11.379304734802139 3.5657575213417014 29.512029425771615 0 0 0
191 7 1.400661015455047 5.0100440678674625 27.471238755782306 0 0 0
192 7 3.8430812404622796 4.985933481591869 27.489608005104103 0 0 0
196 7 0.14629143651490065 7.16557369119676 27.488398907780272 0 0 0
197 7 2.5898645414003214 7.1894356216481565 27.483809190706676 0 0 0
221 7 0.13015216214993522 5.731137112953557 29.566223775228117 0 0 0
222 7 2.601491449193975 5.726534238406253 29.557184971273887 0 0 0
226 7 1.3721725402637743 7.903481752824497 29.55202324682945 0 0 0
227 7 3.8702861333304575 7.9073027915842475 29.481694706418022 0 0 0
193 7 6.380793463819855 4.972061595100354 27.415945441406812 0 0 0
198 7 5.113149420661054 7.166828887510406 27.42185229782056 0 0 0
199 7 7.625776948136628 7.1888101657961085 27.446729026086476 0 0 0
223 6 5.163358545574487 5.715261553730827 29.497373138748337 0 0 0
224 7 7.654664991046695 5.739115084001853 29.578775385090186 0 0 0
228 7 6.401909518519021 7.908619725606199 29.500635442626557 0 0 0
194 6 8.85761128580761 5.003118597345803 27.483825920349698 0 0 0
195 7 11.371198449579165 5.002647844614477 27.49909170756553 0 0 0
200 7 10.131597720933796 7.164869518734791 27.527071671129374 0 0 0
225 7 10.111491015498125 5.74814810815881 29.597326117347016 0 0 0
229 7 8.854358123448009 7.888241320494854 29.513826452656144 0 0 0
230 7 11.377676754447817 7.934939865884478 29.513957719463 0 0 0
201 5 1.3871877226501619 9.329282614605216 27.514513794477388 0 0 0
202 7 3.882413899100392 9.314205591398181 27.397771199865495 0 0 0
206 4 0.19650822266909979 11.484314571382757 27.51681435395858 0 0 0
207 7 2.6199877081773906 11.459457137317791 27.45235784531714 0 0 0
231 7 0.17178930371394627 10.081809980233025 29.560197149569767 0 0 0
232 7 2.639866511153923 10.023014121234228 29.434521902667093 0 0 0
236 7 1.4784171009940212 12.185783602239702 29.55398536507732 0 0 0
203 7 6.3816303205359475 9.286416318817247 27.40885315124765 0 0 0
208 7 5.151483239079669 11.494994127625247 27.353961669861366 0 0 0
209 6 7.601141995609562 11.531603385572089 27.629222088617865 0 0 0
233 7 5.15598584534767 10.048376230609065 29.343083967801 0 0 0
234 7 7.612085479869418 10.088301841305364 29.654361285663875 0 0 0
238 7 6.232590603398876 12.234813551513154 29.678138316848482 0 0 0
204 7 8.846652317495833 9.3723785017688 27.601948641396206 0 0 0
205 7 11.355713745359447 9.423201796094908 27.529919865848132 0 0 0
210 7 10.165675416265803 11.56125621170227 27.564026150775362 0 0 0
235 7 10.094133318421905 10.18211384691508 29.583634094383655 0 0 0
239 4 8.893148029999773 12.25787405692627 29.719642294458637 0 0 0
240 7 11.403298825266395 12.272444976191222 29.548757322309534 0 0 0
237 3 4.038751279670493 0.3031329673361016 30.55750730010862 0 1 0
241 7 0.20821979294431966 0.10683639885803753 31.62392745864038 0 0 0
242 7 2.575659942571888 0.14338216299726353 31.741629851510243 0 0 0
246 4 1.352115006732758 2.248408757617738 31.658821821796575 0 0 0
247 7 3.89084624319191 2.153271603492127 31.638969224135085 0 0 0
244 7 7.639629279602853 0.010602147079625753 31.70328119476683 0 0 0
248 7 6.418498647444742 2.1550840052950893 31.64354002026522 0 0 0
249 7 8.862528053350037 2.114232534907797 31.6744184688996 0 0 0
250 7 11.392358248491577 2.150117475621407 31.64935097277649 0 0 0
255 1 10.117367381393448 4.233122481746743 31.495838484708795 0 0 0
251 7 0.15774674739467567 4.33523855726454 31.645765656419204 0 0 0
252 7 2.6438602726847895 4.324047990688057 31.666618908474316 0 0 0
256 7 1.3399163174430544 6.510972818526537 31.633385801924522 0 0 0
257 6 3.8018436074490953 6.5060251171470895 31.67333271163033 0 0 0
286 7 0.11233282977245729 7.287304459911562 33.62551623521822 0 0 0
253 7 5.121006762148606 4.31335847954915 31.624874169187365 0 0 0
254 7 7.630352309366561 4.318956720536202 31.58688940775136 0 0 0
258 7 6.360263226206578 6.501838013552676 31.62636646066208 0 0 0
264 7 7.5986354860453895 8.587801090534484 31.617342179371665 0 0 0
259 4 8.829105338217634 6.4730987452350695 31.62222770812055 0 0 0
260 7 11.32614621388487 6.500884882819181 31.590141867175937 0 0 0
284 5 8.89488088409722 5.129154529245561 33.56574394373424 0 0 0
285 4 11.364460217236976 5.165587882052733 33.63698200138232 0 0 0
290 7 10.095077236046587 7.269465914761061 33.58757367047027 0 0 0
261 7 0.1844710572691259 8.717214961619895 31.64883131237172 0 0 0
262 7 2.6728463604262784 8.725519191818996 31.537389344360687 0 0 0
266 7 1.570519746281606 10.838747120662283 31.565417016132677 0 0 0
267 4 3.9250609983063924 11.287094041619879 30.85083292789509 0 0 0
292 7 3.968276675209599 9.375009866231183 33.51485432672006 0 0 0
243 7 5.183432463918242 12.90888172945164 32.09072446086529 0 -1 0
263 1 5.101996769917109 8.766553783997379 31.433082049471707 0 0 0
268 7 6.271668482191897 10.767960237071197 31.57689068505832 0 0 0
293 4 6.4655106652488 9.330854230477001 33.64979885244471 0 0 0
245 7 10.119942048014982 12.896475420604906 31.857916436148326 0 -1 0
265 6 10.109972459949034 8.69207618491762 31.530596150036526 0 0 0
269 7 8.78506610808247 10.810569531154648 31.738319809064553 0 0 0
270 7 11.434553545417641 10.915016868827623 31.601650504024853 0 0 0
296 3 11.081999313298711 11.845096523377313 33.316229113695805 -1 0 0
271 7 1.4868453856861126 0.9106791565979895 33.769694536265476 0 0 0
272 7 3.9339851999018407 0.9626195556586952 33.909779205182296 0 0 0
276 7 0.1894687892594805 3.0030755113313563 33.72577159671545 0 0 0
277 7 2.6552322880910335 3.0861697640513794 33.79167499202337 0 0 0
301 7 0.20262955112884184 1.5575986769767765 35.744962496501266 0 0 0
302 7 2.6278284354586825 1.6783118987106818 35.849844054406795 0 0 0
306 4 1.410372256378348 3.8425823646448904 35.938504989728806 0 0 0
307 7 4.001517296105729 3.7375994792381504 35.82916642102294 0 0 0
273 7 6.472467801023309 0.9795147376650357 33.89957118553825 0 0 0
278 1 5.227972688784991 3.0041835083435475 33.723244553111 0 0 0
279 7 7.735961721223722 3.050559830680524 33.726824904872544 0 0 0
303 7 5.255402401544779 1.6725303890300531 35.93617376934248 0 0 0
304 4 7.772247860808472 1.6380009298336602 35.91916334543232 0 0 0
308 7 6.532822495860621 3.7181948948666923 35.802850596861866 0 0 0
274 7 8.849298059753533 0.9094301065209643 33.83200978989514 0 0 0
275 4 11.450801837367313 0.8109364457881532 33.70069848251259 0 0 0
280 7 10.214951694524608 3.0142509805447153 33.70251197745569 0 0 0
305 7 10.238592551130726 1.5851339754447829 35.709327621296524 0 0 0
309 7 9.019550548631567 3.681326233338527 35.77933962309609 0 0 0
310 4 11.578659794918396 3.940065020717123 35.86537678828039 0 0 0
281 7 1.3405057535214138 5.190287952252985 33.85282904543315 0 0 0
282 4 3.858702762084496 5.144310658814853 33.778437670551355 0 0 0
287 7 2.647679153518569 7.296539266557452 33.75688806978018 0 0 0
312 7 2.734802779107544 5.796976901350169 35.798591045738014 0 0 0
316 7 1.242736801665361 7.628545535994707 35.80161174402874 0 0 0
317 7 3.9386089246362515 8.050085147653744 35.74797736465311 0 0 0
283 7 6.3844258407045675 5.107695416453233 33.666847629362685 0 0 0
288 7 5.198662682699668 7.2781522618861905 33.680128141327714 0 0 0
289 7 7.642381000097986 7.20036368520901 33.7113042447565 0 0 0
313 7 5.256913035096951 5.919058941254595 35.73411622570213 0 0 0
314 7 7.713829173791003 5.824975283221187 35.72836171129922 0 0 0
318 4 6.553898424524065 8.126276174484548 35.82767992647732 0 0 0
311 2 12.407145005730293 6.004669968432226 35.32183229314454 -1 0 0
315 7 10.137404672740402 5.81316940878213 35.56776740888019 0 0 0
319 7 8.963861619206359 7.964424068652 35.83131525741212 0 0 0
320 7 11.366451968338176 7.9375715420681425 35.582435334761115 0 0 0
350 7 11.685035811450055 6.27554105233835 37.27960643430936 0 0 0
355 3 10.447058908985891 7.913432172655552 37.25804695545821 0 0 0
291 7 1.4777322741876773 9.433693802823713 33.726061578035555 0 0 0
297 6 3.0271948656011505 11.575457888150883 33.67721261949834 0 0 0
321 6 0.2164232543025844 10.077062376665236 35.89343053653751 0 0 0
322 7 2.702212988975778 10.170980338685176 35.76004382903682 0 0 0
326 7 0.51350853057754 11.66254620151281 33.66397544033888 0 0 0
327 6 3.922942026053665 12.512571990471763 36.07705832169592 0 0 0
356 4 1.4073623642111919 12.359910099340299 35.83191760377659 0 0 0
298 2 5.215366112864002 12.287519564153339 34.189690829424734 0 0 0
299 7 7.010371318173374 11.588514042679861 33.671510834891244 0 0 0
323 6 5.2428735106417195 10.24900519766067 35.56484306278416 0 0 0
324 7 7.925814408121759 10.359551961521127 35.700955784407704 0 0 0
328 7 6.476579175095198 12.520066726660295 35.91109267042647 0 0 0
294 7 8.782482389178211 9.295493679244222 33.68587742680408 0 0 0
295 6 11.278397256361506 9.709505964580883 33.75086489585441 0 0 0
300 7 9.392010894381084 11.553016171572114 34.15226662958463 0 0 0
325 7 10.265572783193251 9.851988083496664 37.00239324249647 0 0 0
329 3 9.542516241950404 11.417057823920102 36.17961568707623 0 0 0
330 4 11.270381667253385 12.094047322231031 35.55530986685938 0 0 0
335 5 9.91942005042014 12.93139587578088 37.36721564068027 0 -1 0
332 7 2.4919970431396097 0.09910756609110417 38.017172234761375 0 0 0
336 7 1.3442414157662341 2.1863249481128864 37.821208046365804 0 0 0
337 7 3.880628217804914 2.1961942272581694 37.85851406699258 0 0 0
341 7 0.22136824935883392 4.24874811276732 38.06129643180765 0 0 0
342 7 2.721586489708752 4.293811900862054 37.90086666415659 0 0 0
333 7 5.218480446372265 0.16265877319358554 38.09990753995545 0 0 0
334 7 7.661973349657073 0.08255375466682774 38.00062634457319 0 0 0
338 7 6.541486169813141 2.2714601153853953 37.89562575259212 0 0 0
339 7 9.00264809227362 2.2000103765247494 37.85460071530175 0 0 0
340 7 11.37521631529808 2.1982054000069984 37.70986841780276 0 0 0
346 7 1.5007585942824022 6.4045000864095245 37.98882717768532 0 0 0
347 6 3.962372851602166 6.474839676884568 37.824993295977336 0 0 0
361 8 3.9643992227893983 8.003989569533415 38.956620389001856 0 0 0
343 7 5.313424383725966 4.421016781888077 37.817447206587204 0 0 0
344 7 7.836436536469681 4.433728337445421 37.87395492478483 0 0 0
348 6 6.657937944942167 6.676867966567497 37.79953296072178 0 0 0
345 4 10.230727674656357 4.3473489818740045 37.8208804029287 0 0 0
349 7 9.270660996917668 6.656470462701495 37.91704148696522 0 0 0
351 7 12.26725845069157 8.580055965203663 37.82176430815284 -1 0 0
362 8 8.962589149791109 5.30284710563565 38.843096682067404 0 0 0
352 6 2.519369761624799 8.65688565299033 37.74492035917813 0 0 0
357 7 3.849135662217043 10.83104251137313 37.918419079546176 0 0 0
360 7 1.3959352508518146 10.897102291803387 37.87044314052033 1 0 0
353 7 5.152933301268456 8.734589520726026 37.86890514013178 0 0 0
354 7 7.96661195452028 8.955450013690891 37.81247392505701 0 0 0
358 6 6.438871321963916 10.865685997796017 37.784819717713944 0 0 0
331 7 12.402543830149131 12.894613279789185 37.61268752293897 -1 -1 0
359 2 8.612644010230369 11.199998361663543 37.40070902376577 0 0 0

Velocities

1 0 0 0
2 0 0 0
3 0 0 0
9 0 0 0
4 0 0 0
5 0 0 0
6 0 0 0
10 0 0 0
16 0 0 0
14 0 0 0
20 0 0 0
22 0 0 0
23 0 0 0
28 0 0 0
29 0 0 0
24 0 0 0
25 0 0 0
30 0 0 0
7 0 0 0
32 0 0 0
36 0 0 0
37 0 0 0
8 0 0 0
33 0 0 0
34 0 0 0
38 0 0 0
31 0 0 0
35 0 0 0
39 0 0 0
40 0 0 0
11 0 0 0
12 0 0 0
17 0 0 0
42 0 0 0
46 0 0 0
47 0 0 0
13 0 0 0
18 0 0 0
19 0 0 0
43 0 0 0
44 0 0 0
48 0 0 0
15 0 0 0
41 0 0 0
45 0 0 0
49 0 0 0
50 0 0 0
85 0 0 0
21 0 0 0
26 0 0 0
27 0 0 0
52 0 0 0
56 0 0 0
57 0 0 0
61 0 0 0
53 0 0 0
54 0 0 0
58 0 0 0
51 0 0 0
55 0 0 0
59 0 0 0
60 0 0 0
62 0 0 0
66 0 0 0
67 0 0 0
91 0 0 0
92 0 0 0
96 0 0 0
97 0 0 0
63 0 0 0
64 0 0 0
68 0 0 0
73 0 0 0
93 0 0 0
98 0 0 0
99 0 0 0
65 0 0 0
69 0 0 0
70 0 0 0
94 0 0 0
95 0 0 0
100 0 0 0
72 0 0 0
76 0 0 0
77 0 0 0
82 0 0 0
101 0 0 0
102 0 0 0
107 0 0 0
74 0 0 0
78 0 0 0
103 0 0 0
108 0 0 0
109 0 0 0
71 0 0 0
75 0 0 0
79 0 0 0
80 0 0 0
81 0 0 0
104 0 0 0
105 0 0 0
106 0 0 0
110 0 0 0
86 0 0 0
87 0 0 0
111 0 0 0
112 0 0 0
116 0 0 0
117 0 0 0
83 0 0 0
84 0 0 0
88 0 0 0
113 0 0 0
118 0 0 0
119 0 0 0
89 0 0 0
90 0 0 0
114 0 0 0
115 0 0 0
120 0 0 0
121 0 0 0
122 0 0 0
126 0 0 0
127 0 0 0
152 0 0 0
156 0 0 0
157 0 0 0
162 0 0 0
123 0 0 0
124 0 0 0
128 0 0 0
153 0 0 0
154 0 0 0
158 0 0 0
163 0 0 0
164 0 0 0
125 0 0 0
129 0 0 0
130 0 0 0
155 0 0 0
159 0 0 0
160 0 0 0
165 0 0 0
131 0 0 0
132 0 0 0
136 0 0 0
137 0 0 0
161 0 0 0
166 0 0 0
167 0 0 0
172 0 0 0
133 0 0 0
134 0 0 0
138 0 0 0
168 0 0 0
173 0 0 0
135 0 0 0
139 0 0 0
140 0 0 0
169 0 0 0
170 0 0 0
175 0 0 0
141 0 0 0
142 0 0 0
146 0 0 0
147 0 0 0
151 0 0 0
171 0 0 0
176 0 0 0
177 0 0 0
143 0 0 0
144 0 0 0
148 0 0 0
178 0 0 0
145 0 0 0
149 0 0 0
150 0 0 0
174 0 0 0
179 0 0 0
180 0 0 0
181 0 0 0
182 0 0 0
186 0 0 0
187 0 0 0
211 0 0 0
212 0 0 0
216 0 0 0
217 0 0 0
183 0 0 0
188 0 0 0
189 0 0 0
213 0 0 0
214 0 0 0
218 0 0 0
184 0 0 0
185 0 0 0
190 0 0 0
215 0 0 0
219 0 0 0
220 0 0 0
191 0 0 0
192 0 0 0
196 0 0 0
197 0 0 0
221 0 0 0
222 0 0 0
226 0 0 0
227 0 0 0
193 0 0 0
198 0 0 0
199 0 0 0
223 0 0 0
224 0 0 0
228 0 0 0
194 0 0 0
195 0 0 0
200 0 0 0
225 0 0 0
229 0 0 0
230 0 0 0
201 0 0 0
202 0 0 0
206 0 0 0
207 0 0 0
231 0 0 0
232 0 0 0
236 0 0 0
203 0 0 0
208 0 0 0
209 0 0 0
233 0 0 0
234 0 0 0
238 0 0 0
204 0 0 0
205 0 0 0
210 0 0 0
235 0 0 0
239 0 0 0
240 0 0 0
237 0 0 0
241 0 0 0
242 0 0 0
246 0 0 0
247 0 0 0
244 0 0 0
248 0 0 0
249 0 0 0
250 0 0 0
255 0 0 0
251 0 0 0
252 0 0 0
256 0 0 0
257 0 0 0
286 0 0 0
253 0 0 0
254 0 0 0
258 0 0 0
264 0 0 0
259 0 0 0
260 0 0 0
284 0 0 0
285 0 0 0
290 0 0 0
261 0 0 0
262 0 0 0
266 0 0 0
267 0 0 0
292 0 0 0
243 0 0 0
263 0 0 0
268 0 0 0
293 0 0 0
245 0 0 0
265 0 0 0
269 0 0 0
270 0 0 0
296 0 0 0
271 0 0 0
272 0 0 0
276 0 0 0
277 0 0 0
301 0 0 0
302 0 0 0
306 0 0 0
307 0 0 0
273 0 0 0
278 0 0 0
279 0 0 0
303 0 0 0
304 0 0 0
308 0 0 0
274 0 0 0
275 0 0 0
280 0 0 0
305 0 0 0
309 0 0 0
310 0 0 0
281 0 0 0
282 0 0 0
287 0 0 0
312 0 0 0
316 0 0 0
317 0 0 0
283 0 0 0
288 0 0 0
289 0 0 0
313 0 0 0
314 0 0 0
318 0 0 0
311 0 0 0
315 0 0 0
319 0 0 0
320 0 0 0
350 0 0 0
355 0 0 0
291 0 0 0
297 0 0 0
321 0 0 0
322 0 0 0
326 0 0 0
327 0 0 0
356 0 0 0
298 0 0 0
299 0 0 0
323 0 0 0
324 0 0 0
328 0 0 0
294 0 0 0
295 0 0 0
300 0 0 0
325 0 0 0
329 0 0 0
330 0 0 0
335 0 0 0
332 0 0 0
336 0 0 0
337 0 0 0
341 0 0 0
342 0 0 0
333 0 0 0
334 0 0 0
338 0 0 0
339 0 0 0
340 0 0 0
346 0 0 0
347 0 0 0
361 0 0 0
343 0 0 0
344 0 0 0
348 0 0 0
345 0 0 0
349 0 0 0
351 0 0 0
362 0 0 0
352 0 0 0
357 0 0 0
360 0 0 0
353 0 0 0
354 0 0 0
358 0 0 0
331 0 0 0
359 0 0 0
