LAMMPS data file via write_data, version 11 Feb 2026, timestep = 141, units = metal

361 atoms
8 atom types

0 12.447907776 xlo xhi
0 12.9362452296 ylo yhi
0 52.3600831054 zlo zhi

Masses

1 26.9815
2 10.811
3 12.011
4 51.9961
5 55.845
6 95.95999999999999
7 58.6934
8 1.008

Atoms # atomic/kk

1 7 1.1447475034 1.4042530815 14.1767669076 0 0 0
2 7 3.6084602259 1.0698845996 14.6704381247 0 0 0
3 5 6.0765506298 0.9467816033 14.9127945674 0 0 0
9 7 7.3904254576 3.1552415677 14.921343358 0 0 0
5 7 11.0497419237 1.2529911546 14.6024861837 0 0 0
6 7 12.371824795299998 3.4559595715 14.8227813157 -1 0 0
10 7 9.9130540797 3.3904065996 14.7812471609 0 0 0
16 4 0.4694173902 7.8125304368 14.7997570607 0 0 0
20 7 10.4454755951 7.6697182118 14.1848688757 0 0 0
26 7 0.1281197666 12.2044764222 14.9105894271 0 0 0
27 7 2.482376412 11.8082341077 14.4640395444 0 0 0
23 7 6.9215809143 9.0056325864 14.7794199109 0 0 0
28 7 4.9597127568 11.7869866321 14.6074736033 0 0 0
29 6 7.487468691 11.492489151 14.9214469503 0 0 0
24 7 9.211267288 9.7383043985 14.542324574 0 0 0
25 7 11.7628351674 9.8745411843 14.7910184475 0 0 0
30 7 10.0617556164 11.945152431 14.7619795889 0 0 0
7 7 2.4276438825 3.274586701 14.9921379853 0 0 0
31 6 0.1320668178 1.5666912763 16.54569988 0 0 0
32 7 2.6047881521 1.6851371804 16.9156842324 0 0 0
36 7 1.2195215325 3.8560608354 17.0299024962 0 0 0
37 7 3.7103479774 3.8371572501 17.0572271382 0 0 0
56 2 1.9139638832 0.320698286899999 15.6094045829 0 1 0
8 7 4.9287232821 3.1271355871 15.0109940309 0 0 0
33 7 4.9854693445 1.6648399647 16.9552168616 0 0 0
34 7 7.410113639 1.7690174525 16.9802513671 0 0 0
38 5 6.1786870847 3.8598965293 16.9892925392 0 0 0
4 6 8.6405916037 0.9966073374 15.0011028893 0 0 0
35 7 9.9854439602 1.6623584179 16.9441720819 0 0 0
39 7 8.7306918901 3.8627101762 16.8623801969 0 0 0
40 7 11.1905275305 3.8067890199 17.0006893521 0 0 0
11 7 1.2348702966 5.4950064056 15.0806985502 0 0 0
12 7 3.723333195 5.3162088046 15.091556138 0 0 0
17 7 2.6528824888 7.4951525199 15.1538371669 0 0 0
42 7 2.4538170063 6.1274901805 17.1415379148 0 0 0
47 7 3.8866203033 8.1976953877 17.0635533141 0 0 0
13 7 6.1787690715 5.3054540189 15.034535629 0 0 0
18 7 5.0798141029 7.4787706901 15.0688046453 0 0 0
19 2 7.0597951203 7.0189274967 15.3897174295 0 0 0
43 7 4.9526824561 5.9628190941 17.0949149841 0 0 0
44 7 7.4770692341 5.9405064365 17.0881545432 0 0 0
48 7 6.3467693742 8.0549577382 17.0498728177 0 0 0
14 7 8.7041968087 5.6586120419 14.9658205562 0 0 0
15 6 11.1806031706 5.6044565055 15.1850152514 0 0 0
41 7 12.442168210099998 5.9982391836 17.2267436521 -1 0 0
45 7 9.923455112 6.0385351278 17.2532666192 0 0 0
49 7 8.7166078523 7.9219477302 16.0697967416 0 0 0
50 7 11.1854260308 7.9909608595 16.4539207548 0 0 0
85 6 9.7874825474 8.473382021 18.5408467256 0 0 0
21 2 1.1654244367 10.4783622607 15.2130316912 0 0 0
22 7 2.969847795 9.8650340587 15.6453950804 0 0 0
46 7 0.7946061559 9.3672820405 16.8749701293 0 0 0
52 7 1.3503573598 11.8646523864 16.9891542204 0 0 0
57 7 3.753873893 12.4366743176 16.6098759546 0 0 0
87 1 3.6650451701 10.7156807278 18.2659007397 0 0 0
53 7 5.3358928559 10.1219872041 16.3275402765 0 0 0
54 7 7.7336051436 10.0538114804 16.9470367537 0 0 0
58 6 6.3195663174 12.3667352783 16.9550847684 0 0 0
51 3 11.519673145099999 9.370279149 17.6624171524 -1 0 0
55 7 10.1852587848 10.2759719364 16.6816821896 0 0 0
59 7 8.8367077706 12.3810361477 16.9622360876 0 0 0
60 7 11.2428990064 12.4670428062 16.882988677 0 0 0
66 6 1.393007034 2.1659191631 19.0534804658 0 0 0
67 5 3.8310712323 2.169749835 19.077551421 0 0 0
91 4 1.3610097719 0.7490016766 21.3001474804 0 0 0
92 7 3.7532698079 0.7243006354 21.0553737996 0 0 0
96 7 0.082079932 2.7970216106 21.1874527472 0 0 0
97 7 2.5927240934 2.8497939446 21.1992924965 0 0 0
63 5 4.9567742477 0.0529982254 18.9618634931 0 0 0
64 7 7.4416746235 0.0821708056 19.1014191477 0 0 0
68 7 6.1949360288 2.1588642027 19.0801897325 0 0 0
74 6 7.5018096017 4.2853629911 19.0547359126 0 0 0
93 7 6.2598414465 0.7194660822 21.17367312 0 0 0
98 7 5.0257186556 2.8737258399 21.1536837203 0 0 0
99 5 7.4793105556 2.8150634673 21.1692986238 0 0 0
65 7 10.0018085899 0.0802466939 19.0961651875 0 0 0
69 7 8.7385472152 2.1539822136 18.9954608723 0 0 0
70 7 11.2870638013 2.2382207273 18.9541707741 0 0 0
75 5 9.908720947 4.3054275401 19.0335874063 0 0 0
94 7 8.7140507513 0.7135233683 21.2362014867 0 0 0
95 7 11.3045523296 0.6704651065 21.199536471 0 0 0
100 6 10.0309211856 2.7845552589 21.0550342549 0 0 0
72 7 2.4838430183 4.388962084 19.1070457725 0 0 0
76 7 1.200144222 6.4346976141 19.2600213636 0 0 0
77 7 3.7839563224 6.5073099035 19.1651823211 0 0 0
82 6 2.3588605673 8.4890673053 18.9154467805 0 0 0
101 7 1.204403147 4.986371594 21.2593935642 0 0 0
102 6 3.7298053141 5.0424743752 21.2297752978 0 0 0
107 7 2.4685484599 7.1728356576 21.2326094282 0 0 0
73 7 4.9759755061 4.316411451 19.087212733 0 0 0
78 7 6.1965388899 6.5190956683 19.1399785413 0 0 0
103 7 6.2751972116 5.0470676015 21.1760724515 0 0 0
108 7 5.0116983743 7.22861409 21.2268755354 0 0 0
109 7 7.4193353481 7.2485706051 21.2651304498 0 0 0
71 1 12.383629132 4.3782094725 19.1862342201 -1 0 0
79 7 8.6255974932 6.472044202 19.3232968982 0 0 0
80 7 11.1135754549 6.420590323 19.3581641471 0 0 0
81 4 12.342695017999999 8.4729562787 19.2006565517 -1 0 0
104 7 8.7408050898 5.0231569879 21.2437432022 0 0 0
105 3 10.08422129821692 4.371953933735408 22.288692196811784 0 0 0
106 7 12.435294388199999 7.0968971559 21.3158557077 -1 0 0
110 7 9.8903603607 7.1660305315 21.3021949042 0 0 0
61 6 0.0477387397 12.935022616100001 18.9949290075 0 -1 0
62 7 2.587482576 12.8543346047 19.0383469717 0 -1 0
86 7 1.2816847716 10.6903307998 19.1614661098 0 0 0
111 7 1.1796694452 9.2896516501 21.1960342799 0 0 0
112 6 3.7016357908 9.3557762036 21.1431867319 0 0 0
116 1 0.0369839214 11.486698451 21.2977096144 0 0 0
117 7 2.4704264091 11.5284142583 21.1452899236 0 0 0
83 7 4.9462384898 8.7330200409 19.0834474924 0 0 0
84 7 7.3974678157 8.6397297376 19.085743402 0 0 0
88 7 6.1625171869 10.8013148416 18.9301045672 0 0 0
113 7 6.2139769728 9.4092095126 21.0353192467 0 0 0
118 7 4.9639845145 11.5407295129 21.0425881559 0 0 0
119 4 7.3995383715 11.5362046003 21.0747824702 0 0 0
89 6 8.731338748 10.8500854071 19.0384744744 0 0 0
90 4 11.272219843 10.8209844576 18.9386324767 0 0 0
114 7 8.6997099562 9.3160354633 20.9928929717 0 0 0
115 6 11.109001975 9.2519683408 21.1755872983 0 0 0
120 7 9.9858618188 11.5164614705 21.1821863062 0 0 0
121 7 0.07738036869353884 1.3735651313121353 23.313780560588995 0 0 0
122 7 2.5688135270713013 1.3853940124523285 23.333331972906635 0 0 0
126 6 1.34834158890824 3.568154288567768 23.269336580207646 0 0 0
127 7 3.843933289055724 3.571863178463654 23.365194976212813 0 0 0
156 1 1.4728499834453355 2.1118960846531025 25.518782491247983 0 0 0
157 7 3.9592426369549925 2.1184207788642486 25.44781684268425 0 0 0
162 7 2.591899123696506 4.244018804870852 25.43117335746288 0 0 0
123 7 4.985795801544613 1.4105350513486496 23.16608282524128 0 0 0
124 7 7.38724314908813 1.4816174168047684 23.490311274297333 0 0 0
128 7 6.296818034802483 3.645462021965053 23.18723032367771 0 0 0
153 7 5.190465512161483 0.05328924554082815 25.296996414366333 0 0 0
158 2 5.769032481409497 2.4386076342397986 24.632681408681535 0 0 0
163 7 5.111261775378933 4.225228119613429 25.42479470205643 0 0 0
164 5 7.470320973576812 4.042336983539045 25.363997105430744 0 0 0
125 7 10.036368327305095 1.4078845583794426 23.358698733846012 0 0 0
129 7 8.744513265675545 3.5265208207345267 23.351430928137123 0 0 0
130 4 11.359976437267566 3.596632056088061 23.406374563676298 0 0 0
155 4 10.112501620957062 0.041935160789222437 25.562363103290053 0 0 0
159 7 8.862444162224362 2.078775861416897 25.451799686678964 0 0 0
160 7 11.393779976756413 2.1343138223400806 25.425179898922753 0 0 0
165 7 10.058334083138478 4.196795066037395 25.416446189181496 0 0 0
131 7 0.06361027574171554 5.750616491471464 23.407333423350963 0 0 0
132 7 2.535294204839582 5.778789820471115 23.363715932043075 0 0 0
136 7 1.2955636797674828 7.892329153738594 23.308407346735123 0 0 0
137 7 3.769237588536013 7.959984643855643 23.28181153223259 0 0 0
161 4 0.10164017309046422 4.319292942353596 25.472619233002057 0 0 0
166 7 1.3301132437670367 6.393451987249505 25.433559598317498 0 0 0
167 7 3.8003995329191818 6.417314918635954 25.4461399748037 0 0 0
171 6 0.10180924404094878 8.592245461813375 25.433937193221418 0 0 0
172 7 2.6148238937239214 8.587427810875498 25.379411145362393 0 0 0
133 6 5.057733755274343 5.838011950041608 23.391027331043542 0 0 0
134 7 7.552021428737803 5.757078584060859 23.31882676909942 0 0 0
138 7 6.30267451100671 7.9753595523475225 23.344912944430064 0 0 0
168 7 6.357756490898567 6.3741524941122005 25.436975275544473 0 0 0
173 7 5.096716965761474 8.532677291112613 25.336045120839593 0 0 0
135 7 10.056722301182916 5.803570046788679 23.392153745344352 0 0 0
139 4 8.686357805591275 7.920538869750998 23.2485370086667 0 0 0
140 4 11.27433081220938 7.868138080712427 23.32201841632544 0 0 0
169 7 8.768167946250427 6.308857994865955 25.388198973012145 0 0 0
170 7 11.281697143989902 6.385887723227673 25.452763672851926 0 0 0
175 6 9.87736546631553 8.544861855070463 25.52834426346642 0 0 0
141 7 0.01206562690413838 10.045616652053537 23.34781767949304 0 0 0
142 7 2.4880761027785403 10.084132101307258 23.258641538586573 0 0 0
146 7 1.2943326474274475 12.21311363859266 23.35462988761812 0 0 0
147 7 3.798473865589736 12.222390210391035 23.18408117318227 0 0 0
151 4 0.08447105897732118 12.852844448896569 25.41972495188904 0 -1 0
152 7 2.6469411425727025 12.922398424290929 25.377816053821736 0 -1 0
176 7 1.3342364914433134 10.777107224730303 25.435973535830467 0 0 0
177 6 3.8714893390777934 10.794975339390064 25.277693386556642 0 0 0
143 7 5.046767445372146 10.08339780338954 23.185274762230335 0 0 0
144 7 7.49721122535469 10.067300472089112 22.92404041335063 0 0 0
148 4 6.204502516397641 12.248567978215693 23.189540207533472 0 0 0
154 7 7.5930484630064985 12.92075885418519 25.47942053209044 0 -1 0
178 6 6.609001412942963 10.521043121957453 25.22464208373365 0 0 0
145 7 9.987572486629206 10.052171070167908 23.320115785666623 0 0 0
149 6 8.69980097549209 12.25045644905646 23.334405812262688 0 0 0
150 7 11.238878563525686 12.195796456359329 23.410109429873543 0 0 0
174 3 8.405440614863961 9.487105575969553 24.428170147389018 0 0 0
179 5 8.990156612171509 10.900188823675428 25.587939790665004 0 0 0
180 5 11.327889617994986 10.8446603660374 25.51141007156805 0 0 0
181 7 1.3836935173242912 0.6438186330797205 27.501513650163584 0 0 0
182 7 3.8706310838125106 0.6812170805895109 27.441089302767338 0 0 0
186 7 0.16495852502808006 2.835780844025283 27.49944381384149 0 0 0
187 7 2.6543063683456136 2.8308947182773783 27.572376601501546 0 0 0
211 7 0.2043659724546444 1.4233563125987911 29.597698580251954 0 0 0
212 7 2.7074469805512265 1.3380382582620984 29.587036108639825 0 0 0
216 7 1.4052174932847936 3.532679612428063 29.594920068326406 0 0 0
217 4 3.818949333529484 3.5509091920194114 29.605166049691935 0 0 0
183 7 6.304017540588233 0.6934724982576039 27.578193528078405 0 0 0
188 7 5.077521666978715 2.8520014960696667 27.58276677524893 0 0 0
189 7 7.5893086238397895 2.7713643575454006 27.470303344708313 0 0 0
213 5 5.130212929988883 1.4048349993387097 29.608544712064365 0 0 0
214 7 7.6078056655688515 1.3332381174500751 29.601384027264274 0 0 0
218 7 6.358558192544981 3.514837743256156 29.552105341955716 0 0 0
184 7 8.879933589592607 0.6971088136045631 27.575095349743993 0 0 0
185 4 11.377838629298086 0.7003124722011133 27.54779969296562 0 0 0
190 7 10.138872896991257 2.809752920431289 27.498169191021603 0 0 0
215 7 10.119304602328025 1.381956701567371 29.641208832762484 0 0 0
219 7 8.833388886797032 3.490162159033337 29.53965325807248 0 0 0
220 7 11.363265377724485 3.5373609539045803 29.530690154900103 0 0 0
191 7 1.3848799622369923 4.984408728429081 27.47795800769981 0 0 0
192 7 3.8275319476145433 4.968149331726168 27.487702589331025 0 0 0
196 7 0.13026117049100636 7.135490404765463 27.505124535602157 0 0 0
197 7 2.572713575740611 7.1715626940629065 27.480209112076246 0 0 0
221 7 0.11435506453432732 5.7050480969496284 29.578456450039596 0 0 0
222 7 2.5848389845043664 5.706659183737082 29.555780822432567 0 0 0
226 7 1.358365634844409 7.882342723300516 29.55791885793457 0 0 0
227 7 3.854781834514152 7.892587573958815 29.472493186833404 0 0 0
193 7 6.363851080937724 4.953496317937353 27.419973405133174 0 0 0
198 7 5.096138953959131 7.151859390306149 27.416640483726564 0 0 0
199 7 7.615316539947612 7.166249987591 27.455068242193654 0 0 0
223 6 5.146936924229756 5.698878730725105 29.495513764499787 0 0 0
224 7 7.638294604212106 5.715572593124181 29.589857503171913 0 0 0
228 7 6.3879109753935435 7.890840379480858 29.49723167316067 0 0 0
194 6 8.841817782807192 4.97462215269766 27.50110320167809 0 0 0
195 7 11.354594109698265 4.9719289588295394 27.515885274263518 0 0 0
200 7 10.117972205337011 7.13518205544154 27.547921748809046 0 0 0
225 7 10.095513260699654 5.718348650029085 29.61445875234822 0 0 0
229 7 8.840782190193933 7.860004310417907 29.533756415951174 0 0 0
230 7 11.363388143311107 7.9091655790429325 29.532912983982655 0 0 0
201 5 1.3730591206881768 9.304320414413832 27.521119530507026 0 0 0
202 7 3.8660137824577467 9.300194423487358 27.38024622215372 0 0 0
206 4 0.18132462267311147 11.45588341260497 27.53237086581217 0 0 0
207 7 2.60507615884925 11.436682469066426 27.443798887107384 0 0 0
231 7 0.15949062415208948 10.058197384533784 29.577511072728775 0 0 0
232 7 2.6282124716214783 10.006934937511838 29.43293712631918 0 0 0
236 7 1.4662693830159736 12.162658262788552 29.561929055454076 0 0 0
203 7 6.368904997316412 9.264037095904552 27.39310526355432 0 0 0
208 7 5.13216498770262 11.479495380035686 27.324999074170222 0 0 0
209 6 7.576343899074582 11.503079255915589 27.645964460478975 0 0 0
233 7 5.14343424690504 10.03471554625542 29.328049487796775 0 0 0
234 7 7.595096761449853 10.065921557067188 29.669280195179404 0 0 0
238 7 6.207058039598864 12.215687430318813 29.6868427504566 0 0 0
204 7 8.833228945060066 9.346416063371336 27.631148029915938 0 0 0
205 7 11.339507993993927 9.394445715087354 27.554739582287656 0 0 0
210 7 10.14529286255917 11.532043480039428 27.59301821107274 0 0 0
235 7 10.080011319720592 10.15773800276423 29.61029651307319 0 0 0
239 4 8.87317264975101 12.233356856139787 29.740150984991995 0 0 0
240 7 11.390272325191038 12.245837845978585 29.571632276627035 0 0 0
237 3 4.030629908590395 0.27420419943223 30.562450624739476 0 1 0
241 7 0.19530348601584788 0.08364682129849323 31.643851250858162 0 0 0
242 7 2.5641789277408855 0.12570332182489238 31.746301490963855 0 0 0
246 4 1.3386515263054342 2.226929953757377 31.67107359828729 0 0 0
247 7 3.8752959445956465 2.1369237080986414 31.64881296408538 0 0 0
251 7 0.14122428271557508 4.3101609139289705 31.65602853041195 0 0 0
252 7 2.6271388197278545 4.305414063914663 31.672054394464723 0 0 0
248 7 6.402347350839944 2.134296793151617 31.656217219464505 0 0 0
253 7 5.10708658494853 4.295682112137079 31.62956697236187 0 0 0
254 7 7.616139454029745 4.296797310956583 31.60282805498518 0 0 0
249 7 8.846308030438573 2.0875598768265338 31.692702061145237 0 0 0
250 7 11.377677313451596 2.1231990672600864 31.66931384786277 0 0 0
255 1 10.099163328527851 4.204730862175206 31.515373722526935 0 0 0
256 7 1.3231288556692251 6.488237611557078 31.640020086903746 0 0 0
257 6 3.78518212712335 6.4884921285313135 31.664639086265453 0 0 0
286 7 0.08854642041235974 7.267148000837864 33.62926512134878 0 0 0
258 7 6.3447271174311775 6.479420507978638 31.62792560701513 0 0 0
264 7 7.58293286230447 8.561823347585767 31.626960801294047 0 0 0
259 4 8.814042931935179 6.445753775240519 31.637615668115664 0 0 0
260 7 11.30898588072902 6.475356953659214 31.601187942938996 0 0 0
284 5 8.877871045238281 5.105249200434547 33.5982285208625 0 0 0
285 4 11.344852692116879 5.142431142385066 33.642535313250654 0 0 0
290 7 10.077038757071763 7.241588244801499 33.60483294869155 0 0 0
261 7 0.17176983894105613 8.69593140153974 31.65985724228819 0 0 0
262 7 2.658400644010149 8.707278871414164 31.534975577729373 0 0 0
266 7 1.5583149719365628 10.819950691885463 31.57880662878271 0 0 0
267 4 3.914064836138224 11.260935678408373 30.860386027327166 0 0 0
292 7 3.9534564911330143 9.3629928373482 33.50563527396276 0 0 0
243 7 5.163936137727987 12.889328782808866 32.107834808903846 0 -1 0
244 7 7.621541900566245 12.922674601440969 31.72195921268753 0 -1 0
263 1 5.087708114546197 8.747553260879423 31.423963927298157 0 0 0
268 7 6.254436771079273 10.747841547481569 31.58528996357397 0 0 0
293 4 6.4433416934948395 9.303470620771233 33.65303050832987 0 0 0
245 7 10.105164611849366 12.870062851886113 31.880534983922132 0 -1 0
265 6 10.096612411423466 8.666741571782397 31.55215601324473 0 0 0
269 7 8.76721971345315 10.785197268046078 31.754591026271907 0 0 0
270 7 11.42245489564705 10.891805353156414 31.626065606964314 0 0 0
296 3 11.066273586855559 11.819420966063866 33.344396427453255 -1 0 0
271 7 1.4703871891457834 0.8904657723949497 33.78075524486398 0 0 0
272 7 3.9161511552515873 0.9448263187299635 33.92665760219437 0 0 0
276 7 0.17432330286187672 2.9827593325911863 33.741458933883905 0 0 0
277 7 2.6407464127532494 3.068477019582771 33.80143124208068 0 0 0
301 7 0.18776150595836832 1.5444193880022794 35.761599319242585 0 0 0
302 7 2.6128156043203927 1.6582806581045353 35.86084417310523 0 0 0
306 4 1.4134113535564647 3.8214782386888477 35.963121839149494 0 0 0
307 7 3.9941035281879835 3.719965637597734 35.84009468113021 0 0 0
273 7 6.462222809733952 0.9597892677415057 33.91251912009435 0 0 0
278 1 5.2150154384916405 2.9832382684647216 33.728928498122535 0 0 0
279 7 7.724369465529151 3.0268722027692916 33.73963885027348 0 0 0
303 7 5.239676929841854 1.651502481331731 35.936341575790415 0 0 0
304 4 7.77236462304418 1.6108883545247137 35.94951407479863 0 0 0
308 7 6.529522529981678 3.6893244001109338 35.812549495933276 0 0 0
274 7 8.837268888330657 0.8875776079049508 33.849135208859096 0 0 0
275 4 11.434902581671878 0.7876231920163758 33.727266963392545 0 0 0
280 7 10.203681645675575 2.9861092605008808 33.7233072680049 0 0 0
305 7 10.220044108055058 1.555207171934473 35.739901028500576 0 0 0
309 7 9.018136026146125 3.658236537992082 35.7931510803963 0 0 0
310 4 11.59326921574634 3.9387190830006853 35.881601610916775 0 0 0
281 7 1.3190412598596877 5.168475439192357 33.86144401182037 0 0 0
282 4 3.844292371024614 5.122759553260594 33.76944963470925 0 0 0
287 7 2.626807105472967 7.275507902111739 33.74614897104833 0 0 0
312 7 2.724412086260868 5.775784511168466 35.78159698068138 0 0 0
316 7 1.2096669970286813 7.590299407389844 35.79108899255013 0 0 0
317 7 3.923789702355609 8.050912057704146 35.73552312599063 0 0 0
283 7 6.373572757496193 5.0857046660060305 33.67615367094696 0 0 0
288 7 5.175632090119334 7.257507553330206 33.66998586504575 0 0 0
289 7 7.623304549930333 7.170540623039048 33.722802421518765 0 0 0
313 7 5.261150123771336 5.90232510308373 35.718182790697526 0 0 0
314 7 7.716812094641407 5.8072626904503535 35.762900337856905 0 0 0
318 4 6.5426573419475105 8.106751270844578 35.81131702640839 0 0 0
311 2 12.376157180667056 5.983396564593129 35.33144550187806 -1 0 0
315 7 10.130231891026543 5.784035609540882 35.59147144538442 0 0 0
319 7 8.949288441175925 7.958635878301454 35.824334485235404 0 0 0
320 7 11.3442239183362 7.912599362728737 35.59897830853443 0 0 0
350 7 11.669786079094813 6.2463606620709875 37.30500062374349 0 0 0
355 3 10.426465244290016 7.8945513120754915 37.27372412693696 0 0 0
291 7 1.4619776050566475 9.413572073242884 33.73440280850917 0 0 0
297 6 3.0165905293828907 11.563864423795172 33.67954939846578 0 0 0
321 6 0.20458825719544915 10.050331533880312 35.913470154605754 0 0 0
322 7 2.6935801409550977 10.18678146519094 35.76597537732356 0 0 0
326 7 0.4999672216807298 11.64007238671904 33.68397387863368 0 0 0
327 6 3.911871361549976 12.49621636207532 36.11276719119567 0 0 0
356 4 1.3902174893843864 12.349413874882481 35.85319533213706 0 0 0
298 2 5.19449852166344 12.279960787067848 34.21782303740382 0 0 0
299 7 6.97840990387787 11.563729704135406 33.68650155772304 0 0 0
323 6 5.225383948176839 10.227928736439276 35.57942071547397 0 0 0
324 7 7.900960603690765 10.340533009115244 35.71102755614119 0 0 0
328 7 6.462547369669636 12.506636385571547 35.92687992205844 0 0 0
294 7 8.760823597665683 9.27012139169918 33.69779111118601 0 0 0
295 6 11.261423758930368 9.683064124152077 33.770371281489005 0 0 0
300 7 9.365830104860605 11.52943853207046 34.16201990539377 0 0 0
325 7 10.248505467673064 9.837916117745568 37.027693151911556 0 0 0
329 3 9.51675062150994 11.3909626899151 36.19491349290721 0 0 0
330 4 11.248538152424052 12.052733834908173 35.572443311229144 0 0 0
335 5 9.889051596094404 12.89965560779671 37.38548497338105 0 -1 0
332 7 2.476239226898589 0.08817866704304073 38.04220281559882 0 0 0
336 7 1.3294308769792116 2.170268490011339 37.836404594896905 0 0 0
337 7 3.867213966401006 2.1805393777819146 37.867105190650896 0 0 0
341 7 0.20383087343846823 4.230906904869422 38.08152859274163 0 0 0
342 7 2.7085248478498793 4.2786834868238195 37.92967512469061 0 0 0
333 7 5.202475329100892 0.14343545441058395 38.13002284758671 0 0 0
334 7 7.638673246123315 0.06457949797567418 38.02433326843624 0 0 0
338 7 6.484298765001017 2.234244244797976 37.90577709592287 0 0 0
339 7 8.972972951434341 2.1852668074571993 37.94048141093367 0 0 0
340 7 11.360938731995395 2.178848211496774 37.73107877748525 0 0 0
361 8 8.876540911863737 3.640523854267586 38.94362703434388 0 0 0
346 7 1.5107396238143675 6.393467113573977 37.993790088782504 0 0 0
347 6 3.958050067531828 6.4603479537079345 37.76348943072076 0 0 0
343 7 5.301569267774738 4.419605882425267 37.84142095258898 0 0 0
344 7 7.804886504606985 4.4318599286715585 37.87821676258471 0 0 0
348 6 6.652492459872825 6.664644826166189 37.83090945862475 0 0 0
345 4 10.19090876404577 4.313516010565412 37.84715660491118 0 0 0
349 7 9.238559126042118 6.612519727403273 37.857447655193404 0 0 0
351 7 12.234813136718925 8.54508955246811 37.84184340082345 -1 0 0
352 6 2.4835433862594534 8.649488138026719 37.690665736346084 0 0 0
357 7 3.835915357343255 10.795668286874008 37.95628728145381 0 0 0
360 7 1.3809827855144783 10.891342384478211 37.89525754540389 1 0 0
353 7 5.116160542504474 8.688092465540812 37.83213216550233 0 0 0
354 7 7.953675306094725 8.943388884553729 37.81748362237366 0 0 0
358 6 6.413168809848084 10.840073092281237 37.793397690960624 0 0 0
331 7 12.379609416954791 12.873591518881518 37.625215339869506 -1 -1 0
359 2 8.589884034730314 11.1575253892706 37.41949344129126 0 0 0

Velocities

1 0 0 0
2 0 0 0
3 0 0 0
9 0 0 0
5 0 0 0
6 0 0 0
10 0 0 0
16 0 0 0
20 0 0 0
26 0 0 0
27 0 0 0
23 0 0 0
28 0 0 0
29 0 0 0
24 0 0 0
25 0 0 0
30 0 0 0
7 0 0 0
31 0 0 0
32 0 0 0
36 0 0 0
37 0 0 0
56 0 0 0
8 0 0 0
33 0 0 0
34 0 0 0
38 0 0 0
4 0 0 0
35 0 0 0
39 0 0 0
40 0 0 0
11 0 0 0
12 0 0 0
17 0 0 0
42 0 0 0
47 0 0 0
13 0 0 0
18 0 0 0
19 0 0 0
43 0 0 0
44 0 0 0
48 0 0 0
14 0 0 0
15 0 0 0
41 0 0 0
45 0 0 0
49 0 0 0
50 0 0 0
85 0 0 0
21 0 0 0
22 0 0 0
46 0 0 0
52 0 0 0
57 0 0 0
87 0 0 0
53 0 0 0
54 0 0 0
58 0 0 0
51 0 0 0
55 0 0 0
59 0 0 0
60 0 0 0
66 0 0 0
67 0 0 0
91 0 0 0
92 0 0 0
96 0 0 0
97 0 0 0
63 0 0 0
64 0 0 0
68 0 0 0
74 0 0 0
93 0 0 0
98 0 0 0
99 0 0 0
65 0 0 0
69 0 0 0
70 0 0 0
75 0 0 0
94 0 0 0
95 0 0 0
100 0 0 0
72 0 0 0
76 0 0 0
77 0 0 0
82 0 0 0
101 0 0 0
102 0 0 0
107 0 0 0
73 0 0 0
78 0 0 0
103 0 0 0
108 0 0 0
109 0 0 0
71 0 0 0
79 0 0 0
80 0 0 0
81 0 0 0
104 0 0 0
105 0 0 0
106 0 0 0
110 0 0 0
61 0 0 0
62 0 0 0
86 0 0 0
111 0 0 0
112 0 0 0
116 0 0 0
117 0 0 0
83 0 0 0
84 0 0 0
88 0 0 0
113 0 0 0
118 0 0 0
119 0 0 0
89 0 0 0
90 0 0 0
114 0 0 0
115 0 0 0
120 0 0 0
121 0 0 0
122 0 0 0
126 0 0 0
127 0 0 0
156 0 0 0
157 0 0 0
162 0 0 0
123 0 0 0
124 0 0 0
128 0 0 0
153 0 0 0
158 0 0 0
163 0 0 0
164 0 0 0
125 0 0 0
129 0 0 0
130 0 0 0
155 0 0 0
159 0 0 0
160 0 0 0
165 0 0 0
131 0 0 0
132 0 0 0
136 0 0 0
137 0 0 0
161 0 0 0
166 0 0 0
167 0 0 0
171 0 0 0
172 0 0 0
133 0 0 0
134 0 0 0
138 0 0 0
168 0 0 0
173 0 0 0
135 0 0 0
139 0 0 0
140 0 0 0
169 0 0 0
170 0 0 0
175 0 0 0
141 0 0 0
142 0 0 0
146 0 0 0
147 0 0 0
151 0 0 0
152 0 0 0
176 0 0 0
177 0 0 0
143 0 0 0
144 0 0 0
148 0 0 0
154 0 0 0
178 0 0 0
145 0 0 0
149 0 0 0
150 0 0 0
174 0 0 0
179 0 0 0
180 0 0 0
181 0 0 0
182 0 0 0
186 0 0 0
187 0 0 0
211 0 0 0
212 0 0 0
216 0 0 0
217 0 0 0
183 0 0 0
188 0 0 0
189 0 0 0
213 0 0 0
214 0 0 0
218 0 0 0
184 0 0 0
185 0 0 0
190 0 0 0
215 0 0 0
219 0 0 0
220 0 0 0
191 0 0 0
192 0 0 0
196 0 0 0
197 0 0 0
221 0 0 0
222 0 0 0
226 0 0 0
227 0 0 0
193 0 0 0
198 0 0 0
199 0 0 0
223 0 0 0
224 0 0 0
228 0 0 0
194 0 0 0
195 0 0 0
200 0 0 0
225 0 0 0
229 0 0 0
230 0 0 0
201 0 0 0
202 0 0 0
206 0 0 0
207 0 0 0
231 0 0 0
232 0 0 0
236 0 0 0
203 0 0 0
208 0 0 0
209 0 0 0
233 0 0 0
234 0 0 0
238 0 0 0
204 0 0 0
205 0 0 0
210 0 0 0
235 0 0 0
239 0 0 0
240 0 0 0
237 0 0 0
241 0 0 0
242 0 0 0
246 0 0 0
247 0 0 0
251 0 0 0
252 0 0 0
248 0 0 0
253 0 0 0
254 0 0 0
249 0 0 0
250 0 0 0
255 0 0 0
256 0 0 0
257 0 0 0
286 0 0 0
258 0 0 0
264 0 0 0
259 0 0 0
260 0 0 0
284 0 0 0
285 0 0 0
290 0 0 0
261 0 0 0
262 0 0 0
266 0 0 0
267 0 0 0
292 0 0 0
243 0 0 0
244 0 0 0
263 0 0 0
268 0 0 0
293 0 0 0
245 0 0 0
265 0 0 0
269 0 0 0
270 0 0 0
296 0 0 0
271 0 0 0
272 0 0 0
276 0 0 0
277 0 0 0
301 0 0 0
302 0 0 0
306 0 0 0
307 0 0 0
273 0 0 0
278 0 0 0
279 0 0 0
303 0 0 0
304 0 0 0
308 0 0 0
274 0 0 0
275 0 0 0
280 0 0 0
305 0 0 0
309 0 0 0
310 0 0 0
281 0 0 0
282 0 0 0
287 0 0 0
312 0 0 0
316 0 0 0
317 0 0 0
283 0 0 0
288 0 0 0
289 0 0 0
313 0 0 0
314 0 0 0
318 0 0 0
311 0 0 0
315 0 0 0
319 0 0 0
320 0 0 0
350 0 0 0
355 0 0 0
291 0 0 0
297 0 0 0
321 0 0 0
322 0 0 0
326 0 0 0
327 0 0 0
356 0 0 0
298 0 0 0
299 0 0 0
323 0 0 0
324 0 0 0
328 0 0 0
294 0 0 0
295 0 0 0
300 0 0 0
325 0 0 0
329 0 0 0
330 0 0 0
335 0 0 0
332 0 0 0
336 0 0 0
337 0 0 0
341 0 0 0
342 0 0 0
333 0 0 0
334 0 0 0
338 0 0 0
339 0 0 0
340 0 0 0
361 0 0 0
346 0 0 0
347 0 0 0
343 0 0 0
344 0 0 0
348 0 0 0
345 0 0 0
349 0 0 0
351 0 0 0
352 0 0 0
357 0 0 0
360 0 0 0
353 0 0 0
354 0 0 0
358 0 0 0
331 0 0 0
359 0 0 0
