LAMMPS data file via write_data, version 11 Feb 2026, timestep = 183, units = metal

361 atoms
8 atom types

0 12.447907776 xlo xhi
0 12.9362452296 ylo yhi
0 52.3600831054 zlo zhi

Masses

1 26.9815
2 10.811
3 12.011
4 51.9961
5 55.845
6 95.95999999999999
7 58.6934
8 1.008

Atoms # atomic/kk

1 7 1.1447475034 1.4042530815 14.1767669076 0 0 0
2 7 3.6084602259 1.0698845996 14.6704381247 0 0 0
3 5 6.0765506298 0.9467816033 14.9127945674 0 0 0
9 7 7.3904254576 3.1552415677 14.921343358 0 0 0
5 7 11.0497419237 1.2529911546 14.6024861837 0 0 0
6 7 12.371824795299998 3.4559595715 14.8227813157 -1 0 0
10 7 9.9130540797 3.3904065996 14.7812471609 0 0 0
16 4 0.4694173902 7.8125304368 14.7997570607 0 0 0
20 7 10.4454755951 7.6697182118 14.1848688757 0 0 0
26 7 0.1281197666 12.2044764222 14.9105894271 0 0 0
27 7 2.482376412 11.8082341077 14.4640395444 0 0 0
23 7 6.9215809143 9.0056325864 14.7794199109 0 0 0
28 7 4.9597127568 11.7869866321 14.6074736033 0 0 0
29 6 7.487468691 11.492489151 14.9214469503 0 0 0
24 7 9.211267288 9.7383043985 14.542324574 0 0 0
25 7 11.7628351674 9.8745411843 14.7910184475 0 0 0
30 7 10.0617556164 11.945152431 14.7619795889 0 0 0
7 7 2.4276438825 3.274586701 14.9921379853 0 0 0
31 6 0.1320668178 1.5666912763 16.54569988 0 0 0
32 7 2.6047881521 1.6851371804 16.9156842324 0 0 0
36 7 1.2195215325 3.8560608354 17.0299024962 0 0 0
37 7 3.7103479774 3.8371572501 17.0572271382 0 0 0
56 2 1.9139638832 0.320698286899999 15.6094045829 0 1 0
8 7 4.9287232821 3.1271355871 15.0109940309 0 0 0
33 7 4.9854693445 1.6648399647 16.9552168616 0 0 0
34 7 7.410113639 1.7690174525 16.9802513671 0 0 0
38 5 6.1786870847 3.8598965293 16.9892925392 0 0 0
4 6 8.6405916037 0.9966073374 15.0011028893 0 0 0
35 7 9.9854439602 1.6623584179 16.9441720819 0 0 0
39 7 8.7306918901 3.8627101762 16.8623801969 0 0 0
40 7 11.1905275305 3.8067890199 17.0006893521 0 0 0
11 7 1.2348702966 5.4950064056 15.0806985502 0 0 0
12 7 3.723333195 5.3162088046 15.091556138 0 0 0
17 7 2.6528824888 7.4951525199 15.1538371669 0 0 0
42 7 2.4538170063 6.1274901805 17.1415379148 0 0 0
47 7 3.8866203033 8.1976953877 17.0635533141 0 0 0
13 7 6.1787690715 5.3054540189 15.034535629 0 0 0
18 7 5.0798141029 7.4787706901 15.0688046453 0 0 0
19 2 7.0597951203 7.0189274967 15.3897174295 0 0 0
43 7 4.9526824561 5.9628190941 17.0949149841 0 0 0
44 7 7.4770692341 5.9405064365 17.0881545432 0 0 0
48 7 6.3467693742 8.0549577382 17.0498728177 0 0 0
14 7 8.7041968087 5.6586120419 14.9658205562 0 0 0
15 6 11.1806031706 5.6044565055 15.1850152514 0 0 0
41 7 12.442168210099998 5.9982391836 17.2267436521 -1 0 0
45 7 9.923455112 6.0385351278 17.2532666192 0 0 0
49 7 8.7166078523 7.9219477302 16.0697967416 0 0 0
50 7 11.1854260308 7.9909608595 16.4539207548 0 0 0
85 6 9.7874825474 8.473382021 18.5408467256 0 0 0
21 2 1.1654244367 10.4783622607 15.2130316912 0 0 0
22 7 2.969847795 9.8650340587 15.6453950804 0 0 0
46 7 0.7946061559 9.3672820405 16.8749701293 0 0 0
52 7 1.3503573598 11.8646523864 16.9891542204 0 0 0
57 7 3.753873893 12.4366743176 16.6098759546 0 0 0
87 1 3.6650451701 10.7156807278 18.2659007397 0 0 0
53 7 5.3358928559 10.1219872041 16.3275402765 0 0 0
54 7 7.7336051436 10.0538114804 16.9470367537 0 0 0
58 6 6.3195663174 12.3667352783 16.9550847684 0 0 0
51 3 11.519673145099999 9.370279149 17.6624171524 -1 0 0
55 7 10.1852587848 10.2759719364 16.6816821896 0 0 0
59 7 8.8367077706 12.3810361477 16.9622360876 0 0 0
60 7 11.2428990064 12.4670428062 16.882988677 0 0 0
66 6 1.393007034 2.1659191631 19.0534804658 0 0 0
67 5 3.8310712323 2.169749835 19.077551421 0 0 0
91 4 1.3610097719 0.7490016766 21.3001474804 0 0 0
92 7 3.7532698079 0.7243006354 21.0553737996 0 0 0
96 7 0.082079932 2.7970216106 21.1874527472 0 0 0
97 7 2.5927240934 2.8497939446 21.1992924965 0 0 0
63 5 4.9567742477 0.0529982254 18.9618634931 0 0 0
64 7 7.4416746235 0.0821708056 19.1014191477 0 0 0
68 7 6.1949360288 2.1588642027 19.0801897325 0 0 0
74 6 7.5018096017 4.2853629911 19.0547359126 0 0 0
93 7 6.2598414465 0.7194660822 21.17367312 0 0 0
98 7 5.0257186556 2.8737258399 21.1536837203 0 0 0
99 5 7.4793105556 2.8150634673 21.1692986238 0 0 0
65 7 10.0018085899 0.0802466939 19.0961651875 0 0 0
69 7 8.7385472152 2.1539822136 18.9954608723 0 0 0
70 7 11.2870638013 2.2382207273 18.9541707741 0 0 0
75 5 9.908720947 4.3054275401 19.0335874063 0 0 0
94 7 8.7140507513 0.7135233683 21.2362014867 0 0 0
95 7 11.3045523296 0.6704651065 21.199536471 0 0 0
100 6 10.0309211856 2.7845552589 21.0550342549 0 0 0
72 7 2.4838430183 4.388962084 19.1070457725 0 0 0
76 7 1.200144222 6.4346976141 19.2600213636 0 0 0
77 7 3.7839563224 6.5073099035 19.1651823211 0 0 0
82 6 2.3588605673 8.4890673053 18.9154467805 0 0 0
101 7 1.204403147 4.986371594 21.2593935642 0 0 0
102 6 3.7298053141 5.0424743752 21.2297752978 0 0 0
107 7 2.4685484599 7.1728356576 21.2326094282 0 0 0
73 7 4.9759755061 4.316411451 19.087212733 0 0 0
78 7 6.1965388899 6.5190956683 19.1399785413 0 0 0
103 7 6.2751972116 5.0470676015 21.1760724515 0 0 0
108 7 5.0116983743 7.22861409 21.2268755354 0 0 0
109 7 7.4193353481 7.2485706051 21.2651304498 0 0 0
71 1 12.383629132 4.3782094725 19.1862342201 -1 0 0
79 7 8.6255974932 6.472044202 19.3232968982 0 0 0
80 7 11.1135754549 6.420590323 19.3581641471 0 0 0
81 4 12.342695017999999 8.4729562787 19.2006565517 -1 0 0
104 7 8.7408050898 5.0231569879 21.2437432022 0 0 0
105 3 10.084534684982431 4.372503725915687 22.287883135179477 0 0 0
106 7 12.435294388199999 7.0968971559 21.3158557077 -1 0 0
110 7 9.8903603607 7.1660305315 21.3021949042 0 0 0
61 6 0.0477387397 12.935022616100001 18.9949290075 0 -1 0
62 7 2.587482576 12.8543346047 19.0383469717 0 -1 0
86 7 1.2816847716 10.6903307998 19.1614661098 0 0 0
111 7 1.1796694452 9.2896516501 21.1960342799 0 0 0
112 6 3.7016357908 9.3557762036 21.1431867319 0 0 0
116 1 0.0369839214 11.486698451 21.2977096144 0 0 0
117 7 2.4704264091 11.5284142583 21.1452899236 0 0 0
83 7 4.9462384898 8.7330200409 19.0834474924 0 0 0
84 7 7.3974678157 8.6397297376 19.085743402 0 0 0
88 7 6.1625171869 10.8013148416 18.9301045672 0 0 0
113 7 6.2139769728 9.4092095126 21.0353192467 0 0 0
118 7 4.9639845145 11.5407295129 21.0425881559 0 0 0
119 4 7.3995383715 11.5362046003 21.0747824702 0 0 0
89 6 8.731338748 10.8500854071 19.0384744744 0 0 0
90 4 11.272219843 10.8209844576 18.9386324767 0 0 0
114 7 8.6997099562 9.3160354633 20.9928929717 0 0 0
115 6 11.109001975 9.2519683408 21.1755872983 0 0 0
120 7 9.9858618188 11.5164614705 21.1821863062 0 0 0
121 7 0.07793021233519189 1.3731724403348127 23.31321548501658 0 0 0
122 7 2.5692255463272415 1.3843986041820435 23.334083807856018 0 0 0
126 6 1.3489640944409045 3.5675652257882113 23.268722811616172 0 0 0
127 7 3.844295721708661 3.5708800855693 23.365196979495426 0 0 0
156 1 1.47367394461081 2.110887322541601 25.51808277014905 0 0 0
157 7 3.96000738399546 2.1169156540640808 25.449679724615113 0 0 0
162 7 2.5922743308689853 4.242424588347724 25.43030339025393 0 0 0
123 7 4.985560337011248 1.4094345230540248 23.166818066623115 0 0 0
124 7 7.386942726956459 1.481522365784845 23.489026513610742 0 0 0
128 7 6.296698832199286 3.6451712099869464 23.186807434181723 0 0 0
153 7 5.189722704815571 0.05152163650507429 25.3001329930193 0 0 0
158 2 5.769268146868429 2.437797938887072 24.632260786630393 0 0 0
163 7 5.111598612505466 4.223593549254754 25.424406761845823 0 0 0
164 5 7.471040952630572 4.043826309834688 25.36222050160199 0 0 0
125 7 10.036527227878995 1.408161110399254 23.357552285875823 0 0 0
129 7 8.744272833685137 3.526475305453825 23.3496184116755 0 0 0
130 4 11.360689371922428 3.596639916114631 23.404110563297397 0 0 0
155 4 10.111372108076521 0.04356526004088652 25.561480409298785 0 0 0
159 7 8.86140267153704 2.0793872530330293 25.44944504767958 0 0 0
160 7 11.393539456680381 2.134439930633244 25.42207081524405 0 0 0
165 7 10.05838273768239 4.197904891562441 25.411735903580436 0 0 0
131 7 0.06417621710437266 5.750730810905882 23.405948269929127 0 0 0
132 7 2.5356491796226988 5.778437779915486 23.363562031034235 0 0 0
136 7 1.296043858448717 7.892536842015565 23.308929787527283 0 0 0
137 7 3.7694775807809364 7.9597448174259995 23.282422544907178 0 0 0
161 4 0.10191246251918068 4.318900292154473 25.469099628734497 0 0 0
166 7 1.3306639884869744 6.393305384767681 25.432699164729296 0 0 0
167 7 3.8005578718273023 6.416145892667722 25.446633020192852 0 0 0
171 6 0.1037107225198356 8.593439094090407 25.435190980513678 0 0 0
172 7 2.6157325335172823 8.587209894511002 25.38121476034824 0 0 0
133 6 5.057766182709425 5.837531884673933 23.39114984265183 0 0 0
134 7 7.552057754932592 5.757343972094617 23.318189349034213 0 0 0
138 7 6.302677337146422 7.975189511289287 23.345932251053128 0 0 0
168 7 6.35762536401999 6.37318848766654 25.436969699818317 0 0 0
173 7 5.09687620803124 8.531744468034452 25.33808656163911 0 0 0
135 7 10.057309575006759 5.804410107658624 23.390483882158833 0 0 0
139 4 8.68647392691593 7.921459009519233 23.247788251197797 0 0 0
140 4 11.275509447508485 7.868938971277731 23.321618426925003 0 0 0
169 7 8.768715383015158 6.311985370564674 25.38542517490186 0 0 0
170 7 11.28273633168341 6.38736476767406 25.450254134437266 0 0 0
175 6 9.880143423652656 8.54758989083049 25.525968465151756 0 0 0
141 7 0.01246481856836248 10.046062724510277 23.348656575659344 0 0 0
142 7 2.488554070657678 10.08398412083957 23.260002260773735 0 0 0
146 7 1.2944290971919075 12.212762411397824 23.35569161589781 0 0 0
147 7 3.798336430478729 12.221419301205191 23.18539249818155 0 0 0
151 4 0.0846920798605006 12.853043349647391 25.42108611474572 0 -1 0
152 7 2.6475627993529356 12.921600128503506 25.379973832458205 0 -1 0
176 7 1.3350919257404945 10.777496981265315 25.43837280468499 0 0 0
177 6 3.872199536992023 10.794262203260544 25.280618783337328 0 0 0
143 7 5.046564226501789 10.083013381917027 23.18663799296476 0 0 0
144 7 7.496440977657707 10.067846318021012 22.92442168092121 0 0 0
148 4 6.203772750605635 12.24829658638002 23.191211553106687 0 0 0
154 7 7.591432395498262 12.921835421733373 25.47972381125558 0 -1 0
178 6 6.608965982988619 10.519864280246713 25.22716832584527 0 0 0
145 7 9.987599923432796 10.05327375112505 23.31921336580757 0 0 0
149 6 8.699286097748221 12.251067201912107 23.334378088871595 0 0 0
150 7 11.238931635259268 12.196295645882701 23.41044935012276 0 0 0
174 3 8.405429260263634 9.487798137029541 24.427841213297295 0 0 0
179 5 8.989809278586478 10.902274626707499 25.586302946131976 0 0 0
180 5 11.328433892179133 10.845880691495363 25.512002829895813 0 0 0
181 7 1.384856532543236 0.6425536226527208 27.50384598552697 0 0 0
182 7 3.8704723485168886 0.6801336510505551 27.446229281614915 0 0 0
186 7 0.16451540682899884 2.8348696534154962 27.49424307369957 0 0 0
187 7 2.6535627903123356 2.8269218990511558 27.57433385004193 0 0 0
211 7 0.20481381536865684 1.4215486154414076 29.591178636818746 0 0 0
212 7 2.710749702275408 1.3288050090806178 29.59811724868391 0 0 0
216 7 1.4032435033354071 3.5286756520831246 29.59071536146369 0 0 0
217 4 3.8168758011265904 3.542829767976967 29.607024504334582 0 0 0
183 7 6.302312398359036 0.6921113199088812 27.583454339103675 0 0 0
188 7 5.076340096681328 2.849746043185503 27.585054634047406 0 0 0
189 7 7.586918920313165 2.77014096471043 27.46781818388572 0 0 0
213 5 5.129652568828894 1.3997568647503156 29.61684540810336 0 0 0
214 7 7.606339677100598 1.3306543626657361 29.605207027864264 0 0 0
218 7 6.356768512526708 3.5088570267993155 29.553598927899568 0 0 0
184 7 8.87782293432289 0.6980198420076397 27.573972775179254 0 0 0
185 4 11.377089832281362 0.7005885247958038 27.54578731085637 0 0 0
190 7 10.13772642071787 2.8100003178150637 27.492159483613996 0 0 0
215 7 10.118112306030067 1.3824933472344154 29.634674658163117 0 0 0
219 7 8.831693030949966 3.4890134485347244 29.53219756994371 0 0 0
220 7 11.36256481078211 3.5376393101545767 29.521444794203177 0 0 0
191 7 1.3840292883963248 4.982615076005604 27.47420371008533 0 0 0
192 7 3.8263858681451355 4.964289098594703 27.486341495195447 0 0 0
196 7 0.13165175277487973 7.1362392015767675 27.504115323367582 0 0 0
197 7 2.5730310774216347 7.170584033915756 27.48046003161885 0 0 0
221 7 0.11378708819962406 5.704312230217571 29.573344650040138 0 0 0
222 7 2.5824880960068572 5.702357665245855 29.549877191811124 0 0 0
226 7 1.3605814492007544 7.883864048693832 29.55978720049112 0 0 0
227 7 3.8547430015786097 7.891040273652744 29.47561505579272 0 0 0
193 7 6.362943135296242 4.951206137524348 27.418645061353157 0 0 0
198 7 5.095194840491083 7.150008416266713 27.417733696474837 0 0 0
199 7 7.613615826313669 7.166542667190326 27.45341022626367 0 0 0
223 6 5.145377993752893 5.692332786912378 29.493157692518754 0 0 0
224 7 7.636962119749512 5.71347358294191 29.58345954463999 0 0 0
228 7 6.3852120729804795 7.887782678669467 29.498600071344995 0 0 0
194 6 8.841263113882958 4.975010095812225 27.494855115344098 0 0 0
195 7 11.354267450830918 4.972507719951369 27.510018844436782 0 0 0
200 7 10.118137958117046 7.136960422137839 27.543845811364253 0 0 0
225 7 10.095271238212066 5.720570314529834 29.605282840667126 0 0 0
229 7 8.839705196930012 7.861649118923864 29.52850156259348 0 0 0
230 7 11.365509940393563 7.910583349182601 29.529719179819754 0 0 0
201 5 1.3750359956648266 9.30537636163107 27.525840549387052 0 0 0
202 7 3.8654609278803056 9.299714470108192 27.384064606873036 0 0 0
206 4 0.18154423379409693 11.456389895920346 27.53474486675076 0 0 0
207 7 2.6051038680267533 11.436073643657998 27.44787866301162 0 0 0
231 7 0.1608906081572608 10.05936071882593 29.582388742147 0 0 0
232 7 2.6317729206168106 10.00967900224703 29.441859389637933 0 0 0
236 7 1.4646055193266352 12.159922920074377 29.566260755099147 0 0 0
203 7 6.366557629867551 9.26447976849869 27.397305487361624 0 0 0
208 7 5.130871256458503 11.478213311421252 27.330498952790656 0 0 0
209 6 7.575256626909236 11.504235200231095 27.64681114920015 0 0 0
233 7 5.1401777843085 10.0330999942133 29.336420862311922 0 0 0
234 7 7.593133202736354 10.062526779226243 29.664795086956143 0 0 0
238 7 6.207771336061702 12.21388360941121 29.695044973911735 0 0 0
204 7 8.832733066094505 9.347873557869615 27.626873323257087 0 0 0
205 7 11.34100062541537 9.396352346546005 27.55523539007878 0 0 0
210 7 10.144078729791195 11.533679559857259 27.59163203105673 0 0 0
235 7 10.080065886158026 10.159995676429595 29.607000035743464 0 0 0
239 4 8.870846692305141 12.234857943115852 29.740561704468394 0 0 0
240 7 11.388448335866016 12.246154897980256 29.570706479614813 0 0 0
237 3 4.041972422369599 0.2742264606398448 30.59079812863063 0 1 0
241 7 0.1978569148982363 0.08394297468497826 31.63656508720147 0 0 0
242 7 2.5684424995371438 0.11807001775110564 31.763000640127288 0 0 0
246 4 1.3393745729023145 2.2225963295677524 31.667431789327043 0 0 0
247 7 3.8785985968900243 2.126147071251771 31.66074481587939 0 0 0
251 7 0.1395600923204804 4.308467822342887 31.650268948657743 0 0 0
252 7 2.6241715111148936 4.297553107040312 31.665490959426723 0 0 0
248 7 6.402770406162003 2.1253268423607343 31.667036059306767 0 0 0
253 7 5.104383679019275 4.286268859351016 31.629436843162953 0 0 0
254 7 7.613446810802639 4.292414346453037 31.596054618501537 0 0 0
249 7 8.844573501358097 2.0871955025407574 31.686694324703186 0 0 0
250 7 11.377974402115909 2.12503452565287 31.65554608016316 0 0 0
255 1 10.09917454195938 4.209188086503389 31.50066890570403 0 0 0
256 7 1.3210218207641475 6.488194382925227 31.63285505064514 0 0 0
257 6 3.780878415739902 6.478845236785786 31.655477050408095 0 0 0
286 7 0.0919994541702373 7.270397857304335 33.62075566199969 0 0 0
258 7 6.342910855232049 6.471956135404028 31.623485683487093 0 0 0
264 7 7.581071692629476 8.55809975952269 31.625458527266396 0 0 0
259 4 8.811940454112571 6.4466433494529305 31.62430535987597 0 0 0
260 7 11.309229585711053 6.4770354990252486 31.593185664546972 0 0 0
284 5 8.876230335979956 5.10905360063083 33.57745207807867 0 0 0
285 4 11.345003759245678 5.150307409974735 33.637827496203194 0 0 0
290 7 10.074533192522802 7.242386026345173 33.589967141715945 0 0 0
261 7 0.17326639360091703 8.70113006611739 31.662836203577353 0 0 0
262 7 2.6622028066630183 8.705906562815276 31.543657282717366 0 0 0
266 7 1.5647355412168962 10.818893737343881 31.59017148448374 0 0 0
267 4 3.9194176322581 11.255144123136835 30.885828709795337 0 0 0
292 7 3.9577845346835003 9.38029806522253 33.51542170026724 0 0 0
243 7 5.1622633722697895 12.878058887243474 32.14868346011034 0 -1 0
244 7 7.620104727634769 12.91727157940588 31.736859029220252 0 -1 0
263 1 5.089740333782138 8.738200059333696 31.436258585163404 0 0 0
268 7 6.255559044875945 10.7389684800956 31.583931360559294 0 0 0
293 4 6.4403938651657935 9.292546784408248 33.68048602555023 0 0 0
245 7 10.103255996419868 12.871732830328275 31.878427519777585 0 -1 0
265 6 10.098699015725058 8.66945226375231 31.544537381275855 0 0 0
269 7 8.761951695212225 10.779326688795567 31.744002409106447 0 0 0
270 7 11.420327351339079 10.895907340723875 31.62879300160943 0 0 0
296 3 11.051765442088039 11.83020600543024 33.34729961619737 -1 0 0
271 7 1.4665513460148882 0.8921700190288097 33.779801367328815 0 0 0
272 7 3.9129391895255683 0.9438516082279906 33.954652300175 0 0 0
276 7 0.17222273095582197 2.988144417163176 33.74017777959296 0 0 0
277 7 2.6372790406305793 3.0629420127462375 33.796719266629474 0 0 0
301 7 0.19133240698901394 1.5435226514104876 35.761427471996406 0 0 0
302 7 2.6034883480769864 1.6504962258719345 35.859505744128924 0 0 0
306 4 1.4004524488170635 3.821525803450065 35.95202157094308 0 0 0
307 7 3.991026813525297 3.6974890887656167 35.83042495236671 0 0 0
273 7 6.485534849445368 0.9555922720030835 33.9360386539815 0 0 0
278 1 5.219828749568603 2.9753611542503293 33.735974302236464 0 0 0
279 7 7.7258008087769685 3.030055205881096 33.73787291122311 0 0 0
303 7 5.272926564187329 1.6309339866998092 35.948783196005984 0 0 0
304 4 7.795247525220241 1.6039905933653893 35.964927578662156 0 0 0
308 7 6.5281143504880825 3.6798008003523 35.81512886362316 0 0 0
274 7 8.858231634726401 0.9058035111618803 33.85338330658436 0 0 0
275 4 11.44689746607915 0.8026255643820497 33.711167951175376 0 0 0
280 7 10.201012982462531 3.003248339499298 33.690777905602374 0 0 0
305 7 10.243464401248229 1.6040808519345653 35.70885079590189 0 0 0
309 7 9.012936325760151 3.67678381614025 35.77765905800317 0 0 0
310 4 11.57616321668658 3.936092952047071 35.86482738001622 0 0 0
281 7 1.3197637672081874 5.170987898421637 33.84242815392423 0 0 0
282 4 3.83903970441785 5.112240780264145 33.76029958198888 0 0 0
287 7 2.6260728574129693 7.2781230261182355 33.73592552271287 0 0 0
312 7 2.7116695625793916 5.7688944356447704 35.76719531448711 0 0 0
316 7 1.209477232934461 7.6003276507127 35.78610239367924 0 0 0
317 7 3.9000868003064113 8.050858414360443 35.72586479455765 0 0 0
283 7 6.369142908481847 5.081020218703213 33.67063093982175 0 0 0
288 7 5.16448895666407 7.251340856607238 33.660911475162045 0 0 0
289 7 7.620267958092369 7.16512507190525 33.71364149477271 0 0 0
313 7 5.240264028587986 5.884581253820712 35.70305421000197 0 0 0
314 7 7.70353315350972 5.80844272630678 35.74151529806652 0 0 0
318 4 6.500582325028697 8.07229367092 35.78837736054945 0 0 0
311 2 12.383607403623852 5.983537052380337 35.324849221704284 -1 0 0
315 7 10.118989273053927 5.805441384254959 35.57615333143779 0 0 0
319 7 8.922135351913697 7.966570999060912 35.824255134227435 0 0 0
320 7 11.343078906913293 7.913986451096134 35.57460215291386 0 0 0
350 7 11.674250313685814 6.271233786588131 37.29277079173622 0 0 0
355 3 10.413795125894573 7.912004044106664 37.24981708369029 0 0 0
291 7 1.4635738087510282 9.41895966758905 33.749520508792095 0 0 0
297 6 3.017972196075316 11.575351275932004 33.71381569535659 0 0 0
321 6 0.19894888615419373 10.0728518706448 35.91374868521025 0 0 0
322 7 2.706205196536297 10.20046819726439 35.79626422082768 0 0 0
326 7 0.4964972966848673 11.644572303901883 33.67808580166157 0 0 0
327 6 3.936855785510767 12.50818526918591 36.19516673602015 0 0 0
356 4 1.410054642738445 12.349544342509693 35.85237706485101 0 0 0
298 2 5.196258887673251 12.318775256453206 34.303556607369416 0 0 0
299 7 6.9276896327982636 11.545451887941569 33.6877562132574 0 0 0
323 6 5.22317935563843 10.233640385992892 35.61347089799457 0 0 0
324 7 7.904364017093625 10.268273610992079 35.730993505683394 0 0 0
328 7 6.542308570419861 12.48524173216052 35.9694878829055 0 0 0
294 7 8.759849856448005 9.261866690752626 33.69078831242265 0 0 0
295 6 11.253484620856005 9.69334377663485 33.7740350967277 0 0 0
300 7 9.324025838446039 11.523525991920085 34.128019385355145 0 0 0
325 7 10.215057971989829 9.843634212558939 36.866756194651295 0 0 0
329 3 9.473683727034167 11.490871673698864 36.153854349753644 0 0 0
330 4 11.215990148439571 12.056921312733843 35.53199404657774 0 0 0
335 5 9.852012063010738 0.047687768841877844 37.346871930759264 0 0 0
332 7 2.4346517585511505 0.08668853836459554 38.07038943925942 0 0 0
336 7 1.3166741132274753 2.173014498522435 37.83225375969252 0 0 0
337 7 3.856937159700683 2.1587429193095393 37.84589381840833 0 0 0
341 7 0.2060293766166276 4.2474890091426 38.07109747284466 0 0 0
342 7 2.703720980768984 4.268163321288538 37.916541007614036 0 0 0
333 7 5.118239001654781 0.10454386249515894 38.29597712990336 0 0 0
334 7 7.584005986854496 0.1874190206195078 38.190263827013396 0 0 0
338 7 6.489201708871845 2.29260378423329 37.943591334596064 0 0 0
361 8 6.351465916413102 0.9606438700177999 39.066867242256066 0 0 0
339 7 8.985961246954195 2.24296239032888 37.8898470110243 0 0 0
340 7 11.361293875366883 2.1948100935438433 37.73291548370667 0 0 0
346 7 1.5055585615961045 6.386986759611646 37.991706568759355 0 0 0
347 6 3.9435400742286033 6.460729877170423 37.7461830950341 0 0 0
343 7 5.275653712855595 4.417376670636653 37.83886015529121 0 0 0
344 7 7.817067148848449 4.436765316935616 37.843885774393925 0 0 0
348 6 6.628000170734761 6.631324350933349 37.8204682994649 0 0 0
345 4 10.217533588873273 4.347276962660169 37.80726295144722 0 0 0
349 7 9.23188258315159 6.618617366892975 37.854090235642154 0 0 0
351 7 12.20616590688948 8.56952362343514 37.82618405949404 -1 0 0
352 6 2.4669928607891434 8.648664594270635 37.698126032621936 0 0 0
357 7 3.815029924742258 10.782868367984593 38.02200038542639 0 0 0
360 7 1.362707278493052 10.887390684047753 37.90792240611798 1 0 0
353 7 5.091623312569348 8.676991971098795 37.82151486042869 0 0 0
354 7 7.810645431000147 8.85666708712475 37.82143742069921 0 0 0
358 6 6.37951728332084 10.856146318167283 37.862368570363536 0 0 0
331 7 12.341556101932225 12.848885236407048 37.58999010030108 -1 -1 0
359 2 8.260296573536893 11.667922752195228 37.07115716859367 0 0 0

Velocities

1 0 0 0
2 0 0 0
3 0 0 0
9 0 0 0
5 0 0 0
6 0 0 0
10 0 0 0
16 0 0 0
20 0 0 0
26 0 0 0
27 0 0 0
23 0 0 0
28 0 0 0
29 0 0 0
24 0 0 0
25 0 0 0
30 0 0 0
7 0 0 0
31 0 0 0
32 0 0 0
36 0 0 0
37 0 0 0
56 0 0 0
8 0 0 0
33 0 0 0
34 0 0 0
38 0 0 0
4 0 0 0
35 0 0 0
39 0 0 0
40 0 0 0
11 0 0 0
12 0 0 0
17 0 0 0
42 0 0 0
47 0 0 0
13 0 0 0
18 0 0 0
19 0 0 0
43 0 0 0
44 0 0 0
48 0 0 0
14 0 0 0
15 0 0 0
41 0 0 0
45 0 0 0
49 0 0 0
50 0 0 0
85 0 0 0
21 0 0 0
22 0 0 0
46 0 0 0
52 0 0 0
57 0 0 0
87 0 0 0
53 0 0 0
54 0 0 0
58 0 0 0
51 0 0 0
55 0 0 0
59 0 0 0
60 0 0 0
66 0 0 0
67 0 0 0
91 0 0 0
92 0 0 0
96 0 0 0
97 0 0 0
63 0 0 0
64 0 0 0
68 0 0 0
74 0 0 0
93 0 0 0
98 0 0 0
99 0 0 0
65 0 0 0
69 0 0 0
70 0 0 0
75 0 0 0
94 0 0 0
95 0 0 0
100 0 0 0
72 0 0 0
76 0 0 0
77 0 0 0
82 0 0 0
101 0 0 0
102 0 0 0
107 0 0 0
73 0 0 0
78 0 0 0
103 0 0 0
108 0 0 0
109 0 0 0
71 0 0 0
79 0 0 0
80 0 0 0
81 0 0 0
104 0 0 0
105 0 0 0
106 0 0 0
110 0 0 0
61 0 0 0
62 0 0 0
86 0 0 0
111 0 0 0
112 0 0 0
116 0 0 0
117 0 0 0
83 0 0 0
84 0 0 0
88 0 0 0
113 0 0 0
118 0 0 0
119 0 0 0
89 0 0 0
90 0 0 0
114 0 0 0
115 0 0 0
120 0 0 0
121 0 0 0
122 0 0 0
126 0 0 0
127 0 0 0
156 0 0 0
157 0 0 0
162 0 0 0
123 0 0 0
124 0 0 0
128 0 0 0
153 0 0 0
158 0 0 0
163 0 0 0
164 0 0 0
125 0 0 0
129 0 0 0
130 0 0 0
155 0 0 0
159 0 0 0
160 0 0 0
165 0 0 0
131 0 0 0
132 0 0 0
136 0 0 0
137 0 0 0
161 0 0 0
166 0 0 0
167 0 0 0
171 0 0 0
172 0 0 0
133 0 0 0
134 0 0 0
138 0 0 0
168 0 0 0
173 0 0 0
135 0 0 0
139 0 0 0
140 0 0 0
169 0 0 0
170 0 0 0
175 0 0 0
141 0 0 0
142 0 0 0
146 0 0 0
147 0 0 0
151 0 0 0
152 0 0 0
176 0 0 0
177 0 0 0
143 0 0 0
144 0 0 0
148 0 0 0
154 0 0 0
178 0 0 0
145 0 0 0
149 0 0 0
150 0 0 0
174 0 0 0
179 0 0 0
180 0 0 0
181 0 0 0
182 0 0 0
186 0 0 0
187 0 0 0
211 0 0 0
212 0 0 0
216 0 0 0
217 0 0 0
183 0 0 0
188 0 0 0
189 0 0 0
213 0 0 0
214 0 0 0
218 0 0 0
184 0 0 0
185 0 0 0
190 0 0 0
215 0 0 0
219 0 0 0
220 0 0 0
191 0 0 0
192 0 0 0
196 0 0 0
197 0 0 0
221 0 0 0
222 0 0 0
226 0 0 0
227 0 0 0
193 0 0 0
198 0 0 0
199 0 0 0
223 0 0 0
224 0 0 0
228 0 0 0
194 0 0 0
195 0 0 0
200 0 0 0
225 0 0 0
229 0 0 0
230 0 0 0
201 0 0 0
202 0 0 0
206 0 0 0
207 0 0 0
231 0 0 0
232 0 0 0
236 0 0 0
203 0 0 0
208 0 0 0
209 0 0 0
233 0 0 0
234 0 0 0
238 0 0 0
204 0 0 0
205 0 0 0
210 0 0 0
235 0 0 0
239 0 0 0
240 0 0 0
237 0 0 0
241 0 0 0
242 0 0 0
246 0 0 0
247 0 0 0
251 0 0 0
252 0 0 0
248 0 0 0
253 0 0 0
254 0 0 0
249 0 0 0
250 0 0 0
255 0 0 0
256 0 0 0
257 0 0 0
286 0 0 0
258 0 0 0
264 0 0 0
259 0 0 0
260 0 0 0
284 0 0 0
285 0 0 0
290 0 0 0
261 0 0 0
262 0 0 0
266 0 0 0
267 0 0 0
292 0 0 0
243 0 0 0
244 0 0 0
263 0 0 0
268 0 0 0
293 0 0 0
245 0 0 0
265 0 0 0
269 0 0 0
270 0 0 0
296 0 0 0
271 0 0 0
272 0 0 0
276 0 0 0
277 0 0 0
301 0 0 0
302 0 0 0
306 0 0 0
307 0 0 0
273 0 0 0
278 0 0 0
279 0 0 0
303 0 0 0
304 0 0 0
308 0 0 0
274 0 0 0
275 0 0 0
280 0 0 0
305 0 0 0
309 0 0 0
310 0 0 0
281 0 0 0
282 0 0 0
287 0 0 0
312 0 0 0
316 0 0 0
317 0 0 0
283 0 0 0
288 0 0 0
289 0 0 0
313 0 0 0
314 0 0 0
318 0 0 0
311 0 0 0
315 0 0 0
319 0 0 0
320 0 0 0
350 0 0 0
355 0 0 0
291 0 0 0
297 0 0 0
321 0 0 0
322 0 0 0
326 0 0 0
327 0 0 0
356 0 0 0
298 0 0 0
299 0 0 0
323 0 0 0
324 0 0 0
328 0 0 0
294 0 0 0
295 0 0 0
300 0 0 0
325 0 0 0
329 0 0 0
330 0 0 0
335 0 0 0
332 0 0 0
336 0 0 0
337 0 0 0
341 0 0 0
342 0 0 0
333 0 0 0
334 0 0 0
338 0 0 0
361 0 0 0
339 0 0 0
340 0 0 0
346 0 0 0
347 0 0 0
343 0 0 0
344 0 0 0
348 0 0 0
345 0 0 0
349 0 0 0
351 0 0 0
352 0 0 0
357 0 0 0
360 0 0 0
353 0 0 0
354 0 0 0
358 0 0 0
331 0 0 0
359 0 0 0
