LAMMPS data file via write_data, version 11 Feb 2026, timestep = 197, units = metal

361 atoms
8 atom types

0 12.447907776 xlo xhi
0 12.9362452296 ylo yhi
0 52.3600831054 zlo zhi

Masses

1 26.9815
2 10.811
3 12.011
4 51.9961
5 55.845
6 95.95999999999999
7 58.6934
8 1.008

Atoms # atomic/kk

1 7 1.1447475034 1.4042530815 14.1767669076 0 0 0
2 7 3.6084602259 1.0698845996 14.6704381247 0 0 0
3 5 6.0765506298 0.9467816033 14.9127945674 0 0 0
9 7 7.3904254576 3.1552415677 14.921343358 0 0 0
5 7 11.0497419237 1.2529911546 14.6024861837 0 0 0
6 7 12.371824795299998 3.4559595715 14.8227813157 -1 0 0
10 7 9.9130540797 3.3904065996 14.7812471609 0 0 0
16 4 0.4694173902 7.8125304368 14.7997570607 0 0 0
20 7 10.4454755951 7.6697182118 14.1848688757 0 0 0
26 7 0.1281197666 12.2044764222 14.9105894271 0 0 0
27 7 2.482376412 11.8082341077 14.4640395444 0 0 0
23 7 6.9215809143 9.0056325864 14.7794199109 0 0 0
28 7 4.9597127568 11.7869866321 14.6074736033 0 0 0
29 6 7.487468691 11.492489151 14.9214469503 0 0 0
24 7 9.211267288 9.7383043985 14.542324574 0 0 0
25 7 11.7628351674 9.8745411843 14.7910184475 0 0 0
30 7 10.0617556164 11.945152431 14.7619795889 0 0 0
7 7 2.4276438825 3.274586701 14.9921379853 0 0 0
31 6 0.1320668178 1.5666912763 16.54569988 0 0 0
32 7 2.6047881521 1.6851371804 16.9156842324 0 0 0
36 7 1.2195215325 3.8560608354 17.0299024962 0 0 0
37 7 3.7103479774 3.8371572501 17.0572271382 0 0 0
56 2 1.9139638832 0.320698286899999 15.6094045829 0 1 0
8 7 4.9287232821 3.1271355871 15.0109940309 0 0 0
33 7 4.9854693445 1.6648399647 16.9552168616 0 0 0
34 7 7.410113639 1.7690174525 16.9802513671 0 0 0
38 5 6.1786870847 3.8598965293 16.9892925392 0 0 0
4 6 8.6405916037 0.9966073374 15.0011028893 0 0 0
35 7 9.9854439602 1.6623584179 16.9441720819 0 0 0
39 7 8.7306918901 3.8627101762 16.8623801969 0 0 0
40 7 11.1905275305 3.8067890199 17.0006893521 0 0 0
11 7 1.2348702966 5.4950064056 15.0806985502 0 0 0
12 7 3.723333195 5.3162088046 15.091556138 0 0 0
17 7 2.6528824888 7.4951525199 15.1538371669 0 0 0
42 7 2.4538170063 6.1274901805 17.1415379148 0 0 0
47 7 3.8866203033 8.1976953877 17.0635533141 0 0 0
13 7 6.1787690715 5.3054540189 15.034535629 0 0 0
18 7 5.0798141029 7.4787706901 15.0688046453 0 0 0
19 2 7.0597951203 7.0189274967 15.3897174295 0 0 0
43 7 4.9526824561 5.9628190941 17.0949149841 0 0 0
44 7 7.4770692341 5.9405064365 17.0881545432 0 0 0
48 7 6.3467693742 8.0549577382 17.0498728177 0 0 0
14 7 8.7041968087 5.6586120419 14.9658205562 0 0 0
15 6 11.1806031706 5.6044565055 15.1850152514 0 0 0
41 7 12.442168210099998 5.9982391836 17.2267436521 -1 0 0
45 7 9.923455112 6.0385351278 17.2532666192 0 0 0
49 7 8.7166078523 7.9219477302 16.0697967416 0 0 0
50 7 11.1854260308 7.9909608595 16.4539207548 0 0 0
85 6 9.7874825474 8.473382021 18.5408467256 0 0 0
21 2 1.1654244367 10.4783622607 15.2130316912 0 0 0
22 7 2.969847795 9.8650340587 15.6453950804 0 0 0
46 7 0.7946061559 9.3672820405 16.8749701293 0 0 0
52 7 1.3503573598 11.8646523864 16.9891542204 0 0 0
57 7 3.753873893 12.4366743176 16.6098759546 0 0 0
87 1 3.6650451701 10.7156807278 18.2659007397 0 0 0
53 7 5.3358928559 10.1219872041 16.3275402765 0 0 0
54 7 7.7336051436 10.0538114804 16.9470367537 0 0 0
58 6 6.3195663174 12.3667352783 16.9550847684 0 0 0
51 3 11.519673145099999 9.370279149 17.6624171524 -1 0 0
55 7 10.1852587848 10.2759719364 16.6816821896 0 0 0
59 7 8.8367077706 12.3810361477 16.9622360876 0 0 0
60 7 11.2428990064 12.4670428062 16.882988677 0 0 0
66 6 1.393007034 2.1659191631 19.0534804658 0 0 0
67 5 3.8310712323 2.169749835 19.077551421 0 0 0
91 4 1.3610097719 0.7490016766 21.3001474804 0 0 0
92 7 3.7532698079 0.7243006354 21.0553737996 0 0 0
96 7 0.082079932 2.7970216106 21.1874527472 0 0 0
97 7 2.5927240934 2.8497939446 21.1992924965 0 0 0
63 5 4.9567742477 0.0529982254 18.9618634931 0 0 0
64 7 7.4416746235 0.0821708056 19.1014191477 0 0 0
68 7 6.1949360288 2.1588642027 19.0801897325 0 0 0
74 6 7.5018096017 4.2853629911 19.0547359126 0 0 0
93 7 6.2598414465 0.7194660822 21.17367312 0 0 0
98 7 5.0257186556 2.8737258399 21.1536837203 0 0 0
99 5 7.4793105556 2.8150634673 21.1692986238 0 0 0
65 7 10.0018085899 0.0802466939 19.0961651875 0 0 0
69 7 8.7385472152 2.1539822136 18.9954608723 0 0 0
70 7 11.2870638013 2.2382207273 18.9541707741 0 0 0
75 5 9.908720947 4.3054275401 19.0335874063 0 0 0
94 7 8.7140507513 0.7135233683 21.2362014867 0 0 0
95 7 11.3045523296 0.6704651065 21.199536471 0 0 0
100 6 10.0309211856 2.7845552589 21.0550342549 0 0 0
72 7 2.4838430183 4.388962084 19.1070457725 0 0 0
76 7 1.200144222 6.4346976141 19.2600213636 0 0 0
77 7 3.7839563224 6.5073099035 19.1651823211 0 0 0
82 6 2.3588605673 8.4890673053 18.9154467805 0 0 0
101 7 1.204403147 4.986371594 21.2593935642 0 0 0
102 6 3.7298053141 5.0424743752 21.2297752978 0 0 0
107 7 2.4685484599 7.1728356576 21.2326094282 0 0 0
73 7 4.9759755061 4.316411451 19.087212733 0 0 0
78 7 6.1965388899 6.5190956683 19.1399785413 0 0 0
103 7 6.2751972116 5.0470676015 21.1760724515 0 0 0
108 7 5.0116983743 7.22861409 21.2268755354 0 0 0
109 7 7.4193353481 7.2485706051 21.2651304498 0 0 0
71 1 12.383629132 4.3782094725 19.1862342201 -1 0 0
79 7 8.6255974932 6.472044202 19.3232968982 0 0 0
80 7 11.1135754549 6.420590323 19.3581641471 0 0 0
81 4 12.342695017999999 8.4729562787 19.2006565517 -1 0 0
104 7 8.7408050898 5.0231569879 21.2437432022 0 0 0
105 3 10.084534710960744 4.372503721132385 22.287883128278864 0 0 0
106 7 12.435294388199999 7.0968971559 21.3158557077 -1 0 0
110 7 9.8903603607 7.1660305315 21.3021949042 0 0 0
61 6 0.0477387397 12.935022616100001 18.9949290075 0 -1 0
62 7 2.587482576 12.8543346047 19.0383469717 0 -1 0
86 7 1.2816847716 10.6903307998 19.1614661098 0 0 0
111 7 1.1796694452 9.2896516501 21.1960342799 0 0 0
112 6 3.7016357908 9.3557762036 21.1431867319 0 0 0
116 1 0.0369839214 11.486698451 21.2977096144 0 0 0
117 7 2.4704264091 11.5284142583 21.1452899236 0 0 0
83 7 4.9462384898 8.7330200409 19.0834474924 0 0 0
84 7 7.3974678157 8.6397297376 19.085743402 0 0 0
88 7 6.1625171869 10.8013148416 18.9301045672 0 0 0
113 7 6.2139769728 9.4092095126 21.0353192467 0 0 0
118 7 4.9639845145 11.5407295129 21.0425881559 0 0 0
119 4 7.3995383715 11.5362046003 21.0747824702 0 0 0
89 6 8.731338748 10.8500854071 19.0384744744 0 0 0
90 4 11.272219843 10.8209844576 18.9386324767 0 0 0
114 7 8.6997099562 9.3160354633 20.9928929717 0 0 0
115 6 11.109001975 9.2519683408 21.1755872983 0 0 0
120 7 9.9858618188 11.5164614705 21.1821863062 0 0 0
121 7 0.0779302843681321 1.3731723781951537 23.313215456844667 0 0 0
122 7 2.5692256309041217 1.3843985293380867 23.334083791259975 0 0 0
126 6 1.348964147513657 3.567565164499931 23.268722814766402 0 0 0
127 7 3.844295766497328 3.5708800396087326 23.365196945471602 0 0 0
156 1 1.4736740841719422 2.110887157067642 25.51808272116169 0 0 0
157 7 3.960007523819565 2.1169154893561566 25.44967966380753 0 0 0
162 7 2.5922744558413555 4.242424425053944 25.43030337348056 0 0 0
123 7 4.98556041625119 1.4094344752366086 23.166818093547132 0 0 0
124 7 7.38694280355816 1.4815223202077163 23.489026538496226 0 0 0
128 7 6.296698864206795 3.645171147216724 23.18680742394007 0 0 0
153 7 5.189722796234174 0.05152143259305266 25.30013300486521 0 0 0
158 2 5.769268364007852 2.4377978025942806 24.63226083536171 0 0 0
163 7 5.111598708580472 4.223593400073927 25.424406727888954 0 0 0
164 5 7.471041027789476 4.043826069626207 25.36222048717286 0 0 0
125 7 10.036527309270376 1.4081610610655315 23.357552250360904 0 0 0
129 7 8.744272879530056 3.5264752544960514 23.34961838706591 0 0 0
130 4 11.360689419186848 3.5966398812650944 23.404110519731805 0 0 0
155 4 10.111372210684749 0.043565088871409446 25.561480368887462 0 0 0
159 7 8.861402796468898 2.0793870666815204 25.449445014529957 0 0 0
160 7 11.393539570210265 2.1344397701501294 25.422070761302688 0 0 0
165 7 10.058382838780771 4.1979047117248225 25.41173586098324 0 0 0
131 7 0.06417628333551133 5.750730759828562 23.40594824803501 0 0 0
132 7 2.5356492334081646 5.7784377232847675 23.363562026240235 0 0 0
136 7 1.2960439303780336 7.892536788788319 23.308929775450203 0 0 0
137 7 3.7694776431926567 7.959744766757783 23.282422545527105 0 0 0
161 4 0.10191257803217135 4.318900124946361 25.46909958171647 0 0 0
166 7 1.3306641001219137 6.393305223301747 25.43269915982556 0 0 0
167 7 3.8005579735408737 6.41614572335656 25.446633036289526 0 0 0
171 6 0.10371083057726789 8.593438936956007 25.43519094966317 0 0 0
172 7 2.6157326342667138 8.587209734381434 25.38121477184145 0 0 0
133 6 5.057766237358455 5.83753184084352 23.39114983170314 0 0 0
134 7 7.552057805252735 5.757343903459609 23.3181893504998 0 0 0
138 7 6.302677410834422 7.975189468091024 23.3459322592502 0 0 0
168 7 6.357625472801721 6.373188297358269 25.43696970025105 0 0 0
173 7 5.096876302993442 8.531744274236152 25.338086576017737 0 0 0
135 7 10.057309639782218 5.804410069800506 23.390483866508788 0 0 0
139 4 8.68647396900565 7.921458921409729 23.247788233869365 0 0 0
140 4 11.275509514850176 7.8689389307210025 23.32161841073967 0 0 0
169 7 8.768715481760722 6.3119851820691935 25.385425189716997 0 0 0
170 7 11.282736442507504 6.387364598476703 25.45025411096155 0 0 0
175 6 9.88014352903981 8.547589708440965 25.52596840086653 0 0 0
141 7 0.01246488071450195 10.046062663468815 23.348656570112798 0 0 0
142 7 2.488554135831696 10.0839840670832 23.26000225695621 0 0 0
146 7 1.2944291594575257 12.212762342543591 23.355691602198796 0 0 0
147 7 3.7983365079141893 12.221419228565697 23.185392508984616 0 0 0
151 4 0.08469218990881368 12.85304319784463 25.421086077068203 0 -1 0
152 7 2.647562903568815 12.921599954614809 25.379973796179026 0 -1 0
176 7 1.3350920388573966 10.777496827920757 25.438372781280563 0 0 0
177 6 3.872199647258354 10.794262024135055 25.280618786312523 0 0 0
143 7 5.046564303199394 10.083013327049121 23.18663797683708 0 0 0
144 7 7.496441047289591 10.067846293660962 22.924421680299826 0 0 0
148 4 6.203772830544788 12.248296535785641 23.191211524008995 0 0 0
154 7 7.591432467192922 12.921835252374903 25.479723789841678 0 -1 0
178 6 6.608966055166189 10.519864088585278 25.22716833605846 0 0 0
145 7 9.987599971442897 10.053273689109735 23.31921336601043 0 0 0
149 6 8.69928616783087 12.251067157543748 23.334378074712713 0 0 0
150 7 11.238931696976715 12.196295578216166 23.410449323376533 0 0 0
174 3 8.405429312872437 9.487797969363449 24.42784120955986 0 0 0
179 5 8.989809366855562 10.902274470463146 25.58630290384703 0 0 0
180 5 11.328434007552797 10.845880533415768 25.512002773170206 0 0 0
181 7 1.384856701514753 0.6425533696961141 27.50384592416107 0 0 0
182 7 3.8704725055547926 0.6801334055613291 27.446229220562703 0 0 0
186 7 0.16451557366180006 2.834869406474263 27.49424300673754 0 0 0
187 7 2.6535629700429006 2.826921638300749 27.57433381193799 0 0 0
211 7 0.20481402250441644 1.4215482831074437 29.59117853034942 0 0 0
212 7 2.7107499104029635 1.3288046583151158 29.59811720846166 0 0 0
216 7 1.4032437134713043 3.528675321800136 29.590715307506212 0 0 0
217 4 3.816876014217596 3.5428294141297862 29.607024490357773 0 0 0
183 7 6.302312549921708 0.6921110404891488 27.58345433791945 0 0 0
188 7 5.076340280919967 2.8497457843017564 27.585054559988514 0 0 0
189 7 7.586919075504369 2.770140700983504 27.46781814585637 0 0 0
213 5 5.12965275763877 1.399756558936527 29.616845352500047 0 0 0
214 7 7.6063398705254395 1.330654025205018 29.60520698910803 0 0 0
218 7 6.356768714120811 3.508856688777383 29.553598898242452 0 0 0
184 7 8.877823082418944 0.6980195836287465 27.573972721679834 0 0 0
185 4 11.377089994988443 0.7005882736857335 27.54578722134078 0 0 0
190 7 10.137726587108626 2.8100000588950906 27.492159411384737 0 0 0
215 7 10.118112505903735 1.382493028789698 29.63467456038901 0 0 0
219 7 8.831693224487088 3.4890131132447224 29.532197507947306 0 0 0
220 7 11.362565018817367 3.5376389947899622 29.521444702187033 0 0 0
191 7 1.3840294597380403 4.98261483060303 27.4742036877594 0 0 0
192 7 3.826386037147362 4.964288833995959 27.48634149481988 0 0 0
196 7 0.1316519263161897 7.136238957690215 27.50411527271991 0 0 0
197 7 2.5730312561032602 7.17058376800997 27.48046004908304 0 0 0
221 7 0.11378731086511663 5.70431190755445 29.573344581900994 0 0 0
222 7 2.582488304943263 5.702357319056582 29.549877205081376 0 0 0
226 7 1.36058167446223 7.8838637106279945 29.559787186482968 0 0 0
227 7 3.8547432192647597 7.891039918105495 29.47561506754096 0 0 0
193 7 6.362943298590087 4.951205879909188 27.41864503297775 0 0 0
198 7 5.09519501049953 7.150008155664923 27.41773371170596 0 0 0
199 7 7.613615995477448 7.166542392746342 27.453410240913442 0 0 0
223 6 5.145378197356136 5.692332438471975 29.49315769804659 0 0 0
224 7 7.636962335392777 5.71347324068925 29.58345952806641 0 0 0
228 7 6.385212295802904 7.88778232755202 29.49860006511023 0 0 0
194 6 8.841263278322472 4.975009831324698 27.494855081649618 0 0 0
195 7 11.354267612854159 4.972507475445691 27.510018782746684 0 0 0
200 7 10.118138119742653 7.136960183649973 27.54384574993635 0 0 0
225 7 10.095271456842097 5.720569998390044 29.60528276903655 0 0 0
229 7 8.839705419156749 7.861648796461551 29.528501520693887 0 0 0
230 7 11.36551015263086 7.910583029658134 29.529719099980934 0 0 0
201 5 1.3750361661022652 9.305376095684357 27.52584051779956 0 0 0
202 7 3.865461103102326 9.29971419931671 27.384064603905856 0 0 0
206 4 0.1815443886451574 11.456389644701096 27.534744821960125 0 0 0
207 7 2.605104031706936 11.436073378860259 27.44787864603468 0 0 0
231 7 0.16089081970866165 10.059360383307991 29.582388667177234 0 0 0
232 7 2.631773146329585 10.00967864079716 29.44185936122825 0 0 0
236 7 1.464605718999999 12.15992257444448 29.56626067866565 0 0 0
203 7 6.3665578287857105 9.264479480369058 27.397305445458464 0 0 0
208 7 5.130871411235857 11.478213033120559 27.330498968338375 0 0 0
209 6 7.575256784759588 11.504234941089178 27.646811134357236 0 0 0
233 7 5.1401780180986645 10.033099611768124 29.33642083842543 0 0 0
234 7 7.593133415093989 10.062526449372111 29.66479504146095 0 0 0
238 7 6.207771494002182 12.213883277123585 29.69504498287216 0 0 0
204 7 8.832733239787235 9.347873296518253 27.62687328696937 0 0 0
205 7 11.341000788046633 9.396352111299258 27.55523533880992 0 0 0
210 7 10.144078883091293 11.533679308659815 27.59163198022863 0 0 0
235 7 10.080066095121737 10.159995356777355 29.606999975861182 0 0 0
239 4 8.870846897940469 12.23485761450746 29.740561657977096 0 0 0
240 7 11.388448531603249 12.246154582887902 29.570706412287752 0 0 0
237 3 4.041972701108405 0.2742260948598288 30.59079805568597 0 1 0
241 7 0.1978572098219926 0.08394258105888122 31.63656496662106 0 0 0
242 7 2.5684427848905846 0.11806959377218294 31.763000580394134 0 0 0
246 4 1.3393748464866027 2.222595915008714 31.66743167756148 0 0 0
247 7 3.878598853571065 2.1261466629104415 31.660744796748297 0 0 0
251 7 0.13956034857472602 4.308467430508779 31.650268853517677 0 0 0
252 7 2.6241717500317754 4.297552707768103 31.665490984891974 0 0 0
248 7 6.40277066100028 2.1253264477721365 31.66703602257887 0 0 0
253 7 5.10438391640634 4.286268455000596 31.62943684988126 0 0 0
254 7 7.613447059475246 4.29241395293757 31.596054587491793 0 0 0
249 7 8.844573760314862 2.0871950970918087 31.686694251953966 0 0 0
250 7 11.377974662126917 2.1250341321699318 31.655545947068028 0 0 0
255 1 10.09917477955374 4.209187704219544 31.500668797212406 0 0 0
256 7 1.3210220930835903 6.4881939661593035 31.632855036391017 0 0 0
257 6 3.780878686934507 6.478844832550162 31.655477079401802 0 0 0
286 7 0.09199976961668235 7.270397449429363 33.62075559752749 0 0 0
258 7 6.342911118450607 6.47195572488631 31.623485674677692 0 0 0
264 7 7.581071951164546 8.558099371439456 31.625458474030356 0 0 0
259 4 8.81194073545878 6.446642977777621 31.62430531512454 0 0 0
260 7 11.309229863152934 6.477035126411601 31.593185570862378 0 0 0
284 5 8.876230684933349 5.109053167972019 33.57745201763895 0 0 0
285 4 11.345004056001788 5.150306978846129 33.63782731130485 0 0 0
290 7 10.074533541251514 7.242385612232692 33.58996708072547 0 0 0
261 7 0.17326667305455748 8.701129678754274 31.662836134255272 0 0 0
262 7 2.6622030834291093 8.705906166551548 31.54365729668418 0 0 0
266 7 1.564735826277395 10.81889333123047 31.590171377151815 0 0 0
267 4 3.919417911952474 11.255143751856833 30.885828620590022 0 0 0
292 7 3.957784853922363 9.380297491475151 33.51542178506949 0 0 0
243 7 5.162263667159554 12.878058477062027 32.14868339443228 0 -1 0
244 7 7.6201050118902485 12.917271182488077 31.73685897163797 0 -1 0
263 1 5.089740593784725 8.738199657399802 31.436258592192075 0 0 0
268 7 6.2555592884316935 10.73896807556188 31.583931323629933 0 0 0
293 4 6.440394206922565 9.292546314898845 33.6804859760558 0 0 0
245 7 10.103256294396678 12.8717324387963 31.87842743626315 0 -1 0
265 6 10.09869929020035 8.669451889765787 31.544537306121068 0 0 0
269 7 8.761951955956663 10.779326295542486 31.74400234538267 0 0 0
270 7 11.42032762514664 10.895906948435789 31.62879291036636 0 0 0
296 3 11.051765828670433 11.83020560189891 33.34729951429424 -1 0 0
271 7 1.4665517623194646 0.8921695893642503 33.779801290116474 0 0 0
272 7 3.912939580379178 0.943851135348775 33.954652278544756 0 0 0
276 7 0.17222310105763325 2.988143972165321 33.74017765526114 0 0 0
277 7 2.6372794142701177 3.062941569595259 33.796719285808784 0 0 0
301 7 0.1913328627474421 1.5435221593747608 35.76142735527986 0 0 0
302 7 2.6034888173174573 1.6504956987319692 35.859505744824595 0 0 0
306 4 1.4004529444090268 3.8215252169048233 35.95202153599851 0 0 0
307 7 3.9910272615853333 3.6974885933068724 35.83042495392667 0 0 0
273 7 6.485535213805132 0.9555918003839837 33.93603858849574 0 0 0
278 1 5.219829104144627 2.975360704169133 33.73597428941994 0 0 0
279 7 7.725801160487118 3.0300547588472106 33.7378728503456 0 0 0
303 7 5.2729270064496685 1.6309334838200729 35.94878319489125 0 0 0
304 4 7.795247945292634 1.6039901369117027 35.964927487667445 0 0 0
308 7 6.528114777022927 3.6798003327613107 35.815128840404256 0 0 0
274 7 8.858231998785833 0.9058030654681082 33.85338323440436 0 0 0
275 4 11.44689785717936 0.8026251633771364 33.71116781783936 0 0 0
280 7 10.201013340015695 3.003247906255256 33.69077778281906 0 0 0
305 7 10.24346483966079 1.6040804080193916 35.70885065786384 0 0 0
309 7 9.012936762007957 3.676783358102833 35.77765896535253 0 0 0
310 4 11.576163678778988 3.9360924928256282 35.86482725533787 0 0 0
281 7 1.3197640443445902 5.170987460293938 33.842428269693194 0 0 0
282 4 3.839040015168159 5.1122403315299625 33.760299617064426 0 0 0
287 7 2.6260731671978093 7.27812254621327 33.73592557829907 0 0 0
312 7 2.711669970229672 5.768893937598213 35.76719541053212 0 0 0
316 7 1.2094775533630846 7.600327102600264 35.7861023916085 0 0 0
317 7 3.9000872547537835 8.05085787260891 35.725864817718254 0 0 0
283 7 6.3691432394193725 5.081019762684783 33.670630931771086 0 0 0
288 7 5.1644893077322465 7.251340357922753 33.660911499462685 0 0 0
289 7 7.620268305809851 7.16512462471746 33.713641448337576 0 0 0
313 7 5.240264448124013 5.884580775427338 35.70305425486663 0 0 0
314 7 7.703533587249929 5.808442255138798 35.74151523512156 0 0 0
318 4 6.500582769101207 8.072293190461638 35.78837735600132 0 0 0
311 2 12.383607569768323 5.983536664402657 35.324849068379216 -1 0 0
315 7 10.118989723395527 5.8054409473341675 35.576153246418095 0 0 0
319 7 8.922135769206115 7.966570533693685 35.82425508066448 0 0 0
320 7 11.343079247439519 7.913986100233233 35.57460211516427 0 0 0
350 7 11.674250806891097 6.271233325123594 37.29277066717501 0 0 0
355 3 10.413795542634237 7.9120036398257705 37.249817073623355 0 0 0
291 7 1.4635741430291551 9.418959227439784 33.74952045769196 0 0 0
297 6 3.0179726062137204 11.57535078085979 33.71381555740104 0 0 0
321 6 0.1989492699839546 10.072851469669024 35.913748650966134 0 0 0
322 7 2.706205614551991 10.200467650026322 35.79626410038775 0 0 0
326 7 0.4964976902637692 11.644571893130458 33.67808567274675 0 0 0
327 6 3.936856255955393 12.508184716647321 36.19516662336079 0 0 0
356 4 1.4100551391334717 12.349543848530361 35.85237692660103 0 0 0
298 2 5.196259295786113 12.318774738441512 34.3035564842564 0 0 0
299 7 6.927690051984015 11.545451410327535 33.68775612682149 0 0 0
323 6 5.22317977766529 10.233639870081708 35.613470860658744 0 0 0
324 7 7.9043644419739705 10.268273124103509 35.73099342597723 0 0 0
328 7 6.542309034938717 12.48524122287077 35.96948777919789 0 0 0
294 7 8.759850201736542 9.261866248456185 33.690788230042024 0 0 0
295 6 11.253485006048361 9.69334335706938 33.77403500686766 0 0 0
300 7 9.324026222993748 11.52352553700171 34.12801927430787 0 0 0
325 7 10.215058351519414 9.843633807062735 36.86675628828099 0 0 0
329 3 9.47368416994785 11.490871191164686 36.153854218224815 0 0 0
330 4 11.215990546771076 12.056920866426445 35.531993891789746 0 0 0
335 5 9.85201250910915 0.047687298918758 37.34687179023549 0 0 0
332 7 2.4346522315446495 0.08668803439885206 38.07038931420158 0 0 0
336 7 1.3166745406064024 2.1730139649875166 37.832253718645745 0 0 0
337 7 3.8569376143305654 2.158742446159208 37.845893820895284 0 0 0
341 7 0.20602982186196256 4.247488497222045 38.07109736994059 0 0 0
342 7 2.703721407855134 4.268162829983869 37.91654099122589 0 0 0
333 7 5.118239463234585 0.10454336389309436 38.295977009087835 0 0 0
334 7 7.584006442812959 0.18741853718974952 38.190263695355455 0 0 0
338 7 6.489202175637746 2.292603319477513 37.943591299004645 0 0 0
361 8 6.351466376382471 0.9606433544485564 39.066867136058455 0 0 0
339 7 8.985961704932276 2.2429619125611917 37.88984690588405 0 0 0
340 7 11.361294324470709 2.1948095873533875 37.73291535267995 0 0 0
346 7 1.5055590050942276 6.386986278473216 37.991706701832676 0 0 0
347 6 3.943540518878176 6.4607293901660015 37.746183176187955 0 0 0
343 7 5.275654178786841 4.41737619692235 37.83886015074557 0 0 0
344 7 7.817067627573517 4.436764840550612 37.84388571347362 0 0 0
348 6 6.62800065799233 6.631323871845908 37.82046827938949 0 0 0
345 4 10.217534073216978 4.3472764759158595 37.80726282354055 0 0 0
349 7 9.231883072536426 6.618616876255427 37.85409017156046 0 0 0
351 7 12.206166338571437 8.569523167878828 37.8261840123243 -1 0 0
352 6 2.46699328385353 8.648664078053626 37.698125959308655 0 0 0
357 7 3.8150303910573586 10.782867846306372 38.02200029555381 0 0 0
360 7 1.3627077709711641 10.887390190163602 37.907922317352316 1 0 0
353 7 5.091623791017418 8.676991465775354 37.82151485615899 0 0 0
354 7 7.8106459626425995 8.856666607655292 37.82143739073988 0 0 0
358 6 6.379517760660901 10.85614582053205 37.862368504332466 0 0 0
331 7 12.341556543727188 12.848884676289947 37.58998992523478 -1 -1 0
359 2 8.260297066678238 11.667922211308433 37.07115712402847 0 0 0

Velocities

1 0 0 0
2 0 0 0
3 0 0 0
9 0 0 0
5 0 0 0
6 0 0 0
10 0 0 0
16 0 0 0
20 0 0 0
26 0 0 0
27 0 0 0
23 0 0 0
28 0 0 0
29 0 0 0
24 0 0 0
25 0 0 0
30 0 0 0
7 0 0 0
31 0 0 0
32 0 0 0
36 0 0 0
37 0 0 0
56 0 0 0
8 0 0 0
33 0 0 0
34 0 0 0
38 0 0 0
4 0 0 0
35 0 0 0
39 0 0 0
40 0 0 0
11 0 0 0
12 0 0 0
17 0 0 0
42 0 0 0
47 0 0 0
13 0 0 0
18 0 0 0
19 0 0 0
43 0 0 0
44 0 0 0
48 0 0 0
14 0 0 0
15 0 0 0
41 0 0 0
45 0 0 0
49 0 0 0
50 0 0 0
85 0 0 0
21 0 0 0
22 0 0 0
46 0 0 0
52 0 0 0
57 0 0 0
87 0 0 0
53 0 0 0
54 0 0 0
58 0 0 0
51 0 0 0
55 0 0 0
59 0 0 0
60 0 0 0
66 0 0 0
67 0 0 0
91 0 0 0
92 0 0 0
96 0 0 0
97 0 0 0
63 0 0 0
64 0 0 0
68 0 0 0
74 0 0 0
93 0 0 0
98 0 0 0
99 0 0 0
65 0 0 0
69 0 0 0
70 0 0 0
75 0 0 0
94 0 0 0
95 0 0 0
100 0 0 0
72 0 0 0
76 0 0 0
77 0 0 0
82 0 0 0
101 0 0 0
102 0 0 0
107 0 0 0
73 0 0 0
78 0 0 0
103 0 0 0
108 0 0 0
109 0 0 0
71 0 0 0
79 0 0 0
80 0 0 0
81 0 0 0
104 0 0 0
105 0 0 0
106 0 0 0
110 0 0 0
61 0 0 0
62 0 0 0
86 0 0 0
111 0 0 0
112 0 0 0
116 0 0 0
117 0 0 0
83 0 0 0
84 0 0 0
88 0 0 0
113 0 0 0
118 0 0 0
119 0 0 0
89 0 0 0
90 0 0 0
114 0 0 0
115 0 0 0
120 0 0 0
121 0 0 0
122 0 0 0
126 0 0 0
127 0 0 0
156 0 0 0
157 0 0 0
162 0 0 0
123 0 0 0
124 0 0 0
128 0 0 0
153 0 0 0
158 0 0 0
163 0 0 0
164 0 0 0
125 0 0 0
129 0 0 0
130 0 0 0
155 0 0 0
159 0 0 0
160 0 0 0
165 0 0 0
131 0 0 0
132 0 0 0
136 0 0 0
137 0 0 0
161 0 0 0
166 0 0 0
167 0 0 0
171 0 0 0
172 0 0 0
133 0 0 0
134 0 0 0
138 0 0 0
168 0 0 0
173 0 0 0
135 0 0 0
139 0 0 0
140 0 0 0
169 0 0 0
170 0 0 0
175 0 0 0
141 0 0 0
142 0 0 0
146 0 0 0
147 0 0 0
151 0 0 0
152 0 0 0
176 0 0 0
177 0 0 0
143 0 0 0
144 0 0 0
148 0 0 0
154 0 0 0
178 0 0 0
145 0 0 0
149 0 0 0
150 0 0 0
174 0 0 0
179 0 0 0
180 0 0 0
181 0 0 0
182 0 0 0
186 0 0 0
187 0 0 0
211 0 0 0
212 0 0 0
216 0 0 0
217 0 0 0
183 0 0 0
188 0 0 0
189 0 0 0
213 0 0 0
214 0 0 0
218 0 0 0
184 0 0 0
185 0 0 0
190 0 0 0
215 0 0 0
219 0 0 0
220 0 0 0
191 0 0 0
192 0 0 0
196 0 0 0
197 0 0 0
221 0 0 0
222 0 0 0
226 0 0 0
227 0 0 0
193 0 0 0
198 0 0 0
199 0 0 0
223 0 0 0
224 0 0 0
228 0 0 0
194 0 0 0
195 0 0 0
200 0 0 0
225 0 0 0
229 0 0 0
230 0 0 0
201 0 0 0
202 0 0 0
206 0 0 0
207 0 0 0
231 0 0 0
232 0 0 0
236 0 0 0
203 0 0 0
208 0 0 0
209 0 0 0
233 0 0 0
234 0 0 0
238 0 0 0
204 0 0 0
205 0 0 0
210 0 0 0
235 0 0 0
239 0 0 0
240 0 0 0
237 0 0 0
241 0 0 0
242 0 0 0
246 0 0 0
247 0 0 0
251 0 0 0
252 0 0 0
248 0 0 0
253 0 0 0
254 0 0 0
249 0 0 0
250 0 0 0
255 0 0 0
256 0 0 0
257 0 0 0
286 0 0 0
258 0 0 0
264 0 0 0
259 0 0 0
260 0 0 0
284 0 0 0
285 0 0 0
290 0 0 0
261 0 0 0
262 0 0 0
266 0 0 0
267 0 0 0
292 0 0 0
243 0 0 0
244 0 0 0
263 0 0 0
268 0 0 0
293 0 0 0
245 0 0 0
265 0 0 0
269 0 0 0
270 0 0 0
296 0 0 0
271 0 0 0
272 0 0 0
276 0 0 0
277 0 0 0
301 0 0 0
302 0 0 0
306 0 0 0
307 0 0 0
273 0 0 0
278 0 0 0
279 0 0 0
303 0 0 0
304 0 0 0
308 0 0 0
274 0 0 0
275 0 0 0
280 0 0 0
305 0 0 0
309 0 0 0
310 0 0 0
281 0 0 0
282 0 0 0
287 0 0 0
312 0 0 0
316 0 0 0
317 0 0 0
283 0 0 0
288 0 0 0
289 0 0 0
313 0 0 0
314 0 0 0
318 0 0 0
311 0 0 0
315 0 0 0
319 0 0 0
320 0 0 0
350 0 0 0
355 0 0 0
291 0 0 0
297 0 0 0
321 0 0 0
322 0 0 0
326 0 0 0
327 0 0 0
356 0 0 0
298 0 0 0
299 0 0 0
323 0 0 0
324 0 0 0
328 0 0 0
294 0 0 0
295 0 0 0
300 0 0 0
325 0 0 0
329 0 0 0
330 0 0 0
335 0 0 0
332 0 0 0
336 0 0 0
337 0 0 0
341 0 0 0
342 0 0 0
333 0 0 0
334 0 0 0
338 0 0 0
361 0 0 0
339 0 0 0
340 0 0 0
346 0 0 0
347 0 0 0
343 0 0 0
344 0 0 0
348 0 0 0
345 0 0 0
349 0 0 0
351 0 0 0
352 0 0 0
357 0 0 0
360 0 0 0
353 0 0 0
354 0 0 0
358 0 0 0
331 0 0 0
359 0 0 0
