LAMMPS data file via write_data, version 11 Feb 2026, timestep = 130, units = metal

361 atoms
8 atom types

0 12.447907776 xlo xhi
0 12.9362452296 ylo yhi
0 52.3600831054 zlo zhi

Masses

1 26.9815
2 10.811
3 12.011
4 51.9961
5 55.845
6 95.95999999999999
7 58.6934
8 1.008

Atoms # atomic/kk

1 7 1.1447475034 1.4042530815 14.1767669076 0 0 0
2 7 3.6084602259 1.0698845996 14.6704381247 0 0 0
3 5 6.0765506298 0.9467816033 14.9127945674 0 0 0
9 7 7.3904254576 3.1552415677 14.921343358 0 0 0
5 7 11.0497419237 1.2529911546 14.6024861837 0 0 0
6 7 12.371824795299998 3.4559595715 14.8227813157 -1 0 0
10 7 9.9130540797 3.3904065996 14.7812471609 0 0 0
16 4 0.4694173902 7.8125304368 14.7997570607 0 0 0
20 7 10.4454755951 7.6697182118 14.1848688757 0 0 0
26 7 0.1281197666 12.2044764222 14.9105894271 0 0 0
27 7 2.482376412 11.8082341077 14.4640395444 0 0 0
23 7 6.9215809143 9.0056325864 14.7794199109 0 0 0
28 7 4.9597127568 11.7869866321 14.6074736033 0 0 0
29 6 7.487468691 11.492489151 14.9214469503 0 0 0
24 7 9.211267288 9.7383043985 14.542324574 0 0 0
25 7 11.7628351674 9.8745411843 14.7910184475 0 0 0
30 7 10.0617556164 11.945152431 14.7619795889 0 0 0
7 7 2.4276438825 3.274586701 14.9921379853 0 0 0
31 6 0.1320668178 1.5666912763 16.54569988 0 0 0
32 7 2.6047881521 1.6851371804 16.9156842324 0 0 0
36 7 1.2195215325 3.8560608354 17.0299024962 0 0 0
37 7 3.7103479774 3.8371572501 17.0572271382 0 0 0
56 2 1.9139638832 0.320698286899999 15.6094045829 0 1 0
8 7 4.9287232821 3.1271355871 15.0109940309 0 0 0
33 7 4.9854693445 1.6648399647 16.9552168616 0 0 0
34 7 7.410113639 1.7690174525 16.9802513671 0 0 0
38 5 6.1786870847 3.8598965293 16.9892925392 0 0 0
4 6 8.6405916037 0.9966073374 15.0011028893 0 0 0
35 7 9.9854439602 1.6623584179 16.9441720819 0 0 0
39 7 8.7306918901 3.8627101762 16.8623801969 0 0 0
40 7 11.1905275305 3.8067890199 17.0006893521 0 0 0
11 7 1.2348702966 5.4950064056 15.0806985502 0 0 0
12 7 3.723333195 5.3162088046 15.091556138 0 0 0
17 7 2.6528824888 7.4951525199 15.1538371669 0 0 0
42 7 2.4538170063 6.1274901805 17.1415379148 0 0 0
47 7 3.8866203033 8.1976953877 17.0635533141 0 0 0
13 7 6.1787690715 5.3054540189 15.034535629 0 0 0
18 7 5.0798141029 7.4787706901 15.0688046453 0 0 0
19 2 7.0597951203 7.0189274967 15.3897174295 0 0 0
43 7 4.9526824561 5.9628190941 17.0949149841 0 0 0
44 7 7.4770692341 5.9405064365 17.0881545432 0 0 0
48 7 6.3467693742 8.0549577382 17.0498728177 0 0 0
14 7 8.7041968087 5.6586120419 14.9658205562 0 0 0
15 6 11.1806031706 5.6044565055 15.1850152514 0 0 0
41 7 12.442168210099998 5.9982391836 17.2267436521 -1 0 0
45 7 9.923455112 6.0385351278 17.2532666192 0 0 0
49 7 8.7166078523 7.9219477302 16.0697967416 0 0 0
50 7 11.1854260308 7.9909608595 16.4539207548 0 0 0
85 6 9.7874825474 8.473382021 18.5408467256 0 0 0
21 2 1.1654244367 10.4783622607 15.2130316912 0 0 0
22 7 2.969847795 9.8650340587 15.6453950804 0 0 0
46 7 0.7946061559 9.3672820405 16.8749701293 0 0 0
52 7 1.3503573598 11.8646523864 16.9891542204 0 0 0
57 7 3.753873893 12.4366743176 16.6098759546 0 0 0
87 1 3.6650451701 10.7156807278 18.2659007397 0 0 0
53 7 5.3358928559 10.1219872041 16.3275402765 0 0 0
54 7 7.7336051436 10.0538114804 16.9470367537 0 0 0
58 6 6.3195663174 12.3667352783 16.9550847684 0 0 0
51 3 11.519673145099999 9.370279149 17.6624171524 -1 0 0
55 7 10.1852587848 10.2759719364 16.6816821896 0 0 0
59 7 8.8367077706 12.3810361477 16.9622360876 0 0 0
60 7 11.2428990064 12.4670428062 16.882988677 0 0 0
66 6 1.393007034 2.1659191631 19.0534804658 0 0 0
67 5 3.8310712323 2.169749835 19.077551421 0 0 0
91 4 1.3610097719 0.7490016766 21.3001474804 0 0 0
92 7 3.7532698079 0.7243006354 21.0553737996 0 0 0
96 7 0.082079932 2.7970216106 21.1874527472 0 0 0
97 7 2.5927240934 2.8497939446 21.1992924965 0 0 0
63 5 4.9567742477 0.0529982254 18.9618634931 0 0 0
64 7 7.4416746235 0.0821708056 19.1014191477 0 0 0
68 7 6.1949360288 2.1588642027 19.0801897325 0 0 0
74 6 7.5018096017 4.2853629911 19.0547359126 0 0 0
93 7 6.2598414465 0.7194660822 21.17367312 0 0 0
98 7 5.0257186556 2.8737258399 21.1536837203 0 0 0
99 5 7.4793105556 2.8150634673 21.1692986238 0 0 0
65 7 10.0018085899 0.0802466939 19.0961651875 0 0 0
69 7 8.7385472152 2.1539822136 18.9954608723 0 0 0
70 7 11.2870638013 2.2382207273 18.9541707741 0 0 0
75 5 9.908720947 4.3054275401 19.0335874063 0 0 0
94 7 8.7140507513 0.7135233683 21.2362014867 0 0 0
95 7 11.3045523296 0.6704651065 21.199536471 0 0 0
100 6 10.0309211856 2.7845552589 21.0550342549 0 0 0
72 7 2.4838430183 4.388962084 19.1070457725 0 0 0
76 7 1.200144222 6.4346976141 19.2600213636 0 0 0
77 7 3.7839563224 6.5073099035 19.1651823211 0 0 0
82 6 2.3588605673 8.4890673053 18.9154467805 0 0 0
101 7 1.204403147 4.986371594 21.2593935642 0 0 0
102 6 3.7298053141 5.0424743752 21.2297752978 0 0 0
107 7 2.4685484599 7.1728356576 21.2326094282 0 0 0
73 7 4.9759755061 4.316411451 19.087212733 0 0 0
78 7 6.1965388899 6.5190956683 19.1399785413 0 0 0
103 7 6.2751972116 5.0470676015 21.1760724515 0 0 0
108 7 5.0116983743 7.22861409 21.2268755354 0 0 0
109 7 7.4193353481 7.2485706051 21.2651304498 0 0 0
71 1 12.383629132 4.3782094725 19.1862342201 -1 0 0
79 7 8.6255974932 6.472044202 19.3232968982 0 0 0
80 7 11.1135754549 6.420590323 19.3581641471 0 0 0
81 4 12.342695017999999 8.4729562787 19.2006565517 -1 0 0
104 7 8.7408050898 5.0231569879 21.2437432022 0 0 0
105 3 10.084408999486945 4.372034031564959 22.28851492734018 0 0 0
106 7 12.435294388199999 7.0968971559 21.3158557077 -1 0 0
110 7 9.8903603607 7.1660305315 21.3021949042 0 0 0
61 6 0.0477387397 12.935022616100001 18.9949290075 0 -1 0
62 7 2.587482576 12.8543346047 19.0383469717 0 -1 0
86 7 1.2816847716 10.6903307998 19.1614661098 0 0 0
111 7 1.1796694452 9.2896516501 21.1960342799 0 0 0
112 6 3.7016357908 9.3557762036 21.1431867319 0 0 0
116 1 0.0369839214 11.486698451 21.2977096144 0 0 0
117 7 2.4704264091 11.5284142583 21.1452899236 0 0 0
83 7 4.9462384898 8.7330200409 19.0834474924 0 0 0
84 7 7.3974678157 8.6397297376 19.085743402 0 0 0
88 7 6.1625171869 10.8013148416 18.9301045672 0 0 0
113 7 6.2139769728 9.4092095126 21.0353192467 0 0 0
118 7 4.9639845145 11.5407295129 21.0425881559 0 0 0
119 4 7.3995383715 11.5362046003 21.0747824702 0 0 0
89 6 8.731338748 10.8500854071 19.0384744744 0 0 0
90 4 11.272219843 10.8209844576 18.9386324767 0 0 0
114 7 8.6997099562 9.3160354633 20.9928929717 0 0 0
115 6 11.109001975 9.2519683408 21.1755872983 0 0 0
120 7 9.9858618188 11.5164614705 21.1821863062 0 0 0
121 7 0.07745210451621587 1.373492479024082 23.313765557332953 0 0 0
122 7 2.5687250694621064 1.3849358173275126 23.333885266759687 0 0 0
126 6 1.348669574538084 3.5679215991566497 23.269962746226973 0 0 0
127 7 3.8440881893964804 3.571550426828486 23.366306082804755 0 0 0
156 1 1.4731866873607895 2.111193511078858 25.519971219076602 0 0 0
157 7 3.9594497580114574 2.1173351205498094 25.448873531679485 0 0 0
162 7 2.5920431670277457 4.243203713409219 25.433529840714005 0 0 0
123 7 4.985427630121575 1.409993687038199 23.166152646078874 0 0 0
124 7 7.387023118951877 1.481961265539227 23.488087620736835 0 0 0
128 7 6.296797951776695 3.645953978418111 23.18729286568009 0 0 0
153 7 5.188954453290173 0.05103857652612118 25.296478389566275 0 0 0
158 2 5.767658402838074 2.4396139797720986 24.63160927459719 0 0 0
163 7 5.110915197943716 4.224637155887598 25.426636405422244 0 0 0
164 5 7.470243833832111 4.044754848088957 25.3642567762342 0 0 0
125 7 10.036469385919446 1.4084246440328894 23.358286061313002 0 0 0
129 7 8.744439238030855 3.5271281182676013 23.351333020294188 0 0 0
130 4 11.36037302104521 3.5970610719299154 23.40613247319553 0 0 0
155 4 10.111835522266102 0.04297852283371786 25.5598658833341 0 0 0
159 7 8.861368230588585 2.079888104402314 25.450482574998055 0 0 0
160 7 11.393840710234342 2.134995075754266 25.424563358948568 0 0 0
165 7 10.058426227204471 4.197376854109975 25.416021183984437 0 0 0
131 7 0.06417469979542582 5.750566920550763 23.40786376427117 0 0 0
132 7 2.5355327963431686 5.7783696248941325 23.364696441449098 0 0 0
136 7 1.2958264272824247 7.891880210406059 23.30873546534438 0 0 0
137 7 3.769209391938373 7.9596542656333025 23.28231337000813 0 0 0
161 4 0.10231243277935524 4.319208222700547 25.473648195137592 0 0 0
166 7 1.3304748777446482 6.392536336673154 25.435392345925823 0 0 0
167 7 3.8002531137721416 6.416016249182974 25.44834743142128 0 0 0
171 6 0.10181694357529711 8.591366280828922 25.43391107197859 0 0 0
172 7 2.614581501559208 8.58577112139253 25.38057721483284 0 0 0
133 6 5.0574764021353555 5.837981889231015 23.39192552522018 0 0 0
134 7 7.551690233929306 5.75737819941952 23.318795949718822 0 0 0
138 7 6.302635176787592 7.975436376882437 23.345829524363563 0 0 0
168 7 6.357091543143697 6.373234113492781 25.438254077532704 0 0 0
173 7 5.096027875605749 8.53124430904217 25.337227363238927 0 0 0
135 7 10.057008326126212 5.80374183914892 23.391854399481957 0 0 0
139 4 8.686214074173169 7.920104963652833 23.247605416171304 0 0 0
140 4 11.27476582730098 7.867980944209045 23.32155150645939 0 0 0
169 7 8.768084506384819 6.309624046188813 25.387213558775994 0 0 0
170 7 11.281911803518748 6.385545080353763 25.45264908074929 0 0 0
175 6 9.878154671962882 8.545019486669075 25.526589627751136 0 0 0
141 7 0.01202986721140263 10.045213028269963 23.347731598164103 0 0 0
142 7 2.4878113838423954 10.083558155088207 23.258712650157165 0 0 0
146 7 1.2941167273462213 12.21269742817009 23.354706785736173 0 0 0
147 7 3.798111268905896 12.221632822522858 23.184475868100357 0 0 0
151 4 0.08416099997603484 12.852405935697604 25.41952578191073 0 -1 0
152 7 2.6462891035808322 12.921152996534166 25.37829979138697 0 -1 0
176 7 1.3340055478557882 10.776064614194187 25.43605703889897 0 0 0
177 6 3.870565854350769 10.79305111663431 25.278216102643622 0 0 0
143 7 5.0464737235994095 10.083093284793247 23.185520757274446 0 0 0
144 7 7.497073194927114 10.067522154098095 22.923689830284292 0 0 0
148 4 6.204168346050989 12.248342971252393 23.18936879373835 0 0 0
154 7 7.591838438121935 12.921229106964665 25.476200478450647 0 -1 0
178 6 6.608759877473798 10.519086395389932 25.224337011882515 0 0 0
145 7 9.987321504480352 10.051954333683295 23.319139484127316 0 0 0
149 6 8.699760564605143 12.250888929024786 23.332717561190595 0 0 0
150 7 11.238703715006363 12.195708063061767 23.409373910710098 0 0 0
174 3 8.404840000634449 9.485473327268458 24.4272700822457 0 0 0
179 5 8.990131408070965 10.9011042768714 25.583656637870117 0 0 0
180 5 11.328092544469653 10.844494448191279 25.51024015809553 0 0 0
181 7 1.3828280228156906 0.6421600388523262 27.502009483651893 0 0 0
182 7 3.86917891250303 0.6799876127553134 27.441592383742332 0 0 0
186 7 0.16499705866062261 2.836035514289772 27.499780852538414 0 0 0
187 7 2.653647605195588 2.82993728004543 27.575119812888264 0 0 0
211 7 0.2034779073528868 1.4229443400132498 29.595234443791323 0 0 0
212 7 2.7047165786627847 1.336211109222999 29.589082057002532 0 0 0
216 7 1.4056099705098588 3.5326455957241705 29.598417007395874 0 0 0
217 4 3.8182178446698942 3.5502285838407963 29.610124294907635 0 0 0
183 7 6.3021475460769345 0.6940087203455625 27.57462392034335 0 0 0
188 7 5.075789796896269 2.8517808154751925 27.58499782119817 0 0 0
189 7 7.587888275148301 2.7727144506673396 27.469389712634985 0 0 0
213 5 5.127934121547406 1.4031988474232604 29.608450933773632 0 0 0
214 7 7.605668981867552 1.3351067630773272 29.596356605241926 0 0 0
218 7 6.356674184194331 3.5161944772424816 29.552878201184487 0 0 0
184 7 8.878664507367594 0.698045098586353 27.571310524762783 0 0 0
185 4 11.3769693327996 0.7008055747500862 27.544705252154092 0 0 0
190 7 10.138340169825 2.8107442058389847 27.49721744133568 0 0 0
215 7 10.117435118829937 1.3824899599681428 29.636814726988202 0 0 0
219 7 8.832693382407621 3.492796612394003 29.538459019332034 0 0 0
220 7 11.363094256351447 3.5380251158663993 29.530085910533774 0 0 0
191 7 1.3852419063149266 4.98420901818486 27.48155183991415 0 0 0
192 7 3.82678758561191 4.967557222999691 27.49206504434179 0 0 0
196 7 0.1300593909285843 7.134847281386361 27.506131131866546 0 0 0
197 7 2.5725214995231247 7.170031793329295 27.484213375031402 0 0 0
221 7 0.11444447191367345 5.704302624268394 29.58120323457678 0 0 0
222 7 2.5854531438133432 5.706062296150782 29.564054718206798 0 0 0
226 7 1.3565923436531926 7.880028765175397 29.56155531923965 0 0 0
227 7 3.85311512338623 7.890342298099446 29.47836304249145 0 0 0
193 7 6.362098998647856 4.953897890549279 27.422738844149432 0 0 0
198 7 5.095069817989354 7.150791873338051 27.419580035376278 0 0 0
199 7 7.614165917745463 7.166888846923663 27.453867739882725 0 0 0
223 6 5.145090800319501 5.699407657655117 29.50138806264698 0 0 0
224 7 7.637145793937636 5.717939643200365 29.588475076046464 0 0 0
228 7 6.386530990915583 7.891348194078643 29.49729317496468 0 0 0
194 6 8.840928472957673 4.975744107469165 27.500002535082263 0 0 0
195 7 11.35457138664541 4.972310036397501 27.516119831890276 0 0 0
200 7 10.117657045909475 7.135548739751309 27.546469095310012 0 0 0
225 7 10.095782306366683 5.719861619994705 29.613665388772535 0 0 0
229 7 8.83987504351299 7.862002759095705 29.52969763498541 0 0 0
230 7 11.362691871504305 7.908220844652528 29.533055001810204 0 0 0
201 5 1.372437869456403 9.30227707512216 27.52142902853014 0 0 0
202 7 3.864998717436165 9.297972473435884 27.38205044677794 0 0 0
206 4 0.1814051648342018 11.454323288711334 27.532355325036725 0 0 0
207 7 2.6044380380332712 11.434411362412032 27.444713091188394 0 0 0
231 7 0.15898250972495628 10.05552591357915 29.576992211197428 0 0 0
232 7 2.6261141844606164 10.002642285606878 29.434176388316725 0 0 0
236 7 1.4674300787188457 12.159932953322457 29.563189163830494 0 0 0
203 7 6.367546008738833 9.263786045196982 27.393282516869863 0 0 0
208 7 5.1309949475228205 11.478230400364808 27.324597438788857 0 0 0
209 6 7.575643185560487 11.503829353195433 27.641325199564896 0 0 0
233 7 5.141528666092144 10.033430105229304 29.328222268603415 0 0 0
234 7 7.5944064169590835 10.067368891659926 29.665794900593276 0 0 0
238 7 6.205796754348074 12.215333217541861 29.681470577500974 0 0 0
204 7 8.83186910774782 9.347247614575872 27.6271071615218 0 0 0
205 7 11.33902577143468 9.393861855673176 27.55384501671402 0 0 0
210 7 10.144866153124143 11.532595843783497 27.588972138801196 0 0 0
235 7 10.078322785899024 10.158691800244888 29.605477390288463 0 0 0
239 4 8.871405255310703 12.23372376330519 29.733918244759693 0 0 0
240 7 11.390349012838765 12.246297190599906 29.56718475569667 0 0 0
237 3 4.025739757944012 0.27058619401892187 30.558889824718037 0 1 0
241 7 0.19644459009960258 0.08201128473706762 31.641293165352497 0 0 0
242 7 2.5658590448441565 0.1202816402915035 31.751218886857423 0 0 0
246 4 1.340284325760667 2.2239527520888713 31.6676994828054 0 0 0
247 7 3.874271009429736 2.1352905422905293 31.64948817762422 0 0 0
251 7 0.14290684113610636 4.309104823761319 31.659323217241447 0 0 0
252 7 2.62885781637932 4.305434728178895 31.680782828394513 0 0 0
248 7 6.40004585097541 2.1370715393621067 31.652502908541024 0 0 0
253 7 5.105286369551682 4.298146678645602 31.634961476213316 0 0 0
254 7 7.614441211010979 4.301296605393436 31.600755952370722 0 0 0
249 7 8.843999585092453 2.0912742697066906 31.687033903327805 0 0 0
250 7 11.377284246864875 2.123192348475903 31.663774078832155 0 0 0
255 1 10.101360265305201 4.2079009038242186 31.51468517545279 0 0 0
256 7 1.3241385502358747 6.486673170144472 31.645461131307677 0 0 0
257 6 3.7855706413218764 6.488773738118108 31.6788597819947 0 0 0
286 7 0.10011226524301156 7.261524922426984 33.640649925959224 0 0 0
258 7 6.343903967065479 6.483099502641086 31.630608566588997 0 0 0
264 7 7.583398202703348 8.565158946557657 31.62226229127062 0 0 0
259 4 8.815876460367628 6.448481500771766 31.63307109994717 0 0 0
260 7 11.310908665558696 6.475896716287629 31.604081549505718 0 0 0
284 5 8.877765579384963 5.106481679944791 33.58964376147602 0 0 0
285 4 11.35008964473134 5.143200871486108 33.650841120636166 0 0 0
290 7 10.082162249266487 7.2459863055483895 33.600410931786634 0 0 0
261 7 0.16964066367957037 8.69228993448569 31.66575941361563 0 0 0
262 7 2.655361584550572 8.703458549869 31.539544360485124 0 0 0
266 7 1.5559251175671422 10.816101270114503 31.57976637949698 0 0 0
267 4 3.910231129943057 11.257611304966105 30.85909952261746 0 0 0
292 7 3.9500469175625157 9.353147915674768 33.509107809440785 0 0 0
243 7 5.163454725134098 12.888102336112475 32.09910210507133 0 -1 0
244 7 7.620402508142622 12.926036337158555 31.711036709740068 0 -1 0
263 1 5.086251196101433 8.748340042421214 31.425162834343503 0 0 0
268 7 6.254532881352967 10.74947977147906 31.581226772265886 0 0 0
293 4 6.4471868684782105 9.314833168164464 33.643722319576774 0 0 0
245 7 10.1040782207691 12.872629392751994 31.86994721384327 0 -1 0
265 6 10.095089837232093 8.668729927573432 31.547922223016524 0 0 0
269 7 8.768679467888044 10.789387803624544 31.752884183438574 0 0 0
270 7 11.421730159679443 10.890713278204126 31.617832924793888 0 0 0
296 3 11.067574742928723 11.820488333085855 33.3292391420672 -1 0 0
271 7 1.4708465352370432 0.8865006518472688 33.78201847605708 0 0 0
272 7 3.9173517292907647 0.9355662060306413 33.92591615503011 0 0 0
276 7 0.17114473789636242 2.9752381087337367 33.736986669273634 0 0 0
277 7 2.640675076390196 3.059440599868689 33.8013772413088 0 0 0
301 7 0.1841124068034612 1.5323642555468986 35.76040836668616 0 0 0
302 7 2.6174667069886413 1.6456607352228831 35.86669756798457 0 0 0
306 4 1.4041698280742518 3.797003136398728 35.94188921307122 0 0 0
307 7 3.9864080027862463 3.720666333390243 35.84272783312255 0 0 0
273 7 6.451019628090082 0.9613732659929173 33.90413352257934 0 0 0
278 1 5.2071436251550445 2.9856589114756913 33.72845647520157 0 0 0
279 7 7.716708488434319 3.030954222942663 33.73629396736495 0 0 0
303 7 5.235513915714932 1.6529016267233603 35.94630448860764 0 0 0
304 4 7.747234579748839 1.6281340944921114 35.92088594278924 0 0 0
308 7 6.513929522150128 3.701277241223892 35.80981171052712 0 0 0
274 7 8.826084986847778 0.8858766479888787 33.841261138983775 0 0 0
275 4 11.432101594211804 0.7837440617301076 33.7171585434305 0 0 0
280 7 10.194687729157257 2.9831998902794803 33.71365421830751 0 0 0
305 7 10.213301306997122 1.5506397329650132 35.72944590285124 0 0 0
309 7 9.00464802913277 3.663165564348084 35.781940414006606 0 0 0
310 4 11.563312927697087 3.915034273769193 35.846407674525224 0 0 0
281 7 1.3239481768891541 5.163379487676229 33.86759698191168 0 0 0
282 4 3.8417205764061153 5.128007009852453 33.79221305560337 0 0 0
287 7 2.628235615506959 7.272296142143314 33.76695691519456 0 0 0
312 7 2.7079830188484637 5.771564649435108 35.815917377837174 0 0 0
316 7 1.2306565029086993 7.607938122991736 35.82056516231497 0 0 0
317 7 3.9183372989799135 8.030628916124794 35.74759384072178 0 0 0
283 7 6.36960056972424 5.0912786018943725 33.6819632294575 0 0 0
288 7 5.181086791149364 7.258277035949054 33.681570627013684 0 0 0
289 7 7.6286893945561465 7.174735372272188 33.71429397939256 0 0 0
313 7 5.249812717781567 5.915930969652503 35.74792301430834 0 0 0
314 7 7.708120682257293 5.814824824367956 35.75077018502802 0 0 0
318 4 6.563866736211659 8.109571380606479 35.79853958850994 0 0 0
311 2 12.398062831402822 5.980906881600795 35.345380181646554 -1 0 0
315 7 10.125091201403148 5.795930098998954 35.58524576816383 0 0 0
319 7 8.960300744055202 7.966811119417893 35.819625045450174 0 0 0
320 7 11.358358542564364 7.916127454931235 35.592509113414756 0 0 0
350 7 11.655089882188205 6.272527193755776 37.311028601660496 0 0 0
355 3 10.436829220438742 7.888588276086461 37.26792129377984 0 0 0
291 7 1.4602988619755206 9.410725566371406 33.744596304722265 0 0 0
297 6 3.0109740455774494 11.552626027638413 33.68914520157975 0 0 0
321 6 0.20144831705308083 10.059090014076768 35.915214735978154 0 0 0
322 7 2.686780993316575 10.156276443972157 35.782720132706075 0 0 0
326 7 0.49710197152852637 11.639055354393474 33.68409315619107 0 0 0
327 6 3.9154420472166596 12.478062921564806 36.103189176495945 0 0 0
356 4 1.3950716481629497 12.343866554185384 35.84709551139598 0 0 0
298 2 5.198467753044965 12.263439718714835 34.20227622772777 0 0 0
299 7 6.997324845295311 11.571978588524425 33.67820084549135 0 0 0
323 6 5.224227849255721 10.217603228296001 35.56966619309573 0 0 0
324 7 7.907595764355187 10.350891066632174 35.71002150166707 0 0 0
328 7 6.458945989866381 12.50544414537192 35.911683660221584 0 0 0
294 7 8.763070688141998 9.277106516852891 33.6959372070899 0 0 0
295 6 11.261119195209927 9.688453385653816 33.76726511042032 0 0 0
300 7 9.380847855963225 11.535885396650459 34.17090064514093 0 0 0
325 7 10.256263544363522 9.828803482340758 37.03504590887676 0 0 0
329 3 9.529774682024405 11.389334402386615 36.20566789844429 0 0 0
330 4 11.254351666127103 12.072620699415856 35.582491737279156 0 0 0
335 5 9.902995080579146 12.898668972590261 37.39852541035648 0 -1 0
332 7 2.483725050131617 0.09686213030467994 38.03108461339537 0 0 0
336 7 1.3268099480818452 2.180430713696867 37.83434781578422 0 0 0
337 7 3.8700859652869255 2.196026326968467 37.87320232777841 0 0 0
341 7 0.2025685932349236 4.24870834231291 38.047563500639534 0 0 0
342 7 2.694550177738537 4.288984644879673 37.90996737469937 0 0 0
333 7 5.210204503770155 0.16117860901744985 38.11223847282851 0 0 0
334 7 7.645306469202242 0.06705403865236043 37.998135318918415 0 0 0
338 7 6.5225585987624095 2.2591648567395626 37.90442031057325 0 0 0
339 7 8.98060953304922 2.1855762737700943 37.85449984974585 0 0 0
340 7 11.358943449018046 2.190371026204696 37.72618316889343 0 0 0
346 7 1.4444145296887771 6.3913172294318334 38.05755120553549 0 0 0
347 6 3.949149910909399 6.477375097093087 37.82039176218129 0 0 0
361 8 2.637369881292903 7.208704185551143 39.0474806570407 0 0 0
343 7 5.287798203637466 4.426071005324891 37.83174120394245 0 0 0
344 7 7.819458689304794 4.443616357266312 37.852556880292084 0 0 0
348 6 6.647006262171628 6.669463115364577 37.822588010891984 0 0 0
345 4 10.20633179003524 4.33000016311698 37.80687527378241 0 0 0
349 7 9.226591679396362 6.627406197889892 37.866151406378975 0 0 0
351 7 12.269598187358064 8.552263621368525 37.837021222637674 -1 0 0
352 6 2.513368134208269 8.66341291436371 37.748696044229725 0 0 0
357 7 3.849163229301685 10.80776052328842 37.96328692294388 0 0 0
360 7 1.3937694158723972 10.89169411844171 37.889668961925075 1 0 0
353 7 5.145027608607629 8.707604260425919 37.80715137329667 0 0 0
354 7 7.952991939622104 8.950315790762234 37.81270473062961 0 0 0
358 6 6.418933690091551 10.854812388731581 37.791080690526094 0 0 0
331 7 12.389969996798316 12.879351836626041 37.63017441980388 -1 -1 0
359 2 8.599930563038159 11.15484373728433 37.42799049349988 0 0 0

Velocities

1 0 0 0
2 0 0 0
3 0 0 0
9 0 0 0
5 0 0 0
6 0 0 0
10 0 0 0
16 0 0 0
20 0 0 0
26 0 0 0
27 0 0 0
23 0 0 0
28 0 0 0
29 0 0 0
24 0 0 0
25 0 0 0
30 0 0 0
7 0 0 0
31 0 0 0
32 0 0 0
36 0 0 0
37 0 0 0
56 0 0 0
8 0 0 0
33 0 0 0
34 0 0 0
38 0 0 0
4 0 0 0
35 0 0 0
39 0 0 0
40 0 0 0
11 0 0 0
12 0 0 0
17 0 0 0
42 0 0 0
47 0 0 0
13 0 0 0
18 0 0 0
19 0 0 0
43 0 0 0
44 0 0 0
48 0 0 0
14 0 0 0
15 0 0 0
41 0 0 0
45 0 0 0
49 0 0 0
50 0 0 0
85 0 0 0
21 0 0 0
22 0 0 0
46 0 0 0
52 0 0 0
57 0 0 0
87 0 0 0
53 0 0 0
54 0 0 0
58 0 0 0
51 0 0 0
55 0 0 0
59 0 0 0
60 0 0 0
66 0 0 0
67 0 0 0
91 0 0 0
92 0 0 0
96 0 0 0
97 0 0 0
63 0 0 0
64 0 0 0
68 0 0 0
74 0 0 0
93 0 0 0
98 0 0 0
99 0 0 0
65 0 0 0
69 0 0 0
70 0 0 0
75 0 0 0
94 0 0 0
95 0 0 0
100 0 0 0
72 0 0 0
76 0 0 0
77 0 0 0
82 0 0 0
101 0 0 0
102 0 0 0
107 0 0 0
73 0 0 0
78 0 0 0
103 0 0 0
108 0 0 0
109 0 0 0
71 0 0 0
79 0 0 0
80 0 0 0
81 0 0 0
104 0 0 0
105 0 0 0
106 0 0 0
110 0 0 0
61 0 0 0
62 0 0 0
86 0 0 0
111 0 0 0
112 0 0 0
116 0 0 0
117 0 0 0
83 0 0 0
84 0 0 0
88 0 0 0
113 0 0 0
118 0 0 0
119 0 0 0
89 0 0 0
90 0 0 0
114 0 0 0
115 0 0 0
120 0 0 0
121 0 0 0
122 0 0 0
126 0 0 0
127 0 0 0
156 0 0 0
157 0 0 0
162 0 0 0
123 0 0 0
124 0 0 0
128 0 0 0
153 0 0 0
158 0 0 0
163 0 0 0
164 0 0 0
125 0 0 0
129 0 0 0
130 0 0 0
155 0 0 0
159 0 0 0
160 0 0 0
165 0 0 0
131 0 0 0
132 0 0 0
136 0 0 0
137 0 0 0
161 0 0 0
166 0 0 0
167 0 0 0
171 0 0 0
172 0 0 0
133 0 0 0
134 0 0 0
138 0 0 0
168 0 0 0
173 0 0 0
135 0 0 0
139 0 0 0
140 0 0 0
169 0 0 0
170 0 0 0
175 0 0 0
141 0 0 0
142 0 0 0
146 0 0 0
147 0 0 0
151 0 0 0
152 0 0 0
176 0 0 0
177 0 0 0
143 0 0 0
144 0 0 0
148 0 0 0
154 0 0 0
178 0 0 0
145 0 0 0
149 0 0 0
150 0 0 0
174 0 0 0
179 0 0 0
180 0 0 0
181 0 0 0
182 0 0 0
186 0 0 0
187 0 0 0
211 0 0 0
212 0 0 0
216 0 0 0
217 0 0 0
183 0 0 0
188 0 0 0
189 0 0 0
213 0 0 0
214 0 0 0
218 0 0 0
184 0 0 0
185 0 0 0
190 0 0 0
215 0 0 0
219 0 0 0
220 0 0 0
191 0 0 0
192 0 0 0
196 0 0 0
197 0 0 0
221 0 0 0
222 0 0 0
226 0 0 0
227 0 0 0
193 0 0 0
198 0 0 0
199 0 0 0
223 0 0 0
224 0 0 0
228 0 0 0
194 0 0 0
195 0 0 0
200 0 0 0
225 0 0 0
229 0 0 0
230 0 0 0
201 0 0 0
202 0 0 0
206 0 0 0
207 0 0 0
231 0 0 0
232 0 0 0
236 0 0 0
203 0 0 0
208 0 0 0
209 0 0 0
233 0 0 0
234 0 0 0
238 0 0 0
204 0 0 0
205 0 0 0
210 0 0 0
235 0 0 0
239 0 0 0
240 0 0 0
237 0 0 0
241 0 0 0
242 0 0 0
246 0 0 0
247 0 0 0
251 0 0 0
252 0 0 0
248 0 0 0
253 0 0 0
254 0 0 0
249 0 0 0
250 0 0 0
255 0 0 0
256 0 0 0
257 0 0 0
286 0 0 0
258 0 0 0
264 0 0 0
259 0 0 0
260 0 0 0
284 0 0 0
285 0 0 0
290 0 0 0
261 0 0 0
262 0 0 0
266 0 0 0
267 0 0 0
292 0 0 0
243 0 0 0
244 0 0 0
263 0 0 0
268 0 0 0
293 0 0 0
245 0 0 0
265 0 0 0
269 0 0 0
270 0 0 0
296 0 0 0
271 0 0 0
272 0 0 0
276 0 0 0
277 0 0 0
301 0 0 0
302 0 0 0
306 0 0 0
307 0 0 0
273 0 0 0
278 0 0 0
279 0 0 0
303 0 0 0
304 0 0 0
308 0 0 0
274 0 0 0
275 0 0 0
280 0 0 0
305 0 0 0
309 0 0 0
310 0 0 0
281 0 0 0
282 0 0 0
287 0 0 0
312 0 0 0
316 0 0 0
317 0 0 0
283 0 0 0
288 0 0 0
289 0 0 0
313 0 0 0
314 0 0 0
318 0 0 0
311 0 0 0
315 0 0 0
319 0 0 0
320 0 0 0
350 0 0 0
355 0 0 0
291 0 0 0
297 0 0 0
321 0 0 0
322 0 0 0
326 0 0 0
327 0 0 0
356 0 0 0
298 0 0 0
299 0 0 0
323 0 0 0
324 0 0 0
328 0 0 0
294 0 0 0
295 0 0 0
300 0 0 0
325 0 0 0
329 0 0 0
330 0 0 0
335 0 0 0
332 0 0 0
336 0 0 0
337 0 0 0
341 0 0 0
342 0 0 0
333 0 0 0
334 0 0 0
338 0 0 0
339 0 0 0
340 0 0 0
346 0 0 0
347 0 0 0
361 0 0 0
343 0 0 0
344 0 0 0
348 0 0 0
345 0 0 0
349 0 0 0
351 0 0 0
352 0 0 0
357 0 0 0
360 0 0 0
353 0 0 0
354 0 0 0
358 0 0 0
331 0 0 0
359 0 0 0
