LAMMPS data file via write_data, version 11 Feb 2026, timestep = 150, units = metal

361 atoms
8 atom types

0 12.447907776 xlo xhi
0 12.9362452296 ylo yhi
0 52.3600831054 zlo zhi

Masses

1 26.9815
2 10.811
3 12.011
4 51.9961
5 55.845
6 95.95999999999999
7 58.6934
8 1.008

Atoms # atomic/kk

1 7 1.1447475034 1.4042530815 14.1767669076 0 0 0
2 7 3.6084602259 1.0698845996 14.6704381247 0 0 0
3 5 6.0765506298 0.9467816033 14.9127945674 0 0 0
9 7 7.3904254576 3.1552415677 14.921343358 0 0 0
5 7 11.0497419237 1.2529911546 14.6024861837 0 0 0
6 7 12.371824795299998 3.4559595715 14.8227813157 -1 0 0
10 7 9.9130540797 3.3904065996 14.7812471609 0 0 0
16 4 0.4694173902 7.8125304368 14.7997570607 0 0 0
20 7 10.4454755951 7.6697182118 14.1848688757 0 0 0
26 7 0.1281197666 12.2044764222 14.9105894271 0 0 0
27 7 2.482376412 11.8082341077 14.4640395444 0 0 0
23 7 6.9215809143 9.0056325864 14.7794199109 0 0 0
28 7 4.9597127568 11.7869866321 14.6074736033 0 0 0
29 6 7.487468691 11.492489151 14.9214469503 0 0 0
24 7 9.211267288 9.7383043985 14.542324574 0 0 0
25 7 11.7628351674 9.8745411843 14.7910184475 0 0 0
30 7 10.0617556164 11.945152431 14.7619795889 0 0 0
7 7 2.4276438825 3.274586701 14.9921379853 0 0 0
31 6 0.1320668178 1.5666912763 16.54569988 0 0 0
32 7 2.6047881521 1.6851371804 16.9156842324 0 0 0
36 7 1.2195215325 3.8560608354 17.0299024962 0 0 0
37 7 3.7103479774 3.8371572501 17.0572271382 0 0 0
56 2 1.9139638832 0.320698286899999 15.6094045829 0 1 0
8 7 4.9287232821 3.1271355871 15.0109940309 0 0 0
33 7 4.9854693445 1.6648399647 16.9552168616 0 0 0
34 7 7.410113639 1.7690174525 16.9802513671 0 0 0
38 5 6.1786870847 3.8598965293 16.9892925392 0 0 0
4 6 8.6405916037 0.9966073374 15.0011028893 0 0 0
35 7 9.9854439602 1.6623584179 16.9441720819 0 0 0
39 7 8.7306918901 3.8627101762 16.8623801969 0 0 0
40 7 11.1905275305 3.8067890199 17.0006893521 0 0 0
11 7 1.2348702966 5.4950064056 15.0806985502 0 0 0
12 7 3.723333195 5.3162088046 15.091556138 0 0 0
17 7 2.6528824888 7.4951525199 15.1538371669 0 0 0
42 7 2.4538170063 6.1274901805 17.1415379148 0 0 0
47 7 3.8866203033 8.1976953877 17.0635533141 0 0 0
13 7 6.1787690715 5.3054540189 15.034535629 0 0 0
18 7 5.0798141029 7.4787706901 15.0688046453 0 0 0
19 2 7.0597951203 7.0189274967 15.3897174295 0 0 0
43 7 4.9526824561 5.9628190941 17.0949149841 0 0 0
44 7 7.4770692341 5.9405064365 17.0881545432 0 0 0
48 7 6.3467693742 8.0549577382 17.0498728177 0 0 0
14 7 8.7041968087 5.6586120419 14.9658205562 0 0 0
15 6 11.1806031706 5.6044565055 15.1850152514 0 0 0
41 7 12.442168210099998 5.9982391836 17.2267436521 -1 0 0
45 7 9.923455112 6.0385351278 17.2532666192 0 0 0
49 7 8.7166078523 7.9219477302 16.0697967416 0 0 0
50 7 11.1854260308 7.9909608595 16.4539207548 0 0 0
85 6 9.7874825474 8.473382021 18.5408467256 0 0 0
21 2 1.1654244367 10.4783622607 15.2130316912 0 0 0
22 7 2.969847795 9.8650340587 15.6453950804 0 0 0
46 7 0.7946061559 9.3672820405 16.8749701293 0 0 0
52 7 1.3503573598 11.8646523864 16.9891542204 0 0 0
57 7 3.753873893 12.4366743176 16.6098759546 0 0 0
87 1 3.6650451701 10.7156807278 18.2659007397 0 0 0
53 7 5.3358928559 10.1219872041 16.3275402765 0 0 0
54 7 7.7336051436 10.0538114804 16.9470367537 0 0 0
58 6 6.3195663174 12.3667352783 16.9550847684 0 0 0
51 3 11.519673145099999 9.370279149 17.6624171524 -1 0 0
55 7 10.1852587848 10.2759719364 16.6816821896 0 0 0
59 7 8.8367077706 12.3810361477 16.9622360876 0 0 0
60 7 11.2428990064 12.4670428062 16.882988677 0 0 0
66 6 1.393007034 2.1659191631 19.0534804658 0 0 0
67 5 3.8310712323 2.169749835 19.077551421 0 0 0
91 4 1.3610097719 0.7490016766 21.3001474804 0 0 0
92 7 3.7532698079 0.7243006354 21.0553737996 0 0 0
96 7 0.082079932 2.7970216106 21.1874527472 0 0 0
97 7 2.5927240934 2.8497939446 21.1992924965 0 0 0
63 5 4.9567742477 0.0529982254 18.9618634931 0 0 0
64 7 7.4416746235 0.0821708056 19.1014191477 0 0 0
68 7 6.1949360288 2.1588642027 19.0801897325 0 0 0
74 6 7.5018096017 4.2853629911 19.0547359126 0 0 0
93 7 6.2598414465 0.7194660822 21.17367312 0 0 0
98 7 5.0257186556 2.8737258399 21.1536837203 0 0 0
99 5 7.4793105556 2.8150634673 21.1692986238 0 0 0
65 7 10.0018085899 0.0802466939 19.0961651875 0 0 0
69 7 8.7385472152 2.1539822136 18.9954608723 0 0 0
70 7 11.2870638013 2.2382207273 18.9541707741 0 0 0
75 5 9.908720947 4.3054275401 19.0335874063 0 0 0
94 7 8.7140507513 0.7135233683 21.2362014867 0 0 0
95 7 11.3045523296 0.6704651065 21.199536471 0 0 0
100 6 10.0309211856 2.7845552589 21.0550342549 0 0 0
72 7 2.4838430183 4.388962084 19.1070457725 0 0 0
76 7 1.200144222 6.4346976141 19.2600213636 0 0 0
77 7 3.7839563224 6.5073099035 19.1651823211 0 0 0
82 6 2.3588605673 8.4890673053 18.9154467805 0 0 0
101 7 1.204403147 4.986371594 21.2593935642 0 0 0
102 6 3.7298053141 5.0424743752 21.2297752978 0 0 0
107 7 2.4685484599 7.1728356576 21.2326094282 0 0 0
73 7 4.9759755061 4.316411451 19.087212733 0 0 0
78 7 6.1965388899 6.5190956683 19.1399785413 0 0 0
103 7 6.2751972116 5.0470676015 21.1760724515 0 0 0
108 7 5.0116983743 7.22861409 21.2268755354 0 0 0
109 7 7.4193353481 7.2485706051 21.2651304498 0 0 0
71 1 12.383629132 4.3782094725 19.1862342201 -1 0 0
79 7 8.6255974932 6.472044202 19.3232968982 0 0 0
80 7 11.1135754549 6.420590323 19.3581641471 0 0 0
81 4 12.342695017999999 8.4729562787 19.2006565517 -1 0 0
104 7 8.7408050898 5.0231569879 21.2437432022 0 0 0
105 3 10.084409048217726 4.372034059066619 22.288514886847732 0 0 0
106 7 12.435294388199999 7.0968971559 21.3158557077 -1 0 0
110 7 9.8903603607 7.1660305315 21.3021949042 0 0 0
61 6 0.0477387397 12.935022616100001 18.9949290075 0 -1 0
62 7 2.587482576 12.8543346047 19.0383469717 0 -1 0
86 7 1.2816847716 10.6903307998 19.1614661098 0 0 0
111 7 1.1796694452 9.2896516501 21.1960342799 0 0 0
112 6 3.7016357908 9.3557762036 21.1431867319 0 0 0
116 1 0.0369839214 11.486698451 21.2977096144 0 0 0
117 7 2.4704264091 11.5284142583 21.1452899236 0 0 0
83 7 4.9462384898 8.7330200409 19.0834474924 0 0 0
84 7 7.3974678157 8.6397297376 19.085743402 0 0 0
88 7 6.1625171869 10.8013148416 18.9301045672 0 0 0
113 7 6.2139769728 9.4092095126 21.0353192467 0 0 0
118 7 4.9639845145 11.5407295129 21.0425881559 0 0 0
119 4 7.3995383715 11.5362046003 21.0747824702 0 0 0
89 6 8.731338748 10.8500854071 19.0384744744 0 0 0
90 4 11.272219843 10.8209844576 18.9386324767 0 0 0
114 7 8.6997099562 9.3160354633 20.9928929717 0 0 0
115 6 11.109001975 9.2519683408 21.1755872983 0 0 0
120 7 9.9858618188 11.5164614705 21.1821863062 0 0 0
121 7 0.07745217778751826 1.3734924881117725 23.31376553636383 0 0 0
122 7 2.568725149765001 1.3849358256313995 23.333885241678725 0 0 0
126 6 1.3486696404482426 3.5679216087321457 23.269962744205188 0 0 0
127 7 3.8440882547129025 3.571550433479672 23.366306052243072 0 0 0
156 1 1.473186857860486 2.111193537844726 25.519971199839038 0 0 0
157 7 3.9594499109386656 2.117335145884202 25.448873498023612 0 0 0
162 7 2.5920433359927015 4.243203741960381 25.43352981918783 0 0 0
123 7 4.985427712384282 1.409993703655095 23.16615264127329 0 0 0
124 7 7.387023223278914 1.4819612637235324 23.48808758111925 0 0 0
128 7 6.296798031153024 3.6459539706820774 23.187292875712192 0 0 0
153 7 5.1889546172803085 0.051038613674964525 25.296478356066874 0 0 0
158 2 5.767658573427703 2.4396139248552045 24.631609285889084 0 0 0
163 7 5.110915364643434 4.224637168758582 25.42663636450337 0 0 0
164 5 7.470243995553383 4.044754842222711 25.36425676812065 0 0 0
125 7 10.036469464923764 1.4084246536525418 23.358286042708492 0 0 0
129 7 8.74443932392823 3.527128124477065 23.35133301203364 0 0 0
130 4 11.360373095045583 3.5970610906845906 23.406132418871092 0 0 0
155 4 10.111835693537548 0.04297854660754654 25.559865846002268 0 0 0
159 7 8.861368398476685 2.079888125884226 25.45048254582317 0 0 0
160 7 11.393840887180836 2.1349951073519455 25.42456332444745 0 0 0
165 7 10.058426401679048 4.197376872382901 25.416021142811953 0 0 0
131 7 0.06417479377129735 5.750566941855147 23.407863761505894 0 0 0
132 7 2.5355328765488654 5.778369638027583 23.36469643310429 0 0 0
136 7 1.2958264973662714 7.89188021866839 23.308735448807823 0 0 0
137 7 3.7692094616879754 7.959654264303868 23.28231335720049 0 0 0
161 4 0.10231261420820431 4.3192082479212255 25.473648167098016 0 0 0
166 7 1.3304750387889526 6.392536362290833 25.435392334788112 0 0 0
167 7 3.8002532757420044 6.4160162764512325 25.448347412630103 0 0 0
171 6 0.10181709238480571 8.591366297165834 25.433911053002387 0 0 0
172 7 2.614581663140637 8.585771145427579 25.380577202566382 0 0 0
133 6 5.05747647740174 5.837981878099943 23.391925505058502 0 0 0
134 7 7.551690311412994 5.75737820756618 23.318795920426933 0 0 0
138 7 6.302635233186599 7.975436368266035 23.345829459602307 0 0 0
168 7 6.3570917039498696 6.373234140672507 25.438254015920695 0 0 0
173 7 5.096028052971514 8.53124433198017 25.337227311210825 0 0 0
135 7 10.05700841819115 5.80374185197479 23.391854360069637 0 0 0
139 4 8.686214130789564 7.920104977992452 23.247605424757925 0 0 0
140 4 11.274765905823239 7.8679809641524345 23.32155150033992 0 0 0
169 7 8.768084659239825 6.309624061469748 25.387213516416473 0 0 0
170 7 11.281911957400233 6.385545096075065 25.452649045991784 0 0 0
175 6 9.878154801362431 8.545019507070093 25.526589586041357 0 0 0
141 7 0.012029946920356709 10.04521304128742 23.34773158773 0 0 0
142 7 2.487811461851531 10.083558162820877 23.25871263833647 0 0 0
146 7 1.294116803269017 12.212697438111887 23.35470677039795 0 0 0
147 7 3.7981113476605874 12.221632831859845 23.184475854229433 0 0 0
151 4 0.08416115869096112 12.852405957660213 25.419525772258662 0 -1 0
152 7 2.6462892580489092 12.921153016392841 25.378299759475837 0 -1 0
176 7 1.334005711203093 10.776064627888653 25.43605701460049 0 0 0
177 6 3.8705660166192906 10.79305113765071 25.278216074753765 0 0 0
143 7 5.046473797447557 10.083093284675488 23.185520727567198 0 0 0
144 7 7.497073253995795 10.067522153614131 22.92368982005216 0 0 0
148 4 6.20416842305002 12.248342969580502 23.189368746188006 0 0 0
154 7 7.591838598545701 12.92122914463254 25.4762004458311 0 -1 0
178 6 6.608760013343677 10.519086467213452 25.224336978611248 0 0 0
145 7 9.987321584923073 10.051954360384764 23.31913946480445 0 0 0
149 6 8.699760643158752 12.250888924477021 23.33271755386576 0 0 0
150 7 11.238703794189354 12.195708086319408 23.409373897812095 0 0 0
174 3 8.404840123388006 9.48547338680727 24.427270061880172 0 0 0
179 5 8.990131562484619 10.901104293201799 25.583656639330645 0 0 0
180 5 11.328092698439468 10.844494467280702 25.510240112833635 0 0 0
181 7 1.3828282957571691 0.6421600493416096 27.50200945220589 0 0 0
182 7 3.8691791724189892 0.6799876244472416 27.441592336208817 0 0 0
186 7 0.1649973426670985 2.836035537186595 27.499780809362857 0 0 0
187 7 2.6536478958010226 2.8299373003859567 27.57511976740957 0 0 0
211 7 0.20347828500090662 1.422944356648381 29.59523437512411 0 0 0
212 7 2.7047169323780316 1.3362111507592564 29.589082009824924 0 0 0
216 7 1.4056103457860427 3.5326456206956705 29.598416961143872 0 0 0
217 4 3.818218222506293 3.5502286234719524 29.610124251798254 0 0 0
183 7 6.302147824964138 0.6940087542920009 27.574623867165727 0 0 0
188 7 5.075790105726196 2.851780853172125 27.58499773523179 0 0 0
189 7 7.587888577858182 2.7727144902018472 27.46938970540842 0 0 0
213 5 5.127934519480519 1.4031989464514216 29.60845079965825 0 0 0
214 7 7.605669364439615 1.3351067841847097 29.596356546782634 0 0 0
218 7 6.356674564772332 3.5161945176128833 29.5528781516513 0 0 0
184 7 8.87866478218893 0.6980451220717463 27.571310463872564 0 0 0
185 4 11.37696960655151 0.7008056037121412 27.54470520183007 0 0 0
190 7 10.13834046302298 2.8107442459002785 27.49721739954499 0 0 0
215 7 10.117435493642407 1.3824899806386508 29.6368146422387 0 0 0
219 7 8.83269376264932 3.4927966391061394 29.538458983709216 0 0 0
220 7 11.363094635892914 3.538025131413427 29.530085861660424 0 0 0
191 7 1.3852421878921357 4.984209035841462 27.481551818635346 0 0 0
192 7 3.82678786540043 4.967557249392759 27.492065019660785 0 0 0
196 7 0.13005967765378282 7.134847306027085 27.506131101062934 0 0 0
197 7 2.5725217904758564 7.1700318066855315 27.484213353938504 0 0 0
221 7 0.11444485606009384 5.704302637912238 29.58120320372458 0 0 0
222 7 2.585453527581604 5.706062323968819 29.56405471580387 0 0 0
226 7 1.3565927319541926 7.880028761063669 29.561555290584362 0 0 0
227 7 3.853115516495664 7.890342306340419 29.478362997228288 0 0 0
193 7 6.362099286230601 4.953897933637931 27.42273878250153 0 0 0
198 7 5.095070108708478 7.150791894196105 27.41957998573543 0 0 0
199 7 7.61416621595707 7.166888888731972 27.453867663237833 0 0 0
223 6 5.14509117646115 5.699407685682322 29.501388032079138 0 0 0
224 7 7.637146174480585 5.717939675740036 29.588475029852855 0 0 0
228 7 6.386531395163156 7.891348220592427 29.497293115626007 0 0 0
194 6 8.840928772752253 4.975744143543813 27.500002511583276 0 0 0
195 7 11.35457167656791 4.97231007635993 27.516119800735677 0 0 0
200 7 10.117657337014691 7.135548777225966 27.546469055880937 0 0 0
225 7 10.095782697106975 5.71986164397289 29.61366535408098 0 0 0
229 7 8.839875425740939 7.862002776647936 29.529697593597696 0 0 0
230 7 11.362692253590135 7.9082208609423965 29.533054942012708 0 0 0
201 5 1.3724381572668296 9.302277075928407 27.521428987040533 0 0 0
202 7 3.8649990116443287 9.297972472370425 27.382050400874935 0 0 0
206 4 0.18140542295100584 11.454323314412827 27.532355262695088 0 0 0
207 7 2.604438297786938 11.434411357092443 27.444713055035947 0 0 0
231 7 0.15898291895861558 10.055525909933145 29.576992124791076 0 0 0
232 7 2.626114593494279 10.00264227402291 29.434176335408637 0 0 0
236 7 1.4674304634004571 12.159932957512039 29.56318910460081 0 0 0
203 7 6.367546319573509 9.263786045371058 27.39328241228071 0 0 0
208 7 5.130995197616925 11.47823041658879 27.32459739562399 0 0 0
209 6 7.575643430660361 11.503829383222039 27.641325174311188 0 0 0
233 7 5.14152909040735 10.033430101315595 29.328222168879613 0 0 0
234 7 7.594406825802064 10.067368930773382 29.665794875217284 0 0 0
238 7 6.205797090811644 12.215333252836954 29.68147055171587 0 0 0
204 7 8.831869419687115 9.347247666586767 27.627107162212674 0 0 0
205 7 11.339026044267769 9.3938618916102 27.553844972143565 0 0 0
210 7 10.144866420282673 11.532595877700922 27.58897210323706 0 0 0
235 7 10.078323183441677 10.158691813136231 29.605477364753607 0 0 0
239 4 8.871405646656799 12.23372378106287 29.733918170895862 0 0 0
240 7 11.390349397350212 12.246297208574964 29.567184692812074 0 0 0
237 3 4.025740205191634 0.27058633812594407 30.55888978465974 0 1 0
241 7 0.19644508358368112 0.08201124895407556 31.641293084974148 0 0 0
242 7 2.5658595224248826 0.1202816137438716 31.7512188317556 0 0 0
246 4 1.3402847950017829 2.223952725026884 31.667699401544866 0 0 0
247 7 3.8742714949383754 2.135290514432345 31.64948811092967 0 0 0
251 7 0.14290731039847496 4.309104793805781 31.659323187065915 0 0 0
252 7 2.628858274311728 4.305434711383292 31.680782794050497 0 0 0
248 7 6.400046325809139 2.137071536521607 31.65250283465338 0 0 0
253 7 5.105286829651201 4.298146670990505 31.634961437003895 0 0 0
254 7 7.614441681199317 4.301296609153981 31.600755905115385 0 0 0
249 7 8.84400006865505 2.0912742471344425 31.687033825672835 0 0 0
250 7 11.377284721484227 2.123192313876439 31.66377400047935 0 0 0
255 1 10.10136072057066 4.207900886592634 31.514685124230652 0 0 0
256 7 1.3241390278735974 6.486673123878495 31.645461120771422 0 0 0
257 6 3.785571113434607 6.48877373278801 31.678859787243127 0 0 0
286 7 0.10011277917532659 7.261524887093306 33.64064987295877 0 0 0
258 7 6.343904430365268 6.483099502148876 31.630608527345565 0 0 0
264 7 7.583398658144856 8.565158940067404 31.622262228359652 0 0 0
259 4 8.815876926553514 6.4484814855930805 31.633071058161633 0 0 0
260 7 11.31090913846555 6.475896698105364 31.604081494879832 0 0 0
284 5 8.877766129570874 5.106481632715233 33.5896437350666 0 0 0
285 4 11.350090142919228 5.143200809864059 33.65084101064433 0 0 0
290 7 10.082162775660283 7.245986256854488 33.600410897337774 0 0 0
261 7 0.16964113044358595 8.692289889047553 31.66575933007441 0 0 0
262 7 2.6553620418960846 8.703458510851211 31.53954433488343 0 0 0
266 7 1.555925633502087 10.81610123894226 31.57976626725932 0 0 0
267 4 3.9102316080827757 11.25761142849826 30.859099280119203 0 0 0
292 7 3.9500474333521125 9.353147726307052 33.50910784839267 0 0 0
243 7 5.16345522109214 12.888102316108279 32.09910200786495 0 -1 0
244 7 7.620402998725123 12.926036326670314 31.711036600285688 0 -1 0
263 1 5.08625161458443 8.748340068695773 31.425162756255222 0 0 0
268 7 6.254533315014293 10.749479762603467 31.58122671664833 0 0 0
293 4 6.447187379501112 9.314833110159258 33.64372221415991 0 0 0
245 7 10.104078734397211 12.872629360248029 31.86994710087774 0 -1 0
265 6 10.095090294526598 8.668729905826263 31.54792217698581 0 0 0
269 7 8.768679941973105 10.78938779369151 31.752884154609337 0 0 0
270 7 11.421730673796091 10.89071323223085 31.617832824725674 0 0 0
296 3 11.067575352078256 11.820488268656373 33.329239007978074 -1 0 0
271 7 1.4708471288686102 0.8865005755147438 33.78201842050363 0 0 0
272 7 3.9173523274676603 0.9355661087560185 33.92591609527242 0 0 0
276 7 0.17114530713192844 2.9752380155381153 33.73698660364605 0 0 0
277 7 2.640675648636808 3.0594405152044257 33.80137717308257 0 0 0
301 7 0.18411303899751127 1.5323641393119116 35.76040828351419 0 0 0
302 7 2.6174673728203275 1.6456606010445225 35.86669751211923 0 0 0
306 4 1.4041705517617853 3.797002929312558 35.9418891574418 0 0 0
307 7 3.986408667528881 3.7206662159969217 35.84272776482734 0 0 0
273 7 6.4510202035316375 0.961373182846725 33.904133411351886 0 0 0
278 1 5.207144196254549 2.985658831186471 33.72845641479774 0 0 0
279 7 7.716709065264583 3.0309541584449873 33.73629389280785 0 0 0
303 7 5.235514562011017 1.6529015149564426 35.94630442570441 0 0 0
304 4 7.747235198042143 1.6281340200520933 35.920885830356866 0 0 0
308 7 6.513930169205244 3.7012771515276484 35.80981164788295 0 0 0
274 7 8.826085554565973 0.8858765717893057 33.84126103296086 0 0 0
275 4 11.43210214929453 0.7837439775590623 33.71715846236491 0 0 0
280 7 10.194688298465767 2.9831998063798606 33.71365415032355 0 0 0
305 7 10.213301917263115 1.55063959070432 35.729445824900296 0 0 0
309 7 9.004648694198536 3.663165473235667 35.78194034704766 0 0 0
310 4 11.563313615862063 3.9150342239320555 35.846407594811325 0 0 0
281 7 1.3239486640821838 5.1633794161109146 33.86759708841773 0 0 0
282 4 3.841721099074195 5.128006925605319 33.792213031238134 0 0 0
287 7 2.6282361268619625 7.272296021569433 33.766956953600896 0 0 0
312 7 2.707983673485779 5.771564517263967 35.815917427020715 0 0 0
316 7 1.2306570237196253 7.607937887646758 35.820565176897276 0 0 0
317 7 3.918337933027242 8.030628780863385 35.74759383835201 0 0 0
283 7 6.369601129957614 5.091278536714237 33.68196317854801 0 0 0
288 7 5.181087337796815 7.2582769351868 33.68157062649453 0 0 0
289 7 7.6286899242864505 7.174735326290804 33.714293927724675 0 0 0
313 7 5.249813348911199 5.915930868135728 35.747922999392756 0 0 0
314 7 7.708121318471385 5.814824731915937 35.75077011981145 0 0 0
318 4 6.563867365270894 8.10957130601481 35.798539558265404 0 0 0
311 2 12.39806320907328 5.980906853246872 35.34538007520466 -1 0 0
315 7 10.12509184452452 5.795930037975436 35.585245747775865 0 0 0
319 7 8.96030133746414 7.966811045159703 35.81962501224093 0 0 0
320 7 11.358359094362406 7.916127432541921 35.592509080450036 0 0 0
350 7 11.655090567496257 6.272527151557068 37.31102856405261 0 0 0
355 3 10.436829853786817 7.888588219534405 37.267921301883845 0 0 0
291 7 1.4602994200671082 9.410725498101165 33.74459618193815 0 0 0
297 6 3.0109746696985624 11.552625908597594 33.689145054848055 0 0 0
321 6 0.20144897875254875 10.059089873526377 35.91521460191835 0 0 0
322 7 2.6867816426037456 10.156276307053325 35.78271999716502 0 0 0
326 7 0.49710257158931326 11.639055289335644 33.68409306208499 0 0 0
327 6 3.9154427150711784 12.478062782498329 36.103189038908056 0 0 0
356 4 1.395072317282903 12.34386643945341 35.84709541306584 0 0 0
298 2 5.198468396662662 12.263439556774818 34.20227605974979 0 0 0
299 7 6.99732554664399 11.57197849745533 33.67820073406645 0 0 0
323 6 5.224228484278159 10.217603105840217 35.56966613519539 0 0 0
324 7 7.907596425480812 10.350891010652585 35.71002146287988 0 0 0
328 7 6.4589466365606105 12.505444032796099 35.91168352101583 0 0 0
294 7 8.763071201122333 9.27710648884464 33.69593715447953 0 0 0
295 6 11.261119750773181 9.688453335303445 33.76726502184764 0 0 0
300 7 9.380848532365235 11.535885358844101 34.1709006390855 0 0 0
325 7 10.256264230687192 9.828803431567543 37.03504593168852 0 0 0
329 3 9.529775363213714 11.38933430490618 36.20566787177095 0 0 0
330 4 11.254352365455308 12.072620626949373 35.58249173512613 0 0 0
335 5 9.902995804672146 12.898668839098962 37.39852541308567 0 -1 0
332 7 2.483725763158171 0.09686202333578715 38.031084510132644 0 0 0
336 7 1.326810610538503 2.1804305920043556 37.834347760915215 0 0 0
337 7 3.8700866357643133 2.1960262384714047 37.87320226941938 0 0 0
341 7 0.2025692924504341 4.248708265487065 38.04756337873547 0 0 0
342 7 2.6945508512071217 4.288984541899407 37.90996732387301 0 0 0
333 7 5.210205186196311 0.16117851754228862 38.11223832941973 0 0 0
334 7 7.645307149481067 0.06705394474585925 37.998135146091954 0 0 0
338 7 6.522559272807989 2.2591647788512508 37.904420227299525 0 0 0
339 7 8.980610200979331 2.1855761756452092 37.85449974672517 0 0 0
340 7 11.358944108640081 2.1903709522741113 37.726183069919614 0 0 0
346 7 1.4444152139882953 6.391317157428643 38.057551324440965 0 0 0
347 6 3.9491505739431036 6.477375020596744 37.82039179399243 0 0 0
343 7 5.287798866658382 4.426070914080675 37.831741141649154 0 0 0
344 7 7.819459364642661 4.443616272278037 37.85255680046334 0 0 0
348 6 6.647006922039386 6.669463031260394 37.82258796975901 0 0 0
345 4 10.206332468959351 4.330000084336697 37.80687519648548 0 0 0
349 7 9.226592333944621 6.627406113023622 37.866151385402766 0 0 0
351 7 12.26959886156991 8.552263556217866 37.83702116992842 -1 0 0
352 6 2.5133687725596126 8.663412826241403 37.74869596321417 0 0 0
357 7 3.849163893435889 10.807760433783308 37.96328682098001 0 0 0
360 7 1.3937700784892482 10.891694042034862 37.88966881518379 1 0 0
361 8 2.63737061042243 7.208704205737983 39.047480701762716 0 0 0
353 7 5.145028270045154 8.70760416800082 37.807151347424856 0 0 0
354 7 7.952992619922556 8.950315717882932 37.812704711543994 0 0 0
358 6 6.418934357360647 10.854812311602261 37.79108060646335 0 0 0
331 7 12.389970706405158 12.879351781960395 37.630174380468404 -1 -1 0
359 2 8.599931280447644 11.154843624166142 37.427990471838655 0 0 0

Velocities

1 0 0 0
2 0 0 0
3 0 0 0
9 0 0 0
5 0 0 0
6 0 0 0
10 0 0 0
16 0 0 0
20 0 0 0
26 0 0 0
27 0 0 0
23 0 0 0
28 0 0 0
29 0 0 0
24 0 0 0
25 0 0 0
30 0 0 0
7 0 0 0
31 0 0 0
32 0 0 0
36 0 0 0
37 0 0 0
56 0 0 0
8 0 0 0
33 0 0 0
34 0 0 0
38 0 0 0
4 0 0 0
35 0 0 0
39 0 0 0
40 0 0 0
11 0 0 0
12 0 0 0
17 0 0 0
42 0 0 0
47 0 0 0
13 0 0 0
18 0 0 0
19 0 0 0
43 0 0 0
44 0 0 0
48 0 0 0
14 0 0 0
15 0 0 0
41 0 0 0
45 0 0 0
49 0 0 0
50 0 0 0
85 0 0 0
21 0 0 0
22 0 0 0
46 0 0 0
52 0 0 0
57 0 0 0
87 0 0 0
53 0 0 0
54 0 0 0
58 0 0 0
51 0 0 0
55 0 0 0
59 0 0 0
60 0 0 0
66 0 0 0
67 0 0 0
91 0 0 0
92 0 0 0
96 0 0 0
97 0 0 0
63 0 0 0
64 0 0 0
68 0 0 0
74 0 0 0
93 0 0 0
98 0 0 0
99 0 0 0
65 0 0 0
69 0 0 0
70 0 0 0
75 0 0 0
94 0 0 0
95 0 0 0
100 0 0 0
72 0 0 0
76 0 0 0
77 0 0 0
82 0 0 0
101 0 0 0
102 0 0 0
107 0 0 0
73 0 0 0
78 0 0 0
103 0 0 0
108 0 0 0
109 0 0 0
71 0 0 0
79 0 0 0
80 0 0 0
81 0 0 0
104 0 0 0
105 0 0 0
106 0 0 0
110 0 0 0
61 0 0 0
62 0 0 0
86 0 0 0
111 0 0 0
112 0 0 0
116 0 0 0
117 0 0 0
83 0 0 0
84 0 0 0
88 0 0 0
113 0 0 0
118 0 0 0
119 0 0 0
89 0 0 0
90 0 0 0
114 0 0 0
115 0 0 0
120 0 0 0
121 0 0 0
122 0 0 0
126 0 0 0
127 0 0 0
156 0 0 0
157 0 0 0
162 0 0 0
123 0 0 0
124 0 0 0
128 0 0 0
153 0 0 0
158 0 0 0
163 0 0 0
164 0 0 0
125 0 0 0
129 0 0 0
130 0 0 0
155 0 0 0
159 0 0 0
160 0 0 0
165 0 0 0
131 0 0 0
132 0 0 0
136 0 0 0
137 0 0 0
161 0 0 0
166 0 0 0
167 0 0 0
171 0 0 0
172 0 0 0
133 0 0 0
134 0 0 0
138 0 0 0
168 0 0 0
173 0 0 0
135 0 0 0
139 0 0 0
140 0 0 0
169 0 0 0
170 0 0 0
175 0 0 0
141 0 0 0
142 0 0 0
146 0 0 0
147 0 0 0
151 0 0 0
152 0 0 0
176 0 0 0
177 0 0 0
143 0 0 0
144 0 0 0
148 0 0 0
154 0 0 0
178 0 0 0
145 0 0 0
149 0 0 0
150 0 0 0
174 0 0 0
179 0 0 0
180 0 0 0
181 0 0 0
182 0 0 0
186 0 0 0
187 0 0 0
211 0 0 0
212 0 0 0
216 0 0 0
217 0 0 0
183 0 0 0
188 0 0 0
189 0 0 0
213 0 0 0
214 0 0 0
218 0 0 0
184 0 0 0
185 0 0 0
190 0 0 0
215 0 0 0
219 0 0 0
220 0 0 0
191 0 0 0
192 0 0 0
196 0 0 0
197 0 0 0
221 0 0 0
222 0 0 0
226 0 0 0
227 0 0 0
193 0 0 0
198 0 0 0
199 0 0 0
223 0 0 0
224 0 0 0
228 0 0 0
194 0 0 0
195 0 0 0
200 0 0 0
225 0 0 0
229 0 0 0
230 0 0 0
201 0 0 0
202 0 0 0
206 0 0 0
207 0 0 0
231 0 0 0
232 0 0 0
236 0 0 0
203 0 0 0
208 0 0 0
209 0 0 0
233 0 0 0
234 0 0 0
238 0 0 0
204 0 0 0
205 0 0 0
210 0 0 0
235 0 0 0
239 0 0 0
240 0 0 0
237 0 0 0
241 0 0 0
242 0 0 0
246 0 0 0
247 0 0 0
251 0 0 0
252 0 0 0
248 0 0 0
253 0 0 0
254 0 0 0
249 0 0 0
250 0 0 0
255 0 0 0
256 0 0 0
257 0 0 0
286 0 0 0
258 0 0 0
264 0 0 0
259 0 0 0
260 0 0 0
284 0 0 0
285 0 0 0
290 0 0 0
261 0 0 0
262 0 0 0
266 0 0 0
267 0 0 0
292 0 0 0
243 0 0 0
244 0 0 0
263 0 0 0
268 0 0 0
293 0 0 0
245 0 0 0
265 0 0 0
269 0 0 0
270 0 0 0
296 0 0 0
271 0 0 0
272 0 0 0
276 0 0 0
277 0 0 0
301 0 0 0
302 0 0 0
306 0 0 0
307 0 0 0
273 0 0 0
278 0 0 0
279 0 0 0
303 0 0 0
304 0 0 0
308 0 0 0
274 0 0 0
275 0 0 0
280 0 0 0
305 0 0 0
309 0 0 0
310 0 0 0
281 0 0 0
282 0 0 0
287 0 0 0
312 0 0 0
316 0 0 0
317 0 0 0
283 0 0 0
288 0 0 0
289 0 0 0
313 0 0 0
314 0 0 0
318 0 0 0
311 0 0 0
315 0 0 0
319 0 0 0
320 0 0 0
350 0 0 0
355 0 0 0
291 0 0 0
297 0 0 0
321 0 0 0
322 0 0 0
326 0 0 0
327 0 0 0
356 0 0 0
298 0 0 0
299 0 0 0
323 0 0 0
324 0 0 0
328 0 0 0
294 0 0 0
295 0 0 0
300 0 0 0
325 0 0 0
329 0 0 0
330 0 0 0
335 0 0 0
332 0 0 0
336 0 0 0
337 0 0 0
341 0 0 0
342 0 0 0
333 0 0 0
334 0 0 0
338 0 0 0
339 0 0 0
340 0 0 0
346 0 0 0
347 0 0 0
343 0 0 0
344 0 0 0
348 0 0 0
345 0 0 0
349 0 0 0
351 0 0 0
352 0 0 0
357 0 0 0
360 0 0 0
361 0 0 0
353 0 0 0
354 0 0 0
358 0 0 0
331 0 0 0
359 0 0 0
