LAMMPS data file via write_data, version 11 Feb 2026, timestep = 225, units = metal

361 atoms
8 atom types

0 12.447907776 xlo xhi
0 12.9362452296 ylo yhi
0 52.3600831054 zlo zhi

Masses

1 26.9815
2 10.811
3 12.011
4 51.9961
5 55.845
6 95.95999999999999
7 58.6934
8 1.008

Atoms # atomic/kk

1 7 1.1447475034 1.4042530815 14.1767669076 0 0 0
2 7 3.6084602259 1.0698845996 14.6704381247 0 0 0
3 5 6.0765506298 0.9467816033 14.9127945674 0 0 0
9 7 7.3904254576 3.1552415677 14.921343358 0 0 0
5 7 11.0497419237 1.2529911546 14.6024861837 0 0 0
6 7 12.371824795299998 3.4559595715 14.8227813157 -1 0 0
10 7 9.9130540797 3.3904065996 14.7812471609 0 0 0
16 4 0.4694173902 7.8125304368 14.7997570607 0 0 0
20 7 10.4454755951 7.6697182118 14.1848688757 0 0 0
26 7 0.1281197666 12.2044764222 14.9105894271 0 0 0
27 7 2.482376412 11.8082341077 14.4640395444 0 0 0
23 7 6.9215809143 9.0056325864 14.7794199109 0 0 0
28 7 4.9597127568 11.7869866321 14.6074736033 0 0 0
29 6 7.487468691 11.492489151 14.9214469503 0 0 0
24 7 9.211267288 9.7383043985 14.542324574 0 0 0
25 7 11.7628351674 9.8745411843 14.7910184475 0 0 0
30 7 10.0617556164 11.945152431 14.7619795889 0 0 0
7 7 2.4276438825 3.274586701 14.9921379853 0 0 0
31 6 0.1320668178 1.5666912763 16.54569988 0 0 0
32 7 2.6047881521 1.6851371804 16.9156842324 0 0 0
36 7 1.2195215325 3.8560608354 17.0299024962 0 0 0
37 7 3.7103479774 3.8371572501 17.0572271382 0 0 0
56 2 1.9139638832 0.320698286899999 15.6094045829 0 1 0
8 7 4.9287232821 3.1271355871 15.0109940309 0 0 0
33 7 4.9854693445 1.6648399647 16.9552168616 0 0 0
34 7 7.410113639 1.7690174525 16.9802513671 0 0 0
38 5 6.1786870847 3.8598965293 16.9892925392 0 0 0
4 6 8.6405916037 0.9966073374 15.0011028893 0 0 0
35 7 9.9854439602 1.6623584179 16.9441720819 0 0 0
39 7 8.7306918901 3.8627101762 16.8623801969 0 0 0
40 7 11.1905275305 3.8067890199 17.0006893521 0 0 0
11 7 1.2348702966 5.4950064056 15.0806985502 0 0 0
12 7 3.723333195 5.3162088046 15.091556138 0 0 0
17 7 2.6528824888 7.4951525199 15.1538371669 0 0 0
42 7 2.4538170063 6.1274901805 17.1415379148 0 0 0
47 7 3.8866203033 8.1976953877 17.0635533141 0 0 0
13 7 6.1787690715 5.3054540189 15.034535629 0 0 0
18 7 5.0798141029 7.4787706901 15.0688046453 0 0 0
19 2 7.0597951203 7.0189274967 15.3897174295 0 0 0
43 7 4.9526824561 5.9628190941 17.0949149841 0 0 0
44 7 7.4770692341 5.9405064365 17.0881545432 0 0 0
48 7 6.3467693742 8.0549577382 17.0498728177 0 0 0
14 7 8.7041968087 5.6586120419 14.9658205562 0 0 0
15 6 11.1806031706 5.6044565055 15.1850152514 0 0 0
41 7 12.442168210099998 5.9982391836 17.2267436521 -1 0 0
45 7 9.923455112 6.0385351278 17.2532666192 0 0 0
49 7 8.7166078523 7.9219477302 16.0697967416 0 0 0
50 7 11.1854260308 7.9909608595 16.4539207548 0 0 0
85 6 9.7874825474 8.473382021 18.5408467256 0 0 0
21 2 1.1654244367 10.4783622607 15.2130316912 0 0 0
22 7 2.969847795 9.8650340587 15.6453950804 0 0 0
46 7 0.7946061559 9.3672820405 16.8749701293 0 0 0
52 7 1.3503573598 11.8646523864 16.9891542204 0 0 0
57 7 3.753873893 12.4366743176 16.6098759546 0 0 0
87 1 3.6650451701 10.7156807278 18.2659007397 0 0 0
53 7 5.3358928559 10.1219872041 16.3275402765 0 0 0
54 7 7.7336051436 10.0538114804 16.9470367537 0 0 0
58 6 6.3195663174 12.3667352783 16.9550847684 0 0 0
51 3 11.519673145099999 9.370279149 17.6624171524 -1 0 0
55 7 10.1852587848 10.2759719364 16.6816821896 0 0 0
59 7 8.8367077706 12.3810361477 16.9622360876 0 0 0
60 7 11.2428990064 12.4670428062 16.882988677 0 0 0
66 6 1.393007034 2.1659191631 19.0534804658 0 0 0
67 5 3.8310712323 2.169749835 19.077551421 0 0 0
91 4 1.3610097719 0.7490016766 21.3001474804 0 0 0
92 7 3.7532698079 0.7243006354 21.0553737996 0 0 0
96 7 0.082079932 2.7970216106 21.1874527472 0 0 0
97 7 2.5927240934 2.8497939446 21.1992924965 0 0 0
63 5 4.9567742477 0.0529982254 18.9618634931 0 0 0
64 7 7.4416746235 0.0821708056 19.1014191477 0 0 0
68 7 6.1949360288 2.1588642027 19.0801897325 0 0 0
74 6 7.5018096017 4.2853629911 19.0547359126 0 0 0
93 7 6.2598414465 0.7194660822 21.17367312 0 0 0
98 7 5.0257186556 2.8737258399 21.1536837203 0 0 0
99 5 7.4793105556 2.8150634673 21.1692986238 0 0 0
65 7 10.0018085899 0.0802466939 19.0961651875 0 0 0
69 7 8.7385472152 2.1539822136 18.9954608723 0 0 0
70 7 11.2870638013 2.2382207273 18.9541707741 0 0 0
75 5 9.908720947 4.3054275401 19.0335874063 0 0 0
94 7 8.7140507513 0.7135233683 21.2362014867 0 0 0
95 7 11.3045523296 0.6704651065 21.199536471 0 0 0
100 6 10.0309211856 2.7845552589 21.0550342549 0 0 0
72 7 2.4838430183 4.388962084 19.1070457725 0 0 0
76 7 1.200144222 6.4346976141 19.2600213636 0 0 0
77 7 3.7839563224 6.5073099035 19.1651823211 0 0 0
82 6 2.3588605673 8.4890673053 18.9154467805 0 0 0
101 7 1.204403147 4.986371594 21.2593935642 0 0 0
102 6 3.7298053141 5.0424743752 21.2297752978 0 0 0
107 7 2.4685484599 7.1728356576 21.2326094282 0 0 0
73 7 4.9759755061 4.316411451 19.087212733 0 0 0
78 7 6.1965388899 6.5190956683 19.1399785413 0 0 0
103 7 6.2751972116 5.0470676015 21.1760724515 0 0 0
108 7 5.0116983743 7.22861409 21.2268755354 0 0 0
109 7 7.4193353481 7.2485706051 21.2651304498 0 0 0
71 1 12.383629132 4.3782094725 19.1862342201 -1 0 0
79 7 8.6255974932 6.472044202 19.3232968982 0 0 0
80 7 11.1135754549 6.420590323 19.3581641471 0 0 0
81 4 12.342695017999999 8.4729562787 19.2006565517 -1 0 0
104 7 8.7408050898 5.0231569879 21.2437432022 0 0 0
105 3 10.084479750704112 4.372551984851911 22.287922541941487 0 0 0
106 7 12.435294388199999 7.0968971559 21.3158557077 -1 0 0
110 7 9.8903603607 7.1660305315 21.3021949042 0 0 0
61 6 0.0477387397 12.935022616100001 18.9949290075 0 -1 0
62 7 2.587482576 12.8543346047 19.0383469717 0 -1 0
86 7 1.2816847716 10.6903307998 19.1614661098 0 0 0
111 7 1.1796694452 9.2896516501 21.1960342799 0 0 0
112 6 3.7016357908 9.3557762036 21.1431867319 0 0 0
116 1 0.0369839214 11.486698451 21.2977096144 0 0 0
117 7 2.4704264091 11.5284142583 21.1452899236 0 0 0
83 7 4.9462384898 8.7330200409 19.0834474924 0 0 0
84 7 7.3974678157 8.6397297376 19.085743402 0 0 0
88 7 6.1625171869 10.8013148416 18.9301045672 0 0 0
113 7 6.2139769728 9.4092095126 21.0353192467 0 0 0
118 7 4.9639845145 11.5407295129 21.0425881559 0 0 0
119 4 7.3995383715 11.5362046003 21.0747824702 0 0 0
89 6 8.731338748 10.8500854071 19.0384744744 0 0 0
90 4 11.272219843 10.8209844576 18.9386324767 0 0 0
114 7 8.6997099562 9.3160354633 20.9928929717 0 0 0
115 6 11.109001975 9.2519683408 21.1755872983 0 0 0
120 7 9.9858618188 11.5164614705 21.1821863062 0 0 0
121 7 0.07793801421353352 1.373170417822637 23.313101549328106 0 0 0
122 7 2.56920368391097 1.3842999297729626 23.33414730265213 0 0 0
126 6 1.3489829239039963 3.567553076227641 23.268765314815333 0 0 0
127 7 3.8442853347419743 3.5708240714430275 23.365375684470475 0 0 0
156 1 1.4736544124771995 2.110732184591054 25.5180675362395 0 0 0
157 7 3.9599509469011385 2.116749650716749 25.449830886907577 0 0 0
162 7 2.5921600929211883 4.242359662628945 25.43060584977084 0 0 0
123 7 4.985504571599942 1.4093442304479409 23.166864422495088 0 0 0
124 7 7.386872152935254 1.4815623588833504 23.48904775802775 0 0 0
128 7 6.296665938690093 3.6452091161688553 23.1868119195173 0 0 0
153 7 5.189573345187858 0.05124503190309635 25.300249721593175 0 0 0
158 2 5.768989536292767 2.437981684972357 24.632170233069765 0 0 0
163 7 5.111412432125705 4.2234931533181586 25.42475043802107 0 0 0
164 5 7.470888379877235 4.043802205084825 25.36231461489041 0 0 0
125 7 10.036523898112854 1.4082623667662078 23.35745875650725 0 0 0
129 7 8.744261318607363 3.526534766915 23.349706429675145 0 0 0
130 4 11.36073020300886 3.5968023617749036 23.40406355406551 0 0 0
155 4 10.111245715695901 0.04362366462216072 25.56091777879221 0 0 0
159 7 8.861334792870016 2.079428973440311 25.449439111968992 0 0 0
160 7 11.393551650912428 2.1346218316857803 25.42175365111833 0 0 0
165 7 10.05840903893433 4.197972625094827 25.411901153477707 0 0 0
131 7 0.06429679890188092 5.75081264073331 23.406140238301617 0 0 0
132 7 2.535676114557508 5.778386260004927 23.363737178479493 0 0 0
136 7 1.2961550696618276 7.892478877660117 23.308938342121223 0 0 0
137 7 3.7695061608461864 7.959660808049483 23.282475148388016 0 0 0
161 4 0.10199894230832632 4.319005681374462 25.469306203622697 0 0 0
166 7 1.3308186269141569 6.39323923820189 25.433205771390032 0 0 0
167 7 3.800512084399588 6.415975580941906 25.44702525004363 0 0 0
171 6 0.10384527612046775 8.593253454255722 25.435037916515398 0 0 0
172 7 2.6158310814883157 8.586879968722586 25.381427404350333 0 0 0
133 6 5.057715139114182 5.837496322705129 23.391329424397536 0 0 0
134 7 7.551998627226807 5.757294445564948 23.31831509557935 0 0 0
138 7 6.302703370266404 7.975137627148988 23.346002046855652 0 0 0
168 7 6.357464108448243 6.3729511651559205 25.437268521919393 0 0 0
173 7 5.09688488214528 8.531419880395994 25.338157454978433 0 0 0
135 7 10.05731160069172 5.804449558498981 23.390634610516447 0 0 0
139 4 8.686396294645412 7.921240186456892 23.24760830347256 0 0 0
140 4 11.27557746360723 7.86891573880541 23.32150890331704 0 0 0
169 7 8.768572394464762 6.311789710413436 25.385705828260566 0 0 0
170 7 11.282833258519014 6.387354243121956 25.450414420940174 0 0 0
175 6 9.880181627031124 8.547311823856356 25.52556385808054 0 0 0
141 7 0.012489833674391817 10.045979664996656 23.348531317272627 0 0 0
142 7 2.4886124400510305 10.08388304725769 23.26003540402626 0 0 0
146 7 1.2944186986075592 12.212656626592405 23.3556497497659 0 0 0
147 7 3.79830942698759 12.221282656200952 23.185496040445354 0 0 0
151 4 0.08462681665830646 12.852888339378275 25.420586281392218 0 -1 0
152 7 2.647505442446454 12.921272496930396 25.38005979889317 0 -1 0
176 7 1.3352318017425706 10.777193285309853 25.438259061261753 0 0 0
177 6 3.8723063132518245 10.793953150563489 25.280801462992486 0 0 0
143 7 5.046569599938652 10.082921451066978 23.186657730065757 0 0 0
144 7 7.496413853662996 10.067892013893907 22.92441036410407 0 0 0
148 4 6.203700506375017 12.2482617251522 23.191312743739317 0 0 0
154 7 7.591363870038769 12.921673765330283 25.479629866727215 0 -1 0
178 6 6.608909828171385 10.519584284517848 25.227212473806908 0 0 0
145 7 9.987486397016257 10.053151757617723 23.319018630428683 0 0 0
149 6 8.699219074147724 12.251167662596764 23.334182011473665 0 0 0
150 7 11.238815988621278 12.19626853319739 23.410047321787456 0 0 0
174 3 8.405222601841714 9.48723805494537 24.427664510049244 0 0 0
179 5 8.989806001292282 10.902100329470855 25.585478607409083 0 0 0
180 5 11.328514654497807 10.845801700051194 25.511224830394166 0 0 0
181 7 1.3846876149039713 0.6421078147613 27.50330127802918 0 0 0
182 7 3.870201865549609 0.6799127233033597 27.446261405087654 0 0 0
186 7 0.16448727301245697 2.8351955778913376 27.494018163216 0 0 0
187 7 2.6531873937552306 2.8270828986693357 27.574456730230093 0 0 0
211 7 0.20419396850289487 1.4221063497278317 29.589639485604607 0 0 0
212 7 2.708608283183215 1.330541210179849 29.59770259392077 0 0 0
216 7 1.4026492085315607 3.529514340271875 29.591514111291456 0 0 0
217 4 3.816085433300242 3.5436148705902033 29.60804647573866 0 0 0
183 7 6.302117152793664 0.6919215349810907 27.583190868694007 0 0 0
188 7 5.075732292720019 2.849842770061754 27.58570001181098 0 0 0
189 7 7.586638046877715 2.7700185086876776 27.46786300843104 0 0 0
213 5 5.129790599252387 1.4004247532589367 29.616418940330515 0 0 0
214 7 7.606303036317049 1.3308044345012444 29.60504202627404 0 0 0
218 7 6.356557555452047 3.508947506432763 29.553863317388373 0 0 0
184 7 8.877707839391743 0.6979870668159032 27.573823565077372 0 0 0
185 4 11.37679512208963 0.7009182368937193 27.544616067078586 0 0 0
190 7 10.137742880142339 2.8100345449861197 27.492109951968143 0 0 0
215 7 10.117724419646446 1.3824557132252708 29.634821013097284 0 0 0
219 7 8.831442090214116 3.488414194577924 29.532277972154034 0 0 0
220 7 11.36230051025445 3.538102641612476 29.521186991646086 0 0 0
191 7 1.3840060302934676 4.98282154724729 27.475031359101727 0 0 0
192 7 3.82595822597733 4.964380978732349 27.486946636679484 0 0 0
196 7 0.1318943561705947 7.136263059547186 27.504529855671418 0 0 0
197 7 2.5732050996953237 7.170286265410037 27.48182826885871 0 0 0
221 7 0.11389437828290795 5.704644258192136 29.57459758987542 0 0 0
222 7 2.5823465457880497 5.702000593952259 29.552204380093016 0 0 0
226 7 1.3611494906662782 7.882841838785698 29.5621220207445 0 0 0
227 7 3.854705391323476 7.890409079065809 29.477590494628274 0 0 0
193 7 6.362756447357312 4.950972249883778 27.418984977136923 0 0 0
198 7 5.094978806007223 7.149842332141722 27.418247844559815 0 0 0
199 7 7.613082049186566 7.165990465149232 27.4539116453839 0 0 0
223 6 5.14514341039514 5.692124947664019 29.493365859858898 0 0 0
224 7 7.637005133443542 5.713355593529983 29.583835945624987 0 0 0
228 7 6.3844806752096455 7.887703019405292 29.49926534634011 0 0 0
194 6 8.84120017265931 4.974781020187744 27.495237078902797 0 0 0
195 7 11.354324509175935 4.972827461054124 27.510289891136196 0 0 0
200 7 10.117795682617839 7.136862256496632 27.543706933019234 0 0 0
225 7 10.095301225336755 5.7207705104847015 29.605587023177197 0 0 0
229 7 8.838815311880275 7.861476017218299 29.528426316361077 0 0 0
230 7 11.365578667446346 7.9104844698902355 29.52873106219353 0 0 0
201 5 1.3750529621933556 9.30450638498559 27.525898132253918 0 0 0
202 7 3.865549970037126 9.2989355668185 27.384354888990938 0 0 0
206 4 0.18178382716600158 11.456177572675474 27.533938807757117 0 0 0
207 7 2.605382663568157 11.435015908572034 27.448203661891988 0 0 0
231 7 0.16098139525430474 10.0589888902858 29.580425958911572 0 0 0
232 7 2.6315178621690474 10.00716675729838 29.442188287340414 0 0 0
236 7 1.4666496474993067 12.159517723766538 29.565756352495388 0 0 0
203 7 6.366575449452914 9.264035793806704 27.397234117738805 0 0 0
208 7 5.131020482931474 11.477808700267527 27.33063849774097 0 0 0
209 6 7.575620333568532 11.503909211848779 27.646553356176845 0 0 0
233 7 5.1404674891810735 10.032282143428183 29.335949795864845 0 0 0
234 7 7.592471255695697 10.062654398684577 29.66539963171387 0 0 0
238 7 6.20873358323972 12.2133212828992 29.694047076623562 0 0 0
204 7 8.832179617372864 9.347356011229623 27.626377996706843 0 0 0
205 7 11.340726553648407 9.39619106398984 27.55428329973162 0 0 0
210 7 10.144097648032327 11.533610467091743 27.590381272863077 0 0 0
235 7 10.079244406062795 10.159682911949721 29.605291232449872 0 0 0
239 4 8.871588286838211 12.234769108101629 29.740410008050866 0 0 0
240 7 11.388982843751029 12.246534219063285 29.56813677071314 0 0 0
237 3 4.037806280147675 0.2785967286248642 30.588919970527563 0 1 0
241 7 0.19818929309109345 0.08393857767246488 31.633379959531062 0 0 0
242 7 2.56779629687798 0.11768484102686314 31.76497099293771 0 0 0
246 4 1.33768366422478 2.22243502921418 31.666524160051335 0 0 0
247 7 3.8764716175471694 2.1268815263912813 31.66045744489162 0 0 0
251 7 0.13837187398745293 4.3087501793080945 31.6516753336514 0 0 0
252 7 2.62229717959825 4.297246269782583 31.669746801665244 0 0 0
248 7 6.401984316799421 2.125645311241382 31.66696754370784 0 0 0
253 7 5.103238243430627 4.286069568015705 31.629531123135802 0 0 0
254 7 7.613436689649185 4.291979061927576 31.595486425714718 0 0 0
249 7 8.844353387263329 2.0851806937151736 31.689176924308843 0 0 0
250 7 11.377812052373681 2.125239238299807 31.653994014910772 0 0 0
255 1 10.097628345565088 4.2082216668115615 31.500071694220875 0 0 0
256 7 1.320865358655347 6.486955935136256 31.637355064028284 0 0 0
257 6 3.780712111987082 6.478530123294513 31.657449742757077 0 0 0
286 7 0.08972905436817057 7.27246823480735 33.62461967521936 0 0 0
258 7 6.342503157100262 6.471895171712063 31.62268105932096 0 0 0
264 7 7.5792280537543615 8.557892585308865 31.625638520808515 0 0 0
259 4 8.812843925106767 6.446129467074408 31.625505587450093 0 0 0
260 7 11.309467576363836 6.477666804075626 31.5936654439073 0 0 0
284 5 8.875894861148625 5.106528322380705 33.57980644438677 0 0 0
285 4 11.339282852235813 5.149510755593571 33.635513686026016 0 0 0
290 7 10.074510596879731 7.243186839811586 33.592190176801125 0 0 0
261 7 0.17420147833105726 8.700396815195141 31.66159598848574 0 0 0
262 7 2.6639505158766124 8.706040696260521 31.549098802855625 0 0 0
266 7 1.5657362634180063 10.817783905663937 31.586780585408338 0 0 0
267 4 3.9186130290549905 11.259425950816947 30.877427899518928 0 0 0
292 7 3.9632161703519126 9.37843007946492 33.52607116153816 0 0 0
243 7 5.161933439766209 12.88034607217574 32.141476772777736 0 -1 0
244 7 7.619715834847559 12.91768530988006 31.73447950423389 0 -1 0
263 1 5.087876401035919 8.739529643515162 31.437513306591043 0 0 0
268 7 6.252354880443649 10.740272273936176 31.58575254989462 0 0 0
293 4 6.437697713313646 9.294014313426672 33.678967159330945 0 0 0
245 7 10.102431651300192 12.872130100190063 31.879978783862065 0 -1 0
265 6 10.09821491242041 8.668937396369191 31.543109354054824 0 0 0
269 7 8.761641285652697 10.779800286327987 31.742863480937874 0 0 0
270 7 11.420042733877095 10.896818436577076 31.623462052455306 0 0 0
296 3 11.0570223604232 11.830846731228108 33.343380309013355 -1 0 0
271 7 1.4709620089889148 0.8947345079601071 33.78145120716506 0 0 0
272 7 3.9160585621543675 0.945591983225725 33.955596491835166 0 0 0
276 7 0.17173501786522036 2.9886771483420898 33.741613075044974 0 0 0
277 7 2.6370457049661633 3.063902310788271 33.803942106903065 0 0 0
301 7 0.19696865558107066 1.5446488501693887 35.76278832179479 0 0 0
302 7 2.6126332332201376 1.6501258382444015 35.87587639035803 0 0 0
306 4 1.4089772898027262 3.812624858330391 35.95677727368108 0 0 0
307 7 3.9962085866013153 3.694423774187856 35.83349149348326 0 0 0
273 7 6.480009759829319 0.9551017840492714 33.93631795408971 0 0 0
278 1 5.216544495709548 2.9742365808466493 33.736621236784586 0 0 0
279 7 7.7254961787425955 3.0284584092806424 33.73838912220329 0 0 0
303 7 5.27649849318654 1.619566888899345 35.958357090663505 0 0 0
304 4 7.78491274403518 1.6168425844659222 35.96200565476784 0 0 0
308 7 6.526645495922703 3.6824127728489358 35.80738251097124 0 0 0
274 7 8.852362896797251 0.8974530757321735 33.86377529171851 0 0 0
275 4 11.451100515075133 0.8038730916317623 33.707551658612026 0 0 0
280 7 10.199178519766246 2.9987736229064637 33.6897117476717 0 0 0
305 7 10.246796404675552 1.6036213216519741 35.70902864734808 0 0 0
309 7 9.015517778361824 3.6772063649472306 35.7774843088922 0 0 0
310 4 11.580513791471503 3.9409400639852175 35.862421149795004 0 0 0
281 7 1.3133781750591864 5.171105746739342 33.8545866925686 0 0 0
282 4 3.8361177738039407 5.114067780491616 33.76249014602515 0 0 0
287 7 2.623609870077521 7.275926358979719 33.74103113174935 0 0 0
312 7 2.7120118308150523 5.765579562416785 35.77470485663235 0 0 0
316 7 1.2060366496632418 7.599692930308357 35.7950130273809 0 0 0
317 7 3.9001467245143275 8.048143673333893 35.724483055338915 0 0 0
283 7 6.369496695947651 5.079417283738773 33.66698408886259 0 0 0
288 7 5.165914666772856 7.250340164078273 33.6621149765259 0 0 0
289 7 7.620489744862189 7.16487215248439 33.711767055714624 0 0 0
313 7 5.240844204004466 5.881815031508726 35.70132759563185 0 0 0
314 7 7.704928716259607 5.80377333959777 35.73944892868322 0 0 0
318 4 6.503358655204976 8.06389646436057 35.78745688076354 0 0 0
311 2 12.369222668785135 5.993132462329258 35.32213794480167 -1 0 0
315 7 10.119857665030947 5.809964430284968 35.5798299615651 0 0 0
319 7 8.921792911758711 7.967317692161964 35.82989680384699 0 0 0
320 7 11.33682640174198 7.927622607145979 35.57874861202817 0 0 0
350 7 11.679298108461026 6.278823329343002 37.29104077636538 0 0 0
355 3 10.414461636349868 7.920202404285804 37.257147663931924 0 0 0
291 7 1.4642151532103789 9.418852777198817 33.74866697115521 0 0 0
297 6 3.023844284508829 11.573502645294342 33.71194349203804 0 0 0
321 6 0.19561144317089976 10.076252395539111 35.914559506116504 0 0 0
322 7 2.70297911397246 10.189805841054381 35.79364254081228 0 0 0
326 7 0.5013766050860503 11.644685632650978 33.671513783062906 0 0 0
327 6 3.9351891106955157 12.493313182740007 36.171706529187745 0 0 0
356 4 1.411013282923457 12.350847849032318 35.838382258090284 0 0 0
298 2 5.202947886962006 12.30781348333522 34.296133194588656 0 0 0
299 7 6.939988249819843 11.547181116309305 33.68884905174442 0 0 0
323 6 5.229995761035718 10.229945194139567 35.640385365721095 0 0 0
324 7 7.899484354008784 10.263624745123966 35.71765040251615 0 0 0
328 7 6.558508490334768 12.472604580430207 35.95922794217851 0 0 0
294 7 8.760797391429824 9.260170445683945 33.6863719606814 0 0 0
295 6 11.258595878656491 9.692574715605996 33.76579662045215 0 0 0
300 7 9.332798144508894 11.517502008432894 34.12770675470941 0 0 0
325 7 10.200746763165213 9.850759868646705 36.90557761361145 0 0 0
329 3 9.4828893167955 11.479508357868639 36.14545420503755 0 0 0
330 4 11.225728626608996 12.061051722942791 35.52768403983887 0 0 0
335 5 9.860208463182119 0.04320800666108273 37.34423778945704 0 0 0
332 7 2.4381778247101975 0.10982886063450809 38.04207721060536 0 0 0
336 7 1.3184139445976246 2.1877406741525878 37.84039016181032 0 0 0
337 7 3.8815912879911734 2.1862167902695653 37.866869879286085 0 0 0
341 7 0.20526962786792108 4.255293935479189 38.06941744360512 0 0 0
342 7 2.70809357469465 4.280682776549737 37.91791423760573 0 0 0
333 7 5.147708942271147 0.16399894018607028 38.250846151874676 0 0 0
334 7 7.5929646747081385 0.18166273425115956 38.11505466818403 0 0 0
338 7 6.497383639975631 2.3008154018707327 37.920634847711405 0 0 0
339 7 8.988814725726478 2.2336502650360894 37.87992067234185 0 0 0
340 7 11.363336303367095 2.1979188796813096 37.731738100808194 0 0 0
346 7 1.5073331029876764 6.392950400530471 38.00444463687308 0 0 0
347 6 3.9476923034229174 6.472675286209415 37.74413953814878 0 0 0
343 7 5.279366574576249 4.428100114720973 37.838110923530785 0 0 0
344 7 7.823051776022375 4.434426046596785 37.84639538015905 0 0 0
348 6 6.6358639205285925 6.634263019210995 37.81786206985511 0 0 0
345 4 10.219986864054107 4.353288066860661 37.8123625391139 0 0 0
349 7 9.238067506284793 6.623981439490583 37.861523673806836 0 0 0
351 7 12.204693949110965 8.577012215027827 37.83030486007413 -1 0 0
352 6 2.462424691407795 8.648531609569801 37.700967860967204 0 0 0
357 7 3.8152651802486113 10.807711510876137 38.03813741816444 0 0 0
360 7 1.3797557522522024 10.901436484014326 37.89584486845355 1 0 0
353 7 5.100292642566621 8.681759057194016 37.817768214228316 0 0 0
354 7 7.822172425813718 8.86442757525179 37.81925801035068 0 0 0
358 6 6.40491325759296 10.860057062700328 37.87419087769254 0 0 0
361 8 5.042968933538134 11.581660581609622 39.04374256709475 0 0 0
331 7 12.349194146489248 12.85090749766507 37.587497355263324 -1 -1 0
359 2 8.314326238071395 11.581483230854529 37.114063978947556 0 0 0

Velocities

1 0 0 0
2 0 0 0
3 0 0 0
9 0 0 0
5 0 0 0
6 0 0 0
10 0 0 0
16 0 0 0
20 0 0 0
26 0 0 0
27 0 0 0
23 0 0 0
28 0 0 0
29 0 0 0
24 0 0 0
25 0 0 0
30 0 0 0
7 0 0 0
31 0 0 0
32 0 0 0
36 0 0 0
37 0 0 0
56 0 0 0
8 0 0 0
33 0 0 0
34 0 0 0
38 0 0 0
4 0 0 0
35 0 0 0
39 0 0 0
40 0 0 0
11 0 0 0
12 0 0 0
17 0 0 0
42 0 0 0
47 0 0 0
13 0 0 0
18 0 0 0
19 0 0 0
43 0 0 0
44 0 0 0
48 0 0 0
14 0 0 0
15 0 0 0
41 0 0 0
45 0 0 0
49 0 0 0
50 0 0 0
85 0 0 0
21 0 0 0
22 0 0 0
46 0 0 0
52 0 0 0
57 0 0 0
87 0 0 0
53 0 0 0
54 0 0 0
58 0 0 0
51 0 0 0
55 0 0 0
59 0 0 0
60 0 0 0
66 0 0 0
67 0 0 0
91 0 0 0
92 0 0 0
96 0 0 0
97 0 0 0
63 0 0 0
64 0 0 0
68 0 0 0
74 0 0 0
93 0 0 0
98 0 0 0
99 0 0 0
65 0 0 0
69 0 0 0
70 0 0 0
75 0 0 0
94 0 0 0
95 0 0 0
100 0 0 0
72 0 0 0
76 0 0 0
77 0 0 0
82 0 0 0
101 0 0 0
102 0 0 0
107 0 0 0
73 0 0 0
78 0 0 0
103 0 0 0
108 0 0 0
109 0 0 0
71 0 0 0
79 0 0 0
80 0 0 0
81 0 0 0
104 0 0 0
105 0 0 0
106 0 0 0
110 0 0 0
61 0 0 0
62 0 0 0
86 0 0 0
111 0 0 0
112 0 0 0
116 0 0 0
117 0 0 0
83 0 0 0
84 0 0 0
88 0 0 0
113 0 0 0
118 0 0 0
119 0 0 0
89 0 0 0
90 0 0 0
114 0 0 0
115 0 0 0
120 0 0 0
121 0 0 0
122 0 0 0
126 0 0 0
127 0 0 0
156 0 0 0
157 0 0 0
162 0 0 0
123 0 0 0
124 0 0 0
128 0 0 0
153 0 0 0
158 0 0 0
163 0 0 0
164 0 0 0
125 0 0 0
129 0 0 0
130 0 0 0
155 0 0 0
159 0 0 0
160 0 0 0
165 0 0 0
131 0 0 0
132 0 0 0
136 0 0 0
137 0 0 0
161 0 0 0
166 0 0 0
167 0 0 0
171 0 0 0
172 0 0 0
133 0 0 0
134 0 0 0
138 0 0 0
168 0 0 0
173 0 0 0
135 0 0 0
139 0 0 0
140 0 0 0
169 0 0 0
170 0 0 0
175 0 0 0
141 0 0 0
142 0 0 0
146 0 0 0
147 0 0 0
151 0 0 0
152 0 0 0
176 0 0 0
177 0 0 0
143 0 0 0
144 0 0 0
148 0 0 0
154 0 0 0
178 0 0 0
145 0 0 0
149 0 0 0
150 0 0 0
174 0 0 0
179 0 0 0
180 0 0 0
181 0 0 0
182 0 0 0
186 0 0 0
187 0 0 0
211 0 0 0
212 0 0 0
216 0 0 0
217 0 0 0
183 0 0 0
188 0 0 0
189 0 0 0
213 0 0 0
214 0 0 0
218 0 0 0
184 0 0 0
185 0 0 0
190 0 0 0
215 0 0 0
219 0 0 0
220 0 0 0
191 0 0 0
192 0 0 0
196 0 0 0
197 0 0 0
221 0 0 0
222 0 0 0
226 0 0 0
227 0 0 0
193 0 0 0
198 0 0 0
199 0 0 0
223 0 0 0
224 0 0 0
228 0 0 0
194 0 0 0
195 0 0 0
200 0 0 0
225 0 0 0
229 0 0 0
230 0 0 0
201 0 0 0
202 0 0 0
206 0 0 0
207 0 0 0
231 0 0 0
232 0 0 0
236 0 0 0
203 0 0 0
208 0 0 0
209 0 0 0
233 0 0 0
234 0 0 0
238 0 0 0
204 0 0 0
205 0 0 0
210 0 0 0
235 0 0 0
239 0 0 0
240 0 0 0
237 0 0 0
241 0 0 0
242 0 0 0
246 0 0 0
247 0 0 0
251 0 0 0
252 0 0 0
248 0 0 0
253 0 0 0
254 0 0 0
249 0 0 0
250 0 0 0
255 0 0 0
256 0 0 0
257 0 0 0
286 0 0 0
258 0 0 0
264 0 0 0
259 0 0 0
260 0 0 0
284 0 0 0
285 0 0 0
290 0 0 0
261 0 0 0
262 0 0 0
266 0 0 0
267 0 0 0
292 0 0 0
243 0 0 0
244 0 0 0
263 0 0 0
268 0 0 0
293 0 0 0
245 0 0 0
265 0 0 0
269 0 0 0
270 0 0 0
296 0 0 0
271 0 0 0
272 0 0 0
276 0 0 0
277 0 0 0
301 0 0 0
302 0 0 0
306 0 0 0
307 0 0 0
273 0 0 0
278 0 0 0
279 0 0 0
303 0 0 0
304 0 0 0
308 0 0 0
274 0 0 0
275 0 0 0
280 0 0 0
305 0 0 0
309 0 0 0
310 0 0 0
281 0 0 0
282 0 0 0
287 0 0 0
312 0 0 0
316 0 0 0
317 0 0 0
283 0 0 0
288 0 0 0
289 0 0 0
313 0 0 0
314 0 0 0
318 0 0 0
311 0 0 0
315 0 0 0
319 0 0 0
320 0 0 0
350 0 0 0
355 0 0 0
291 0 0 0
297 0 0 0
321 0 0 0
322 0 0 0
326 0 0 0
327 0 0 0
356 0 0 0
298 0 0 0
299 0 0 0
323 0 0 0
324 0 0 0
328 0 0 0
294 0 0 0
295 0 0 0
300 0 0 0
325 0 0 0
329 0 0 0
330 0 0 0
335 0 0 0
332 0 0 0
336 0 0 0
337 0 0 0
341 0 0 0
342 0 0 0
333 0 0 0
334 0 0 0
338 0 0 0
339 0 0 0
340 0 0 0
346 0 0 0
347 0 0 0
343 0 0 0
344 0 0 0
348 0 0 0
345 0 0 0
349 0 0 0
351 0 0 0
352 0 0 0
357 0 0 0
360 0 0 0
353 0 0 0
354 0 0 0
358 0 0 0
361 0 0 0
331 0 0 0
359 0 0 0
