LAMMPS data file via write_data, version 11 Feb 2026, timestep = 198, units = metal

361 atoms
8 atom types

0 12.447907776 xlo xhi
0 12.9362452296 ylo yhi
0 52.3600831054 zlo zhi

Masses

1 26.9815
2 10.811
3 12.011
4 51.9961
5 55.845
6 95.95999999999999
7 58.6934
8 1.008

Atoms # atomic/kk

1 7 1.1447475034 1.4042530815 14.1767669076 0 0 0
2 7 3.6084602259 1.0698845996 14.6704381247 0 0 0
3 5 6.0765506298 0.9467816033 14.9127945674 0 0 0
9 7 7.3904254576 3.1552415677 14.921343358 0 0 0
5 7 11.0497419237 1.2529911546 14.6024861837 0 0 0
6 7 12.371824795299998 3.4559595715 14.8227813157 -1 0 0
10 7 9.9130540797 3.3904065996 14.7812471609 0 0 0
16 4 0.4694173902 7.8125304368 14.7997570607 0 0 0
20 7 10.4454755951 7.6697182118 14.1848688757 0 0 0
26 7 0.1281197666 12.2044764222 14.9105894271 0 0 0
27 7 2.482376412 11.8082341077 14.4640395444 0 0 0
23 7 6.9215809143 9.0056325864 14.7794199109 0 0 0
28 7 4.9597127568 11.7869866321 14.6074736033 0 0 0
29 6 7.487468691 11.492489151 14.9214469503 0 0 0
24 7 9.211267288 9.7383043985 14.542324574 0 0 0
25 7 11.7628351674 9.8745411843 14.7910184475 0 0 0
30 7 10.0617556164 11.945152431 14.7619795889 0 0 0
7 7 2.4276438825 3.274586701 14.9921379853 0 0 0
31 6 0.1320668178 1.5666912763 16.54569988 0 0 0
32 7 2.6047881521 1.6851371804 16.9156842324 0 0 0
36 7 1.2195215325 3.8560608354 17.0299024962 0 0 0
37 7 3.7103479774 3.8371572501 17.0572271382 0 0 0
56 2 1.9139638832 0.320698286899999 15.6094045829 0 1 0
8 7 4.9287232821 3.1271355871 15.0109940309 0 0 0
33 7 4.9854693445 1.6648399647 16.9552168616 0 0 0
34 7 7.410113639 1.7690174525 16.9802513671 0 0 0
38 5 6.1786870847 3.8598965293 16.9892925392 0 0 0
4 6 8.6405916037 0.9966073374 15.0011028893 0 0 0
35 7 9.9854439602 1.6623584179 16.9441720819 0 0 0
39 7 8.7306918901 3.8627101762 16.8623801969 0 0 0
40 7 11.1905275305 3.8067890199 17.0006893521 0 0 0
11 7 1.2348702966 5.4950064056 15.0806985502 0 0 0
12 7 3.723333195 5.3162088046 15.091556138 0 0 0
17 7 2.6528824888 7.4951525199 15.1538371669 0 0 0
42 7 2.4538170063 6.1274901805 17.1415379148 0 0 0
47 7 3.8866203033 8.1976953877 17.0635533141 0 0 0
13 7 6.1787690715 5.3054540189 15.034535629 0 0 0
18 7 5.0798141029 7.4787706901 15.0688046453 0 0 0
19 2 7.0597951203 7.0189274967 15.3897174295 0 0 0
43 7 4.9526824561 5.9628190941 17.0949149841 0 0 0
44 7 7.4770692341 5.9405064365 17.0881545432 0 0 0
48 7 6.3467693742 8.0549577382 17.0498728177 0 0 0
14 7 8.7041968087 5.6586120419 14.9658205562 0 0 0
15 6 11.1806031706 5.6044565055 15.1850152514 0 0 0
41 7 12.442168210099998 5.9982391836 17.2267436521 -1 0 0
45 7 9.923455112 6.0385351278 17.2532666192 0 0 0
49 7 8.7166078523 7.9219477302 16.0697967416 0 0 0
50 7 11.1854260308 7.9909608595 16.4539207548 0 0 0
85 6 9.7874825474 8.473382021 18.5408467256 0 0 0
21 2 1.1654244367 10.4783622607 15.2130316912 0 0 0
22 7 2.969847795 9.8650340587 15.6453950804 0 0 0
46 7 0.7946061559 9.3672820405 16.8749701293 0 0 0
52 7 1.3503573598 11.8646523864 16.9891542204 0 0 0
57 7 3.753873893 12.4366743176 16.6098759546 0 0 0
87 1 3.6650451701 10.7156807278 18.2659007397 0 0 0
53 7 5.3358928559 10.1219872041 16.3275402765 0 0 0
54 7 7.7336051436 10.0538114804 16.9470367537 0 0 0
58 6 6.3195663174 12.3667352783 16.9550847684 0 0 0
51 3 11.519673145099999 9.370279149 17.6624171524 -1 0 0
55 7 10.1852587848 10.2759719364 16.6816821896 0 0 0
59 7 8.8367077706 12.3810361477 16.9622360876 0 0 0
60 7 11.2428990064 12.4670428062 16.882988677 0 0 0
66 6 1.393007034 2.1659191631 19.0534804658 0 0 0
67 5 3.8310712323 2.169749835 19.077551421 0 0 0
91 4 1.3610097719 0.7490016766 21.3001474804 0 0 0
92 7 3.7532698079 0.7243006354 21.0553737996 0 0 0
96 7 0.082079932 2.7970216106 21.1874527472 0 0 0
97 7 2.5927240934 2.8497939446 21.1992924965 0 0 0
63 5 4.9567742477 0.0529982254 18.9618634931 0 0 0
64 7 7.4416746235 0.0821708056 19.1014191477 0 0 0
68 7 6.1949360288 2.1588642027 19.0801897325 0 0 0
74 6 7.5018096017 4.2853629911 19.0547359126 0 0 0
93 7 6.2598414465 0.7194660822 21.17367312 0 0 0
98 7 5.0257186556 2.8737258399 21.1536837203 0 0 0
99 5 7.4793105556 2.8150634673 21.1692986238 0 0 0
65 7 10.0018085899 0.0802466939 19.0961651875 0 0 0
69 7 8.7385472152 2.1539822136 18.9954608723 0 0 0
70 7 11.2870638013 2.2382207273 18.9541707741 0 0 0
75 5 9.908720947 4.3054275401 19.0335874063 0 0 0
94 7 8.7140507513 0.7135233683 21.2362014867 0 0 0
95 7 11.3045523296 0.6704651065 21.199536471 0 0 0
100 6 10.0309211856 2.7845552589 21.0550342549 0 0 0
72 7 2.4838430183 4.388962084 19.1070457725 0 0 0
76 7 1.200144222 6.4346976141 19.2600213636 0 0 0
77 7 3.7839563224 6.5073099035 19.1651823211 0 0 0
82 6 2.3588605673 8.4890673053 18.9154467805 0 0 0
101 7 1.204403147 4.986371594 21.2593935642 0 0 0
102 6 3.7298053141 5.0424743752 21.2297752978 0 0 0
107 7 2.4685484599 7.1728356576 21.2326094282 0 0 0
73 7 4.9759755061 4.316411451 19.087212733 0 0 0
78 7 6.1965388899 6.5190956683 19.1399785413 0 0 0
103 7 6.2751972116 5.0470676015 21.1760724515 0 0 0
108 7 5.0116983743 7.22861409 21.2268755354 0 0 0
109 7 7.4193353481 7.2485706051 21.2651304498 0 0 0
71 1 12.383629132 4.3782094725 19.1862342201 -1 0 0
79 7 8.6255974932 6.472044202 19.3232968982 0 0 0
80 7 11.1135754549 6.420590323 19.3581641471 0 0 0
81 4 12.342695017999999 8.4729562787 19.2006565517 -1 0 0
104 7 8.7408050898 5.0231569879 21.2437432022 0 0 0
105 3 10.084512580047136 4.372533847930846 22.287913974000823 0 0 0
106 7 12.435294388199999 7.0968971559 21.3158557077 -1 0 0
110 7 9.8903603607 7.1660305315 21.3021949042 0 0 0
61 6 0.0477387397 12.935022616100001 18.9949290075 0 -1 0
62 7 2.587482576 12.8543346047 19.0383469717 0 -1 0
86 7 1.2816847716 10.6903307998 19.1614661098 0 0 0
111 7 1.1796694452 9.2896516501 21.1960342799 0 0 0
112 6 3.7016357908 9.3557762036 21.1431867319 0 0 0
116 1 0.0369839214 11.486698451 21.2977096144 0 0 0
117 7 2.4704264091 11.5284142583 21.1452899236 0 0 0
83 7 4.9462384898 8.7330200409 19.0834474924 0 0 0
84 7 7.3974678157 8.6397297376 19.085743402 0 0 0
88 7 6.1625171869 10.8013148416 18.9301045672 0 0 0
113 7 6.2139769728 9.4092095126 21.0353192467 0 0 0
118 7 4.9639845145 11.5407295129 21.0425881559 0 0 0
119 4 7.3995383715 11.5362046003 21.0747824702 0 0 0
89 6 8.731338748 10.8500854071 19.0384744744 0 0 0
90 4 11.272219843 10.8209844576 18.9386324767 0 0 0
114 7 8.6997099562 9.3160354633 20.9928929717 0 0 0
115 6 11.109001975 9.2519683408 21.1755872983 0 0 0
120 7 9.9858618188 11.5164614705 21.1821863062 0 0 0
121 7 0.07798491207263147 1.3731570285176065 23.313044720136958 0 0 0
122 7 2.56934142611674 1.384514145027238 23.333602990734445 0 0 0
126 6 1.3489069252436825 3.567732401402919 23.268435908874334 0 0 0
127 7 3.8442490181502986 3.57104895341316 23.364768068030745 0 0 0
156 1 1.4736221215719087 2.111014175527088 25.51715555438762 0 0 0
157 7 3.959985535317675 2.1171691595187623 25.448791328919008 0 0 0
162 7 2.592106573925713 4.242888179071155 25.429522213985187 0 0 0
123 7 4.9857895118557565 1.4095839012093627 23.16676442395821 0 0 0
124 7 7.387081430261187 1.4813928139355568 23.489739814904286 0 0 0
128 7 6.296712554423154 3.6450668752093796 23.186655360353644 0 0 0
153 7 5.190213708011781 0.05177488667008693 25.299955458028283 0 0 0
158 2 5.769780994347065 2.4377122303693444 24.63251476923148 0 0 0
163 7 5.111555994850289 4.223939137759924 25.423700477390856 0 0 0
164 5 7.470974535923193 4.042952170549681 25.36189006855221 0 0 0
125 7 10.036596114338904 1.4079281230434444 23.357585803247623 0 0 0
129 7 8.744342377811256 3.526255606094373 23.349561805928904 0 0 0
130 4 11.360692636646709 3.5965574607979653 23.404036137441118 0 0 0
155 4 10.111746691576014 0.042941045877656396 25.56205685592071 0 0 0
159 7 8.861939487331279 2.078872608783152 25.44964522943978 0 0 0
160 7 11.393708968127337 2.13412687159169 25.421984475644244 0 0 0
165 7 10.058531948297098 4.197638448085851 25.411632190429824 0 0 0
131 7 0.06412228457168391 5.750932866108909 23.406235850761842 0 0 0
132 7 2.5355545448932286 5.77871077822976 23.363502584664108 0 0 0
136 7 1.2959456852784899 7.892733792624416 23.309053275294257 0 0 0
137 7 3.7694753743704776 7.959893517157599 23.282411431814662 0 0 0
161 4 0.10184309710216417 4.318998431245431 25.468920730579388 0 0 0
166 7 1.3305419691559293 6.393818977528618 25.43301094210981 0 0 0
167 7 3.800522001303495 6.416814876431794 25.446342463907534 0 0 0
171 6 0.10341741896088154 8.593557047767222 25.435563126012624 0 0 0
172 7 2.6157563591715967 8.587626283692064 25.38125758440715 0 0 0
133 6 5.057784662798387 5.837642576255281 23.391017711030543 0 0 0
134 7 7.55211728914949 5.757263365397854 23.318232005031213 0 0 0
138 7 6.302709892065294 7.975176753886455 23.345704799416 0 0 0
168 7 6.357725635098296 6.373657575541348 25.43676995278227 0 0 0
173 7 5.0971418217964155 8.532179424629055 25.337900844910997 0 0 0
135 7 10.057324900477624 5.804338571865081 23.39069456857875 0 0 0
139 4 8.686560367817371 7.92153669800664 23.24812975174495 0 0 0
140 4 11.275282796128005 7.868973996062624 23.32196323086756 0 0 0
169 7 8.768620438812171 6.311724422636131 25.385692128096274 0 0 0
170 7 11.28260664223734 6.387518258943974 25.45085720350642 0 0 0
175 6 9.879479508657038 8.547393487808291 25.527065015989955 0 0 0
141 7 0.01246013794255033 10.046053328439907 23.34874916244706 0 0 0
142 7 2.4886663734377166 10.084085656636356 23.259970106391908 0 0 0
146 7 1.2945702568564499 12.21278451956994 23.355370099676822 0 0 0
147 7 3.7985570845350587 12.22151470501839 23.18521929180091 0 0 0
151 4 0.08483589298196682 12.852949907847846 25.420413761216725 0 -1 0
152 7 2.6477777221688124 12.921652666948154 25.379251929518958 0 -1 0
176 7 1.3351206445414125 10.777564264140503 25.438070460693744 0 0 0
177 6 3.8725537440900832 10.79451350868759 25.280514258540407 0 0 0
143 7 5.046740505902535 10.083053550371721 23.18653508489397 0 0 0
144 7 7.496571536677186 10.067708403017427 22.92456062501129 0 0 0
148 4 6.204017352999437 12.248290632956138 23.191065909614025 0 0 0
154 7 7.591958834742838 12.921335466850758 25.48056814934862 0 -1 0
178 6 6.609083763977253 10.520410198069088 25.227259282925022 0 0 0
145 7 9.987667657975374 10.05319069893605 23.319693405800855 0 0 0
149 6 8.699396287008797 12.250844523292518 23.334861051027765 0 0 0
150 7 11.238999155502754 12.196152715550133 23.410443992264298 0 0 0
174 3 8.405597668194709 9.488240177132067 24.428237675912026 0 0 0
179 5 8.989842660652565 10.901764721152672 25.58797175238458 0 0 0
180 5 11.328307641665091 10.845689474562938 25.51237831037055 0 0 0
181 7 1.3852126459628125 0.6427158264404627 27.502154480679593 0 0 0
182 7 3.8709702851770347 0.6802234338000814 27.44479955482696 0 0 0
186 7 0.16481674646081113 2.834878762869901 27.493899634252546 0 0 0
187 7 2.653759598459655 2.8277629936063455 27.572613137226043 0 0 0
211 7 0.2053277529731543 1.4213612496843133 29.59060951312819 0 0 0
212 7 2.710513290362262 1.331227840396877 29.5945119982288 0 0 0
216 7 1.4031402043210666 3.5294474804039524 29.590016589389492 0 0 0
217 4 3.817194791127107 3.544003519161168 29.604961594502594 0 0 0
183 7 6.302990136792677 0.6917329470686623 27.583323152001565 0 0 0
188 7 5.076872513711399 2.8500214706286227 27.583666843144673 0 0 0
189 7 7.587597228081374 2.769586148808815 27.467674680576156 0 0 0
213 5 5.130854097110171 1.401491903584107 29.614879297465237 0 0 0
214 7 7.607240193770362 1.330230380929887 29.60525549951962 0 0 0
218 7 6.357807744369372 3.5088363048511026 29.55269632238142 0 0 0
184 7 8.878415102114653 0.6972206144561958 27.574649657945585 0 0 0
185 4 11.377615141768807 0.6999865156206765 27.54594857298722 0 0 0
190 7 10.138326395928795 2.8094841290910026 27.492104310591834 0 0 0
215 7 10.119051323098565 1.3817192015302235 29.634835720512346 0 0 0
219 7 8.832745712114559 3.488206682319156 29.531890679610097 0 0 0
220 7 11.363122507060838 3.537300682969 29.52164039562735 0 0 0
191 7 1.383949577928563 4.983127894548124 27.473721940551382 0 0 0
192 7 3.8264722878564545 4.964894246543271 27.484826066222205 0 0 0
196 7 0.1315759046009872 7.136818802149036 27.505260859728658 0 0 0
197 7 2.5732445366745464 7.1713263854106195 27.480910467941364 0 0 0
221 7 0.11375001672846805 5.704644498757686 29.57358149528372 0 0 0
222 7 2.582596936832931 5.702700784521996 29.54869621804195 0 0 0
226 7 1.3611158089053892 7.884570670123219 29.561106401258044 0 0 0
227 7 3.8554265476742704 7.891681460769049 29.476834929774405 0 0 0
193 7 6.363529225268954 4.9510877834071145 27.41751104457734 0 0 0
198 7 5.095499296344369 7.150728840674103 27.4175089912301 0 0 0
199 7 7.6139948226133445 7.166423535743434 27.45414878564224 0 0 0
223 6 5.145951518381168 5.692391647747006 29.49096636567719 0 0 0
224 7 7.637498230732222 5.71303122624772 29.582489659343736 0 0 0
228 7 6.385425310994325 7.888371141927471 29.499932120337753 0 0 0
194 6 8.841696814131076 4.974430473302531 27.494584438791225 0 0 0
195 7 11.354506087776526 4.97241784022485 27.510114517600957 0 0 0
200 7 10.118010702735587 7.1368654151823865 27.545003022023323 0 0 0
225 7 10.09547106875147 5.719916675017494 29.605332926761278 0 0 0
229 7 8.839373103220677 7.861600640573339 29.53079270741598 0 0 0
230 7 11.364501527130532 7.9109674236436 29.531671893591973 0 0 0
201 5 1.3749408229151765 9.305632765251186 27.525670056256352 0 0 0
202 7 3.8660042117919167 9.29983536887469 27.384160524434932 0 0 0
206 4 0.18157759377881008 11.456413978351778 27.53419572897288 0 0 0
207 7 2.6055806360744715 11.435776915951223 27.44730706546236 0 0 0
231 7 0.1604600207368949 10.059606587952587 29.58153780698334 0 0 0
232 7 2.631865441746835 10.008792788593688 29.441603888336605 0 0 0
236 7 1.465945448081774 12.160514015586703 29.563874188464485 0 0 0
203 7 6.36736877580717 9.264387632151243 27.397419065829492 0 0 0
208 7 5.131480626839638 11.477998521512763 27.33066458359143 0 0 0
209 6 7.575719254751893 11.503591192867027 27.64873338194792 0 0 0
233 7 5.141735355590178 10.032358732937313 29.33658639127002 0 0 0
234 7 7.594003208657926 10.063244533496071 29.668756387958823 0 0 0
238 7 6.2081814909493716 12.213940188687888 29.695660132765656 0 0 0
204 7 8.833012598764121 9.347627754929896 27.629170218245658 0 0 0
205 7 11.340672616657605 9.396067384401176 27.55585811445737 0 0 0
210 7 10.144403696859893 11.533107528708845 27.593207749413903 0 0 0
235 7 10.080081265691831 10.15944118161753 29.609664182964796 0 0 0
239 4 8.871669767072028 12.234146578115972 29.743283785200838 0 0 0
240 7 11.389113275066302 12.245445428213541 29.571860837409666 0 0 0
237 3 4.040864635268091 0.2762255268438345 30.585325735824917 0 1 0
241 7 0.19849487648407355 0.0830182220889957 31.63558281427126 0 0 0
242 7 2.5677505256353776 0.12015250056457795 31.75779803635512 0 0 0
246 4 1.3387622301476947 2.223376942747251 31.666259293871725 0 0 0
247 7 3.8782561476806916 2.127448908180877 31.657615586537887 0 0 0
251 7 0.1394166594661429 4.3088919386317945 31.651127797736187 0 0 0
252 7 2.6242324593955364 4.29732039798671 31.664881407425323 0 0 0
248 7 6.404346021596032 2.1243866242941825 31.66751005497254 0 0 0
253 7 5.105256810919795 4.285597937662257 31.627130348308125 0 0 0
254 7 7.615010130245325 4.291111367342779 31.59470517067968 0 0 0
249 7 8.846161332999177 2.085359371309347 31.686530437899886 0 0 0
250 7 11.378979795121776 2.1242560671518733 31.655575864915793 0 0 0
255 1 10.09984708979139 4.208670254765215 31.500885114751327 0 0 0
256 7 1.3217417231704665 6.488059332717042 31.63192227391678 0 0 0
257 6 3.78176691147649 6.47809345873917 31.653022517948383 0 0 0
286 7 0.09258131466670134 7.268017860676689 33.6179395362691 0 0 0
258 7 6.343595736138947 6.470966041698533 31.620748888174724 0 0 0
264 7 7.579601438699156 8.55843133903731 31.629068567123777 0 0 0
259 4 8.812217974250169 6.445343043704836 31.623786631991994 0 0 0
260 7 11.308409511442951 6.4763937064221535 31.593571556453373 0 0 0
284 5 8.875845565184598 5.105136547011638 33.57851526049996 0 0 0
285 4 11.344556096041725 5.1494793896910025 33.64028898006349 0 0 0
290 7 10.0731746362284 7.2407063944129435 33.591102239454116 0 0 0
261 7 0.17215694740747745 8.700442308908993 31.66145218258205 0 0 0
262 7 2.6650283146602103 8.708527007574308 31.548041052800464 0 0 0
266 7 1.562543953948027 10.819579187891877 31.585782152326317 0 0 0
267 4 3.919571530442941 11.258206975509264 30.879358069824523 0 0 0
292 7 3.960733959595524 9.378315512173675 33.52942510993207 0 0 0
243 7 5.164375058589754 12.882389515251353 32.139916609167415 0 -1 0
244 7 7.621545741966745 12.917132503566366 31.736818377181397 0 -1 0
263 1 5.088848760922055 8.739882681759637 31.439812148673546 0 0 0
268 7 6.253619166986362 10.740440106789364 31.586531706285246 0 0 0
293 4 6.436403551322205 9.293137404583401 33.68288263627521 0 0 0
245 7 10.10502237332811 12.871286806981656 31.880713042744038 0 -1 0
265 6 10.096664927809893 8.669205533244016 31.5486953411798 0 0 0
269 7 8.762644893060076 10.779335815958277 31.75037832117068 0 0 0
270 7 11.42030513356592 10.89466387437437 31.631064921134985 0 0 0
296 3 11.050132729288654 11.829142832942434 33.34978268786229 -1 0 0
271 7 1.4705745887784556 0.8915206592610688 33.77935050335847 0 0 0
272 7 3.9170730479500353 0.9428632535716658 33.951396059587566 0 0 0
276 7 0.17238630258334342 2.987439012150231 33.740779213518216 0 0 0
277 7 2.637857617458871 3.061988207960451 33.797590581800534 0 0 0
301 7 0.19750751729638077 1.5453777115249745 35.762700587333775 0 0 0
302 7 2.6087945576720117 1.6510397164568407 35.86512682290812 0 0 0
306 4 1.4027564355668891 3.820615027392721 35.95280151235904 0 0 0
307 7 3.992000214480739 3.6945659685077663 35.82959903001968 0 0 0
273 7 6.484056603712786 0.9491363982510388 33.94235802379328 0 0 0
278 1 5.219176469229536 2.9695684307382253 33.73230818698402 0 0 0
279 7 7.726187241169224 3.0247063978115385 33.73559042003047 0 0 0
303 7 5.273012920596656 1.6212503961931881 35.95307662085652 0 0 0
304 4 7.795850401196498 1.5960813959750997 35.96304199331964 0 0 0
308 7 6.5259864718488005 3.6811813586110174 35.79900540669252 0 0 0
274 7 8.857271915505342 0.8991701463965677 33.85787986800099 0 0 0
275 4 11.452583236852126 0.8002370135921294 33.71197515004066 0 0 0
280 7 10.200479825004747 3.001285890612327 33.68805363973073 0 0 0
305 7 10.25122719694931 1.608855627972794 35.70294585488728 0 0 0
309 7 9.011056934771515 3.670583699449366 35.77805556337917 0 0 0
310 4 11.577164768444366 3.93874303062642 35.8633411750692 0 0 0
281 7 1.3213649825794747 5.1699195267872575 33.842938034748315 0 0 0
282 4 3.8402762839806157 5.111081562638128 33.75819166875441 0 0 0
287 7 2.6281858769741198 7.27582398742194 33.73374459099121 0 0 0
312 7 2.7135390768446936 5.766604018517531 35.767771981378374 0 0 0
316 7 1.2141370886959117 7.6025844228323844 35.78054694370495 0 0 0
317 7 3.904713323899619 8.046754566064505 35.72100271274016 0 0 0
283 7 6.370718743389703 5.077408005690884 33.666249384936364 0 0 0
288 7 5.168019278214281 7.247800547387226 33.65810714391547 0 0 0
289 7 7.621640324217816 7.161127733443672 33.711139114377325 0 0 0
313 7 5.23996033136476 5.880235721442197 35.70077099217745 0 0 0
314 7 7.703571492000575 5.803989259467165 35.741836654541586 0 0 0
318 4 6.509894127522354 8.05985598437262 35.78566219622737 0 0 0
311 2 12.390172648301267 5.98210405761195 35.32645691549681 -1 0 0
315 7 10.115401251482842 5.802887779123225 35.57907236881942 0 0 0
319 7 8.92392032928063 7.96670282528118 35.82869550711608 0 0 0
320 7 11.347620931682364 7.907375884915377 35.57112017604304 0 0 0
350 7 11.671583632264891 6.272625922658663 37.29527077882329 0 0 0
355 3 10.424750985978099 7.903126100562756 37.249658938307604 0 0 0
291 7 1.4602332087239713 9.41684800305504 33.74277745101237 0 0 0
297 6 3.0197685700162626 11.5733944516473 33.701692939137544 0 0 0
321 6 0.19751386782288682 10.074513247929445 35.9158808895537 0 0 0
322 7 2.7009233324579647 10.18884665530632 35.77641719042411 0 0 0
326 7 0.49646431519620077 11.642741566042913 33.676553758645575 0 0 0
327 6 3.9288688125420097 12.492893347796233 36.16347435089531 0 0 0
356 4 1.4052535375196653 12.349558101982423 35.84419838539696 0 0 0
298 2 5.200948576441938 12.302780690618334 34.28668030051388 0 0 0
299 7 6.940867754362114 11.541793456392531 33.691597281510774 0 0 0
323 6 5.231451843086765 10.234570058963143 35.62689827617764 0 0 0
324 7 7.896820132917734 10.26813461309254 35.74803810670109 0 0 0
328 7 6.532836256039251 12.4695443935964 35.97854332607509 0 0 0
294 7 8.7546872365747 9.261457388552593 33.699322987610444 0 0 0
295 6 11.251412146701973 9.692703387874037 33.77773142357218 0 0 0
300 7 9.326797762461625 11.517230038518967 34.14128216923512 0 0 0
325 7 10.219472247351105 9.828971811344944 36.852875889284846 0 0 0
329 3 9.471308598163946 11.486652209385342 36.17014248660844 0 0 0
330 4 11.216884175327126 12.059560138762688 35.53641341447735 0 0 0
335 5 9.846846045307048 0.057911249962195654 37.343828291329814 0 0 0
332 7 2.45275673353028 0.10023389914212755 38.04948296464788 0 0 0
336 7 1.3195856103491543 2.1815100781170944 37.83595216216359 0 0 0
337 7 3.871097742915266 2.1772508692571777 37.85976722049247 0 0 0
341 7 0.20578925883961108 4.2517770806029755 38.06995519321638 0 0 0
342 7 2.7042618802425173 4.2760906995005525 37.91586732748014 0 0 0
333 7 5.133487410800451 0.14964669989624405 38.23844888713797 0 0 0
334 7 7.582554316555092 0.1974711743183746 38.21670541139275 0 0 0
338 7 6.505375279036552 2.3099430863890817 37.902937076472995 0 0 0
339 7 8.985243984629546 2.2329209835034978 37.88972073515869 0 0 0
340 7 11.362187559512396 2.1978411729349276 37.731499758154534 0 0 0
346 7 1.5036507256228195 6.389122540368817 37.98833437142358 0 0 0
347 6 3.942810667466994 6.469591368471767 37.74533525148659 0 0 0
343 7 5.2694269708357915 4.419463044893511 37.83494994314954 0 0 0
344 7 7.821351706490009 4.429437184056677 37.846521716675916 0 0 0
348 6 6.62629629093832 6.617074130829267 37.82325302443738 0 0 0
345 4 10.217167402209435 4.348372262467598 37.81127722444363 0 0 0
349 7 9.231305422403212 6.619878156565529 37.85651532011081 0 0 0
351 7 12.21710128336503 8.569475511976313 37.824341336738854 -1 0 0
352 6 2.472961759777805 8.64902192659174 37.69110746239344 0 0 0
357 7 3.8372753421978696 10.773465292025362 37.97766942777914 0 0 0
360 7 1.384272213276151 10.897725584435726 37.899280976857426 1 0 0
353 7 5.116896377513339 8.68230007707597 37.79615253855216 0 0 0
354 7 7.792941645138847 8.841598818015486 37.82068827025301 0 0 0
358 6 6.396330728676178 10.856946710027772 37.923558126996156 0 0 0
361 8 6.331716173888241 12.308767834307925 39.23970165655508 0 0 0
331 7 12.348826557541438 12.854260660852974 37.59143852295719 -1 -1 0
359 2 8.241049643485109 11.69257790367975 37.05604602722717 0 0 0

Velocities

1 0 0 0
2 0 0 0
3 0 0 0
9 0 0 0
5 0 0 0
6 0 0 0
10 0 0 0
16 0 0 0
20 0 0 0
26 0 0 0
27 0 0 0
23 0 0 0
28 0 0 0
29 0 0 0
24 0 0 0
25 0 0 0
30 0 0 0
7 0 0 0
31 0 0 0
32 0 0 0
36 0 0 0
37 0 0 0
56 0 0 0
8 0 0 0
33 0 0 0
34 0 0 0
38 0 0 0
4 0 0 0
35 0 0 0
39 0 0 0
40 0 0 0
11 0 0 0
12 0 0 0
17 0 0 0
42 0 0 0
47 0 0 0
13 0 0 0
18 0 0 0
19 0 0 0
43 0 0 0
44 0 0 0
48 0 0 0
14 0 0 0
15 0 0 0
41 0 0 0
45 0 0 0
49 0 0 0
50 0 0 0
85 0 0 0
21 0 0 0
22 0 0 0
46 0 0 0
52 0 0 0
57 0 0 0
87 0 0 0
53 0 0 0
54 0 0 0
58 0 0 0
51 0 0 0
55 0 0 0
59 0 0 0
60 0 0 0
66 0 0 0
67 0 0 0
91 0 0 0
92 0 0 0
96 0 0 0
97 0 0 0
63 0 0 0
64 0 0 0
68 0 0 0
74 0 0 0
93 0 0 0
98 0 0 0
99 0 0 0
65 0 0 0
69 0 0 0
70 0 0 0
75 0 0 0
94 0 0 0
95 0 0 0
100 0 0 0
72 0 0 0
76 0 0 0
77 0 0 0
82 0 0 0
101 0 0 0
102 0 0 0
107 0 0 0
73 0 0 0
78 0 0 0
103 0 0 0
108 0 0 0
109 0 0 0
71 0 0 0
79 0 0 0
80 0 0 0
81 0 0 0
104 0 0 0
105 0 0 0
106 0 0 0
110 0 0 0
61 0 0 0
62 0 0 0
86 0 0 0
111 0 0 0
112 0 0 0
116 0 0 0
117 0 0 0
83 0 0 0
84 0 0 0
88 0 0 0
113 0 0 0
118 0 0 0
119 0 0 0
89 0 0 0
90 0 0 0
114 0 0 0
115 0 0 0
120 0 0 0
121 0 0 0
122 0 0 0
126 0 0 0
127 0 0 0
156 0 0 0
157 0 0 0
162 0 0 0
123 0 0 0
124 0 0 0
128 0 0 0
153 0 0 0
158 0 0 0
163 0 0 0
164 0 0 0
125 0 0 0
129 0 0 0
130 0 0 0
155 0 0 0
159 0 0 0
160 0 0 0
165 0 0 0
131 0 0 0
132 0 0 0
136 0 0 0
137 0 0 0
161 0 0 0
166 0 0 0
167 0 0 0
171 0 0 0
172 0 0 0
133 0 0 0
134 0 0 0
138 0 0 0
168 0 0 0
173 0 0 0
135 0 0 0
139 0 0 0
140 0 0 0
169 0 0 0
170 0 0 0
175 0 0 0
141 0 0 0
142 0 0 0
146 0 0 0
147 0 0 0
151 0 0 0
152 0 0 0
176 0 0 0
177 0 0 0
143 0 0 0
144 0 0 0
148 0 0 0
154 0 0 0
178 0 0 0
145 0 0 0
149 0 0 0
150 0 0 0
174 0 0 0
179 0 0 0
180 0 0 0
181 0 0 0
182 0 0 0
186 0 0 0
187 0 0 0
211 0 0 0
212 0 0 0
216 0 0 0
217 0 0 0
183 0 0 0
188 0 0 0
189 0 0 0
213 0 0 0
214 0 0 0
218 0 0 0
184 0 0 0
185 0 0 0
190 0 0 0
215 0 0 0
219 0 0 0
220 0 0 0
191 0 0 0
192 0 0 0
196 0 0 0
197 0 0 0
221 0 0 0
222 0 0 0
226 0 0 0
227 0 0 0
193 0 0 0
198 0 0 0
199 0 0 0
223 0 0 0
224 0 0 0
228 0 0 0
194 0 0 0
195 0 0 0
200 0 0 0
225 0 0 0
229 0 0 0
230 0 0 0
201 0 0 0
202 0 0 0
206 0 0 0
207 0 0 0
231 0 0 0
232 0 0 0
236 0 0 0
203 0 0 0
208 0 0 0
209 0 0 0
233 0 0 0
234 0 0 0
238 0 0 0
204 0 0 0
205 0 0 0
210 0 0 0
235 0 0 0
239 0 0 0
240 0 0 0
237 0 0 0
241 0 0 0
242 0 0 0
246 0 0 0
247 0 0 0
251 0 0 0
252 0 0 0
248 0 0 0
253 0 0 0
254 0 0 0
249 0 0 0
250 0 0 0
255 0 0 0
256 0 0 0
257 0 0 0
286 0 0 0
258 0 0 0
264 0 0 0
259 0 0 0
260 0 0 0
284 0 0 0
285 0 0 0
290 0 0 0
261 0 0 0
262 0 0 0
266 0 0 0
267 0 0 0
292 0 0 0
243 0 0 0
244 0 0 0
263 0 0 0
268 0 0 0
293 0 0 0
245 0 0 0
265 0 0 0
269 0 0 0
270 0 0 0
296 0 0 0
271 0 0 0
272 0 0 0
276 0 0 0
277 0 0 0
301 0 0 0
302 0 0 0
306 0 0 0
307 0 0 0
273 0 0 0
278 0 0 0
279 0 0 0
303 0 0 0
304 0 0 0
308 0 0 0
274 0 0 0
275 0 0 0
280 0 0 0
305 0 0 0
309 0 0 0
310 0 0 0
281 0 0 0
282 0 0 0
287 0 0 0
312 0 0 0
316 0 0 0
317 0 0 0
283 0 0 0
288 0 0 0
289 0 0 0
313 0 0 0
314 0 0 0
318 0 0 0
311 0 0 0
315 0 0 0
319 0 0 0
320 0 0 0
350 0 0 0
355 0 0 0
291 0 0 0
297 0 0 0
321 0 0 0
322 0 0 0
326 0 0 0
327 0 0 0
356 0 0 0
298 0 0 0
299 0 0 0
323 0 0 0
324 0 0 0
328 0 0 0
294 0 0 0
295 0 0 0
300 0 0 0
325 0 0 0
329 0 0 0
330 0 0 0
335 0 0 0
332 0 0 0
336 0 0 0
337 0 0 0
341 0 0 0
342 0 0 0
333 0 0 0
334 0 0 0
338 0 0 0
339 0 0 0
340 0 0 0
346 0 0 0
347 0 0 0
343 0 0 0
344 0 0 0
348 0 0 0
345 0 0 0
349 0 0 0
351 0 0 0
352 0 0 0
357 0 0 0
360 0 0 0
353 0 0 0
354 0 0 0
358 0 0 0
361 0 0 0
331 0 0 0
359 0 0 0
