LAMMPS data file via write_data, version 11 Feb 2026, timestep = 143, units = metal

361 atoms
8 atom types

0 12.447907776 xlo xhi
0 12.9362452296 ylo yhi
0 52.3600831054 zlo zhi

Masses

1 26.9815
2 10.811
3 12.011
4 51.9961
5 55.845
6 95.95999999999999
7 58.6934
8 1.008

Atoms # atomic/kk

1 7 1.1447475034 1.4042530815 14.1767669076 0 0 0
2 7 3.6084602259 1.0698845996 14.6704381247 0 0 0
3 5 6.0765506298 0.9467816033 14.9127945674 0 0 0
9 7 7.3904254576 3.1552415677 14.921343358 0 0 0
5 7 11.0497419237 1.2529911546 14.6024861837 0 0 0
6 7 12.371824795299998 3.4559595715 14.8227813157 -1 0 0
10 7 9.9130540797 3.3904065996 14.7812471609 0 0 0
16 4 0.4694173902 7.8125304368 14.7997570607 0 0 0
20 7 10.4454755951 7.6697182118 14.1848688757 0 0 0
26 7 0.1281197666 12.2044764222 14.9105894271 0 0 0
27 7 2.482376412 11.8082341077 14.4640395444 0 0 0
23 7 6.9215809143 9.0056325864 14.7794199109 0 0 0
28 7 4.9597127568 11.7869866321 14.6074736033 0 0 0
29 6 7.487468691 11.492489151 14.9214469503 0 0 0
24 7 9.211267288 9.7383043985 14.542324574 0 0 0
25 7 11.7628351674 9.8745411843 14.7910184475 0 0 0
30 7 10.0617556164 11.945152431 14.7619795889 0 0 0
7 7 2.4276438825 3.274586701 14.9921379853 0 0 0
31 6 0.1320668178 1.5666912763 16.54569988 0 0 0
32 7 2.6047881521 1.6851371804 16.9156842324 0 0 0
36 7 1.2195215325 3.8560608354 17.0299024962 0 0 0
37 7 3.7103479774 3.8371572501 17.0572271382 0 0 0
56 2 1.9139638832 0.320698286899999 15.6094045829 0 1 0
8 7 4.9287232821 3.1271355871 15.0109940309 0 0 0
33 7 4.9854693445 1.6648399647 16.9552168616 0 0 0
34 7 7.410113639 1.7690174525 16.9802513671 0 0 0
38 5 6.1786870847 3.8598965293 16.9892925392 0 0 0
4 6 8.6405916037 0.9966073374 15.0011028893 0 0 0
35 7 9.9854439602 1.6623584179 16.9441720819 0 0 0
39 7 8.7306918901 3.8627101762 16.8623801969 0 0 0
40 7 11.1905275305 3.8067890199 17.0006893521 0 0 0
11 7 1.2348702966 5.4950064056 15.0806985502 0 0 0
12 7 3.723333195 5.3162088046 15.091556138 0 0 0
17 7 2.6528824888 7.4951525199 15.1538371669 0 0 0
42 7 2.4538170063 6.1274901805 17.1415379148 0 0 0
47 7 3.8866203033 8.1976953877 17.0635533141 0 0 0
13 7 6.1787690715 5.3054540189 15.034535629 0 0 0
18 7 5.0798141029 7.4787706901 15.0688046453 0 0 0
19 2 7.0597951203 7.0189274967 15.3897174295 0 0 0
43 7 4.9526824561 5.9628190941 17.0949149841 0 0 0
44 7 7.4770692341 5.9405064365 17.0881545432 0 0 0
48 7 6.3467693742 8.0549577382 17.0498728177 0 0 0
14 7 8.7041968087 5.6586120419 14.9658205562 0 0 0
15 6 11.1806031706 5.6044565055 15.1850152514 0 0 0
41 7 12.442168210099998 5.9982391836 17.2267436521 -1 0 0
45 7 9.923455112 6.0385351278 17.2532666192 0 0 0
49 7 8.7166078523 7.9219477302 16.0697967416 0 0 0
50 7 11.1854260308 7.9909608595 16.4539207548 0 0 0
85 6 9.7874825474 8.473382021 18.5408467256 0 0 0
21 2 1.1654244367 10.4783622607 15.2130316912 0 0 0
22 7 2.969847795 9.8650340587 15.6453950804 0 0 0
46 7 0.7946061559 9.3672820405 16.8749701293 0 0 0
52 7 1.3503573598 11.8646523864 16.9891542204 0 0 0
57 7 3.753873893 12.4366743176 16.6098759546 0 0 0
87 1 3.6650451701 10.7156807278 18.2659007397 0 0 0
53 7 5.3358928559 10.1219872041 16.3275402765 0 0 0
54 7 7.7336051436 10.0538114804 16.9470367537 0 0 0
58 6 6.3195663174 12.3667352783 16.9550847684 0 0 0
51 3 11.519673145099999 9.370279149 17.6624171524 -1 0 0
55 7 10.1852587848 10.2759719364 16.6816821896 0 0 0
59 7 8.8367077706 12.3810361477 16.9622360876 0 0 0
60 7 11.2428990064 12.4670428062 16.882988677 0 0 0
66 6 1.393007034 2.1659191631 19.0534804658 0 0 0
67 5 3.8310712323 2.169749835 19.077551421 0 0 0
91 4 1.3610097719 0.7490016766 21.3001474804 0 0 0
92 7 3.7532698079 0.7243006354 21.0553737996 0 0 0
96 7 0.082079932 2.7970216106 21.1874527472 0 0 0
97 7 2.5927240934 2.8497939446 21.1992924965 0 0 0
63 5 4.9567742477 0.0529982254 18.9618634931 0 0 0
64 7 7.4416746235 0.0821708056 19.1014191477 0 0 0
68 7 6.1949360288 2.1588642027 19.0801897325 0 0 0
74 6 7.5018096017 4.2853629911 19.0547359126 0 0 0
93 7 6.2598414465 0.7194660822 21.17367312 0 0 0
98 7 5.0257186556 2.8737258399 21.1536837203 0 0 0
99 5 7.4793105556 2.8150634673 21.1692986238 0 0 0
65 7 10.0018085899 0.0802466939 19.0961651875 0 0 0
69 7 8.7385472152 2.1539822136 18.9954608723 0 0 0
70 7 11.2870638013 2.2382207273 18.9541707741 0 0 0
75 5 9.908720947 4.3054275401 19.0335874063 0 0 0
94 7 8.7140507513 0.7135233683 21.2362014867 0 0 0
95 7 11.3045523296 0.6704651065 21.199536471 0 0 0
100 6 10.0309211856 2.7845552589 21.0550342549 0 0 0
72 7 2.4838430183 4.388962084 19.1070457725 0 0 0
76 7 1.200144222 6.4346976141 19.2600213636 0 0 0
77 7 3.7839563224 6.5073099035 19.1651823211 0 0 0
82 6 2.3588605673 8.4890673053 18.9154467805 0 0 0
101 7 1.204403147 4.986371594 21.2593935642 0 0 0
102 6 3.7298053141 5.0424743752 21.2297752978 0 0 0
107 7 2.4685484599 7.1728356576 21.2326094282 0 0 0
73 7 4.9759755061 4.316411451 19.087212733 0 0 0
78 7 6.1965388899 6.5190956683 19.1399785413 0 0 0
103 7 6.2751972116 5.0470676015 21.1760724515 0 0 0
108 7 5.0116983743 7.22861409 21.2268755354 0 0 0
109 7 7.4193353481 7.2485706051 21.2651304498 0 0 0
71 1 12.383629132 4.3782094725 19.1862342201 -1 0 0
79 7 8.6255974932 6.472044202 19.3232968982 0 0 0
80 7 11.1135754549 6.420590323 19.3581641471 0 0 0
81 4 12.342695017999999 8.4729562787 19.2006565517 -1 0 0
104 7 8.7408050898 5.0231569879 21.2437432022 0 0 0
105 3 10.084289536920881 4.372033747181314 22.288687190522047 0 0 0
106 7 12.435294388199999 7.0968971559 21.3158557077 -1 0 0
110 7 9.8903603607 7.1660305315 21.3021949042 0 0 0
61 6 0.0477387397 12.935022616100001 18.9949290075 0 -1 0
62 7 2.587482576 12.8543346047 19.0383469717 0 -1 0
86 7 1.2816847716 10.6903307998 19.1614661098 0 0 0
111 7 1.1796694452 9.2896516501 21.1960342799 0 0 0
112 6 3.7016357908 9.3557762036 21.1431867319 0 0 0
116 1 0.0369839214 11.486698451 21.2977096144 0 0 0
117 7 2.4704264091 11.5284142583 21.1452899236 0 0 0
83 7 4.9462384898 8.7330200409 19.0834474924 0 0 0
84 7 7.3974678157 8.6397297376 19.085743402 0 0 0
88 7 6.1625171869 10.8013148416 18.9301045672 0 0 0
113 7 6.2139769728 9.4092095126 21.0353192467 0 0 0
118 7 4.9639845145 11.5407295129 21.0425881559 0 0 0
119 4 7.3995383715 11.5362046003 21.0747824702 0 0 0
89 6 8.731338748 10.8500854071 19.0384744744 0 0 0
90 4 11.272219843 10.8209844576 18.9386324767 0 0 0
114 7 8.6997099562 9.3160354633 20.9928929717 0 0 0
115 6 11.109001975 9.2519683408 21.1755872983 0 0 0
120 7 9.9858618188 11.5164614705 21.1821863062 0 0 0
121 7 0.07740908539796272 1.3735115289823838 23.313656378233233 0 0 0
122 7 2.568731785869665 1.3850144628884498 23.333377942920464 0 0 0
126 6 1.3485034653380057 3.5681020147970104 23.269760072336226 0 0 0
127 7 3.843968456133997 3.5716685987436447 23.365920536739818 0 0 0
156 1 1.4727442493784615 2.1111572320915366 25.518904775952354 0 0 0
157 7 3.9591431823261427 2.1172115981449036 25.447792031410643 0 0 0
162 7 2.5918156504478542 4.243382133939804 25.43301221968888 0 0 0
123 7 4.9856081318574015 1.4100321270717908 23.16627864231371 0 0 0
124 7 7.38708554672582 1.4818260299155988 23.488644706030097 0 0 0
128 7 6.296728705934224 3.6458045803648 23.187254035681537 0 0 0
153 7 5.1892129664176005 0.050819232228067834 25.296738306722386 0 0 0
158 2 5.768016968846532 2.43957735928549 24.63202441011371 0 0 0
163 7 5.110678663621131 4.224828668003606 25.42612454043916 0 0 0
164 5 7.4699633977747455 4.043836574660065 25.364310125040397 0 0 0
125 7 10.036465755561569 1.4082414344109562 23.358224386274266 0 0 0
129 7 8.744407346575395 3.5269847925742774 23.351454858349783 0 0 0
130 4 11.360183637357743 3.597060319330819 23.406409574101396 0 0 0
155 4 10.112116337935303 0.04229206772308078 25.560052056068162 0 0 0
159 7 8.861658775811 2.079255971379269 25.45050821264188 0 0 0
160 7 11.393673039036905 2.134702662605557 25.42452781458469 0 0 0
165 7 10.058116243491558 4.197158898241084 25.416614918989517 0 0 0
131 7 0.06401938132211306 5.750679647512873 23.40805840302253 0 0 0
132 7 2.535475229368888 5.778515978411108 23.36460524005535 0 0 0
136 7 1.2958643046298461 7.891936383107631 23.308606991477916 0 0 0
137 7 3.769277188035642 7.95969864223426 23.282293816068698 0 0 0
161 4 0.10196794930369163 4.319249458132447 25.473812363515663 0 0 0
166 7 1.3304332723835823 6.392627175349604 25.43542509042353 0 0 0
167 7 3.8002292893742626 6.416294765169655 25.448147647983514 0 0 0
171 6 0.10177583579753581 8.591168879550642 25.433565558072562 0 0 0
172 7 2.614704046845823 8.58590948251899 25.38047349666191 0 0 0
133 6 5.057519128193875 5.838039612556765 23.391882027497065 0 0 0
134 7 7.551632677606544 5.757198531310795 23.319095537643275 0 0 0
138 7 6.302670841738008 7.975386021396721 23.345896193609832 0 0 0
168 7 6.356982654918647 6.373264313827965 25.438603797139113 0 0 0
173 7 5.096183478001585 8.531173641422367 25.337402678528044 0 0 0
135 7 10.056747555770773 5.803644088371473 23.392316343132244 0 0 0
139 4 8.686123246614846 7.919875806599669 23.247754868271997 0 0 0
140 4 11.274558304290224 7.867881036332823 23.32157754238313 0 0 0
169 7 8.767652297460359 6.309133277672941 25.3881718735 0 0 0
170 7 11.28167374196139 6.385403474397475 25.45314029991537 0 0 0
175 6 9.877813231495741 8.544440079717859 25.52693298375388 0 0 0
141 7 0.011976539749837735 10.045125967137649 23.347471831809486 0 0 0
142 7 2.4879717651764217 10.083615747843364 23.25865567308063 0 0 0
146 7 1.2941292883620126 12.21268792560013 23.35433280569505 0 0 0
147 7 3.7982428132041623 12.221648815315339 23.184404876266044 0 0 0
151 4 0.08406812343128484 12.852190282223514 25.4188213126791 0 -1 0
152 7 2.6462584752107823 12.921058378430837 25.377535463156548 0 -1 0
176 7 1.33401162797508 10.775958423523184 25.435398820148393 0 0 0
177 6 3.8709046314852635 10.793122439062069 25.278324627923794 0 0 0
143 7 5.0465968899293845 10.083053146304286 23.1855392755543 0 0 0
144 7 7.497089320421772 10.067472164795516 22.923916561707625 0 0 0
148 4 6.204250328213481 12.248246571633683 23.18954543892171 0 0 0
154 7 7.592157806243757 12.920511006273 25.47671051837185 0 -1 0
178 6 6.608681374678194 10.518842936435796 25.224867816601 0 0 0
145 7 9.987149262794603 10.051713622726643 23.31931456104771 0 0 0
149 6 8.699756674834799 12.250730933672273 23.33292854156455 0 0 0
150 7 11.238630326468238 12.195559197795744 23.409054363117274 0 0 0
174 3 8.404628850517062 9.485078856916704 24.427553976231994 0 0 0
179 5 8.990028522099406 10.900373245792421 25.58429022288279 0 0 0
180 5 11.327918152143734 10.84405651515294 25.50958279817422 0 0 0
181 7 1.3828813833079279 0.6423448711053632 27.500470790613914 0 0 0
182 7 3.869364023706975 0.6797348128123722 27.440494510313208 0 0 0
186 7 0.16492587781803356 2.835982759622591 27.499434279053276 0 0 0
187 7 2.6536602068240462 2.8302453984953666 27.57318881440684 0 0 0
211 7 0.20357457792548722 1.422929183285601 29.595033574917256 0 0 0
212 7 2.704030539994342 1.3379912746050575 29.58636587449481 0 0 0
216 7 1.4053830407570997 3.5326925125810007 29.59744910946533 0 0 0
217 4 3.818413051925039 3.550723169053623 29.606540598328206 0 0 0
183 7 6.3027082806036985 0.6927613692819908 27.574765537367018 0 0 0
188 7 5.07629249200044 2.851260439799089 27.58261581710308 0 0 0
189 7 7.5882060991567775 2.771726418625249 27.469078065860515 0 0 0
213 5 5.128776780798796 1.4038099574360459 29.605606530639825 0 0 0
214 7 7.606312184610456 1.333752607558769 29.59667349330082 0 0 0
218 7 6.356893920488241 3.515245549387599 29.551520748910505 0 0 0
184 7 8.879137303484063 0.6972236257784439 27.571582813964806 0 0 0
185 4 11.37725075472442 0.7003321998850187 27.544893201188767 0 0 0
190 7 10.138535463802063 2.8102262250439463 27.49728164348517 0 0 0
215 7 10.11830619227634 1.381898800486758 29.637019608566515 0 0 0
219 7 8.832729955915795 3.4914690323171116 29.53814558113922 0 0 0
220 7 11.363215638549741 3.5379192380973814 29.530368838196523 0 0 0
191 7 1.3852368151816326 4.984318694878379 27.481392043640522 0 0 0
192 7 3.8270767824641942 4.967859744992509 27.491211958558367 0 0 0
196 7 0.13006960236466591 7.134810638051403 27.50618757984727 0 0 0
197 7 2.5728264287114717 7.170333708226739 27.484299974708243 0 0 0
221 7 0.11438385817992536 5.7043685674091025 29.58151556675211 0 0 0
222 7 2.585854540332999 5.706742680374089 29.56312181382502 0 0 0
226 7 1.3573294044804205 7.88032505933531 29.561265869848658 0 0 0
227 7 3.853799496948953 7.890659767483463 29.47952559675069 0 0 0
193 7 6.362304632595418 4.953381410203422 27.422529928529894 0 0 0
198 7 5.095104028412675 7.150866047716324 27.41998789969105 0 0 0
199 7 7.613530254614739 7.165879200437134 27.455877555525912 0 0 0
223 6 5.145606886930526 5.699331036974317 29.500894929101122 0 0 0
224 7 7.636872287997204 5.71699631783982 29.59021560946081 0 0 0
228 7 6.385934774677813 7.890891558154109 29.500618114002556 0 0 0
194 6 8.84087134413104 4.9752517694819245 27.501229263656224 0 0 0
195 7 11.354307657912443 4.972340684968281 27.516849561746955 0 0 0
200 7 10.117052634221158 7.135135906029023 27.547284712822545 0 0 0
225 7 10.09493061536821 5.719948798158384 29.615245282702876 0 0 0
229 7 8.838525262164957 7.86091561072167 29.53167692358205 0 0 0
230 7 11.362403828253319 7.907899730184957 29.532547814520953 0 0 0
201 5 1.3723807593944075 9.302252906773571 27.520555970336286 0 0 0
202 7 3.865385876241438 9.297787045798842 27.38222953317859 0 0 0
206 4 0.18120377883963898 11.454316596248532 27.53097991905996 0 0 0
207 7 2.6046192663126693 11.434193590817069 27.443947518160428 0 0 0
231 7 0.15886307775503217 10.055725550767802 29.574968873352102 0 0 0
232 7 2.626185285244917 10.00219992765025 29.43314170956597 0 0 0
236 7 1.4679000408155396 12.160484600770927 29.56046679914665 0 0 0
203 7 6.36783164732071 9.262998860564363 27.394264724753935 0 0 0
208 7 5.131228321662968 11.477449487508773 27.32555308388002 0 0 0
209 6 7.576011854283227 11.502734056763764 27.642545835966068 0 0 0
233 7 5.1423326502557245 10.032032478635989 29.329212530865696 0 0 0
234 7 7.594133309606781 10.066503278383887 29.66769386890748 0 0 0
238 7 6.2062923730907 12.214014520517432 29.683334131328536 0 0 0
204 7 8.83172756963478 9.345980199895173 27.62826030078838 0 0 0
205 7 11.338722600187825 9.393370115434841 27.553208678555297 0 0 0
210 7 10.14497314485713 11.531749208645627 27.589132906118806 0 0 0
235 7 10.078269381761572 10.157345607512015 29.605870215366075 0 0 0
239 4 8.872012327469067 12.23284311249784 29.73433997876344 0 0 0
240 7 11.390361166096376 12.24539495930635 29.5668923148634 0 0 0
237 3 4.02551045228513 0.27486072088056007 30.557262114709577 0 1 0
241 7 0.19591604224604237 0.08051882430627845 31.639327837233253 0 0 0
242 7 2.5647466549554476 0.12121662107608915 31.74782958006981 0 0 0
246 4 1.339329347965506 2.2243975501695523 31.670439721737722 0 0 0
247 7 3.874087851584991 2.1353535478804972 31.645918505432643 0 0 0
251 7 0.1431020307445332 4.309082248312678 31.66031325613014 0 0 0
252 7 2.6287328921518673 4.305345173905957 31.676435418426408 0 0 0
248 7 6.400549507287879 2.134814031305089 31.652160452025424 0 0 0
253 7 5.105329459245319 4.296468748314895 31.63196875850112 0 0 0
254 7 7.614412968085875 4.298424871915788 31.599957801913675 0 0 0
249 7 8.845175738810704 2.088767848425946 31.68672218326832 0 0 0
250 7 11.378342459108323 2.1226580526761114 31.664760528018032 0 0 0
255 1 10.10053073368096 4.206110321673305 31.51382587138652 0 0 0
256 7 1.3245049736767358 6.487430410846774 31.644872251914165 0 0 0
257 6 3.7862427457276127 6.489014407139497 31.67827998582857 0 0 0
286 7 0.09632522876770101 7.263519916278178 33.63767120304534 0 0 0
258 7 6.343241684104329 6.4824501108134145 31.63300027889683 0 0 0
264 7 7.5814501007195165 8.564477656875246 31.62664911829477 0 0 0
259 4 8.813253908498199 6.446745562069064 31.638423119809666 0 0 0
260 7 11.310295411248795 6.4752144779211145 31.604724604312857 0 0 0
284 5 8.87945191470503 5.103630425500037 33.589127107293656 0 0 0
285 4 11.34707424872129 5.141415518526081 33.64709263861571 0 0 0
290 7 10.07856631890769 7.244086780037614 33.60323994481939 0 0 0
261 7 0.1695626778072926 8.692152454481441 31.661636080133505 0 0 0
262 7 2.657489706661509 8.70587500292294 31.541113320210986 0 0 0
266 7 1.5558337006088814 10.817215110190116 31.575263052263217 0 0 0
267 4 3.9106818484707278 11.261713864748458 30.85232444915491 0 0 0
292 7 3.9516293199040593 9.347816502106939 33.52175754943798 0 0 0
243 7 5.163848872052596 12.887728035165683 32.09686872564481 0 -1 0
244 7 7.6204943509450835 12.923753881549432 31.71248740960413 0 -1 0
263 1 5.085304093909928 8.749858184412222 31.430079885214123 0 0 0
268 7 6.25409153572179 10.748573132452435 31.585425924238375 0 0 0
293 4 6.445531925025774 9.309867934443327 33.653985022780425 0 0 0
245 7 10.10460598985857 12.870567476404817 31.86957657337454 0 -1 0
265 6 10.093583203734475 8.666049563005473 31.54828901721013 0 0 0
269 7 8.768405830048303 10.78779754143906 31.753121979700545 0 0 0
270 7 11.421193413643751 10.888733234025402 31.617554822683417 0 0 0
296 3 11.065933646555461 11.81707176089711 33.32911713043952 -1 0 0
271 7 1.4693140725594442 0.8845950419478791 33.77939564358309 0 0 0
272 7 3.9154912373592614 0.9391585912428185 33.91696549848605 0 0 0
276 7 0.17085801241393775 2.9771207518253084 33.74268164859558 0 0 0
277 7 2.637095416865827 3.062248611172017 33.798239741178946 0 0 0
301 7 0.18125056122545347 1.5272060630329902 35.759552732224975 0 0 0
302 7 2.6079237084877507 1.6524771814157315 35.85759746581346 0 0 0
306 4 1.4020015351160466 3.8147760906012027 35.95247890649284 0 0 0
307 7 3.983730174341888 3.714835906847993 35.83642721920875 0 0 0
273 7 6.450818685031274 0.9577901576683658 33.907094746707365 0 0 0
278 1 5.20831339808392 2.982808845788312 33.72671463507349 0 0 0
279 7 7.719969429026941 3.0263928780693075 33.734714450244915 0 0 0
303 7 5.2328483257059215 1.6521372012726154 35.94544998659888 0 0 0
304 4 7.75004593116302 1.6180958166499477 35.922876364915716 0 0 0
308 7 6.516697096839473 3.6912341685971524 35.80432988649604 0 0 0
274 7 8.826758596878765 0.8812853531699167 33.83986935379755 0 0 0
275 4 11.43299306448138 0.7812490797820449 33.715911953007726 0 0 0
280 7 10.197107602171245 2.980554402874891 33.71494275760233 0 0 0
305 7 10.212592953458662 1.5425647998937306 35.72770202961721 0 0 0
309 7 9.009350830003198 3.6549770857982353 35.783259290950504 0 0 0
310 4 11.579581371915245 3.9223560043638748 35.862282612819634 0 0 0
281 7 1.3237204185560594 5.167463597353458 33.86844161023232 0 0 0
282 4 3.842225575878246 5.123339634649594 33.78561011593594 0 0 0
287 7 2.6322745115860537 7.27180594609289 33.76652502809011 0 0 0
312 7 2.7242571140783283 5.77485229016247 35.810505535339175 0 0 0
316 7 1.2289667819900445 7.603190692448689 35.810853697197295 0 0 0
317 7 3.9252475054264635 8.025183172733442 35.75877449086483 0 0 0
283 7 6.371472698450618 5.086501777972788 33.67787601029363 0 0 0
288 7 5.182704069868964 7.253286274336213 33.68858805545852 0 0 0
289 7 7.6254907147129956 7.176149967260462 33.72257576719903 0 0 0
313 7 5.249203875519862 5.896421353480195 35.745499870627825 0 0 0
314 7 7.7103861808850995 5.80174971015979 35.74300753160762 0 0 0
318 4 6.539633044277452 8.099854638971976 35.83823180999605 0 0 0
311 2 12.385906429017563 5.984814416207355 35.33975684527982 -1 0 0
315 7 10.1258664278018 5.78975816842236 35.58560211301306 0 0 0
319 7 8.950502572790418 7.957624150499891 35.8223319592716 0 0 0
320 7 11.353005948862641 7.909143289084096 35.59705260993817 0 0 0
350 7 11.664777923171096 6.261833665262487 37.30935542890544 0 0 0
355 3 10.430197836761153 7.87738517601944 37.270985861867594 0 0 0
291 7 1.461376107698814 9.408642602641233 33.73655720270397 0 0 0
297 6 3.0122955599970536 11.550664841336983 33.683519614512115 0 0 0
321 6 0.19919351817146919 10.047842481252093 35.909003747320256 0 0 0
322 7 2.6839219697221663 10.145037640883041 35.767738266343414 0 0 0
326 7 0.4963575172554082 11.635366007854193 33.68059889828052 0 0 0
327 6 3.9028053800925835 12.488200410832617 36.08461194983589 0 0 0
356 4 1.3879406579750717 12.333544521230806 35.84465181524526 0 0 0
298 2 5.198011270789788 12.261914118959867 34.196557685431905 0 0 0
299 7 6.9972308927635485 11.567676636030635 33.68245865320605 0 0 0
323 6 5.224840965464614 10.22442181553631 35.57292005502323 0 0 0
324 7 7.907390974374909 10.342938866666687 35.714179183166436 0 0 0
328 7 6.453002403142707 12.50215528039678 35.91933158207966 0 0 0
294 7 8.762056986905785 9.275474552947184 33.69599802737115 0 0 0
295 6 11.26065636686795 9.683355340403407 33.76615005889847 0 0 0
300 7 9.379023364798492 11.530783038313164 34.17139653379792 0 0 0
325 7 10.248030057205979 9.817397354851149 37.02852694396757 0 0 0
329 3 9.526345077292556 11.381860194221797 36.20501239885659 0 0 0
330 4 11.252733528171971 12.065839417712048 35.579153776751184 0 0 0
335 5 9.90145690775679 12.891144773074908 37.395809131301114 0 -1 0
332 7 2.473514895068898 0.07702840322390536 38.02638718691998 0 0 0
336 7 1.3211813537303687 2.164016577946636 37.83071128803474 0 0 0
337 7 3.857769292703621 2.1742402241361045 37.8669200106185 0 0 0
341 7 0.1972045340443697 4.229724900173369 38.07015838643206 0 0 0
342 7 2.6999595595440953 4.271374883068126 37.917970061379215 0 0 0
333 7 5.196911340410131 0.1403162069175001 38.10937376458537 0 0 0
334 7 7.646055207860496 0.053730182923434525 38.007485978848194 0 0 0
338 7 6.521352656593922 2.235464844578804 37.90516033115787 0 0 0
339 7 8.981857895109359 2.1736464208450483 37.85703871929213 0 0 0
340 7 11.357451486421933 2.1737869677315915 37.72707718214282 0 0 0
346 7 1.4857690106440413 6.380408033475411 37.99920366381135 0 0 0
347 6 3.9531328825811216 6.448846520977079 37.835522976748784 0 0 0
343 7 5.2855332026936 4.388927566706639 37.82765603922887 0 0 0
344 7 7.818591569549683 4.417322090516736 37.84828265828361 0 0 0
348 6 6.652792787470765 6.634560477063507 37.820113003460065 0 0 0
345 4 10.208935260008598 4.316568722916069 37.81153631423387 0 0 0
349 7 9.22813901220057 6.6068639470985016 37.861538146567526 0 0 0
351 7 12.257288269025894 8.55343887712193 37.836888942834506 -1 0 0
352 6 2.5098985120478368 8.629715569629182 37.75415805994422 0 0 0
357 7 3.8333952079227473 10.80380024407557 37.92518526117231 0 0 0
360 7 1.3820564382489995 10.871872049413032 37.882194051479495 1 0 0
361 8 3.9555524705485903 7.974145339891898 38.96760078691441 0 0 0
353 7 5.146531089121752 8.704656501809252 37.8850059538185 0 0 0
354 7 7.939345673289403 8.935338459920233 37.81971910267125 0 0 0
358 6 6.415461136148686 10.845234363299346 37.793915591636335 0 0 0
331 7 12.38688435535904 12.867210645465079 37.62950973914932 -1 -1 0
359 2 8.60220664665584 11.147477741046778 37.432525059352685 0 0 0

Velocities

1 0 0 0
2 0 0 0
3 0 0 0
9 0 0 0
5 0 0 0
6 0 0 0
10 0 0 0
16 0 0 0
20 0 0 0
26 0 0 0
27 0 0 0
23 0 0 0
28 0 0 0
29 0 0 0
24 0 0 0
25 0 0 0
30 0 0 0
7 0 0 0
31 0 0 0
32 0 0 0
36 0 0 0
37 0 0 0
56 0 0 0
8 0 0 0
33 0 0 0
34 0 0 0
38 0 0 0
4 0 0 0
35 0 0 0
39 0 0 0
40 0 0 0
11 0 0 0
12 0 0 0
17 0 0 0
42 0 0 0
47 0 0 0
13 0 0 0
18 0 0 0
19 0 0 0
43 0 0 0
44 0 0 0
48 0 0 0
14 0 0 0
15 0 0 0
41 0 0 0
45 0 0 0
49 0 0 0
50 0 0 0
85 0 0 0
21 0 0 0
22 0 0 0
46 0 0 0
52 0 0 0
57 0 0 0
87 0 0 0
53 0 0 0
54 0 0 0
58 0 0 0
51 0 0 0
55 0 0 0
59 0 0 0
60 0 0 0
66 0 0 0
67 0 0 0
91 0 0 0
92 0 0 0
96 0 0 0
97 0 0 0
63 0 0 0
64 0 0 0
68 0 0 0
74 0 0 0
93 0 0 0
98 0 0 0
99 0 0 0
65 0 0 0
69 0 0 0
70 0 0 0
75 0 0 0
94 0 0 0
95 0 0 0
100 0 0 0
72 0 0 0
76 0 0 0
77 0 0 0
82 0 0 0
101 0 0 0
102 0 0 0
107 0 0 0
73 0 0 0
78 0 0 0
103 0 0 0
108 0 0 0
109 0 0 0
71 0 0 0
79 0 0 0
80 0 0 0
81 0 0 0
104 0 0 0
105 0 0 0
106 0 0 0
110 0 0 0
61 0 0 0
62 0 0 0
86 0 0 0
111 0 0 0
112 0 0 0
116 0 0 0
117 0 0 0
83 0 0 0
84 0 0 0
88 0 0 0
113 0 0 0
118 0 0 0
119 0 0 0
89 0 0 0
90 0 0 0
114 0 0 0
115 0 0 0
120 0 0 0
121 0 0 0
122 0 0 0
126 0 0 0
127 0 0 0
156 0 0 0
157 0 0 0
162 0 0 0
123 0 0 0
124 0 0 0
128 0 0 0
153 0 0 0
158 0 0 0
163 0 0 0
164 0 0 0
125 0 0 0
129 0 0 0
130 0 0 0
155 0 0 0
159 0 0 0
160 0 0 0
165 0 0 0
131 0 0 0
132 0 0 0
136 0 0 0
137 0 0 0
161 0 0 0
166 0 0 0
167 0 0 0
171 0 0 0
172 0 0 0
133 0 0 0
134 0 0 0
138 0 0 0
168 0 0 0
173 0 0 0
135 0 0 0
139 0 0 0
140 0 0 0
169 0 0 0
170 0 0 0
175 0 0 0
141 0 0 0
142 0 0 0
146 0 0 0
147 0 0 0
151 0 0 0
152 0 0 0
176 0 0 0
177 0 0 0
143 0 0 0
144 0 0 0
148 0 0 0
154 0 0 0
178 0 0 0
145 0 0 0
149 0 0 0
150 0 0 0
174 0 0 0
179 0 0 0
180 0 0 0
181 0 0 0
182 0 0 0
186 0 0 0
187 0 0 0
211 0 0 0
212 0 0 0
216 0 0 0
217 0 0 0
183 0 0 0
188 0 0 0
189 0 0 0
213 0 0 0
214 0 0 0
218 0 0 0
184 0 0 0
185 0 0 0
190 0 0 0
215 0 0 0
219 0 0 0
220 0 0 0
191 0 0 0
192 0 0 0
196 0 0 0
197 0 0 0
221 0 0 0
222 0 0 0
226 0 0 0
227 0 0 0
193 0 0 0
198 0 0 0
199 0 0 0
223 0 0 0
224 0 0 0
228 0 0 0
194 0 0 0
195 0 0 0
200 0 0 0
225 0 0 0
229 0 0 0
230 0 0 0
201 0 0 0
202 0 0 0
206 0 0 0
207 0 0 0
231 0 0 0
232 0 0 0
236 0 0 0
203 0 0 0
208 0 0 0
209 0 0 0
233 0 0 0
234 0 0 0
238 0 0 0
204 0 0 0
205 0 0 0
210 0 0 0
235 0 0 0
239 0 0 0
240 0 0 0
237 0 0 0
241 0 0 0
242 0 0 0
246 0 0 0
247 0 0 0
251 0 0 0
252 0 0 0
248 0 0 0
253 0 0 0
254 0 0 0
249 0 0 0
250 0 0 0
255 0 0 0
256 0 0 0
257 0 0 0
286 0 0 0
258 0 0 0
264 0 0 0
259 0 0 0
260 0 0 0
284 0 0 0
285 0 0 0
290 0 0 0
261 0 0 0
262 0 0 0
266 0 0 0
267 0 0 0
292 0 0 0
243 0 0 0
244 0 0 0
263 0 0 0
268 0 0 0
293 0 0 0
245 0 0 0
265 0 0 0
269 0 0 0
270 0 0 0
296 0 0 0
271 0 0 0
272 0 0 0
276 0 0 0
277 0 0 0
301 0 0 0
302 0 0 0
306 0 0 0
307 0 0 0
273 0 0 0
278 0 0 0
279 0 0 0
303 0 0 0
304 0 0 0
308 0 0 0
274 0 0 0
275 0 0 0
280 0 0 0
305 0 0 0
309 0 0 0
310 0 0 0
281 0 0 0
282 0 0 0
287 0 0 0
312 0 0 0
316 0 0 0
317 0 0 0
283 0 0 0
288 0 0 0
289 0 0 0
313 0 0 0
314 0 0 0
318 0 0 0
311 0 0 0
315 0 0 0
319 0 0 0
320 0 0 0
350 0 0 0
355 0 0 0
291 0 0 0
297 0 0 0
321 0 0 0
322 0 0 0
326 0 0 0
327 0 0 0
356 0 0 0
298 0 0 0
299 0 0 0
323 0 0 0
324 0 0 0
328 0 0 0
294 0 0 0
295 0 0 0
300 0 0 0
325 0 0 0
329 0 0 0
330 0 0 0
335 0 0 0
332 0 0 0
336 0 0 0
337 0 0 0
341 0 0 0
342 0 0 0
333 0 0 0
334 0 0 0
338 0 0 0
339 0 0 0
340 0 0 0
346 0 0 0
347 0 0 0
343 0 0 0
344 0 0 0
348 0 0 0
345 0 0 0
349 0 0 0
351 0 0 0
352 0 0 0
357 0 0 0
360 0 0 0
361 0 0 0
353 0 0 0
354 0 0 0
358 0 0 0
331 0 0 0
359 0 0 0
