LAMMPS data file via write_data, version 11 Feb 2026, timestep = 169, units = metal

361 atoms
8 atom types

0 12.447907776 xlo xhi
0 12.9362452296 ylo yhi
0 52.3600831054 zlo zhi

Masses

1 26.9815
2 10.811
3 12.011
4 51.9961
5 55.845
6 95.95999999999999
7 58.6934
8 1.008

Atoms # atomic/kk

1 7 1.1447475034 1.4042530815 14.1767669076 0 0 0
2 7 3.6084602259 1.0698845996 14.6704381247 0 0 0
3 5 6.0765506298 0.9467816033 14.9127945674 0 0 0
9 7 7.3904254576 3.1552415677 14.921343358 0 0 0
5 7 11.0497419237 1.2529911546 14.6024861837 0 0 0
6 7 12.371824795299998 3.4559595715 14.8227813157 -1 0 0
10 7 9.9130540797 3.3904065996 14.7812471609 0 0 0
16 4 0.4694173902 7.8125304368 14.7997570607 0 0 0
20 7 10.4454755951 7.6697182118 14.1848688757 0 0 0
26 7 0.1281197666 12.2044764222 14.9105894271 0 0 0
27 7 2.482376412 11.8082341077 14.4640395444 0 0 0
23 7 6.9215809143 9.0056325864 14.7794199109 0 0 0
28 7 4.9597127568 11.7869866321 14.6074736033 0 0 0
29 6 7.487468691 11.492489151 14.9214469503 0 0 0
24 7 9.211267288 9.7383043985 14.542324574 0 0 0
25 7 11.7628351674 9.8745411843 14.7910184475 0 0 0
30 7 10.0617556164 11.945152431 14.7619795889 0 0 0
7 7 2.4276438825 3.274586701 14.9921379853 0 0 0
31 6 0.1320668178 1.5666912763 16.54569988 0 0 0
32 7 2.6047881521 1.6851371804 16.9156842324 0 0 0
36 7 1.2195215325 3.8560608354 17.0299024962 0 0 0
37 7 3.7103479774 3.8371572501 17.0572271382 0 0 0
56 2 1.9139638832 0.320698286899999 15.6094045829 0 1 0
8 7 4.9287232821 3.1271355871 15.0109940309 0 0 0
33 7 4.9854693445 1.6648399647 16.9552168616 0 0 0
34 7 7.410113639 1.7690174525 16.9802513671 0 0 0
38 5 6.1786870847 3.8598965293 16.9892925392 0 0 0
4 6 8.6405916037 0.9966073374 15.0011028893 0 0 0
35 7 9.9854439602 1.6623584179 16.9441720819 0 0 0
39 7 8.7306918901 3.8627101762 16.8623801969 0 0 0
40 7 11.1905275305 3.8067890199 17.0006893521 0 0 0
11 7 1.2348702966 5.4950064056 15.0806985502 0 0 0
12 7 3.723333195 5.3162088046 15.091556138 0 0 0
17 7 2.6528824888 7.4951525199 15.1538371669 0 0 0
42 7 2.4538170063 6.1274901805 17.1415379148 0 0 0
47 7 3.8866203033 8.1976953877 17.0635533141 0 0 0
13 7 6.1787690715 5.3054540189 15.034535629 0 0 0
18 7 5.0798141029 7.4787706901 15.0688046453 0 0 0
19 2 7.0597951203 7.0189274967 15.3897174295 0 0 0
43 7 4.9526824561 5.9628190941 17.0949149841 0 0 0
44 7 7.4770692341 5.9405064365 17.0881545432 0 0 0
48 7 6.3467693742 8.0549577382 17.0498728177 0 0 0
14 7 8.7041968087 5.6586120419 14.9658205562 0 0 0
15 6 11.1806031706 5.6044565055 15.1850152514 0 0 0
41 7 12.442168210099998 5.9982391836 17.2267436521 -1 0 0
45 7 9.923455112 6.0385351278 17.2532666192 0 0 0
49 7 8.7166078523 7.9219477302 16.0697967416 0 0 0
50 7 11.1854260308 7.9909608595 16.4539207548 0 0 0
85 6 9.7874825474 8.473382021 18.5408467256 0 0 0
21 2 1.1654244367 10.4783622607 15.2130316912 0 0 0
22 7 2.969847795 9.8650340587 15.6453950804 0 0 0
46 7 0.7946061559 9.3672820405 16.8749701293 0 0 0
52 7 1.3503573598 11.8646523864 16.9891542204 0 0 0
57 7 3.753873893 12.4366743176 16.6098759546 0 0 0
87 1 3.6650451701 10.7156807278 18.2659007397 0 0 0
53 7 5.3358928559 10.1219872041 16.3275402765 0 0 0
54 7 7.7336051436 10.0538114804 16.9470367537 0 0 0
58 6 6.3195663174 12.3667352783 16.9550847684 0 0 0
51 3 11.519673145099999 9.370279149 17.6624171524 -1 0 0
55 7 10.1852587848 10.2759719364 16.6816821896 0 0 0
59 7 8.8367077706 12.3810361477 16.9622360876 0 0 0
60 7 11.2428990064 12.4670428062 16.882988677 0 0 0
66 6 1.393007034 2.1659191631 19.0534804658 0 0 0
67 5 3.8310712323 2.169749835 19.077551421 0 0 0
91 4 1.3610097719 0.7490016766 21.3001474804 0 0 0
92 7 3.7532698079 0.7243006354 21.0553737996 0 0 0
96 7 0.082079932 2.7970216106 21.1874527472 0 0 0
97 7 2.5927240934 2.8497939446 21.1992924965 0 0 0
63 5 4.9567742477 0.0529982254 18.9618634931 0 0 0
64 7 7.4416746235 0.0821708056 19.1014191477 0 0 0
68 7 6.1949360288 2.1588642027 19.0801897325 0 0 0
74 6 7.5018096017 4.2853629911 19.0547359126 0 0 0
93 7 6.2598414465 0.7194660822 21.17367312 0 0 0
98 7 5.0257186556 2.8737258399 21.1536837203 0 0 0
99 5 7.4793105556 2.8150634673 21.1692986238 0 0 0
65 7 10.0018085899 0.0802466939 19.0961651875 0 0 0
69 7 8.7385472152 2.1539822136 18.9954608723 0 0 0
70 7 11.2870638013 2.2382207273 18.9541707741 0 0 0
75 5 9.908720947 4.3054275401 19.0335874063 0 0 0
94 7 8.7140507513 0.7135233683 21.2362014867 0 0 0
95 7 11.3045523296 0.6704651065 21.199536471 0 0 0
100 6 10.0309211856 2.7845552589 21.0550342549 0 0 0
72 7 2.4838430183 4.388962084 19.1070457725 0 0 0
76 7 1.200144222 6.4346976141 19.2600213636 0 0 0
77 7 3.7839563224 6.5073099035 19.1651823211 0 0 0
82 6 2.3588605673 8.4890673053 18.9154467805 0 0 0
101 7 1.204403147 4.986371594 21.2593935642 0 0 0
102 6 3.7298053141 5.0424743752 21.2297752978 0 0 0
107 7 2.4685484599 7.1728356576 21.2326094282 0 0 0
73 7 4.9759755061 4.316411451 19.087212733 0 0 0
78 7 6.1965388899 6.5190956683 19.1399785413 0 0 0
103 7 6.2751972116 5.0470676015 21.1760724515 0 0 0
108 7 5.0116983743 7.22861409 21.2268755354 0 0 0
109 7 7.4193353481 7.2485706051 21.2651304498 0 0 0
71 1 12.383629132 4.3782094725 19.1862342201 -1 0 0
79 7 8.6255974932 6.472044202 19.3232968982 0 0 0
80 7 11.1135754549 6.420590323 19.3581641471 0 0 0
81 4 12.342695017999999 8.4729562787 19.2006565517 -1 0 0
104 7 8.7408050898 5.0231569879 21.2437432022 0 0 0
105 3 10.084336684649926 4.372004295198229 22.288621296615823 0 0 0
106 7 12.435294388199999 7.0968971559 21.3158557077 -1 0 0
110 7 9.8903603607 7.1660305315 21.3021949042 0 0 0
61 6 0.0477387397 12.935022616100001 18.9949290075 0 -1 0
62 7 2.587482576 12.8543346047 19.0383469717 0 -1 0
86 7 1.2816847716 10.6903307998 19.1614661098 0 0 0
111 7 1.1796694452 9.2896516501 21.1960342799 0 0 0
112 6 3.7016357908 9.3557762036 21.1431867319 0 0 0
116 1 0.0369839214 11.486698451 21.2977096144 0 0 0
117 7 2.4704264091 11.5284142583 21.1452899236 0 0 0
83 7 4.9462384898 8.7330200409 19.0834474924 0 0 0
84 7 7.3974678157 8.6397297376 19.085743402 0 0 0
88 7 6.1625171869 10.8013148416 18.9301045672 0 0 0
113 7 6.2139769728 9.4092095126 21.0353192467 0 0 0
118 7 4.9639845145 11.5407295129 21.0425881559 0 0 0
119 4 7.3995383715 11.5362046003 21.0747824702 0 0 0
89 6 8.731338748 10.8500854071 19.0384744744 0 0 0
90 4 11.272219843 10.8209844576 18.9386324767 0 0 0
114 7 8.6997099562 9.3160354633 20.9928929717 0 0 0
115 6 11.109001975 9.2519683408 21.1755872983 0 0 0
120 7 9.9858618188 11.5164614705 21.1821863062 0 0 0
121 7 0.07741807293830744 1.373534239988068 23.31373710535736 0 0 0
122 7 2.5687814653341685 1.3853988931975691 23.3332112787483 0 0 0
126 6 1.3483351033944648 3.5681926289407273 23.269385514281883 0 0 0
127 7 3.8438697404032243 3.5719380747853204 23.364920174645984 0 0 0
156 1 1.472778168089783 2.1118944602911243 25.51886026167367 0 0 0
157 7 3.9590726614602967 2.118435648940945 25.447096538170626 0 0 0
162 7 2.591908623385722 4.244151475057296 25.431045292912554 0 0 0
123 7 4.985860353747485 1.4105844759489357 23.166005554310814 0 0 0
124 7 7.387308049406181 1.4816296343036433 23.49059063572052 0 0 0
128 7 6.296819295956032 3.6453946170352554 23.187070831449894 0 0 0
153 7 5.190545031677663 0.053281855420483935 25.29680897573178 0 0 0
158 2 5.769261811701073 2.43854377161922 24.632753442515565 0 0 0
163 7 5.111265598513397 4.2253993440132405 25.424155359970253 0 0 0
164 5 7.47044459004788 4.042344694816064 25.363403949776632 0 0 0
125 7 10.036518712282039 1.4078306598082204 23.358589136102708 0 0 0
129 7 8.744635330738872 3.5264635364180896 23.35128147548594 0 0 0
130 4 11.360117668379491 3.596676696593127 23.406286379546664 0 0 0
155 4 10.112787226794387 0.04188575036762431 25.56230479365091 0 0 0
159 7 8.863037656301767 2.0787594417586366 25.451573218476103 0 0 0
160 7 11.394168626918873 2.1343866323023795 25.425230063702784 0 0 0
165 7 10.058733947338014 4.1967477617447 25.41633481577099 0 0 0
131 7 0.0637433386552065 5.750715987784187 23.407806986845856 0 0 0
132 7 2.535277855991041 5.778895581820605 23.36381399776048 0 0 0
136 7 1.2955784618711645 7.892389057328633 23.308568683568705 0 0 0
137 7 3.7692341633526856 7.9600728386021045 23.28187682329916 0 0 0
161 4 0.10186279843533581 4.319371765417508 25.4731686928272 0 0 0
166 7 1.3302904474281254 6.393627898168541 25.43411210282971 0 0 0
167 7 3.8005218038555824 6.417607750988859 25.446100212895242 0 0 0
171 6 0.10164028249342585 8.592065578097822 25.434168362425503 0 0 0
172 7 2.61491683752599 8.587507775380004 25.379732324779223 0 0 0
133 6 5.0577091332373065 5.838074505544503 23.390837985435933 0 0 0
134 7 7.5520600771878135 5.757080053913624 23.318600901081474 0 0 0
138 7 6.302639507350582 7.975441705143541 23.344797286488816 0 0 0
168 7 6.357799259617498 6.374614359375738 25.43646925629974 0 0 0
173 7 5.096796855344322 8.533122837339219 25.336015783235997 0 0 0
135 7 10.056914353077406 5.803549371675422 23.392182059171542 0 0 0
139 4 8.686375228693468 7.920612701860253 23.248594394201373 0 0 0
140 4 11.274236801159342 7.868127264339552 23.322249513306314 0 0 0
169 7 8.76819999070697 6.308826824741912 25.387821213399945 0 0 0
170 7 11.281719833738146 6.3858038369283 25.453379113699683 0 0 0
175 6 9.876886736595475 8.54477513836592 25.528866709174984 0 0 0
141 7 0.012068430863483522 10.045508504358367 23.347842367726262 0 0 0
142 7 2.4881287518646626 10.08413483245833 23.258661688548816 0 0 0
146 7 1.294348566611612 12.213055146632257 23.354500351367335 0 0 0
147 7 3.798497500108057 12.222421076018566 23.18411353132261 0 0 0
151 4 0.08447782107046359 12.852724942722341 25.4194391750863 0 -1 0
152 7 2.6466944858103196 12.92237593621478 25.37766085741995 0 -1 0
176 7 1.3341789098312002 10.77693086532331 25.43579898519995 0 0 0
177 6 3.8714010096521236 10.79509923087491 25.277870674525058 0 0 0
143 7 5.0467599970943855 10.083505704608461 23.18534635513196 0 0 0
144 7 7.497200337791016 10.067302744424582 22.924105095946665 0 0 0
148 4 6.204585852752943 12.24861356597165 23.189417949738857 0 0 0
154 7 7.5933225363220656 12.920830268783583 25.479739974565312 0 -1 0
178 6 6.6090126138943 10.521487058472006 25.22476876084089 0 0 0
145 7 9.987568547994083 10.052105619160603 23.32029657566764 0 0 0
149 6 8.699821373942676 12.250432590572494 23.334514725135083 0 0 0
150 7 11.238898182981623 12.195705203002312 23.409969445143556 0 0 0
174 3 8.405400882442839 9.487261475049879 24.428284853943495 0 0 0
179 5 8.990046156325148 10.90017269088642 25.588238581658544 0 0 0
180 5 11.327784828955146 10.84449646624558 25.511244958249204 0 0 0
181 7 1.3831876328189152 0.6438571508943388 27.50168553598409 0 0 0
182 7 3.870327852374558 0.6812393641276767 27.4402967898998 0 0 0
186 7 0.16524063420744645 2.8355783943004207 27.500326323407947 0 0 0
187 7 2.654365960389656 2.8310342165093476 27.571931298485786 0 0 0
211 7 0.2043241375349326 1.4232454527255296 29.60009748705499 0 0 0
212 7 2.7068506505327035 1.338132565201496 29.585997310870077 0 0 0
216 7 1.405727886066502 3.5328804002589607 29.595369456467537 0 0 0
217 4 3.8191875638891237 3.550936460796073 29.6038698443107 0 0 0
183 7 6.303877893442239 0.6933869929722877 27.577688093260527 0 0 0
188 7 5.07758573793114 2.851877828968691 27.5811158654587 0 0 0
189 7 7.589509759242004 2.77130188946937 27.46900558908277 0 0 0
213 5 5.129178123026609 1.4046308784428134 29.607338055158408 0 0 0
214 7 7.60749244612607 1.3336120883320544 29.600001381707532 0 0 0
218 7 6.358245111742548 3.5151284273876797 29.54959196439545 0 0 0
184 7 8.880340837181953 0.6971815418112173 27.575210247772056 0 0 0
185 4 11.377801118307913 0.7005655735751205 27.5475251245826 0 0 0
190 7 10.139397184660726 2.8098415941119206 27.49831916045047 0 0 0
215 7 10.119714802626365 1.382432448687884 29.642277794685196 0 0 0
219 7 8.833576658121205 3.4900904648741067 29.538328319090958 0 0 0
220 7 11.364323466863532 3.5364918754075827 29.532265918591747 0 0 0
191 7 1.3852598260587536 4.984517805109113 27.478408714130207 0 0 0
192 7 3.8278261339808113 4.968250085256132 27.487127633974655 0 0 0
196 7 0.13067798684778248 7.135451570249513 27.50600276656721 0 0 0
197 7 2.5734245291486615 7.171762575820787 27.48099784036161 0 0 0
221 7 0.11507565641206652 5.704853922315848 29.579643111007222 0 0 0
222 7 2.5858013688895585 5.707024853510857 29.556100202825963 0 0 0
226 7 1.3595573094815872 7.882436137634176 29.558967988729847 0 0 0
227 7 3.8559580595754848 7.893830972441544 29.473734544994382 0 0 0
193 7 6.364113009370463 4.953771270124598 27.418804010398492 0 0 0
198 7 5.096483875349065 7.152578675286974 27.416353814333256 0 0 0
199 7 7.615603818523416 7.166941308371954 27.454343225873682 0 0 0
223 6 5.1473091521085275 5.69994184684552 29.494081436074424 0 0 0
224 7 7.638537803619247 5.716386198847716 29.587348772080645 0 0 0
228 7 6.388617707003388 7.892391936285433 29.497579521650124 0 0 0
194 6 8.842178592441906 4.974676277987907 27.50025654396059 0 0 0
195 7 11.355068631118336 4.971641859236122 27.51678562312995 0 0 0
200 7 10.118139396419041 7.135064111561418 27.548502058163336 0 0 0
225 7 10.095919816646235 5.717410831405554 29.614747117616883 0 0 0
229 7 8.840768450138473 7.860645129371802 29.533883162795146 0 0 0
230 7 11.363498793446729 7.909031316735208 29.533672740109264 0 0 0
201 5 1.3733202086278085 9.304047760256747 27.520947046545697 0 0 0
202 7 3.8662887162791177 9.300599570377988 27.380807788281338 0 0 0
206 4 0.18125419813447063 11.455744011434389 27.531818675582645 0 0 0
207 7 2.604736651441169 11.43673707126076 27.443847622314482 0 0 0
231 7 0.15996613685372293 10.057919123876209 29.576225388648012 0 0 0
232 7 2.628133764248211 10.007134637707788 29.43310463090096 0 0 0
236 7 1.4656457485543506 12.163066635026187 29.562272609354757 0 0 0
203 7 6.368839883399128 9.26469178237997 27.393445214818428 0 0 0
208 7 5.132031528891245 11.479626665211667 27.32527201631583 0 0 0
209 6 7.576272343649975 11.503166583864292 27.64682392303338 0 0 0
233 7 5.144265297319064 10.035310391702492 29.329176405278403 0 0 0
234 7 7.595780543651319 10.067597765653952 29.672192341291854 0 0 0
238 7 6.20651885518251 12.215756231280732 29.687665128090458 0 0 0
204 7 8.832844082931768 9.34679390586031 27.631772350325818 0 0 0
205 7 11.339352844147532 9.394177685509103 27.554680660956528 0 0 0
210 7 10.145372506541536 11.53206042292382 27.59286520004207 0 0 0
235 7 10.079891541564805 10.157879628010038 29.610040643464995 0 0 0
239 4 8.873183726579803 12.233533126648922 29.74021468807023 0 0 0
240 7 11.390565035742354 12.246389487032982 29.57088639760563 0 0 0
237 3 4.028892975107301 0.2726272166569828 30.56003861643106 0 1 0
241 7 0.1932025370410027 0.08292996076598927 31.648280396135725 0 0 0
242 7 2.5629120548263074 0.12645989003691885 31.745266782361334 0 0 0
246 4 1.339095309153306 2.227107115114312 31.670020870736522 0 0 0
247 7 3.874255639886445 2.1377292644344066 31.64736939791769 0 0 0
251 7 0.14215934487248164 4.309174730927794 31.65816406931416 0 0 0
252 7 2.6276835698279015 4.30633585682883 31.6717731630645 0 0 0
248 7 6.400981774534321 2.135063095896378 31.653610983566015 0 0 0
253 7 5.106811635524696 4.29723570193341 31.626513403581615 0 0 0
254 7 7.6154526262607485 4.296843139581249 31.59840131995347 0 0 0
249 7 8.84491945025889 2.0870244742105246 31.69209373282296 0 0 0
250 7 11.377566798135957 2.121482399621823 31.67553043383971 0 0 0
255 1 10.099540684542294 4.200761454796432 31.515200231146085 0 0 0
256 7 1.3242591296200485 6.48867204565562 31.64092377418509 0 0 0
257 6 3.786548416975628 6.489752579738638 31.66468692703899 0 0 0
286 7 0.08742797337430805 7.267686877095472 33.62810027839215 0 0 0
258 7 6.346569765102427 6.480914716368215 31.624912377677003 0 0 0
264 7 7.583935446744599 8.5647217514108 31.62922414778793 0 0 0
259 4 8.815460889242049 6.4450641973988505 31.63578504044832 0 0 0
260 7 11.309094680261229 6.474709100691855 31.60144130743627 0 0 0
284 5 8.88087392153606 5.103140157176256 33.58884197087732 0 0 0
285 4 11.340467735895718 5.139050360992494 33.64284851933194 0 0 0
290 7 10.076874755248339 7.2438616525680235 33.603757112081794 0 0 0
261 7 0.1727420560163883 8.695244168209925 31.658405400470684 0 0 0
262 7 2.66143875246824 8.709719284331223 31.537518339608457 0 0 0
266 7 1.5572529373462893 10.820447264636197 31.578636444115283 0 0 0
267 4 3.9138566183213506 11.260042257981919 30.86100437447429 0 0 0
292 7 3.9564463918076274 9.364803142406355 33.51218356477617 0 0 0
243 7 5.161896830243744 12.890067286654828 32.10538916666392 0 -1 0
244 7 7.6203752396684425 12.923116415381887 31.718545123646475 0 -1 0
263 1 5.089757695124417 8.749795109608907 31.42660546273336 0 0 0
268 7 6.256487922101711 10.750427566338898 31.590214389411805 0 0 0
293 4 6.442763970731261 9.311723492875021 33.65799163350491 0 0 0
245 7 10.10509144201786 12.871175651876715 31.87771986819624 0 -1 0
265 6 10.096240767728457 8.667284598003462 31.552567387586787 0 0 0
269 7 8.770542355477726 10.78808554206783 31.759038845406284 0 0 0
270 7 11.42340511160527 10.891596688181407 31.62204219303599 0 0 0
296 3 11.071530484930774 11.814680458426247 33.339563023749776 -1 0 0
271 7 1.4677846503962708 0.8892301812647794 33.781298100555375 0 0 0
272 7 3.914111882077208 0.9445443868313371 33.92510881768329 0 0 0
276 7 0.16951308692961622 2.9773163066480586 33.743476375250594 0 0 0
277 7 2.636698824528368 3.0675766941761387 33.79826093456286 0 0 0
301 7 0.18040875870413386 1.540240874897054 35.763740855694444 0 0 0
302 7 2.608050747365174 1.658539846805765 35.860370019847174 0 0 0
306 4 1.4115359566992105 3.824735865787813 35.96150388131127 0 0 0
307 7 3.990051826295855 3.7220302860221643 35.83458774965543 0 0 0
273 7 6.453707190386107 0.9622377763633935 33.90685629356829 0 0 0
278 1 5.211264083116046 2.986231694186968 33.72407810164569 0 0 0
279 7 7.722556234689126 3.0305756126778696 33.73788702507318 0 0 0
303 7 5.236894667569373 1.6570690207109253 35.93562968341031 0 0 0
304 4 7.738482880854285 1.637494710429026 35.92323857350018 0 0 0
308 7 6.520249730468905 3.6999482506331205 35.800240936972536 0 0 0
274 7 8.828406961355325 0.8874182107010566 33.84716478118743 0 0 0
275 4 11.426140737999294 0.7760220905525909 33.73505232009319 0 0 0
280 7 10.197848188595701 2.978303336956425 33.730224197780494 0 0 0
305 7 10.20713062204654 1.5329007570431858 35.750302050624086 0 0 0
309 7 9.017792995155231 3.6549237816877884 35.797225635322334 0 0 0
310 4 11.59807739551108 3.9409937655907363 35.86351021295062 0 0 0
281 7 1.3185576565564547 5.169587850099274 33.8621509188447 0 0 0
282 4 3.841771399702121 5.124218677142397 33.76875490748895 0 0 0
287 7 2.6280905035830577 7.276237553356818 33.7475447740809 0 0 0
312 7 2.7256699131586215 5.780551250393813 35.785181377981374 0 0 0
316 7 1.2088845873995786 7.590672329318488 35.7904431339201 0 0 0
317 7 3.927529091032954 8.056150355529493 35.73619725029958 0 0 0
283 7 6.373342747237485 5.08942894482675 33.67164356457456 0 0 0
288 7 5.178157075349145 7.259896771077427 33.66709467487691 0 0 0
289 7 7.625716015585405 7.1747512102551765 33.71881968754734 0 0 0
313 7 5.258152196413381 5.909302137977528 35.715873690337766 0 0 0
314 7 7.7166422017606875 5.807901457614997 35.745963291566376 0 0 0
318 4 6.547451913728184 8.108988113632224 35.80909753978354 0 0 0
311 2 12.369473661135757 5.9903858760537965 35.32682754212955 -1 0 0
315 7 10.127516063894483 5.792230632868016 35.58712737495709 0 0 0
319 7 8.9499800970258 7.960052045107799 35.8266253893129 0 0 0
320 7 11.34241962676744 7.915908565950226 35.598206691733814 0 0 0
350 7 11.674972310939214 6.264113104682392 37.30916977087831 0 0 0
355 3 10.431618105231692 7.885903693839957 37.28368070372976 0 0 0
291 7 1.4636560885641499 9.412540298105945 33.73178674408534 0 0 0
297 6 3.0185597143668317 11.564581935105707 33.67698120452724 0 0 0
321 6 0.2096348757470123 10.043439110949143 35.90732118808585 0 0 0
322 7 2.695853700955454 10.189856193246156 35.76262600607684 0 0 0
326 7 0.502776190486664 11.63777009963875 33.68724259446343 0 0 0
327 6 3.90971958259643 12.499065386848388 36.10986209107737 0 0 0
356 4 1.3899322038721578 12.350087628769808 35.85580067607785 0 0 0
298 2 5.198592172872375 12.27578104786173 34.21695138414932 0 0 0
299 7 6.991844228319102 11.57094356844449 33.691871170872176 0 0 0
323 6 5.2317499377428245 10.235590578993746 35.59121777260247 0 0 0
324 7 7.90454429461717 10.344422849871812 35.713268338580974 0 0 0
328 7 6.464900840896936 12.517229280650362 35.933744985918835 0 0 0
294 7 8.761935012128601 9.276823900179018 33.70163275894462 0 0 0
295 6 11.260627558786245 9.684097265409441 33.76704965171434 0 0 0
300 7 9.3826634943208 11.536423345975711 34.17966729854174 0 0 0
325 7 10.242729900698894 9.828784753994587 37.03456142934039 0 0 0
329 3 9.523864869638693 11.397522490489777 36.20773485739758 0 0 0
330 4 11.264715297521297 12.057399702937248 35.597357917042636 0 0 0
335 5 9.894657878806191 12.855339858471948 37.456317340932515 0 -1 0
332 7 2.4799888685738263 0.09257061166847219 38.042035207100824 0 0 0
336 7 1.3337050381237845 2.179700642230006 37.83675335821755 0 0 0
337 7 3.870262382393559 2.188090882539928 37.86500318977841 0 0 0
341 7 0.21064518687007394 4.246479916406051 38.08016797423816 0 0 0
342 7 2.7096346701916896 4.286377622552807 37.9280066375123 0 0 0
333 7 5.201107368458982 0.1570546441916365 38.12127989557987 0 0 0
334 7 7.634697004823842 0.07968364157172293 38.076639608504045 0 0 0
338 7 6.502068256002667 2.2630679848195627 37.895592959763164 0 0 0
339 7 8.992028183968083 2.1605172830250576 37.904312129336084 0 0 0
340 7 11.373587012981641 2.199865648021428 37.7296818950332 0 0 0
346 7 1.512223427923319 6.399862040261529 38.00169405290612 0 0 0
347 6 3.9583356568072734 6.470256914904721 37.76722419800045 0 0 0
343 7 5.294212268426644 4.426613874549731 37.83712549656912 0 0 0
344 7 7.824717718257613 4.4258999201138645 37.850343853132216 0 0 0
348 6 6.655146128094664 6.654165058657514 37.81869110862768 0 0 0
345 4 10.213988612126741 4.331964049649722 37.81463003871683 0 0 0
349 7 9.232780967902924 6.6122637048029365 37.870218059973354 0 0 0
351 7 12.242018069128212 8.552687224761462 37.84408352187944 -1 0 0
352 6 2.485931436646685 8.654544920261396 37.688714410526075 0 0 0
357 7 3.8369170309941065 10.800560946616187 37.95589224912216 0 0 0
360 7 1.37777568140006 10.897364028100563 37.89054814044614 1 0 0
353 7 5.127018221360066 8.689418028762077 37.830944249039355 0 0 0
354 7 7.952137525897655 8.941307707767955 37.81701986566963 0 0 0
358 6 6.417070193524081 10.848622087409717 37.80958671383508 0 0 0
331 7 12.396111640093075 12.894829425333423 37.64446203632017 -1 -1 0
359 2 8.580030662856347 11.136659931382155 37.42040913606754 0 0 0
361 8 9.065777467548791 0.7277193023536839 38.848104833842754 0 1 0

Velocities

1 0 0 0
2 0 0 0
3 0 0 0
9 0 0 0
5 0 0 0
6 0 0 0
10 0 0 0
16 0 0 0
20 0 0 0
26 0 0 0
27 0 0 0
23 0 0 0
28 0 0 0
29 0 0 0
24 0 0 0
25 0 0 0
30 0 0 0
7 0 0 0
31 0 0 0
32 0 0 0
36 0 0 0
37 0 0 0
56 0 0 0
8 0 0 0
33 0 0 0
34 0 0 0
38 0 0 0
4 0 0 0
35 0 0 0
39 0 0 0
40 0 0 0
11 0 0 0
12 0 0 0
17 0 0 0
42 0 0 0
47 0 0 0
13 0 0 0
18 0 0 0
19 0 0 0
43 0 0 0
44 0 0 0
48 0 0 0
14 0 0 0
15 0 0 0
41 0 0 0
45 0 0 0
49 0 0 0
50 0 0 0
85 0 0 0
21 0 0 0
22 0 0 0
46 0 0 0
52 0 0 0
57 0 0 0
87 0 0 0
53 0 0 0
54 0 0 0
58 0 0 0
51 0 0 0
55 0 0 0
59 0 0 0
60 0 0 0
66 0 0 0
67 0 0 0
91 0 0 0
92 0 0 0
96 0 0 0
97 0 0 0
63 0 0 0
64 0 0 0
68 0 0 0
74 0 0 0
93 0 0 0
98 0 0 0
99 0 0 0
65 0 0 0
69 0 0 0
70 0 0 0
75 0 0 0
94 0 0 0
95 0 0 0
100 0 0 0
72 0 0 0
76 0 0 0
77 0 0 0
82 0 0 0
101 0 0 0
102 0 0 0
107 0 0 0
73 0 0 0
78 0 0 0
103 0 0 0
108 0 0 0
109 0 0 0
71 0 0 0
79 0 0 0
80 0 0 0
81 0 0 0
104 0 0 0
105 0 0 0
106 0 0 0
110 0 0 0
61 0 0 0
62 0 0 0
86 0 0 0
111 0 0 0
112 0 0 0
116 0 0 0
117 0 0 0
83 0 0 0
84 0 0 0
88 0 0 0
113 0 0 0
118 0 0 0
119 0 0 0
89 0 0 0
90 0 0 0
114 0 0 0
115 0 0 0
120 0 0 0
121 0 0 0
122 0 0 0
126 0 0 0
127 0 0 0
156 0 0 0
157 0 0 0
162 0 0 0
123 0 0 0
124 0 0 0
128 0 0 0
153 0 0 0
158 0 0 0
163 0 0 0
164 0 0 0
125 0 0 0
129 0 0 0
130 0 0 0
155 0 0 0
159 0 0 0
160 0 0 0
165 0 0 0
131 0 0 0
132 0 0 0
136 0 0 0
137 0 0 0
161 0 0 0
166 0 0 0
167 0 0 0
171 0 0 0
172 0 0 0
133 0 0 0
134 0 0 0
138 0 0 0
168 0 0 0
173 0 0 0
135 0 0 0
139 0 0 0
140 0 0 0
169 0 0 0
170 0 0 0
175 0 0 0
141 0 0 0
142 0 0 0
146 0 0 0
147 0 0 0
151 0 0 0
152 0 0 0
176 0 0 0
177 0 0 0
143 0 0 0
144 0 0 0
148 0 0 0
154 0 0 0
178 0 0 0
145 0 0 0
149 0 0 0
150 0 0 0
174 0 0 0
179 0 0 0
180 0 0 0
181 0 0 0
182 0 0 0
186 0 0 0
187 0 0 0
211 0 0 0
212 0 0 0
216 0 0 0
217 0 0 0
183 0 0 0
188 0 0 0
189 0 0 0
213 0 0 0
214 0 0 0
218 0 0 0
184 0 0 0
185 0 0 0
190 0 0 0
215 0 0 0
219 0 0 0
220 0 0 0
191 0 0 0
192 0 0 0
196 0 0 0
197 0 0 0
221 0 0 0
222 0 0 0
226 0 0 0
227 0 0 0
193 0 0 0
198 0 0 0
199 0 0 0
223 0 0 0
224 0 0 0
228 0 0 0
194 0 0 0
195 0 0 0
200 0 0 0
225 0 0 0
229 0 0 0
230 0 0 0
201 0 0 0
202 0 0 0
206 0 0 0
207 0 0 0
231 0 0 0
232 0 0 0
236 0 0 0
203 0 0 0
208 0 0 0
209 0 0 0
233 0 0 0
234 0 0 0
238 0 0 0
204 0 0 0
205 0 0 0
210 0 0 0
235 0 0 0
239 0 0 0
240 0 0 0
237 0 0 0
241 0 0 0
242 0 0 0
246 0 0 0
247 0 0 0
251 0 0 0
252 0 0 0
248 0 0 0
253 0 0 0
254 0 0 0
249 0 0 0
250 0 0 0
255 0 0 0
256 0 0 0
257 0 0 0
286 0 0 0
258 0 0 0
264 0 0 0
259 0 0 0
260 0 0 0
284 0 0 0
285 0 0 0
290 0 0 0
261 0 0 0
262 0 0 0
266 0 0 0
267 0 0 0
292 0 0 0
243 0 0 0
244 0 0 0
263 0 0 0
268 0 0 0
293 0 0 0
245 0 0 0
265 0 0 0
269 0 0 0
270 0 0 0
296 0 0 0
271 0 0 0
272 0 0 0
276 0 0 0
277 0 0 0
301 0 0 0
302 0 0 0
306 0 0 0
307 0 0 0
273 0 0 0
278 0 0 0
279 0 0 0
303 0 0 0
304 0 0 0
308 0 0 0
274 0 0 0
275 0 0 0
280 0 0 0
305 0 0 0
309 0 0 0
310 0 0 0
281 0 0 0
282 0 0 0
287 0 0 0
312 0 0 0
316 0 0 0
317 0 0 0
283 0 0 0
288 0 0 0
289 0 0 0
313 0 0 0
314 0 0 0
318 0 0 0
311 0 0 0
315 0 0 0
319 0 0 0
320 0 0 0
350 0 0 0
355 0 0 0
291 0 0 0
297 0 0 0
321 0 0 0
322 0 0 0
326 0 0 0
327 0 0 0
356 0 0 0
298 0 0 0
299 0 0 0
323 0 0 0
324 0 0 0
328 0 0 0
294 0 0 0
295 0 0 0
300 0 0 0
325 0 0 0
329 0 0 0
330 0 0 0
335 0 0 0
332 0 0 0
336 0 0 0
337 0 0 0
341 0 0 0
342 0 0 0
333 0 0 0
334 0 0 0
338 0 0 0
339 0 0 0
340 0 0 0
346 0 0 0
347 0 0 0
343 0 0 0
344 0 0 0
348 0 0 0
345 0 0 0
349 0 0 0
351 0 0 0
352 0 0 0
357 0 0 0
360 0 0 0
353 0 0 0
354 0 0 0
358 0 0 0
331 0 0 0
359 0 0 0
361 0 0 0
