LAMMPS data file via write_data, version 11 Feb 2026, timestep = 161, units = metal

361 atoms
8 atom types

0 12.447907776 xlo xhi
0 12.9362452296 ylo yhi
0 52.3600831054 zlo zhi

Masses

1 26.9815
2 10.811
3 12.011
4 51.9961
5 55.845
6 95.95999999999999
7 58.6934
8 1.008

Atoms # atomic/kk

1 7 1.1447475034 1.4042530815 14.1767669076 0 0 0
2 7 3.6084602259 1.0698845996 14.6704381247 0 0 0
3 5 6.0765506298 0.9467816033 14.9127945674 0 0 0
9 7 7.3904254576 3.1552415677 14.921343358 0 0 0
5 7 11.0497419237 1.2529911546 14.6024861837 0 0 0
6 7 12.371824795299998 3.4559595715 14.8227813157 -1 0 0
10 7 9.9130540797 3.3904065996 14.7812471609 0 0 0
16 4 0.4694173902 7.8125304368 14.7997570607 0 0 0
20 7 10.4454755951 7.6697182118 14.1848688757 0 0 0
26 7 0.1281197666 12.2044764222 14.9105894271 0 0 0
27 7 2.482376412 11.8082341077 14.4640395444 0 0 0
23 7 6.9215809143 9.0056325864 14.7794199109 0 0 0
28 7 4.9597127568 11.7869866321 14.6074736033 0 0 0
29 6 7.487468691 11.492489151 14.9214469503 0 0 0
24 7 9.211267288 9.7383043985 14.542324574 0 0 0
25 7 11.7628351674 9.8745411843 14.7910184475 0 0 0
30 7 10.0617556164 11.945152431 14.7619795889 0 0 0
7 7 2.4276438825 3.274586701 14.9921379853 0 0 0
31 6 0.1320668178 1.5666912763 16.54569988 0 0 0
32 7 2.6047881521 1.6851371804 16.9156842324 0 0 0
36 7 1.2195215325 3.8560608354 17.0299024962 0 0 0
37 7 3.7103479774 3.8371572501 17.0572271382 0 0 0
56 2 1.9139638832 0.320698286899999 15.6094045829 0 1 0
8 7 4.9287232821 3.1271355871 15.0109940309 0 0 0
33 7 4.9854693445 1.6648399647 16.9552168616 0 0 0
34 7 7.410113639 1.7690174525 16.9802513671 0 0 0
38 5 6.1786870847 3.8598965293 16.9892925392 0 0 0
4 6 8.6405916037 0.9966073374 15.0011028893 0 0 0
35 7 9.9854439602 1.6623584179 16.9441720819 0 0 0
39 7 8.7306918901 3.8627101762 16.8623801969 0 0 0
40 7 11.1905275305 3.8067890199 17.0006893521 0 0 0
11 7 1.2348702966 5.4950064056 15.0806985502 0 0 0
12 7 3.723333195 5.3162088046 15.091556138 0 0 0
17 7 2.6528824888 7.4951525199 15.1538371669 0 0 0
42 7 2.4538170063 6.1274901805 17.1415379148 0 0 0
47 7 3.8866203033 8.1976953877 17.0635533141 0 0 0
13 7 6.1787690715 5.3054540189 15.034535629 0 0 0
18 7 5.0798141029 7.4787706901 15.0688046453 0 0 0
19 2 7.0597951203 7.0189274967 15.3897174295 0 0 0
43 7 4.9526824561 5.9628190941 17.0949149841 0 0 0
44 7 7.4770692341 5.9405064365 17.0881545432 0 0 0
48 7 6.3467693742 8.0549577382 17.0498728177 0 0 0
14 7 8.7041968087 5.6586120419 14.9658205562 0 0 0
15 6 11.1806031706 5.6044565055 15.1850152514 0 0 0
41 7 12.442168210099998 5.9982391836 17.2267436521 -1 0 0
45 7 9.923455112 6.0385351278 17.2532666192 0 0 0
49 7 8.7166078523 7.9219477302 16.0697967416 0 0 0
50 7 11.1854260308 7.9909608595 16.4539207548 0 0 0
85 6 9.7874825474 8.473382021 18.5408467256 0 0 0
21 2 1.1654244367 10.4783622607 15.2130316912 0 0 0
22 7 2.969847795 9.8650340587 15.6453950804 0 0 0
46 7 0.7946061559 9.3672820405 16.8749701293 0 0 0
52 7 1.3503573598 11.8646523864 16.9891542204 0 0 0
57 7 3.753873893 12.4366743176 16.6098759546 0 0 0
87 1 3.6650451701 10.7156807278 18.2659007397 0 0 0
53 7 5.3358928559 10.1219872041 16.3275402765 0 0 0
54 7 7.7336051436 10.0538114804 16.9470367537 0 0 0
58 6 6.3195663174 12.3667352783 16.9550847684 0 0 0
51 3 11.519673145099999 9.370279149 17.6624171524 -1 0 0
55 7 10.1852587848 10.2759719364 16.6816821896 0 0 0
59 7 8.8367077706 12.3810361477 16.9622360876 0 0 0
60 7 11.2428990064 12.4670428062 16.882988677 0 0 0
66 6 1.393007034 2.1659191631 19.0534804658 0 0 0
67 5 3.8310712323 2.169749835 19.077551421 0 0 0
91 4 1.3610097719 0.7490016766 21.3001474804 0 0 0
92 7 3.7532698079 0.7243006354 21.0553737996 0 0 0
96 7 0.082079932 2.7970216106 21.1874527472 0 0 0
97 7 2.5927240934 2.8497939446 21.1992924965 0 0 0
63 5 4.9567742477 0.0529982254 18.9618634931 0 0 0
64 7 7.4416746235 0.0821708056 19.1014191477 0 0 0
68 7 6.1949360288 2.1588642027 19.0801897325 0 0 0
74 6 7.5018096017 4.2853629911 19.0547359126 0 0 0
93 7 6.2598414465 0.7194660822 21.17367312 0 0 0
98 7 5.0257186556 2.8737258399 21.1536837203 0 0 0
99 5 7.4793105556 2.8150634673 21.1692986238 0 0 0
65 7 10.0018085899 0.0802466939 19.0961651875 0 0 0
69 7 8.7385472152 2.1539822136 18.9954608723 0 0 0
70 7 11.2870638013 2.2382207273 18.9541707741 0 0 0
75 5 9.908720947 4.3054275401 19.0335874063 0 0 0
94 7 8.7140507513 0.7135233683 21.2362014867 0 0 0
95 7 11.3045523296 0.6704651065 21.199536471 0 0 0
100 6 10.0309211856 2.7845552589 21.0550342549 0 0 0
72 7 2.4838430183 4.388962084 19.1070457725 0 0 0
76 7 1.200144222 6.4346976141 19.2600213636 0 0 0
77 7 3.7839563224 6.5073099035 19.1651823211 0 0 0
82 6 2.3588605673 8.4890673053 18.9154467805 0 0 0
101 7 1.204403147 4.986371594 21.2593935642 0 0 0
102 6 3.7298053141 5.0424743752 21.2297752978 0 0 0
107 7 2.4685484599 7.1728356576 21.2326094282 0 0 0
73 7 4.9759755061 4.316411451 19.087212733 0 0 0
78 7 6.1965388899 6.5190956683 19.1399785413 0 0 0
103 7 6.2751972116 5.0470676015 21.1760724515 0 0 0
108 7 5.0116983743 7.22861409 21.2268755354 0 0 0
109 7 7.4193353481 7.2485706051 21.2651304498 0 0 0
71 1 12.383629132 4.3782094725 19.1862342201 -1 0 0
79 7 8.6255974932 6.472044202 19.3232968982 0 0 0
80 7 11.1135754549 6.420590323 19.3581641471 0 0 0
81 4 12.342695017999999 8.4729562787 19.2006565517 -1 0 0
104 7 8.7408050898 5.0231569879 21.2437432022 0 0 0
105 3 10.084513891886644 4.372045820797498 22.288403599929243 0 0 0
106 7 12.435294388199999 7.0968971559 21.3158557077 -1 0 0
110 7 9.8903603607 7.1660305315 21.3021949042 0 0 0
61 6 0.0477387397 12.935022616100001 18.9949290075 0 -1 0
62 7 2.587482576 12.8543346047 19.0383469717 0 -1 0
86 7 1.2816847716 10.6903307998 19.1614661098 0 0 0
111 7 1.1796694452 9.2896516501 21.1960342799 0 0 0
112 6 3.7016357908 9.3557762036 21.1431867319 0 0 0
116 1 0.0369839214 11.486698451 21.2977096144 0 0 0
117 7 2.4704264091 11.5284142583 21.1452899236 0 0 0
83 7 4.9462384898 8.7330200409 19.0834474924 0 0 0
84 7 7.3974678157 8.6397297376 19.085743402 0 0 0
88 7 6.1625171869 10.8013148416 18.9301045672 0 0 0
113 7 6.2139769728 9.4092095126 21.0353192467 0 0 0
118 7 4.9639845145 11.5407295129 21.0425881559 0 0 0
119 4 7.3995383715 11.5362046003 21.0747824702 0 0 0
89 6 8.731338748 10.8500854071 19.0384744744 0 0 0
90 4 11.272219843 10.8209844576 18.9386324767 0 0 0
114 7 8.6997099562 9.3160354633 20.9928929717 0 0 0
115 6 11.109001975 9.2519683408 21.1755872983 0 0 0
120 7 9.9858618188 11.5164614705 21.1821863062 0 0 0
121 7 0.07751387392310986 1.3734104797941304 23.31384268739832 0 0 0
122 7 2.5688210915439162 1.385156870585313 23.333732425984717 0 0 0
126 6 1.3485344167896651 3.5679348617366555 23.269558134818894 0 0 0
127 7 3.8440044002969325 3.5717532867808077 23.365453222252928 0 0 0
156 1 1.4732477515079225 2.1115666048724173 25.519621903631965 0 0 0
157 7 3.9594044309293452 2.1182706290032516 25.448253168005664 0 0 0
162 7 2.5920186763020023 4.24375350566682 25.431804311158917 0 0 0
123 7 4.985646414497048 1.4104085518211404 23.16602287685969 0 0 0
124 7 7.387216414299538 1.4817867214162344 23.489126565007247 0 0 0
128 7 6.296856928159 3.6456668037036293 23.18712471361557 0 0 0
153 7 5.18994159825267 0.052866902265103315 25.296719928568134 0 0 0
158 2 5.768678143633071 2.4388946214386342 24.63218693818508 0 0 0
163 7 5.111409138667782 4.225291012541232 25.42483526215733 0 0 0
164 5 7.470741079181053 4.0437972013047 25.363379170712104 0 0 0
125 7 10.036557810583883 1.4080091711270653 23.358492121442712 0 0 0
129 7 8.744569898397057 3.5267109264411407 23.350956167654434 0 0 0
130 4 11.36027840517605 3.59661905432677 23.40599164452062 0 0 0
155 4 10.112435869560306 0.042636832752877836 25.561959410188038 0 0 0
159 7 8.86232076916464 2.079456095143186 25.450815090314588 0 0 0
160 7 11.394185931500571 2.134413847930716 25.425012106073595 0 0 0
165 7 10.05875068246417 4.197075083140184 25.4153903462878 0 0 0
131 7 0.06386057322859172 5.750524234210459 23.407494228078907 0 0 0
132 7 2.535301896996978 5.778663924854886 23.364007144636393 0 0 0
136 7 1.2954777668644968 7.892215688645965 23.30878549605922 0 0 0
137 7 3.76908612752992 7.959978904172816 23.281934594918894 0 0 0
161 4 0.10207027891260914 4.319105363973276 25.47272435073407 0 0 0
166 7 1.3301126551791012 6.393116102872384 25.434321433315436 0 0 0
167 7 3.8003090933337913 6.417165126345538 25.446502603467955 0 0 0
171 6 0.1016524588388792 8.592075105472393 25.434779002734675 0 0 0
172 7 2.6144921682851745 8.587021806156367 25.37987219646875 0 0 0
133 6 5.057618273245245 5.838073204280282 23.39103763817413 0 0 0
134 7 7.552025273540004 5.757357000632758 23.318415670126235 0 0 0
138 7 6.302585810893472 7.975517819416619 23.344900581774468 0 0 0
168 7 6.357750905779762 6.374572644244892 25.436522856346162 0 0 0
173 7 5.096391689687554 8.532810757978517 25.336051551866273 0 0 0
135 7 10.05707534799747 5.803698350822221 23.391651702149826 0 0 0
139 4 8.686467536625793 7.920788955117174 23.24833133295878 0 0 0
140 4 11.274565975757165 7.868190479502796 23.322082733220462 0 0 0
169 7 8.768503606786739 6.309654066818461 25.386978467858626 0 0 0
170 7 11.28184443616027 6.385906965715763 25.452622349481402 0 0 0
175 6 9.877720829206021 8.545557846576058 25.528075199102886 0 0 0
141 7 0.01213597445615465 10.045521537750023 23.348345009972423 0 0 0
142 7 2.487875224059906 10.08398822210776 23.258861234893402 0 0 0
146 7 1.2942872154306184 12.212934329772938 23.355060346152374 0 0 0
147 7 3.798326571233756 12.222199524956215 23.18426383397935 0 0 0
151 4 0.084488982297039 12.85273993249822 25.420377462686766 0 -1 0
152 7 2.6467992455296585 12.922066981672465 25.378583649739742 0 -1 0
176 7 1.3341682401999386 10.776900372253973 25.437035842959006 0 0 0
177 6 3.8709899342921066 10.794582096548098 25.277978485729662 0 0 0
143 7 5.046582180947881 10.08346030711641 23.18539672036484 0 0 0
144 7 7.497185182253136 10.067378114324748 22.923829335372872 0 0 0
148 4 6.204417930983719 12.248618657175914 23.189335636596834 0 0 0
154 7 7.592677197328986 12.921609966759888 25.478052546462347 0 -1 0
178 6 6.60911354307347 10.521144660168213 25.224210327674086 0 0 0
145 7 9.987778102797568 10.052366962043891 23.319949369168082 0 0 0
149 6 8.699877545947974 12.25060238565111 23.3338734445263 0 0 0
150 7 11.238996207166743 12.19577312221587 23.410424967572116 0 0 0
174 3 8.405657276443968 9.487462048438037 24.42786553933902 0 0 0
179 5 8.99036039947091 10.901161839199318 25.587003236223637 0 0 0
180 5 11.328166315476928 10.844926878657917 25.51243963893252 0 0 0
181 7 1.3836885587272645 0.6428751924309631 27.50293386886945 0 0 0
182 7 3.8700774924632264 0.681251846371842 27.44186901091641 0 0 0
186 7 0.16543438320419407 2.83538216580717 27.49981865745583 0 0 0
187 7 2.6541222575780044 2.8306182902316093 27.5737687550535 0 0 0
211 7 0.20450711497679908 1.4220825719288266 29.598444628321616 0 0 0
212 7 2.7060590795560024 1.3378621352418547 29.588652944562998 0 0 0
216 7 1.4052656083978334 3.5314529913950694 29.597759434821867 0 0 0
217 4 3.8189775737558 3.550390855853096 29.606617850267508 0 0 0
183 7 6.303094344367389 0.6944883691411433 27.576680414046017 0 0 0
188 7 5.077057359907938 2.852603018738634 27.582871633173145 0 0 0
189 7 7.58887132199842 2.77229109393759 27.46884568381601 0 0 0
213 5 5.128717850854793 1.4053442696212255 29.608446748362745 0 0 0
214 7 7.606612077526906 1.3343184174921794 29.599133425970702 0 0 0
218 7 6.3582421505955145 3.51581421716911 29.55111593388979 0 0 0
184 7 8.87952112874173 0.6980485542634023 27.573692807387307 0 0 0
185 4 11.378110933476481 0.7004600060348631 27.548094857578608 0 0 0
190 7 10.13909592261765 2.810110050979113 27.49695942202626 0 0 0
215 7 10.118649283817646 1.3820601118078955 29.639436914992523 0 0 0
219 7 8.833613972184777 3.4910278324030766 29.537241331975824 0 0 0
220 7 11.363925985525377 3.536966837984778 29.529682810943733 0 0 0
191 7 1.3849528976371448 4.98383640468841 27.479196565993256 0 0 0
192 7 3.827318101589473 4.968031718708087 27.48834348823304 0 0 0
196 7 0.13018066170007017 7.135147071692868 27.50616517419431 0 0 0
197 7 2.572350670951912 7.1710081958654035 27.48119207717766 0 0 0
221 7 0.11453809159563254 5.703996761665651 29.57975947857408 0 0 0
222 7 2.5848568340301106 5.705483497985206 29.5574648255584 0 0 0
226 7 1.3574379568947366 7.881472670233027 29.55969278266176 0 0 0
227 7 3.853727806474218 7.891774116085558 29.47327167957227 0 0 0
193 7 6.363809326850206 4.954372552782873 27.4195755321597 0 0 0
198 7 5.095977106081053 7.152039551950968 27.416603413837965 0 0 0
199 7 7.615845409602132 7.167651289791265 27.45303556620957 0 0 0
223 6 5.146713734605388 5.699098788274065 29.495697840568948 0 0 0
224 7 7.638982167333836 5.717308913749931 29.586554199890614 0 0 0
228 7 6.388053679622653 7.891641520043649 29.4948698650717 0 0 0
194 6 8.8422228156979 4.975366031867271 27.499213771250666 0 0 0
195 7 11.355032174951793 4.971835124634826 27.515386802686784 0 0 0
200 7 10.118509792905991 7.135818462390461 27.54743656520335 0 0 0
225 7 10.096857867348144 5.719021729690931 29.612955541398122 0 0 0
229 7 8.841755625930018 7.861958775667141 29.53164787107677 0 0 0
230 7 11.363537790395984 7.909037250869534 29.534649232786855 0 0 0
201 5 1.372481292787008 9.30378488686593 27.522351822159067 0 0 0
202 7 3.865211086765219 9.299749280053193 27.380651047397045 0 0 0
206 4 0.1816728251493919 11.455307070000805 27.53448725537023 0 0 0
207 7 2.6050674617243255 11.43601200164972 27.445414524643617 0 0 0
231 7 0.15871533637062443 10.057465437768675 29.5802351757998 0 0 0
232 7 2.626543676887328 10.005207579285218 29.43459204081674 0 0 0
236 7 1.4674334268008749 12.160860570723882 29.56528320161909 0 0 0
203 7 6.368419292473053 9.264930640247798 27.3924210753913 0 0 0
208 7 5.131650924742277 11.479734618034612 27.324537803586193 0 0 0
209 6 7.575922484062579 11.504581917935218 27.64417083698709 0 0 0
233 7 5.141956544662789 10.035137617122873 29.327260599529644 0 0 0
234 7 7.594374640164056 10.067410827706075 29.666665964357314 0 0 0
238 7 6.205128504294368 12.216824745054561 29.684897689316973 0 0 0
204 7 8.83314559894555 9.347968066817513 27.629714272441515 0 0 0
205 7 11.339509440552035 9.394583664597695 27.555968550524014 0 0 0
210 7 10.145279877835387 11.532952580042789 27.592758529159877 0 0 0
235 7 10.079184815558394 10.159124157552023 29.609833945695716 0 0 0
239 4 8.872064482008062 12.234521967711947 29.73910600897436 0 0 0
240 7 11.390291807903909 12.245785317490736 29.572466101557694 0 0 0
237 3 4.028256912356904 0.2751650363176341 30.56290817036926 0 1 0
241 7 0.1954010067752811 0.08163514423860112 31.645290769071035 0 0 0
242 7 2.5630871658735184 0.12532066629968608 31.74925609215976 0 0 0
246 4 1.337851250627148 2.224534870695916 31.675751155335842 0 0 0
247 7 3.8744502204000293 2.1357228305739393 31.650933212883096 0 0 0
251 7 0.14149151567992113 4.308688030465829 31.65863341928384 0 0 0
252 7 2.627565165922636 4.303427634222488 31.67532864422715 0 0 0
248 7 6.400036622808242 2.13536672520038 31.653870442339613 0 0 0
253 7 5.106302010635646 4.2961227917578215 31.630178898263168 0 0 0
254 7 7.616353079759457 4.298642845808926 31.598550867900798 0 0 0
249 7 8.84429694808638 2.088393318744574 31.689454935679315 0 0 0
250 7 11.37764728586432 2.122713884227997 31.666440150272255 0 0 0
255 1 10.100705233904957 4.205675014818051 31.512291282052345 0 0 0
256 7 1.3235783713948788 6.487752600916575 31.64005736693629 0 0 0
257 6 3.784835390338989 6.48766020940723 31.666384471022965 0 0 0
286 7 0.09530154549998687 7.265192204213542 33.633686002893704 0 0 0
258 7 6.346087650488666 6.4803525930463275 31.624572790533946 0 0 0
264 7 7.584331343392401 8.56389127774364 31.623157856554737 0 0 0
259 4 8.81720612025896 6.447534065187874 31.632655000244082 0 0 0
260 7 11.31076443759992 6.475421227820276 31.603170490162327 0 0 0
284 5 8.882233680603052 5.104318754620897 33.589421360410434 0 0 0
285 4 11.345371415215023 5.142180083778884 33.64784588670847 0 0 0
290 7 10.081226695753395 7.245396234869042 33.602049114647116 0 0 0
261 7 0.17221917374814583 8.696348709938102 31.666077605217254 0 0 0
262 7 2.6568379171498706 8.706415839011095 31.537090946607943 0 0 0
266 7 1.5560478858471707 10.818402520348108 31.585212804983726 0 0 0
267 4 3.9110629776645056 11.261182428723304 30.858604568250033 0 0 0
292 7 3.9558720383543946 9.36332008688117 33.5031199388049 0 0 0
243 7 5.1586225573887265 12.887341939866987 32.109916471228026 0 -1 0
244 7 7.618730470526046 12.924132756187793 31.71830915932019 0 -1 0
263 1 5.087718582002436 8.747289278828767 31.420954278608775 0 0 0
268 7 6.253220918985266 10.748519576793983 31.581785189411796 0 0 0
293 4 6.44809820985304 9.306500829620893 33.64690546221698 0 0 0
245 7 10.103261938270014 12.871007684545404 31.879686677415428 0 -1 0
265 6 10.097446002097046 8.66953868176543 31.552038142077397 0 0 0
269 7 8.765338992064324 10.786612228190341 31.753661268793092 0 0 0
270 7 11.421315584272019 10.892376882784413 31.628390001371073 0 0 0
296 3 11.066461049500987 11.821373801627935 33.344586905558586 -1 0 0
271 7 1.4718029722999404 0.889098299020451 33.78691802175887 0 0 0
272 7 3.9139710095739564 0.9433380089370323 33.935742230099585 0 0 0
276 7 0.17116198167122196 2.9805845375362656 33.745016629897094 0 0 0
277 7 2.6383265212851175 3.064377159673796 33.805917940503136 0 0 0
301 7 0.1855786381280695 1.5410759874364406 35.76576286217903 0 0 0
302 7 2.614554310609744 1.6534665408477347 35.87407473045422 0 0 0
306 4 1.4084238713801398 3.8214483682647855 35.957907359566974 0 0 0
307 7 3.987533880271563 3.726121226277045 35.84273710937325 0 0 0
273 7 6.454543069080848 0.9637050779384518 33.90868542833164 0 0 0
278 1 5.208475408915521 2.984783491931423 33.72949238414493 0 0 0
279 7 7.721075959792058 3.0305847581296153 33.73757880584125 0 0 0
303 7 5.2348885499355715 1.6519593749504369 35.95105839691143 0 0 0
304 4 7.7536973758398995 1.626493337724326 35.92890540414115 0 0 0
308 7 6.518051030429239 3.6964312731388738 35.80682574901567 0 0 0
274 7 8.830047329901406 0.8864215506884296 33.84926357487944 0 0 0
275 4 11.43667391944034 0.7881738980645812 33.72232448135804 0 0 0
280 7 10.197116125611593 2.983735669076657 33.71404148951594 0 0 0
305 7 10.219358727170098 1.5569359999643972 35.73079775692272 0 0 0
309 7 9.011236457186225 3.665206747341332 35.784461606987655 0 0 0
310 4 11.578726817969606 3.930402328575997 35.867039520465596 0 0 0
281 7 1.3220215856911763 5.166669913254725 33.852930952116445 0 0 0
282 4 3.841057052839499 5.124771689876283 33.77465683199575 0 0 0
287 7 2.6285430512813615 7.278669811773845 33.75090996011097 0 0 0
312 7 2.7094225368911715 5.781918030408039 35.78577732529861 0 0 0
316 7 1.2208005820640073 7.612994869001922 35.79932717392717 0 0 0
317 7 3.9123362432033892 8.047042155422005 35.731180492875716 0 0 0
283 7 6.37260541707423 5.088131695299911 33.67377241912835 0 0 0
288 7 5.179584793576396 7.259091812350413 33.66576416219512 0 0 0
289 7 7.629366633419383 7.171408333756944 33.71317300124704 0 0 0
313 7 5.251762216704076 5.909848473484873 35.717442411557045 0 0 0
314 7 7.712491881818366 5.810091471503303 35.744136362067984 0 0 0
318 4 6.549691136512437 8.107565612764834 35.79496072811996 0 0 0
311 2 12.393982245192111 5.986233196636847 35.3320678280423 -1 0 0
315 7 10.12728695287306 5.80079089451482 35.58786513146161 0 0 0
319 7 8.95151674197211 7.967522122145471 35.82782720789484 0 0 0
320 7 11.351821849219245 7.923765821916101 35.59229879274514 0 0 0
350 7 11.676063911884128 6.2688587737924415 37.29974424072623 0 0 0
355 3 10.440987025757734 7.8876386087861645 37.27471778814995 0 0 0
291 7 1.4607629054965223 9.412024012397698 33.75499743023554 0 0 0
297 6 3.0154935542497747 11.560591355930901 33.67998850245796 0 0 0
321 6 0.2044031215450376 10.072502618647091 35.93578338430236 0 0 0
322 7 2.692704489662063 10.181109346125575 35.782011914225095 0 0 0
326 7 0.500099318518326 11.642404307464933 33.69372365913151 0 0 0
327 6 3.917040789270192 12.48280839660341 36.12313774526153 0 0 0
356 4 1.3903430221194055 12.345480000154714 35.87334755192141 0 0 0
298 2 5.191416111388919 12.275500645800605 34.2165429485829 0 0 0
299 7 6.978702968638013 11.567015092055891 33.682899506923896 0 0 0
323 6 5.225310528721578 10.21966619012038 35.57457198000824 0 0 0
324 7 7.897453061892044 10.345443366784155 35.71270076737717 0 0 0
328 7 6.465650090905938 12.509068395571543 35.91664984310462 0 0 0
294 7 8.764550142868645 9.272164237245011 33.700335437039676 0 0 0
295 6 11.264942483778738 9.685778798256031 33.77367213411116 0 0 0
300 7 9.365979225306104 11.530063571315877 34.16342514176133 0 0 0
325 7 10.242983838211801 9.831024520779572 37.02715234524497 0 0 0
329 3 9.510820975863925 11.392793370717348 36.20419381503419 0 0 0
330 4 11.236698557816185 12.064590929347439 35.570796551761255 0 0 0
335 5 9.888253747071534 12.905600740550797 37.387874033995146 0 -1 0
332 7 2.4769088359307565 0.1573297165670756 38.032636636665245 0 0 0
336 7 1.3151921971964715 2.2010655503138277 37.838285085669625 0 0 0
337 7 3.876698691659512 2.2110662420038536 37.8769124486876 0 0 0
341 7 0.19571103584948077 4.253039878804501 38.07596498437483 0 0 0
342 7 2.700413266619606 4.295999649557324 37.92876871340674 0 0 0
333 7 5.196372556727322 0.16131016231731896 38.13653581315576 0 0 0
334 7 7.637209232488672 0.06892332022469022 38.01291036719199 0 0 0
338 7 6.5194279240438995 2.2625871082404125 37.90923937379803 0 0 0
339 7 8.979347581805126 2.189985922710657 37.86111092178555 0 0 0
340 7 11.355717158930345 2.1902229454371445 37.73342553780661 0 0 0
346 7 1.5010084130835424 6.404055892701935 38.00667756631612 0 0 0
347 6 3.9502252003571767 6.475923784874075 37.762173447353995 0 0 0
343 7 5.295084212990852 4.431660581587553 37.84171282733778 0 0 0
344 7 7.821382615236855 4.441004968754515 37.85094874029155 0 0 0
348 6 6.646492503726497 6.664590846725241 37.81252931566839 0 0 0
345 4 10.20979144450356 4.336540917511633 37.815078257936186 0 0 0
349 7 9.230322134928228 6.627395113701075 37.86868683847993 0 0 0
351 7 12.23953852412024 8.552753745273765 37.83976245074742 -1 0 0
352 6 2.4818525640794893 8.64286871802904 37.71509304884776 0 0 0
357 7 3.8421063784557368 10.833890095775436 38.0418714022102 0 0 0
360 7 1.3781970703499746 10.944638114493111 37.96059885825181 1 0 0
361 8 2.4235676355203273 10.013133269125948 39.00612173772362 0 0 0
353 7 5.121324498691833 8.695497773582513 37.80705478585811 0 0 0
354 7 7.930367618304371 8.956201787145181 37.81529773392721 0 0 0
358 6 6.392138921742446 10.861189493769276 37.79445051102343 0 0 0
331 7 12.373440360534744 12.879095014511718 37.63277667599374 -1 -1 0
359 2 8.578829472368279 11.164356066629002 37.42597676650564 0 0 0

Velocities

1 0 0 0
2 0 0 0
3 0 0 0
9 0 0 0
5 0 0 0
6 0 0 0
10 0 0 0
16 0 0 0
20 0 0 0
26 0 0 0
27 0 0 0
23 0 0 0
28 0 0 0
29 0 0 0
24 0 0 0
25 0 0 0
30 0 0 0
7 0 0 0
31 0 0 0
32 0 0 0
36 0 0 0
37 0 0 0
56 0 0 0
8 0 0 0
33 0 0 0
34 0 0 0
38 0 0 0
4 0 0 0
35 0 0 0
39 0 0 0
40 0 0 0
11 0 0 0
12 0 0 0
17 0 0 0
42 0 0 0
47 0 0 0
13 0 0 0
18 0 0 0
19 0 0 0
43 0 0 0
44 0 0 0
48 0 0 0
14 0 0 0
15 0 0 0
41 0 0 0
45 0 0 0
49 0 0 0
50 0 0 0
85 0 0 0
21 0 0 0
22 0 0 0
46 0 0 0
52 0 0 0
57 0 0 0
87 0 0 0
53 0 0 0
54 0 0 0
58 0 0 0
51 0 0 0
55 0 0 0
59 0 0 0
60 0 0 0
66 0 0 0
67 0 0 0
91 0 0 0
92 0 0 0
96 0 0 0
97 0 0 0
63 0 0 0
64 0 0 0
68 0 0 0
74 0 0 0
93 0 0 0
98 0 0 0
99 0 0 0
65 0 0 0
69 0 0 0
70 0 0 0
75 0 0 0
94 0 0 0
95 0 0 0
100 0 0 0
72 0 0 0
76 0 0 0
77 0 0 0
82 0 0 0
101 0 0 0
102 0 0 0
107 0 0 0
73 0 0 0
78 0 0 0
103 0 0 0
108 0 0 0
109 0 0 0
71 0 0 0
79 0 0 0
80 0 0 0
81 0 0 0
104 0 0 0
105 0 0 0
106 0 0 0
110 0 0 0
61 0 0 0
62 0 0 0
86 0 0 0
111 0 0 0
112 0 0 0
116 0 0 0
117 0 0 0
83 0 0 0
84 0 0 0
88 0 0 0
113 0 0 0
118 0 0 0
119 0 0 0
89 0 0 0
90 0 0 0
114 0 0 0
115 0 0 0
120 0 0 0
121 0 0 0
122 0 0 0
126 0 0 0
127 0 0 0
156 0 0 0
157 0 0 0
162 0 0 0
123 0 0 0
124 0 0 0
128 0 0 0
153 0 0 0
158 0 0 0
163 0 0 0
164 0 0 0
125 0 0 0
129 0 0 0
130 0 0 0
155 0 0 0
159 0 0 0
160 0 0 0
165 0 0 0
131 0 0 0
132 0 0 0
136 0 0 0
137 0 0 0
161 0 0 0
166 0 0 0
167 0 0 0
171 0 0 0
172 0 0 0
133 0 0 0
134 0 0 0
138 0 0 0
168 0 0 0
173 0 0 0
135 0 0 0
139 0 0 0
140 0 0 0
169 0 0 0
170 0 0 0
175 0 0 0
141 0 0 0
142 0 0 0
146 0 0 0
147 0 0 0
151 0 0 0
152 0 0 0
176 0 0 0
177 0 0 0
143 0 0 0
144 0 0 0
148 0 0 0
154 0 0 0
178 0 0 0
145 0 0 0
149 0 0 0
150 0 0 0
174 0 0 0
179 0 0 0
180 0 0 0
181 0 0 0
182 0 0 0
186 0 0 0
187 0 0 0
211 0 0 0
212 0 0 0
216 0 0 0
217 0 0 0
183 0 0 0
188 0 0 0
189 0 0 0
213 0 0 0
214 0 0 0
218 0 0 0
184 0 0 0
185 0 0 0
190 0 0 0
215 0 0 0
219 0 0 0
220 0 0 0
191 0 0 0
192 0 0 0
196 0 0 0
197 0 0 0
221 0 0 0
222 0 0 0
226 0 0 0
227 0 0 0
193 0 0 0
198 0 0 0
199 0 0 0
223 0 0 0
224 0 0 0
228 0 0 0
194 0 0 0
195 0 0 0
200 0 0 0
225 0 0 0
229 0 0 0
230 0 0 0
201 0 0 0
202 0 0 0
206 0 0 0
207 0 0 0
231 0 0 0
232 0 0 0
236 0 0 0
203 0 0 0
208 0 0 0
209 0 0 0
233 0 0 0
234 0 0 0
238 0 0 0
204 0 0 0
205 0 0 0
210 0 0 0
235 0 0 0
239 0 0 0
240 0 0 0
237 0 0 0
241 0 0 0
242 0 0 0
246 0 0 0
247 0 0 0
251 0 0 0
252 0 0 0
248 0 0 0
253 0 0 0
254 0 0 0
249 0 0 0
250 0 0 0
255 0 0 0
256 0 0 0
257 0 0 0
286 0 0 0
258 0 0 0
264 0 0 0
259 0 0 0
260 0 0 0
284 0 0 0
285 0 0 0
290 0 0 0
261 0 0 0
262 0 0 0
266 0 0 0
267 0 0 0
292 0 0 0
243 0 0 0
244 0 0 0
263 0 0 0
268 0 0 0
293 0 0 0
245 0 0 0
265 0 0 0
269 0 0 0
270 0 0 0
296 0 0 0
271 0 0 0
272 0 0 0
276 0 0 0
277 0 0 0
301 0 0 0
302 0 0 0
306 0 0 0
307 0 0 0
273 0 0 0
278 0 0 0
279 0 0 0
303 0 0 0
304 0 0 0
308 0 0 0
274 0 0 0
275 0 0 0
280 0 0 0
305 0 0 0
309 0 0 0
310 0 0 0
281 0 0 0
282 0 0 0
287 0 0 0
312 0 0 0
316 0 0 0
317 0 0 0
283 0 0 0
288 0 0 0
289 0 0 0
313 0 0 0
314 0 0 0
318 0 0 0
311 0 0 0
315 0 0 0
319 0 0 0
320 0 0 0
350 0 0 0
355 0 0 0
291 0 0 0
297 0 0 0
321 0 0 0
322 0 0 0
326 0 0 0
327 0 0 0
356 0 0 0
298 0 0 0
299 0 0 0
323 0 0 0
324 0 0 0
328 0 0 0
294 0 0 0
295 0 0 0
300 0 0 0
325 0 0 0
329 0 0 0
330 0 0 0
335 0 0 0
332 0 0 0
336 0 0 0
337 0 0 0
341 0 0 0
342 0 0 0
333 0 0 0
334 0 0 0
338 0 0 0
339 0 0 0
340 0 0 0
346 0 0 0
347 0 0 0
343 0 0 0
344 0 0 0
348 0 0 0
345 0 0 0
349 0 0 0
351 0 0 0
352 0 0 0
357 0 0 0
360 0 0 0
361 0 0 0
353 0 0 0
354 0 0 0
358 0 0 0
331 0 0 0
359 0 0 0
