LAMMPS data file via write_data, version 11 Feb 2026, timestep = 150, units = metal

361 atoms
8 atom types

0 12.447907776 xlo xhi
0 12.9362452296 ylo yhi
0 52.3600831054 zlo zhi

Masses

1 26.9815
2 10.811
3 12.011
4 51.9961
5 55.845
6 95.95999999999999
7 58.6934
8 1.008

Atoms # atomic/kk

1 7 1.1447475034 1.4042530815 14.1767669076 0 0 0
2 7 3.6084602259 1.0698845996 14.6704381247 0 0 0
3 5 6.0765506298 0.9467816033 14.9127945674 0 0 0
9 7 7.3904254576 3.1552415677 14.921343358 0 0 0
5 7 11.0497419237 1.2529911546 14.6024861837 0 0 0
6 7 12.371824795299998 3.4559595715 14.8227813157 -1 0 0
10 7 9.9130540797 3.3904065996 14.7812471609 0 0 0
16 4 0.4694173902 7.8125304368 14.7997570607 0 0 0
20 7 10.4454755951 7.6697182118 14.1848688757 0 0 0
26 7 0.1281197666 12.2044764222 14.9105894271 0 0 0
27 7 2.482376412 11.8082341077 14.4640395444 0 0 0
23 7 6.9215809143 9.0056325864 14.7794199109 0 0 0
28 7 4.9597127568 11.7869866321 14.6074736033 0 0 0
29 6 7.487468691 11.492489151 14.9214469503 0 0 0
24 7 9.211267288 9.7383043985 14.542324574 0 0 0
25 7 11.7628351674 9.8745411843 14.7910184475 0 0 0
30 7 10.0617556164 11.945152431 14.7619795889 0 0 0
7 7 2.4276438825 3.274586701 14.9921379853 0 0 0
31 6 0.1320668178 1.5666912763 16.54569988 0 0 0
32 7 2.6047881521 1.6851371804 16.9156842324 0 0 0
36 7 1.2195215325 3.8560608354 17.0299024962 0 0 0
37 7 3.7103479774 3.8371572501 17.0572271382 0 0 0
56 2 1.9139638832 0.320698286899999 15.6094045829 0 1 0
8 7 4.9287232821 3.1271355871 15.0109940309 0 0 0
33 7 4.9854693445 1.6648399647 16.9552168616 0 0 0
34 7 7.410113639 1.7690174525 16.9802513671 0 0 0
38 5 6.1786870847 3.8598965293 16.9892925392 0 0 0
4 6 8.6405916037 0.9966073374 15.0011028893 0 0 0
35 7 9.9854439602 1.6623584179 16.9441720819 0 0 0
39 7 8.7306918901 3.8627101762 16.8623801969 0 0 0
40 7 11.1905275305 3.8067890199 17.0006893521 0 0 0
11 7 1.2348702966 5.4950064056 15.0806985502 0 0 0
12 7 3.723333195 5.3162088046 15.091556138 0 0 0
17 7 2.6528824888 7.4951525199 15.1538371669 0 0 0
42 7 2.4538170063 6.1274901805 17.1415379148 0 0 0
47 7 3.8866203033 8.1976953877 17.0635533141 0 0 0
13 7 6.1787690715 5.3054540189 15.034535629 0 0 0
18 7 5.0798141029 7.4787706901 15.0688046453 0 0 0
19 2 7.0597951203 7.0189274967 15.3897174295 0 0 0
43 7 4.9526824561 5.9628190941 17.0949149841 0 0 0
44 7 7.4770692341 5.9405064365 17.0881545432 0 0 0
48 7 6.3467693742 8.0549577382 17.0498728177 0 0 0
14 7 8.7041968087 5.6586120419 14.9658205562 0 0 0
15 6 11.1806031706 5.6044565055 15.1850152514 0 0 0
41 7 12.442168210099998 5.9982391836 17.2267436521 -1 0 0
45 7 9.923455112 6.0385351278 17.2532666192 0 0 0
49 7 8.7166078523 7.9219477302 16.0697967416 0 0 0
50 7 11.1854260308 7.9909608595 16.4539207548 0 0 0
85 6 9.7874825474 8.473382021 18.5408467256 0 0 0
21 2 1.1654244367 10.4783622607 15.2130316912 0 0 0
22 7 2.969847795 9.8650340587 15.6453950804 0 0 0
46 7 0.7946061559 9.3672820405 16.8749701293 0 0 0
52 7 1.3503573598 11.8646523864 16.9891542204 0 0 0
57 7 3.753873893 12.4366743176 16.6098759546 0 0 0
87 1 3.6650451701 10.7156807278 18.2659007397 0 0 0
53 7 5.3358928559 10.1219872041 16.3275402765 0 0 0
54 7 7.7336051436 10.0538114804 16.9470367537 0 0 0
58 6 6.3195663174 12.3667352783 16.9550847684 0 0 0
51 3 11.519673145099999 9.370279149 17.6624171524 -1 0 0
55 7 10.1852587848 10.2759719364 16.6816821896 0 0 0
59 7 8.8367077706 12.3810361477 16.9622360876 0 0 0
60 7 11.2428990064 12.4670428062 16.882988677 0 0 0
66 6 1.393007034 2.1659191631 19.0534804658 0 0 0
67 5 3.8310712323 2.169749835 19.077551421 0 0 0
91 4 1.3610097719 0.7490016766 21.3001474804 0 0 0
92 7 3.7532698079 0.7243006354 21.0553737996 0 0 0
96 7 0.082079932 2.7970216106 21.1874527472 0 0 0
97 7 2.5927240934 2.8497939446 21.1992924965 0 0 0
63 5 4.9567742477 0.0529982254 18.9618634931 0 0 0
64 7 7.4416746235 0.0821708056 19.1014191477 0 0 0
68 7 6.1949360288 2.1588642027 19.0801897325 0 0 0
74 6 7.5018096017 4.2853629911 19.0547359126 0 0 0
93 7 6.2598414465 0.7194660822 21.17367312 0 0 0
98 7 5.0257186556 2.8737258399 21.1536837203 0 0 0
99 5 7.4793105556 2.8150634673 21.1692986238 0 0 0
65 7 10.0018085899 0.0802466939 19.0961651875 0 0 0
69 7 8.7385472152 2.1539822136 18.9954608723 0 0 0
70 7 11.2870638013 2.2382207273 18.9541707741 0 0 0
75 5 9.908720947 4.3054275401 19.0335874063 0 0 0
94 7 8.7140507513 0.7135233683 21.2362014867 0 0 0
95 7 11.3045523296 0.6704651065 21.199536471 0 0 0
100 6 10.0309211856 2.7845552589 21.0550342549 0 0 0
72 7 2.4838430183 4.388962084 19.1070457725 0 0 0
76 7 1.200144222 6.4346976141 19.2600213636 0 0 0
77 7 3.7839563224 6.5073099035 19.1651823211 0 0 0
82 6 2.3588605673 8.4890673053 18.9154467805 0 0 0
101 7 1.204403147 4.986371594 21.2593935642 0 0 0
102 6 3.7298053141 5.0424743752 21.2297752978 0 0 0
107 7 2.4685484599 7.1728356576 21.2326094282 0 0 0
73 7 4.9759755061 4.316411451 19.087212733 0 0 0
78 7 6.1965388899 6.5190956683 19.1399785413 0 0 0
103 7 6.2751972116 5.0470676015 21.1760724515 0 0 0
108 7 5.0116983743 7.22861409 21.2268755354 0 0 0
109 7 7.4193353481 7.2485706051 21.2651304498 0 0 0
71 1 12.383629132 4.3782094725 19.1862342201 -1 0 0
79 7 8.6255974932 6.472044202 19.3232968982 0 0 0
80 7 11.1135754549 6.420590323 19.3581641471 0 0 0
81 4 12.342695017999999 8.4729562787 19.2006565517 -1 0 0
104 7 8.7408050898 5.0231569879 21.2437432022 0 0 0
105 3 10.084319486144787 4.37222361932783 22.288473806543145 0 0 0
106 7 12.435294388199999 7.0968971559 21.3158557077 -1 0 0
110 7 9.8903603607 7.1660305315 21.3021949042 0 0 0
61 6 0.0477387397 12.935022616100001 18.9949290075 0 -1 0
62 7 2.587482576 12.8543346047 19.0383469717 0 -1 0
86 7 1.2816847716 10.6903307998 19.1614661098 0 0 0
111 7 1.1796694452 9.2896516501 21.1960342799 0 0 0
112 6 3.7016357908 9.3557762036 21.1431867319 0 0 0
116 1 0.0369839214 11.486698451 21.2977096144 0 0 0
117 7 2.4704264091 11.5284142583 21.1452899236 0 0 0
83 7 4.9462384898 8.7330200409 19.0834474924 0 0 0
84 7 7.3974678157 8.6397297376 19.085743402 0 0 0
88 7 6.1625171869 10.8013148416 18.9301045672 0 0 0
113 7 6.2139769728 9.4092095126 21.0353192467 0 0 0
118 7 4.9639845145 11.5407295129 21.0425881559 0 0 0
119 4 7.3995383715 11.5362046003 21.0747824702 0 0 0
89 6 8.731338748 10.8500854071 19.0384744744 0 0 0
90 4 11.272219843 10.8209844576 18.9386324767 0 0 0
114 7 8.6997099562 9.3160354633 20.9928929717 0 0 0
115 6 11.109001975 9.2519683408 21.1755872983 0 0 0
120 7 9.9858618188 11.5164614705 21.1821863062 0 0 0
121 7 0.07766217872901651 1.3733933803781295 23.31330103234586 0 0 0
122 7 2.568991459722839 1.3849279492286057 23.333132047703728 0 0 0
126 6 1.348609756478859 3.568121253517695 23.269217241913758 0 0 0
127 7 3.84403993542458 3.571633786130407 23.365287423705325 0 0 0
156 1 1.4729648529716384 2.111104853105802 25.51772942014158 0 0 0
157 7 3.959264018887327 2.1172982089891628 25.447275425153975 0 0 0
162 7 2.5918722751570287 4.243491360398682 25.431608872629013 0 0 0
123 7 4.985820962797951 1.4100207835713627 23.16637499141137 0 0 0
124 7 7.387120953524753 1.4815390415567096 23.489480601077695 0 0 0
128 7 6.296752245105433 3.6455169688336237 23.1869890556217 0 0 0
153 7 5.189776774314024 0.051290922217495566 25.29752881704539 0 0 0
158 2 5.768830409176263 2.4390479212060097 24.63238214394564 0 0 0
163 7 5.110934440957732 4.224875285048313 25.42495239070213 0 0 0
164 5 7.470262752157232 4.0430802605004885 25.363374620618025 0 0 0
125 7 10.036570954579146 1.4079692008350262 23.357896133869172 0 0 0
129 7 8.744419715820257 3.5265883147384023 23.350816677817793 0 0 0
130 4 11.360333030614067 3.596898601031991 23.405620108000374 0 0 0
155 4 10.112159394548716 0.04193505083047898 25.560940233349182 0 0 0
159 7 8.862080590868313 2.078645433690004 25.450076019756178 0 0 0
160 7 11.39371557658017 2.1343047437214913 25.423384434017375 0 0 0
165 7 10.05823367983107 4.197178358454011 25.41509693042782 0 0 0
131 7 0.06396818629155643 5.75089392275929 23.407587829584678 0 0 0
132 7 2.535464895968322 5.778734092302479 23.364215571725058 0 0 0
136 7 1.295805407168542 7.892289738433973 23.30876749021802 0 0 0
137 7 3.769309772163498 7.9598341835398205 23.28227322166573 0 0 0
161 4 0.10186745842209746 4.319252786112795 25.472154729068286 0 0 0
166 7 1.3303618742391086 6.393250350150684 25.43470215600684 0 0 0
167 7 3.8003377648688015 6.4167467288645526 25.447415209837462 0 0 0
171 6 0.10209630159935756 8.592030209184944 25.434292707770442 0 0 0
172 7 2.6150233557750826 8.586615292001053 25.38066302869131 0 0 0
133 6 5.057678980730733 5.838027482989875 23.391564569836593 0 0 0
134 7 7.551873587603547 5.757175410418971 23.318912430120495 0 0 0
138 7 6.302723668525958 7.975315265820741 23.345574338499468 0 0 0
168 7 6.3574618446992 6.3737255025246675 25.437987379044774 0 0 0
173 7 5.096626933018235 8.5316735334441 25.33723101029831 0 0 0
135 7 10.05688221572764 5.803801887730003 23.392010332625354 0 0 0
139 4 8.686348604365897 7.920435490667108 23.248189669035817 0 0 0
140 4 11.274576436019391 7.868244554987075 23.32192086557038 0 0 0
169 7 8.767966916859312 6.309749369363841 25.387833883098562 0 0 0
170 7 11.281877526121663 6.386177971356979 25.452790136769416 0 0 0
175 6 9.877933855803478 8.545228921893706 25.527879112294578 0 0 0
141 7 0.012112952522751618 10.045437480002501 23.347918521488086 0 0 0
142 7 2.4882133046821244 10.083817179978265 23.259025376418727 0 0 0
146 7 1.2943582825150834 12.212723573065094 23.35449344434456 0 0 0
147 7 3.798475948430548 12.221692527558169 23.18452460403417 0 0 0
151 4 0.08436039370976524 12.852361100494008 25.418947396233285 0 -1 0
152 7 2.646812808842179 12.921217990287927 25.377673373034007 0 -1 0
176 7 1.3343793613507424 10.776491700739326 25.436176386246146 0 0 0
177 6 3.8715634500675953 10.79368259866539 25.278855978485804 0 0 0
143 7 5.0467421433159 10.083079421417276 23.185740785030674 0 0 0
144 7 7.497055741648805 10.067443578863786 22.92423109677293 0 0 0
148 4 6.204332414673204 12.248246943302734 23.18985618572395 0 0 0
154 7 7.592356354097142 12.920262647005499 25.47858882809994 0 -1 0
178 6 6.608778361974028 10.519723050296504 25.22558966543665 0 0 0
145 7 9.987371742824294 10.05213773078233 23.319854467954755 0 0 0
149 6 8.699725293048758 12.250600686235261 23.33393320296652 0 0 0
150 7 11.238818783784565 12.195664540674157 23.409465366163136 0 0 0
174 3 8.405073304049731 9.486323116602229 24.428081089754254 0 0 0
179 5 8.989803136232126 10.900278754078812 25.586800358132063 0 0 0
180 5 11.327910869917982 10.844496940844307 25.51072585142951 0 0 0
181 7 1.383847336557056 0.6423869123213716 27.500238003525123 0 0 0
182 7 3.870088002505412 0.6799181549767103 27.440980255819433 0 0 0
186 7 0.16506938585028594 2.83561208139152 27.49695213076505 0 0 0
187 7 2.653954396817589 2.8297057870739777 27.571850066586737 0 0 0
211 7 0.2043102005305039 1.4226657759705594 29.59268179601797 0 0 0
212 7 2.705843109580424 1.337243647352317 29.5873743027119 0 0 0
216 7 1.4047904544230618 3.532329927372438 29.59383002275285 0 0 0
217 4 3.818242594167854 3.549148685322787 29.60475350947572 0 0 0
183 7 6.303101429197874 0.6918342027973533 27.577276035402672 0 0 0
188 7 5.076738049447894 2.8508490076039594 27.581299172692365 0 0 0
189 7 7.588176441389638 2.7703704135368494 27.46784157185824 0 0 0
213 5 5.129831880474581 1.4040980644724987 29.60621741521938 0 0 0
214 7 7.606928034658885 1.3314487437003921 29.599423579464847 0 0 0
218 7 6.357554673209345 3.513261148887235 29.550089856990866 0 0 0
184 7 8.879194333921122 0.696563963584979 27.572913806655425 0 0 0
185 4 11.377578321966979 0.6998551765121609 27.544915516897095 0 0 0
190 7 10.138680382635062 2.8094755375296017 27.495166610858764 0 0 0
215 7 10.119040258163134 1.3813352738672615 29.63668288406421 0 0 0
219 7 8.8324875564924 3.4889705109319897 29.535173256039105 0 0 0
220 7 11.363333455621945 3.537356261527799 29.52669422207736 0 0 0
191 7 1.3849919637488965 4.984246466003918 27.47877867194161 0 0 0
192 7 3.8271603185028784 4.967264748279105 27.48891651825966 0 0 0
196 7 0.13066403684644365 7.135799089020654 27.50633543654236 0 0 0
197 7 2.5731344857510523 7.170852868313827 27.483264462077514 0 0 0
221 7 0.114409991184191 5.705222459971906 29.57896806858672 0 0 0
222 7 2.5852238199239896 5.705854896613228 29.558645675496514 0 0 0
226 7 1.3593464965432054 7.881643216839341 29.562176034874703 0 0 0
227 7 3.8548565192245747 7.891217367882754 29.47817586434368 0 0 0
193 7 6.363108452061669 4.952687586851735 27.42051013153665 0 0 0
198 7 5.095663583707811 7.151099088339819 27.41893864584097 0 0 0
199 7 7.614213653086301 7.165636822438477 27.456422695909186 0 0 0
223 6 5.146325408494518 5.697788722545857 29.49709323908531 0 0 0
224 7 7.63748314432997 5.715325897550631 29.58870354665888 0 0 0
228 7 6.386541343238569 7.890267488154943 29.501202865951964 0 0 0
194 6 8.841398284555817 4.9745896371575835 27.49951594752596 0 0 0
195 7 11.354508011315737 4.9723951932184915 27.514838410631093 0 0 0
200 7 10.11748692891696 7.135518428674587 27.547560574706115 0 0 0
225 7 10.095024823317171 5.719171206030358 29.612617770615728 0 0 0
229 7 8.839305180225749 7.860285758499201 29.533621864161343 0 0 0
230 7 11.363238697887118 7.909361644736303 29.53319671527438 0 0 0
201 5 1.3732949743025626 9.303252574643832 27.52212547678647 0 0 0
202 7 3.866090361500146 9.298464531315238 27.3825903661736 0 0 0
206 4 0.1814859842971371 11.454984316427455 27.531726173759665 0 0 0
207 7 2.605353886286823 11.434524915768979 27.44495289183012 0 0 0
231 7 0.15985083750668358 10.057166552426104 29.57656856914524 0 0 0
232 7 2.628085164472183 10.003326046295083 29.435204397784904 0 0 0
236 7 1.468165737071579 12.160450248976925 29.560866055779726 0 0 0
203 7 6.368488183223688 9.262957893723001 27.394763776892475 0 0 0
208 7 5.131630946762551 11.47758693751228 27.326920683424458 0 0 0
209 6 7.576041586205627 11.502342315041487 27.64615936728152 0 0 0
233 7 5.143807701345318 10.031999497875365 29.33050254805953 0 0 0
234 7 7.594786161641077 10.065463595335379 29.670498375362044 0 0 0
238 7 6.2062426942795605 12.213770461742142 29.68847069999223 0 0 0
204 7 8.832457978652974 9.34590420247994 27.63045150508048 0 0 0
205 7 11.339358459620588 9.394148226662615 27.554410437475216 0 0 0
210 7 10.144797164168008 11.531689904060949 27.5913809086477 0 0 0
235 7 10.079410274420136 10.157346374418168 29.608641774657077 0 0 0
239 4 8.872259458471234 12.232787196157942 29.73912901820188 0 0 0
240 7 11.39026824206168 12.245232537123002 29.568502727502768 0 0 0
237 3 4.030438312063872 0.279241142550842 30.565698707877907 0 1 0
241 7 0.19668374034067396 0.08180381105655425 31.63666456762869 0 0 0
242 7 2.5646811201594972 0.12196599034782331 31.749344651729665 0 0 0
246 4 1.3390224466541214 2.2249041233956883 31.667850202324416 0 0 0
247 7 3.875383409929625 2.1324361906068647 31.648965594675616 0 0 0
251 7 0.14123834827944035 4.3089891239867875 31.65462911290382 0 0 0
252 7 2.626793549023002 4.302971011837469 31.67208298310519 0 0 0
248 7 6.400122409256306 2.130051542524357 31.653963283651837 0 0 0
253 7 5.10588207052034 4.29243760315491 31.62816583822162 0 0 0
254 7 7.614729584312603 4.294134795628116 31.597195003169393 0 0 0
249 7 8.844778446609345 2.084830079829599 31.68675193197693 0 0 0
250 7 11.378896243963931 2.122240693523048 31.662014402269882 0 0 0
255 1 10.098517654991847 4.2034282193181705 31.508105857010737 0 0 0
256 7 1.3236432039290336 6.487840663042575 31.64251316251878 0 0 0
257 6 3.78548680446691 6.486462257043068 31.670459729911 0 0 0
286 7 0.08678748537788163 7.266281096175034 33.62944448745699 0 0 0
258 7 6.343414196367852 6.479065180533851 31.629451195805533 0 0 0
264 7 7.5807892526859 8.56209306663743 31.630030359040035 0 0 0
259 4 8.812859859649686 6.444752876244907 31.63730890386988 0 0 0
260 7 11.308389327537833 6.475515129520962 31.600522029493277 0 0 0
284 5 8.881388013986921 5.100429695942756 33.58823958562203 0 0 0
285 4 11.340252679138215 5.139859371918057 33.63904995115126 0 0 0
290 7 10.074322917330065 7.243452625097182 33.60350443317774 0 0 0
261 7 0.17321573135791504 8.695931112220103 31.661332837461593 0 0 0
262 7 2.6626198727535084 8.708356106896282 31.545843580862925 0 0 0
266 7 1.5601758560968588 10.818411450093357 31.577844777578175 0 0 0
267 4 3.9140256828618325 11.264250598804791 30.853532960491375 0 0 0
292 7 3.960803003989025 9.35992185840714 33.52904401799774 0 0 0
243 7 5.159673460812637 12.882570515690665 32.112371243411616 0 -1 0
244 7 7.6186025947724705 12.919501427432035 31.722265041260176 0 -1 0
263 1 5.085428622480613 8.74853769820405 31.43184361684767 0 0 0
268 7 6.254966830302741 10.74652163900567 31.589453369431443 0 0 0
293 4 6.436993645877073 9.301814087204171 33.66465576790985 0 0 0
245 7 10.104792721962848 12.86955795141266 31.87493308598486 0 -1 0
265 6 10.094942299943002 8.666825689568682 31.5514483812171 0 0 0
269 7 8.767993041239972 10.785328274065865 31.754689238619683 0 0 0
270 7 11.42280061897198 10.890841641330779 31.6215850030704 0 0 0
296 3 11.064408722312 11.81812544333737 33.3384615452271 -1 0 0
271 7 1.4698924214960618 0.8888952568825443 33.777912991868234 0 0 0
272 7 3.9148968337033034 0.9420846592527613 33.92897925031502 0 0 0
276 7 0.17196723014058693 2.981075695068804 33.739798042598146 0 0 0
277 7 2.638150668223121 3.0651663927503088 33.80022157826179 0 0 0
301 7 0.18778561291394977 1.5378458317641734 35.758859275921424 0 0 0
302 7 2.611346715263774 1.6566860117051159 35.85987192952821 0 0 0
306 4 1.4104642840999115 3.821011322586596 35.96140214412605 0 0 0
307 7 3.9928131725580323 3.7170217782055985 35.84064850609745 0 0 0
273 7 6.45716724184523 0.9579496521922803 33.90835725163995 0 0 0
278 1 5.212258741377878 2.98123830325304 33.728665128641026 0 0 0
279 7 7.724133508863691 3.024923674726782 33.73575903116223 0 0 0
303 7 5.248145494987761 1.6561877153083944 35.94190025199005 0 0 0
304 4 7.764392422970355 1.6170927129313704 35.93004077016962 0 0 0
308 7 6.528611258681156 3.69054390085387 35.802848311813065 0 0 0
274 7 8.83231817524971 0.8823398370131404 33.845313573891644 0 0 0
275 4 11.438919531470392 0.784717549531803 33.71505562783892 0 0 0
280 7 10.198567159379207 2.9796694348581094 33.708517584322706 0 0 0
305 7 10.224982718438637 1.551980381657826 35.72405833905671 0 0 0
309 7 9.018285478845975 3.656799532725464 35.784002778143225 0 0 0
310 4 11.584827552690347 3.9267487004283086 35.86466350117955 0 0 0
281 7 1.3182266985613118 5.169029321204512 33.861457697338786 0 0 0
282 4 3.8434255061637845 5.119137673971872 33.770587815250394 0 0 0
287 7 2.628886527689007 7.274643764893114 33.754190683704095 0 0 0
312 7 2.724593922693035 5.776774997310515 35.78347064726031 0 0 0
316 7 1.2069863087740678 7.584878466106868 35.795208241544394 0 0 0
317 7 3.92836200309539 8.050534162346118 35.75560149173884 0 0 0
283 7 6.37496955725578 5.083560746019856 33.67050612102219 0 0 0
288 7 5.177632587613734 7.255606360944015 33.678228907670125 0 0 0
289 7 7.623281119739496 7.171788275803386 33.72211844466552 0 0 0
313 7 5.262645291076523 5.896551125503429 35.71897578736196 0 0 0
314 7 7.717103338983034 5.799430081984705 35.74421139739991 0 0 0
318 4 6.53694706059049 8.099367877560484 35.836387327547996 0 0 0
311 2 12.367748467501478 5.983648913811291 35.32639848364458 -1 0 0
315 7 10.129179381184725 5.793731243980346 35.585971231307596 0 0 0
319 7 8.93924025607314 7.954902362368294 35.83387854520892 0 0 0
320 7 11.339196221569432 7.91689007801036 35.59508409571092 0 0 0
350 7 11.678151489724593 6.257157797403258 37.30291708080834 0 0 0
355 3 10.428498559554647 7.887119975488059 37.27686343777967 0 0 0
291 7 1.466223680874553 9.411152885172394 33.742522425344 0 0 0
297 6 3.015549737915216 11.558885232538524 33.68405897961551 0 0 0
321 6 0.21134309416888214 10.050047960825326 35.90402012736846 0 0 0
322 7 2.7081363721681866 10.188703458492515 35.787788683576586 0 0 0
326 7 0.4994413100496364 11.638046165118233 33.67673643448376 0 0 0
327 6 3.9161789819758246 12.507478057174966 36.12271522880456 0 0 0
356 4 1.396770299126256 12.348743787229145 35.84429468134303 0 0 0
298 2 5.192058244012028 12.273759845087229 34.23011773565847 0 0 0
299 7 6.97738925591529 11.560430572952209 33.69655892351663 0 0 0
323 6 5.2385462381242505 10.239070478203594 35.60903418401502 0 0 0
324 7 7.90495881649248 10.33833140162951 35.7170494921015 0 0 0
328 7 6.476190634579394 12.514598960349298 35.9314586649139 0 0 0
294 7 8.756675578037594 9.271788781202469 33.699046840896855 0 0 0
295 6 11.258890671414218 9.683218000913472 33.766057206539514 0 0 0
300 7 9.367857502483707 11.528967683158214 34.16597993176186 0 0 0
325 7 10.251431661049356 9.827916929837581 37.00411308980868 0 0 0
329 3 9.517387871467617 11.38653510762295 36.19448434417923 0 0 0
330 4 11.253976375513728 12.057176931013013 35.56875713985548 0 0 0
335 5 9.90029862266907 12.898512152853588 37.376031545297856 0 -1 0
332 7 2.4704470263998948 0.07987302095251979 38.0443026807734 0 0 0
336 7 1.327282562822989 2.1665438578685476 37.83378172036829 0 0 0
337 7 3.8687892445012135 2.1714444553384693 37.86434639670164 0 0 0
341 7 0.21123495247356447 4.234912303411736 38.07509908175866 0 0 0
342 7 2.7119467562564057 4.271767616055149 37.9275796988703 0 0 0
333 7 5.227871038327786 0.15926038811614743 38.120260250943176 0 0 0
334 7 7.659694638593638 0.04882637987668751 38.027629942910465 0 0 0
338 7 6.533022602447448 2.246755794285243 37.906488398981494 0 0 0
339 7 8.991067229898919 2.175927271233249 37.859786208265355 0 0 0
340 7 11.365333713105583 2.1821905771102132 37.72878739138295 0 0 0
346 7 1.510100788591353 6.38487862771669 38.00444870449405 0 0 0
347 6 3.9635728137893635 6.449822129039262 37.761276827430116 0 0 0
343 7 5.305533907178062 4.41083866205597 37.84253540353344 0 0 0
344 7 7.832596302282594 4.42399842649693 37.85034201066006 0 0 0
348 6 6.666166435448317 6.6469836400145725 37.823410715174994 0 0 0
345 4 10.219670524695832 4.323597763903809 37.81799534286027 0 0 0
349 7 9.244280716782306 6.608508456786338 37.87609993132386 0 0 0
351 7 12.233843179701783 8.553282769101676 37.839809439033914 -1 0 0
352 6 2.462543027360803 8.64098554699093 37.69302177215983 0 0 0
357 7 3.809014806582489 10.811385629051747 37.999796567985854 0 0 0
360 7 1.3677025468557682 10.885745201865628 37.89106946359193 1 0 0
361 8 5.025887893686279 10.06103309909402 38.87546922103873 0 0 0
353 7 5.118296689548654 8.653077037309204 37.87800479539471 0 0 0
354 7 7.972330438003762 8.966709856971573 37.821836154564906 0 0 0
358 6 6.417725771253191 10.854275912384235 37.82553790587503 0 0 0
331 7 12.383778536420824 12.872415789846956 37.62170329514254 -1 -1 0
359 2 8.595517503703068 11.149617047407105 37.42386363751226 0 0 0

Velocities

1 0 0 0
2 0 0 0
3 0 0 0
9 0 0 0
5 0 0 0
6 0 0 0
10 0 0 0
16 0 0 0
20 0 0 0
26 0 0 0
27 0 0 0
23 0 0 0
28 0 0 0
29 0 0 0
24 0 0 0
25 0 0 0
30 0 0 0
7 0 0 0
31 0 0 0
32 0 0 0
36 0 0 0
37 0 0 0
56 0 0 0
8 0 0 0
33 0 0 0
34 0 0 0
38 0 0 0
4 0 0 0
35 0 0 0
39 0 0 0
40 0 0 0
11 0 0 0
12 0 0 0
17 0 0 0
42 0 0 0
47 0 0 0
13 0 0 0
18 0 0 0
19 0 0 0
43 0 0 0
44 0 0 0
48 0 0 0
14 0 0 0
15 0 0 0
41 0 0 0
45 0 0 0
49 0 0 0
50 0 0 0
85 0 0 0
21 0 0 0
22 0 0 0
46 0 0 0
52 0 0 0
57 0 0 0
87 0 0 0
53 0 0 0
54 0 0 0
58 0 0 0
51 0 0 0
55 0 0 0
59 0 0 0
60 0 0 0
66 0 0 0
67 0 0 0
91 0 0 0
92 0 0 0
96 0 0 0
97 0 0 0
63 0 0 0
64 0 0 0
68 0 0 0
74 0 0 0
93 0 0 0
98 0 0 0
99 0 0 0
65 0 0 0
69 0 0 0
70 0 0 0
75 0 0 0
94 0 0 0
95 0 0 0
100 0 0 0
72 0 0 0
76 0 0 0
77 0 0 0
82 0 0 0
101 0 0 0
102 0 0 0
107 0 0 0
73 0 0 0
78 0 0 0
103 0 0 0
108 0 0 0
109 0 0 0
71 0 0 0
79 0 0 0
80 0 0 0
81 0 0 0
104 0 0 0
105 0 0 0
106 0 0 0
110 0 0 0
61 0 0 0
62 0 0 0
86 0 0 0
111 0 0 0
112 0 0 0
116 0 0 0
117 0 0 0
83 0 0 0
84 0 0 0
88 0 0 0
113 0 0 0
118 0 0 0
119 0 0 0
89 0 0 0
90 0 0 0
114 0 0 0
115 0 0 0
120 0 0 0
121 0 0 0
122 0 0 0
126 0 0 0
127 0 0 0
156 0 0 0
157 0 0 0
162 0 0 0
123 0 0 0
124 0 0 0
128 0 0 0
153 0 0 0
158 0 0 0
163 0 0 0
164 0 0 0
125 0 0 0
129 0 0 0
130 0 0 0
155 0 0 0
159 0 0 0
160 0 0 0
165 0 0 0
131 0 0 0
132 0 0 0
136 0 0 0
137 0 0 0
161 0 0 0
166 0 0 0
167 0 0 0
171 0 0 0
172 0 0 0
133 0 0 0
134 0 0 0
138 0 0 0
168 0 0 0
173 0 0 0
135 0 0 0
139 0 0 0
140 0 0 0
169 0 0 0
170 0 0 0
175 0 0 0
141 0 0 0
142 0 0 0
146 0 0 0
147 0 0 0
151 0 0 0
152 0 0 0
176 0 0 0
177 0 0 0
143 0 0 0
144 0 0 0
148 0 0 0
154 0 0 0
178 0 0 0
145 0 0 0
149 0 0 0
150 0 0 0
174 0 0 0
179 0 0 0
180 0 0 0
181 0 0 0
182 0 0 0
186 0 0 0
187 0 0 0
211 0 0 0
212 0 0 0
216 0 0 0
217 0 0 0
183 0 0 0
188 0 0 0
189 0 0 0
213 0 0 0
214 0 0 0
218 0 0 0
184 0 0 0
185 0 0 0
190 0 0 0
215 0 0 0
219 0 0 0
220 0 0 0
191 0 0 0
192 0 0 0
196 0 0 0
197 0 0 0
221 0 0 0
222 0 0 0
226 0 0 0
227 0 0 0
193 0 0 0
198 0 0 0
199 0 0 0
223 0 0 0
224 0 0 0
228 0 0 0
194 0 0 0
195 0 0 0
200 0 0 0
225 0 0 0
229 0 0 0
230 0 0 0
201 0 0 0
202 0 0 0
206 0 0 0
207 0 0 0
231 0 0 0
232 0 0 0
236 0 0 0
203 0 0 0
208 0 0 0
209 0 0 0
233 0 0 0
234 0 0 0
238 0 0 0
204 0 0 0
205 0 0 0
210 0 0 0
235 0 0 0
239 0 0 0
240 0 0 0
237 0 0 0
241 0 0 0
242 0 0 0
246 0 0 0
247 0 0 0
251 0 0 0
252 0 0 0
248 0 0 0
253 0 0 0
254 0 0 0
249 0 0 0
250 0 0 0
255 0 0 0
256 0 0 0
257 0 0 0
286 0 0 0
258 0 0 0
264 0 0 0
259 0 0 0
260 0 0 0
284 0 0 0
285 0 0 0
290 0 0 0
261 0 0 0
262 0 0 0
266 0 0 0
267 0 0 0
292 0 0 0
243 0 0 0
244 0 0 0
263 0 0 0
268 0 0 0
293 0 0 0
245 0 0 0
265 0 0 0
269 0 0 0
270 0 0 0
296 0 0 0
271 0 0 0
272 0 0 0
276 0 0 0
277 0 0 0
301 0 0 0
302 0 0 0
306 0 0 0
307 0 0 0
273 0 0 0
278 0 0 0
279 0 0 0
303 0 0 0
304 0 0 0
308 0 0 0
274 0 0 0
275 0 0 0
280 0 0 0
305 0 0 0
309 0 0 0
310 0 0 0
281 0 0 0
282 0 0 0
287 0 0 0
312 0 0 0
316 0 0 0
317 0 0 0
283 0 0 0
288 0 0 0
289 0 0 0
313 0 0 0
314 0 0 0
318 0 0 0
311 0 0 0
315 0 0 0
319 0 0 0
320 0 0 0
350 0 0 0
355 0 0 0
291 0 0 0
297 0 0 0
321 0 0 0
322 0 0 0
326 0 0 0
327 0 0 0
356 0 0 0
298 0 0 0
299 0 0 0
323 0 0 0
324 0 0 0
328 0 0 0
294 0 0 0
295 0 0 0
300 0 0 0
325 0 0 0
329 0 0 0
330 0 0 0
335 0 0 0
332 0 0 0
336 0 0 0
337 0 0 0
341 0 0 0
342 0 0 0
333 0 0 0
334 0 0 0
338 0 0 0
339 0 0 0
340 0 0 0
346 0 0 0
347 0 0 0
343 0 0 0
344 0 0 0
348 0 0 0
345 0 0 0
349 0 0 0
351 0 0 0
352 0 0 0
357 0 0 0
360 0 0 0
361 0 0 0
353 0 0 0
354 0 0 0
358 0 0 0
331 0 0 0
359 0 0 0
