LAMMPS data file via write_data, version 11 Feb 2026, timestep = 138, units = metal

361 atoms
8 atom types

0 12.447907776 xlo xhi
0 12.9362452296 ylo yhi
0 52.3600831054 zlo zhi

Masses

1 26.9815
2 10.811
3 12.011
4 51.9961
5 55.845
6 95.95999999999999
7 58.6934
8 1.008

Atoms # atomic/kk

1 7 1.1447475034 1.4042530815 14.1767669076 0 0 0
2 7 3.6084602259 1.0698845996 14.6704381247 0 0 0
3 5 6.0765506298 0.9467816033 14.9127945674 0 0 0
9 7 7.3904254576 3.1552415677 14.921343358 0 0 0
5 7 11.0497419237 1.2529911546 14.6024861837 0 0 0
6 7 12.371824795299998 3.4559595715 14.8227813157 -1 0 0
10 7 9.9130540797 3.3904065996 14.7812471609 0 0 0
16 4 0.4694173902 7.8125304368 14.7997570607 0 0 0
20 7 10.4454755951 7.6697182118 14.1848688757 0 0 0
26 7 0.1281197666 12.2044764222 14.9105894271 0 0 0
27 7 2.482376412 11.8082341077 14.4640395444 0 0 0
23 7 6.9215809143 9.0056325864 14.7794199109 0 0 0
28 7 4.9597127568 11.7869866321 14.6074736033 0 0 0
29 6 7.487468691 11.492489151 14.9214469503 0 0 0
24 7 9.211267288 9.7383043985 14.542324574 0 0 0
25 7 11.7628351674 9.8745411843 14.7910184475 0 0 0
30 7 10.0617556164 11.945152431 14.7619795889 0 0 0
7 7 2.4276438825 3.274586701 14.9921379853 0 0 0
31 6 0.1320668178 1.5666912763 16.54569988 0 0 0
32 7 2.6047881521 1.6851371804 16.9156842324 0 0 0
36 7 1.2195215325 3.8560608354 17.0299024962 0 0 0
37 7 3.7103479774 3.8371572501 17.0572271382 0 0 0
56 2 1.9139638832 0.320698286899999 15.6094045829 0 1 0
8 7 4.9287232821 3.1271355871 15.0109940309 0 0 0
33 7 4.9854693445 1.6648399647 16.9552168616 0 0 0
34 7 7.410113639 1.7690174525 16.9802513671 0 0 0
38 5 6.1786870847 3.8598965293 16.9892925392 0 0 0
4 6 8.6405916037 0.9966073374 15.0011028893 0 0 0
35 7 9.9854439602 1.6623584179 16.9441720819 0 0 0
39 7 8.7306918901 3.8627101762 16.8623801969 0 0 0
40 7 11.1905275305 3.8067890199 17.0006893521 0 0 0
11 7 1.2348702966 5.4950064056 15.0806985502 0 0 0
12 7 3.723333195 5.3162088046 15.091556138 0 0 0
17 7 2.6528824888 7.4951525199 15.1538371669 0 0 0
42 7 2.4538170063 6.1274901805 17.1415379148 0 0 0
47 7 3.8866203033 8.1976953877 17.0635533141 0 0 0
13 7 6.1787690715 5.3054540189 15.034535629 0 0 0
18 7 5.0798141029 7.4787706901 15.0688046453 0 0 0
19 2 7.0597951203 7.0189274967 15.3897174295 0 0 0
43 7 4.9526824561 5.9628190941 17.0949149841 0 0 0
44 7 7.4770692341 5.9405064365 17.0881545432 0 0 0
48 7 6.3467693742 8.0549577382 17.0498728177 0 0 0
14 7 8.7041968087 5.6586120419 14.9658205562 0 0 0
15 6 11.1806031706 5.6044565055 15.1850152514 0 0 0
41 7 12.442168210099998 5.9982391836 17.2267436521 -1 0 0
45 7 9.923455112 6.0385351278 17.2532666192 0 0 0
49 7 8.7166078523 7.9219477302 16.0697967416 0 0 0
50 7 11.1854260308 7.9909608595 16.4539207548 0 0 0
85 6 9.7874825474 8.473382021 18.5408467256 0 0 0
21 2 1.1654244367 10.4783622607 15.2130316912 0 0 0
22 7 2.969847795 9.8650340587 15.6453950804 0 0 0
46 7 0.7946061559 9.3672820405 16.8749701293 0 0 0
52 7 1.3503573598 11.8646523864 16.9891542204 0 0 0
57 7 3.753873893 12.4366743176 16.6098759546 0 0 0
87 1 3.6650451701 10.7156807278 18.2659007397 0 0 0
53 7 5.3358928559 10.1219872041 16.3275402765 0 0 0
54 7 7.7336051436 10.0538114804 16.9470367537 0 0 0
58 6 6.3195663174 12.3667352783 16.9550847684 0 0 0
51 3 11.519673145099999 9.370279149 17.6624171524 -1 0 0
55 7 10.1852587848 10.2759719364 16.6816821896 0 0 0
59 7 8.8367077706 12.3810361477 16.9622360876 0 0 0
60 7 11.2428990064 12.4670428062 16.882988677 0 0 0
66 6 1.393007034 2.1659191631 19.0534804658 0 0 0
67 5 3.8310712323 2.169749835 19.077551421 0 0 0
91 4 1.3610097719 0.7490016766 21.3001474804 0 0 0
92 7 3.7532698079 0.7243006354 21.0553737996 0 0 0
96 7 0.082079932 2.7970216106 21.1874527472 0 0 0
97 7 2.5927240934 2.8497939446 21.1992924965 0 0 0
63 5 4.9567742477 0.0529982254 18.9618634931 0 0 0
64 7 7.4416746235 0.0821708056 19.1014191477 0 0 0
68 7 6.1949360288 2.1588642027 19.0801897325 0 0 0
74 6 7.5018096017 4.2853629911 19.0547359126 0 0 0
93 7 6.2598414465 0.7194660822 21.17367312 0 0 0
98 7 5.0257186556 2.8737258399 21.1536837203 0 0 0
99 5 7.4793105556 2.8150634673 21.1692986238 0 0 0
65 7 10.0018085899 0.0802466939 19.0961651875 0 0 0
69 7 8.7385472152 2.1539822136 18.9954608723 0 0 0
70 7 11.2870638013 2.2382207273 18.9541707741 0 0 0
75 5 9.908720947 4.3054275401 19.0335874063 0 0 0
94 7 8.7140507513 0.7135233683 21.2362014867 0 0 0
95 7 11.3045523296 0.6704651065 21.199536471 0 0 0
100 6 10.0309211856 2.7845552589 21.0550342549 0 0 0
72 7 2.4838430183 4.388962084 19.1070457725 0 0 0
76 7 1.200144222 6.4346976141 19.2600213636 0 0 0
77 7 3.7839563224 6.5073099035 19.1651823211 0 0 0
82 6 2.3588605673 8.4890673053 18.9154467805 0 0 0
101 7 1.204403147 4.986371594 21.2593935642 0 0 0
102 6 3.7298053141 5.0424743752 21.2297752978 0 0 0
107 7 2.4685484599 7.1728356576 21.2326094282 0 0 0
73 7 4.9759755061 4.316411451 19.087212733 0 0 0
78 7 6.1965388899 6.5190956683 19.1399785413 0 0 0
103 7 6.2751972116 5.0470676015 21.1760724515 0 0 0
108 7 5.0116983743 7.22861409 21.2268755354 0 0 0
109 7 7.4193353481 7.2485706051 21.2651304498 0 0 0
71 1 12.383629132 4.3782094725 19.1862342201 -1 0 0
79 7 8.6255974932 6.472044202 19.3232968982 0 0 0
80 7 11.1135754549 6.420590323 19.3581641471 0 0 0
81 4 12.342695017999999 8.4729562787 19.2006565517 -1 0 0
104 7 8.7408050898 5.0231569879 21.2437432022 0 0 0
105 3 10.084196681308235 4.371849729637381 22.28882764436131 0 0 0
106 7 12.435294388199999 7.0968971559 21.3158557077 -1 0 0
110 7 9.8903603607 7.1660305315 21.3021949042 0 0 0
61 6 0.0477387397 12.935022616100001 18.9949290075 0 -1 0
62 7 2.587482576 12.8543346047 19.0383469717 0 -1 0
86 7 1.2816847716 10.6903307998 19.1614661098 0 0 0
111 7 1.1796694452 9.2896516501 21.1960342799 0 0 0
112 6 3.7016357908 9.3557762036 21.1431867319 0 0 0
116 1 0.0369839214 11.486698451 21.2977096144 0 0 0
117 7 2.4704264091 11.5284142583 21.1452899236 0 0 0
83 7 4.9462384898 8.7330200409 19.0834474924 0 0 0
84 7 7.3974678157 8.6397297376 19.085743402 0 0 0
88 7 6.1625171869 10.8013148416 18.9301045672 0 0 0
113 7 6.2139769728 9.4092095126 21.0353192467 0 0 0
118 7 4.9639845145 11.5407295129 21.0425881559 0 0 0
119 4 7.3995383715 11.5362046003 21.0747824702 0 0 0
89 6 8.731338748 10.8500854071 19.0384744744 0 0 0
90 4 11.272219843 10.8209844576 18.9386324767 0 0 0
114 7 8.6997099562 9.3160354633 20.9928929717 0 0 0
115 6 11.109001975 9.2519683408 21.1755872983 0 0 0
120 7 9.9858618188 11.5164614705 21.1821863062 0 0 0
121 7 0.07726033465891705 1.3735997869456011 23.31392859943497 0 0 0
122 7 2.5687221557515407 1.3856623206853806 23.33316456884108 0 0 0
126 6 1.3481323485326249 3.568267518941764 23.269328323914433 0 0 0
127 7 3.8437621570128524 3.5721222557637398 23.36486568830279 0 0 0
156 1 1.4725854828628717 2.1122320637493113 25.518868665657735 0 0 0
157 7 3.958942317842945 2.119056035910404 25.4472445830929 0 0 0
162 7 2.5917093628431407 4.244521580260941 25.430750608904123 0 0 0
123 7 4.985900564936351 1.4109129517266026 23.16590876164097 0 0 0
124 7 7.3873987845257165 1.4816682221579611 23.491082163572592 0 0 0
128 7 6.296824344697049 3.645377405966175 23.187246197282583 0 0 0
153 7 5.190953764832757 0.054379115178424274 25.296588553020644 0 0 0
158 2 5.769340826686629 2.4384212562882466 24.633048478506804 0 0 0
163 7 5.111298297534133 4.225758371374586 25.42406415011742 0 0 0
164 5 7.470305016777411 4.041479157751703 25.363979174240363 0 0 0
125 7 10.036389113530399 1.407703889356106 23.359037757744538 0 0 0
129 7 8.744674323453678 3.5264028988656126 23.351764422566447 0 0 0
130 4 11.35983291365075 3.596526394984988 23.406793730546926 0 0 0
155 4 10.11295657748395 0.04143014324211426 25.56314329431701 0 0 0
159 7 8.863229482028153 2.0785500174082876 25.452662982287514 0 0 0
160 7 11.394012657316877 2.134189702466648 25.426049419771985 0 0 0
165 7 10.058660213743375 4.196395063316227 25.41739913670799 0 0 0
131 7 0.06348965290291131 5.750649707787629 23.407722982082042 0 0 0
132 7 2.535116468687047 5.778975305789597 23.363578762219106 0 0 0
136 7 1.2953976122243231 7.892429129087056 23.30839808635588 0 0 0
137 7 3.769166545031167 7.960155676721228 23.28156547068326 0 0 0
161 4 0.10158496776068612 4.319432128667069 25.473256344937866 0 0 0
166 7 1.3300231839611711 6.393794486128052 25.433727422275954 0 0 0
167 7 3.80041572510879 6.417987219239491 25.445401323476965 0 0 0
171 6 0.10136492419365903 8.592120911954794 25.434084795054975 0 0 0
172 7 2.6147555633420483 8.587908132888622 25.378941557615015 0 0 0
133 6 5.057725817465913 5.83812499018993 23.390586789226333 0 0 0
134 7 7.552135657006191 5.7569450103075335 23.318747241489255 0 0 0
138 7 6.302665186456151 7.975439389117577 23.344350766492877 0 0 0
168 7 6.357970109283916 6.374823981363085 25.436081175818565 0 0 0
173 7 5.096878320939132 8.533490488293012 25.335196704486375 0 0 0
135 7 10.056747160770238 5.803369332158442 23.392486602308665 0 0 0
139 4 8.68639428094856 7.920477401246798 23.24888211056454 0 0 0
140 4 11.274032107788804 7.868037476925968 23.322340788998076 0 0 0
169 7 8.768229196321299 6.307976196663164 25.388591681862053 0 0 0
170 7 11.28156139162816 6.385672512574513 25.453571202006447 0 0 0
175 6 9.87645153952721 8.54429637253952 25.52937017622927 0 0 0
141 7 0.012030125974194297 10.045554877987646 23.347823260236567 0 0 0
142 7 2.488065710349963 10.084310148983082 23.25839343792124 0 0 0
146 7 1.2943641985507301 12.213257712706605 23.35448085158298 0 0 0
147 7 3.79856427180427 12.222799327688007 23.18380075460015 0 0 0
151 4 0.0845158500864998 12.852834807159251 25.419640407007932 0 -1 0
152 7 2.6469330912069897 12.92289382981512 25.377540016981765 0 -1 0
176 7 1.334146001622403 10.777195133811695 25.435530594844344 0 0 0
177 6 3.8715428352535377 10.79567386715144 25.277086129535974 0 0 0
143 7 5.046849300726214 10.083633979407805 23.184930059713924 0 0 0
144 7 7.4973984114014725 10.067188704228627 22.924021708079355 0 0 0
148 4 6.204702617638573 12.248782838713622 23.189270286277527 0 0 0
154 7 7.593767921497465 12.920859224678118 25.48001751206866 0 -1 0
178 6 6.609059814254406 10.52211275947747 25.224096067371768 0 0 0
145 7 9.98766966507047 10.051990404521055 23.320530666216243 0 0 0
149 6 8.69991220396377 12.250308453483125 23.334701211682884 0 0 0
150 7 11.238927840134561 12.195650491821352 23.410321563933284 0 0 0
174 3 8.405589237432492 9.487362330847931 24.428362914806872 0 0 0
179 5 8.990226432521746 10.899778330355813 25.588874846670624 0 0 0
180 5 11.327754760079765 10.844341111028825 25.511785766665078 0 0 0
181 7 1.3834464350827462 0.6444019555069025 27.501370778569544 0 0 0
182 7 3.870727836711568 0.6820218865430302 27.440422919355214 0 0 0
186 7 0.16507486610438432 2.8360001753526825 27.50078379312343 0 0 0
187 7 2.6543242839024415 2.8319027222573454 27.57168254071818 0 0 0
211 7 0.20379921765968365 1.4240310055462118 29.599771915478765 0 0 0
212 7 2.706256815599094 1.3404376671901326 29.585422684311645 0 0 0
216 7 1.405270791500632 3.5335628253830893 29.59588190399744 0 0 0
217 4 3.819300439183294 3.5523891960016534 29.603219656084963 0 0 0
183 7 6.304615251026358 0.6941470723339161 27.57782793169257 0 0 0
188 7 5.078078856055303 2.852688327924396 27.58141165368147 0 0 0
189 7 7.590423811752916 2.7716054228740243 27.470763239924366 0 0 0
213 5 5.130307338483935 1.4060108381185459 29.607323356761015 0 0 0
214 7 7.60868566554006 1.333938657798459 29.60140417427998 0 0 0
218 7 6.359270822964936 3.5160705654491355 29.550427847940828 0 0 0
184 7 8.880893467831521 0.6969735788455368 27.57646713954193 0 0 0
185 4 11.377999986651181 0.7003237220548167 27.54877385164927 0 0 0
190 7 10.13954354257476 2.8097103468852915 27.50004188478233 0 0 0
215 7 10.119835959846926 1.3820784123251262 29.64470827977318 0 0 0
219 7 8.834276534662903 3.490044271483175 29.541510188524597 0 0 0
220 7 11.363861181789643 3.537212198687403 29.533699469196524 0 0 0
191 7 1.3850126941468828 4.984839917001144 27.478180123625418 0 0 0
192 7 3.8278000968363344 4.968958853437175 27.486355106093164 0 0 0
196 7 0.13032376461081413 7.135488481579379 27.505964834995396 0 0 0
197 7 2.573095091843174 7.172236834189345 27.479704456371707 0 0 0
221 7 0.114670792732543 5.7050859669182765 29.58009232877242 0 0 0
222 7 2.585392534113145 5.707810981142202 29.554905800824468 0 0 0
226 7 1.3589282660483069 7.882647275197354 29.557642645696884 0 0 0
227 7 3.85583101719761 7.8940379163703875 29.4713519093671 0 0 0
193 7 6.364620875154812 4.954182055897201 27.41863530909353 0 0 0
198 7 5.096706587601943 7.152891617430095 27.415191972027515 0 0 0
199 7 7.61621097331357 7.1668712176642115 27.45435680794384 0 0 0
223 6 5.147478986250813 5.70040874491471 29.493117341843302 0 0 0
224 7 7.638897332125543 5.716365811086798 29.588775396728405 0 0 0
228 7 6.388826001877532 7.892556605105198 29.49585168303678 0 0 0
194 6 8.8425170818551 4.974432104418979 27.50198692111841 0 0 0
195 7 11.355032742606872 4.971712171698349 27.517346675920695 0 0 0
200 7 10.11837478055723 7.134859278491504 27.549240107915193 0 0 0
225 7 10.096113278672425 5.717391145517205 29.616378734676964 0 0 0
229 7 8.841366132100326 7.860148203469014 29.534740649268098 0 0 0
230 7 11.363390296976757 7.908766060266112 29.53488809707582 0 0 0
201 5 1.3731002726837727 9.30442929071798 27.520169772954524 0 0 0
202 7 3.8665217657708792 9.301018696429697 27.379288292824654 0 0 0
206 4 0.18130307124493647 11.456080633865476 27.53193163322001 0 0 0
207 7 2.605165014497156 11.437296485779951 27.442961412784662 0 0 0
231 7 0.15987229405845965 10.058322046190733 29.576294463940428 0 0 0
232 7 2.6282056275778825 10.007132991012005 29.431177874595214 0 0 0
236 7 1.466837326097093 12.163615281138853 29.561108531508964 0 0 0
203 7 6.369451251332494 9.264849648624823 27.392187069046454 0 0 0
208 7 5.132483833859059 11.480474231544608 27.324187156857974 0 0 0
209 6 7.576603238164765 11.503333000322616 27.64646281546259 0 0 0
233 7 5.144466081914743 10.036211956655935 29.327021850992995 0 0 0
234 7 7.5958417237137805 10.06775633592546 29.671195928564146 0 0 0
238 7 6.20743232127082 12.216716964342321 29.686012684396662 0 0 0
204 7 8.833417071774027 9.346657661490108 27.632565297605215 0 0 0
205 7 11.339403379841906 9.393963452776642 27.55525975282729 0 0 0
210 7 10.145540155148224 11.53146463694794 27.594074077931264 0 0 0
235 7 10.080153324890825 10.15652687011778 29.61222183452626 0 0 0
239 4 8.874414488168169 12.232994909927402 29.74149890435962 0 0 0
240 7 11.390570360787947 12.245821642524659 29.571866118088966 0 0 0
237 3 4.027498787902378 0.2762929060874134 30.559125271510165 0 1 0
241 7 0.19400814531523208 0.08337231425245702 31.644845977671007 0 0 0
242 7 2.5620532289926246 0.12812893272066292 31.74456801734527 0 0 0
246 4 1.337288875362465 2.2284488360558155 31.672857410168934 0 0 0
247 7 3.874503799536261 2.139048157429703 31.646533962900747 0 0 0
251 7 0.1416510941207299 4.310545038808983 31.659872232208066 0 0 0
252 7 2.62732753905005 4.30778082589492 31.670856548515562 0 0 0
248 7 6.402771669642616 2.1362453998849924 31.653867863008706 0 0 0
253 7 5.107281118831554 4.297978016252954 31.626179940678412 0 0 0
254 7 7.617131780334141 4.2977777089612825 31.60194637094159 0 0 0
249 7 8.846755932794935 2.086384856707136 31.697327074587825 0 0 0
250 7 11.377625345086862 2.1229169026207098 31.67540628420233 0 0 0
255 1 10.09968241191884 4.202388426977573 31.51916036932774 0 0 0
256 7 1.3236988128665153 6.489046269699585 31.640750864814418 0 0 0
257 6 3.786065272788893 6.490871437425965 31.66286201680659 0 0 0
286 7 0.08693401081133348 7.268270423624694 33.629097880863156 0 0 0
258 7 6.345889305852157 6.481213399782057 31.624090885187897 0 0 0
264 7 7.584177728011673 8.564225669140695 31.626870440740188 0 0 0
259 4 8.815339063525247 6.445076094319221 31.637952784479786 0 0 0
260 7 11.3086794972167 6.473783327364092 31.604201211710762 0 0 0
284 5 8.882595899854728 5.10358692582516 33.5996683627899 0 0 0
285 4 11.341933557395368 5.141720742300661 33.647881452956604 0 0 0
290 7 10.076564236886917 7.239094447813187 33.61031430925161 0 0 0
261 7 0.17250843155697196 8.695648554944214 31.65843910899545 0 0 0
262 7 2.6596402811113937 8.708821899086312 31.53395835252708 0 0 0
266 7 1.5586095605966983 10.82044467353574 31.576215744198347 0 0 0
267 4 3.91298704465201 11.26336239046989 30.855980553781954 0 0 0
292 7 3.9545837515763145 9.362853757869763 33.50535566419451 0 0 0
243 7 5.162319209173357 12.89140390213513 32.10246701812269 0 -1 0
244 7 7.6215240593628035 12.923440754437745 31.718821203184447 0 -1 0
263 1 5.089035850746909 8.75018672742885 31.422683114620384 0 0 0
268 7 6.254643830716221 10.751019960136876 31.587047963281005 0 0 0
293 4 6.445067630166011 9.310387139100648 33.650568023059556 0 0 0
245 7 10.105250616093208 12.870324514924336 31.883100898655037 0 -1 0
265 6 10.09652102215735 8.665128190894372 31.555884477806362 0 0 0
269 7 8.76924335842017 10.786230847116139 31.759055987494282 0 0 0
270 7 11.422766371480463 10.891093345378495 31.62437642028162 0 0 0
296 3 11.071532977744091 11.81653470894947 33.34262101301095 -1 0 0
271 7 1.4684247821828802 0.8910120262562092 33.782435681887826 0 0 0
272 7 3.915155276481975 0.9459430917014024 33.924291504716486 0 0 0
276 7 0.17249309549021402 2.9832290840173736 33.7472684299641 0 0 0
277 7 2.638992647120187 3.06905119540746 33.795611468188305 0 0 0
301 7 0.182770741740835 1.5431461596804081 35.77039433903446 0 0 0
302 7 2.610224447028344 1.6611296258572088 35.85865928734298 0 0 0
306 4 1.4136869302614072 3.823941781040621 35.95385020932582 0 0 0
307 7 3.993337309637362 3.7216158761471867 35.83139128370748 0 0 0
273 7 6.4554522939221 0.9631063315558349 33.90511719236245 0 0 0
278 1 5.2136303206141905 2.9867213436548576 33.72318768806577 0 0 0
279 7 7.726043423807818 3.029135061382249 33.74235713867723 0 0 0
303 7 5.236262129112498 1.6557926115494137 35.9367579744084 0 0 0
304 4 7.748324510370577 1.6268952738098985 35.94169186025939 0 0 0
308 7 6.522424240637384 3.6961909964389195 35.802660723439075 0 0 0
274 7 8.827385121644863 0.8806528925467365 33.854414238910415 0 0 0
275 4 11.43400505756864 0.782342879022034 33.731662542356766 0 0 0
280 7 10.201080369774541 2.9829826917256614 33.732693449371475 0 0 0
305 7 10.212543067422537 1.5470816381887627 35.7428273930539 0 0 0
309 7 9.015415602919543 3.655321080353157 35.804292127886306 0 0 0
310 4 11.58236058244175 3.9168652539816122 35.88684363341313 0 0 0
281 7 1.3159991799054167 5.171582526984786 33.86628155006648 0 0 0
282 4 3.8431710080534707 5.125134853510718 33.7665119295506 0 0 0
287 7 2.6270888524553797 7.275724796525097 33.7463105824892 0 0 0
312 7 2.7287010718212965 5.77871830191986 35.7844433087015 0 0 0
316 7 1.207765602397018 7.586385868490599 35.79135630621243 0 0 0
317 7 3.9263293397017964 8.053606387736345 35.73330279266299 0 0 0
283 7 6.3746197530257565 5.088648604512996 33.67207085724701 0 0 0
288 7 5.177426831328619 7.259836247787203 33.66539165089875 0 0 0
289 7 7.624198953502399 7.1732301486254615 33.71744821652072 0 0 0
313 7 5.26022080550887 5.908089683554113 35.71378740096936 0 0 0
314 7 7.718328058925637 5.807294532933941 35.74548937063986 0 0 0
318 4 6.5481653186510185 8.112142084785866 35.804063730442444 0 0 0
311 2 12.362028804223975 5.986695719850326 35.33438031977115 -1 0 0
315 7 10.130675043313051 5.776967916832172 35.60670606100864 0 0 0
319 7 8.94885708833508 7.956837550016557 35.828168664333226 0 0 0
320 7 11.342780029807418 7.910748494354264 35.60093000021476 0 0 0
350 7 11.66761388276303 6.257811435873117 37.318898092068444 0 0 0
355 3 10.43205519598844 7.882461776901239 37.28250787059134 0 0 0
291 7 1.4636448125704626 9.412872071275034 33.731291799255395 0 0 0
297 6 3.0194759460138565 11.564450868844636 33.67349982690505 0 0 0
321 6 0.2067755665431028 10.045819562718142 35.911635521923905 0 0 0
322 7 2.695571395535769 10.188179734161368 35.760018615460154 0 0 0
326 7 0.5039308284748861 11.638169718578974 33.68286890320183 0 0 0
327 6 3.91116691978132 12.497013215999596 36.10617635621499 0 0 0
356 4 1.3953719753778877 12.344915136430346 35.8484435769076 0 0 0
298 2 5.197149061451833 12.275344976311539 34.207684611063165 0 0 0
299 7 6.9920800220214145 11.569268685615054 33.686646005925525 0 0 0
323 6 5.228414474189344 10.229849801789795 35.57865521751554 0 0 0
324 7 7.908186762255636 10.345510940739276 35.719519197715506 0 0 0
328 7 6.4590369108013945 12.509023731215946 35.91626156236963 0 0 0
294 7 8.76225586292213 9.272392595535297 33.703715890333115 0 0 0
295 6 11.26327482316079 9.681506485328505 33.769002094722104 0 0 0
300 7 9.378277500596095 11.53074747969889 34.17481795437855 0 0 0
325 7 10.246926981499852 9.820737599573484 37.03815353255936 0 0 0
329 3 9.532655774244056 11.38736235406599 36.210016948362586 0 0 0
330 4 11.26225553428383 12.052126128806966 35.58100327796787 0 0 0
335 5 9.905585160797083 12.895252076167436 37.411644984350936 0 -1 0
332 7 2.4820592820233367 0.09249092984090763 38.03761879419048 0 0 0
336 7 1.3300050122154814 2.1741762048523903 37.836155631221196 0 0 0
337 7 3.868447449793849 2.188525850638504 37.862653033902454 0 0 0
341 7 0.23711510206775277 4.249586974054827 38.06952950258567 0 0 0
342 7 2.7154569621940863 4.286055251471817 37.91988639346964 0 0 0
333 7 5.202091909923179 0.15249797428616133 38.12212893565656 0 0 0
334 7 7.6335804043201545 0.07574115777002138 38.00500400678888 0 0 0
338 7 6.494546020175425 2.2554814102644944 37.9067549400427 0 0 0
339 7 8.948226230631457 2.183113953584648 37.92552073142341 0 0 0
340 7 11.357192399437228 2.1750955449029092 37.77061808301599 0 0 0
361 8 10.263165569111946 2.7495475069415933 38.88840093125081 0 0 0
346 7 1.5150349420055764 6.40664170595499 37.99530751657772 0 0 0
347 6 3.9620715368085184 6.4715902976690085 37.76655403528886 0 0 0
343 7 5.294706765083952 4.427910136429988 37.83636709474678 0 0 0
344 7 7.813779452760485 4.442740019514451 37.845846964077786 0 0 0
348 6 6.653276137947987 6.665050959966811 37.81616252719723 0 0 0
345 4 10.219627854556604 4.307382526287784 37.865286400265305 0 0 0
349 7 9.232791187068393 6.6140111074888335 37.874978109496936 0 0 0
351 7 12.247867563479987 8.548760760750806 37.845165063173205 -1 0 0
352 6 2.4890759349805527 8.657073988186724 37.687521604998736 0 0 0
357 7 3.84178457400438 10.801994741763231 37.95353978542829 0 0 0
360 7 1.3853729309805238 10.896022897491907 37.89070513472497 1 0 0
353 7 5.123207801298089 8.69297287447886 37.82906097017056 0 0 0
354 7 7.948198234728398 8.943320612993322 37.821558775774896 0 0 0
358 6 6.41788005073047 10.849081264401955 37.79137365242629 0 0 0
331 7 12.396751206488318 12.889561943088601 37.62970289882081 -1 -1 0
359 2 8.597836917959857 11.164687739405663 37.427556158164144 0 0 0

Velocities

1 0 0 0
2 0 0 0
3 0 0 0
9 0 0 0
5 0 0 0
6 0 0 0
10 0 0 0
16 0 0 0
20 0 0 0
26 0 0 0
27 0 0 0
23 0 0 0
28 0 0 0
29 0 0 0
24 0 0 0
25 0 0 0
30 0 0 0
7 0 0 0
31 0 0 0
32 0 0 0
36 0 0 0
37 0 0 0
56 0 0 0
8 0 0 0
33 0 0 0
34 0 0 0
38 0 0 0
4 0 0 0
35 0 0 0
39 0 0 0
40 0 0 0
11 0 0 0
12 0 0 0
17 0 0 0
42 0 0 0
47 0 0 0
13 0 0 0
18 0 0 0
19 0 0 0
43 0 0 0
44 0 0 0
48 0 0 0
14 0 0 0
15 0 0 0
41 0 0 0
45 0 0 0
49 0 0 0
50 0 0 0
85 0 0 0
21 0 0 0
22 0 0 0
46 0 0 0
52 0 0 0
57 0 0 0
87 0 0 0
53 0 0 0
54 0 0 0
58 0 0 0
51 0 0 0
55 0 0 0
59 0 0 0
60 0 0 0
66 0 0 0
67 0 0 0
91 0 0 0
92 0 0 0
96 0 0 0
97 0 0 0
63 0 0 0
64 0 0 0
68 0 0 0
74 0 0 0
93 0 0 0
98 0 0 0
99 0 0 0
65 0 0 0
69 0 0 0
70 0 0 0
75 0 0 0
94 0 0 0
95 0 0 0
100 0 0 0
72 0 0 0
76 0 0 0
77 0 0 0
82 0 0 0
101 0 0 0
102 0 0 0
107 0 0 0
73 0 0 0
78 0 0 0
103 0 0 0
108 0 0 0
109 0 0 0
71 0 0 0
79 0 0 0
80 0 0 0
81 0 0 0
104 0 0 0
105 0 0 0
106 0 0 0
110 0 0 0
61 0 0 0
62 0 0 0
86 0 0 0
111 0 0 0
112 0 0 0
116 0 0 0
117 0 0 0
83 0 0 0
84 0 0 0
88 0 0 0
113 0 0 0
118 0 0 0
119 0 0 0
89 0 0 0
90 0 0 0
114 0 0 0
115 0 0 0
120 0 0 0
121 0 0 0
122 0 0 0
126 0 0 0
127 0 0 0
156 0 0 0
157 0 0 0
162 0 0 0
123 0 0 0
124 0 0 0
128 0 0 0
153 0 0 0
158 0 0 0
163 0 0 0
164 0 0 0
125 0 0 0
129 0 0 0
130 0 0 0
155 0 0 0
159 0 0 0
160 0 0 0
165 0 0 0
131 0 0 0
132 0 0 0
136 0 0 0
137 0 0 0
161 0 0 0
166 0 0 0
167 0 0 0
171 0 0 0
172 0 0 0
133 0 0 0
134 0 0 0
138 0 0 0
168 0 0 0
173 0 0 0
135 0 0 0
139 0 0 0
140 0 0 0
169 0 0 0
170 0 0 0
175 0 0 0
141 0 0 0
142 0 0 0
146 0 0 0
147 0 0 0
151 0 0 0
152 0 0 0
176 0 0 0
177 0 0 0
143 0 0 0
144 0 0 0
148 0 0 0
154 0 0 0
178 0 0 0
145 0 0 0
149 0 0 0
150 0 0 0
174 0 0 0
179 0 0 0
180 0 0 0
181 0 0 0
182 0 0 0
186 0 0 0
187 0 0 0
211 0 0 0
212 0 0 0
216 0 0 0
217 0 0 0
183 0 0 0
188 0 0 0
189 0 0 0
213 0 0 0
214 0 0 0
218 0 0 0
184 0 0 0
185 0 0 0
190 0 0 0
215 0 0 0
219 0 0 0
220 0 0 0
191 0 0 0
192 0 0 0
196 0 0 0
197 0 0 0
221 0 0 0
222 0 0 0
226 0 0 0
227 0 0 0
193 0 0 0
198 0 0 0
199 0 0 0
223 0 0 0
224 0 0 0
228 0 0 0
194 0 0 0
195 0 0 0
200 0 0 0
225 0 0 0
229 0 0 0
230 0 0 0
201 0 0 0
202 0 0 0
206 0 0 0
207 0 0 0
231 0 0 0
232 0 0 0
236 0 0 0
203 0 0 0
208 0 0 0
209 0 0 0
233 0 0 0
234 0 0 0
238 0 0 0
204 0 0 0
205 0 0 0
210 0 0 0
235 0 0 0
239 0 0 0
240 0 0 0
237 0 0 0
241 0 0 0
242 0 0 0
246 0 0 0
247 0 0 0
251 0 0 0
252 0 0 0
248 0 0 0
253 0 0 0
254 0 0 0
249 0 0 0
250 0 0 0
255 0 0 0
256 0 0 0
257 0 0 0
286 0 0 0
258 0 0 0
264 0 0 0
259 0 0 0
260 0 0 0
284 0 0 0
285 0 0 0
290 0 0 0
261 0 0 0
262 0 0 0
266 0 0 0
267 0 0 0
292 0 0 0
243 0 0 0
244 0 0 0
263 0 0 0
268 0 0 0
293 0 0 0
245 0 0 0
265 0 0 0
269 0 0 0
270 0 0 0
296 0 0 0
271 0 0 0
272 0 0 0
276 0 0 0
277 0 0 0
301 0 0 0
302 0 0 0
306 0 0 0
307 0 0 0
273 0 0 0
278 0 0 0
279 0 0 0
303 0 0 0
304 0 0 0
308 0 0 0
274 0 0 0
275 0 0 0
280 0 0 0
305 0 0 0
309 0 0 0
310 0 0 0
281 0 0 0
282 0 0 0
287 0 0 0
312 0 0 0
316 0 0 0
317 0 0 0
283 0 0 0
288 0 0 0
289 0 0 0
313 0 0 0
314 0 0 0
318 0 0 0
311 0 0 0
315 0 0 0
319 0 0 0
320 0 0 0
350 0 0 0
355 0 0 0
291 0 0 0
297 0 0 0
321 0 0 0
322 0 0 0
326 0 0 0
327 0 0 0
356 0 0 0
298 0 0 0
299 0 0 0
323 0 0 0
324 0 0 0
328 0 0 0
294 0 0 0
295 0 0 0
300 0 0 0
325 0 0 0
329 0 0 0
330 0 0 0
335 0 0 0
332 0 0 0
336 0 0 0
337 0 0 0
341 0 0 0
342 0 0 0
333 0 0 0
334 0 0 0
338 0 0 0
339 0 0 0
340 0 0 0
361 0 0 0
346 0 0 0
347 0 0 0
343 0 0 0
344 0 0 0
348 0 0 0
345 0 0 0
349 0 0 0
351 0 0 0
352 0 0 0
357 0 0 0
360 0 0 0
353 0 0 0
354 0 0 0
358 0 0 0
331 0 0 0
359 0 0 0
