LAMMPS data file via write_data, version 11 Feb 2026, timestep = 140, units = metal

361 atoms
8 atom types

0 12.447907776 xlo xhi
0 12.9362452296 ylo yhi
0 52.3600831054 zlo zhi

Masses

1 26.9815
2 10.811
3 12.011
4 51.9961
5 55.845
6 95.95999999999999
7 58.6934
8 1.008

Atoms # atomic/kk

1 7 1.1447475034 1.4042530815 14.1767669076 0 0 0
2 7 3.6084602259 1.0698845996 14.6704381247 0 0 0
3 5 6.0765506298 0.9467816033 14.9127945674 0 0 0
9 7 7.3904254576 3.1552415677 14.921343358 0 0 0
5 7 11.0497419237 1.2529911546 14.6024861837 0 0 0
6 7 12.371824795299998 3.4559595715 14.8227813157 -1 0 0
10 7 9.9130540797 3.3904065996 14.7812471609 0 0 0
16 4 0.4694173902 7.8125304368 14.7997570607 0 0 0
20 7 10.4454755951 7.6697182118 14.1848688757 0 0 0
26 7 0.1281197666 12.2044764222 14.9105894271 0 0 0
27 7 2.482376412 11.8082341077 14.4640395444 0 0 0
23 7 6.9215809143 9.0056325864 14.7794199109 0 0 0
28 7 4.9597127568 11.7869866321 14.6074736033 0 0 0
29 6 7.487468691 11.492489151 14.9214469503 0 0 0
24 7 9.211267288 9.7383043985 14.542324574 0 0 0
25 7 11.7628351674 9.8745411843 14.7910184475 0 0 0
30 7 10.0617556164 11.945152431 14.7619795889 0 0 0
7 7 2.4276438825 3.274586701 14.9921379853 0 0 0
31 6 0.1320668178 1.5666912763 16.54569988 0 0 0
32 7 2.6047881521 1.6851371804 16.9156842324 0 0 0
36 7 1.2195215325 3.8560608354 17.0299024962 0 0 0
37 7 3.7103479774 3.8371572501 17.0572271382 0 0 0
56 2 1.9139638832 0.320698286899999 15.6094045829 0 1 0
8 7 4.9287232821 3.1271355871 15.0109940309 0 0 0
33 7 4.9854693445 1.6648399647 16.9552168616 0 0 0
34 7 7.410113639 1.7690174525 16.9802513671 0 0 0
38 5 6.1786870847 3.8598965293 16.9892925392 0 0 0
4 6 8.6405916037 0.9966073374 15.0011028893 0 0 0
35 7 9.9854439602 1.6623584179 16.9441720819 0 0 0
39 7 8.7306918901 3.8627101762 16.8623801969 0 0 0
40 7 11.1905275305 3.8067890199 17.0006893521 0 0 0
11 7 1.2348702966 5.4950064056 15.0806985502 0 0 0
12 7 3.723333195 5.3162088046 15.091556138 0 0 0
17 7 2.6528824888 7.4951525199 15.1538371669 0 0 0
42 7 2.4538170063 6.1274901805 17.1415379148 0 0 0
47 7 3.8866203033 8.1976953877 17.0635533141 0 0 0
13 7 6.1787690715 5.3054540189 15.034535629 0 0 0
18 7 5.0798141029 7.4787706901 15.0688046453 0 0 0
19 2 7.0597951203 7.0189274967 15.3897174295 0 0 0
43 7 4.9526824561 5.9628190941 17.0949149841 0 0 0
44 7 7.4770692341 5.9405064365 17.0881545432 0 0 0
48 7 6.3467693742 8.0549577382 17.0498728177 0 0 0
14 7 8.7041968087 5.6586120419 14.9658205562 0 0 0
15 6 11.1806031706 5.6044565055 15.1850152514 0 0 0
41 7 12.442168210099998 5.9982391836 17.2267436521 -1 0 0
45 7 9.923455112 6.0385351278 17.2532666192 0 0 0
49 7 8.7166078523 7.9219477302 16.0697967416 0 0 0
50 7 11.1854260308 7.9909608595 16.4539207548 0 0 0
85 6 9.7874825474 8.473382021 18.5408467256 0 0 0
21 2 1.1654244367 10.4783622607 15.2130316912 0 0 0
22 7 2.969847795 9.8650340587 15.6453950804 0 0 0
46 7 0.7946061559 9.3672820405 16.8749701293 0 0 0
52 7 1.3503573598 11.8646523864 16.9891542204 0 0 0
57 7 3.753873893 12.4366743176 16.6098759546 0 0 0
87 1 3.6650451701 10.7156807278 18.2659007397 0 0 0
53 7 5.3358928559 10.1219872041 16.3275402765 0 0 0
54 7 7.7336051436 10.0538114804 16.9470367537 0 0 0
58 6 6.3195663174 12.3667352783 16.9550847684 0 0 0
51 3 11.519673145099999 9.370279149 17.6624171524 -1 0 0
55 7 10.1852587848 10.2759719364 16.6816821896 0 0 0
59 7 8.8367077706 12.3810361477 16.9622360876 0 0 0
60 7 11.2428990064 12.4670428062 16.882988677 0 0 0
66 6 1.393007034 2.1659191631 19.0534804658 0 0 0
67 5 3.8310712323 2.169749835 19.077551421 0 0 0
91 4 1.3610097719 0.7490016766 21.3001474804 0 0 0
92 7 3.7532698079 0.7243006354 21.0553737996 0 0 0
96 7 0.082079932 2.7970216106 21.1874527472 0 0 0
97 7 2.5927240934 2.8497939446 21.1992924965 0 0 0
63 5 4.9567742477 0.0529982254 18.9618634931 0 0 0
64 7 7.4416746235 0.0821708056 19.1014191477 0 0 0
68 7 6.1949360288 2.1588642027 19.0801897325 0 0 0
74 6 7.5018096017 4.2853629911 19.0547359126 0 0 0
93 7 6.2598414465 0.7194660822 21.17367312 0 0 0
98 7 5.0257186556 2.8737258399 21.1536837203 0 0 0
99 5 7.4793105556 2.8150634673 21.1692986238 0 0 0
65 7 10.0018085899 0.0802466939 19.0961651875 0 0 0
69 7 8.7385472152 2.1539822136 18.9954608723 0 0 0
70 7 11.2870638013 2.2382207273 18.9541707741 0 0 0
75 5 9.908720947 4.3054275401 19.0335874063 0 0 0
94 7 8.7140507513 0.7135233683 21.2362014867 0 0 0
95 7 11.3045523296 0.6704651065 21.199536471 0 0 0
100 6 10.0309211856 2.7845552589 21.0550342549 0 0 0
72 7 2.4838430183 4.388962084 19.1070457725 0 0 0
76 7 1.200144222 6.4346976141 19.2600213636 0 0 0
77 7 3.7839563224 6.5073099035 19.1651823211 0 0 0
82 6 2.3588605673 8.4890673053 18.9154467805 0 0 0
101 7 1.204403147 4.986371594 21.2593935642 0 0 0
102 6 3.7298053141 5.0424743752 21.2297752978 0 0 0
107 7 2.4685484599 7.1728356576 21.2326094282 0 0 0
73 7 4.9759755061 4.316411451 19.087212733 0 0 0
78 7 6.1965388899 6.5190956683 19.1399785413 0 0 0
103 7 6.2751972116 5.0470676015 21.1760724515 0 0 0
108 7 5.0116983743 7.22861409 21.2268755354 0 0 0
109 7 7.4193353481 7.2485706051 21.2651304498 0 0 0
71 1 12.383629132 4.3782094725 19.1862342201 -1 0 0
79 7 8.6255974932 6.472044202 19.3232968982 0 0 0
80 7 11.1135754549 6.420590323 19.3581641471 0 0 0
81 4 12.342695017999999 8.4729562787 19.2006565517 -1 0 0
104 7 8.7408050898 5.0231569879 21.2437432022 0 0 0
105 3 10.08422134167598 4.371953932637852 22.288692175324986 0 0 0
106 7 12.435294388199999 7.0968971559 21.3158557077 -1 0 0
110 7 9.8903603607 7.1660305315 21.3021949042 0 0 0
61 6 0.0477387397 12.935022616100001 18.9949290075 0 -1 0
62 7 2.587482576 12.8543346047 19.0383469717 0 -1 0
86 7 1.2816847716 10.6903307998 19.1614661098 0 0 0
111 7 1.1796694452 9.2896516501 21.1960342799 0 0 0
112 6 3.7016357908 9.3557762036 21.1431867319 0 0 0
116 1 0.0369839214 11.486698451 21.2977096144 0 0 0
117 7 2.4704264091 11.5284142583 21.1452899236 0 0 0
83 7 4.9462384898 8.7330200409 19.0834474924 0 0 0
84 7 7.3974678157 8.6397297376 19.085743402 0 0 0
88 7 6.1625171869 10.8013148416 18.9301045672 0 0 0
113 7 6.2139769728 9.4092095126 21.0353192467 0 0 0
118 7 4.9639845145 11.5407295129 21.0425881559 0 0 0
119 4 7.3995383715 11.5362046003 21.0747824702 0 0 0
89 6 8.731338748 10.8500854071 19.0384744744 0 0 0
90 4 11.272219843 10.8209844576 18.9386324767 0 0 0
114 7 8.6997099562 9.3160354633 20.9928929717 0 0 0
115 6 11.109001975 9.2519683408 21.1755872983 0 0 0
120 7 9.9858618188 11.5164614705 21.1821863062 0 0 0
121 7 0.0773804768491385 1.3735650541439821 23.313780534683474 0 0 0
122 7 2.568813642642201 1.3853939289067356 23.333331958087328 0 0 0
126 6 1.3483416682239315 3.5681542287955925 23.269336581740834 0 0 0
127 7 3.8439333657524584 3.571863119579903 23.365194938393223 0 0 0
156 1 1.4728501725109964 2.111895895726403 25.518782433262967 0 0 0
157 7 3.9592428324756477 2.118420590834404 25.447816788614112 0 0 0
162 7 2.591899293150156 4.2440186162077085 25.431173341893654 0 0 0
123 7 4.985795912825203 1.4105349936013207 23.166082863386038 0 0 0
124 7 7.387243246101096 1.4816173828264445 23.490311331073496 0 0 0
128 7 6.296818097727864 3.6454619662247825 23.187230280010567 0 0 0
153 7 5.190465657469708 0.05328900283295273 25.296996409450518 0 0 0
158 2 5.769032713090703 2.4386075592086573 24.63268144036449 0 0 0
163 7 5.1112618975934065 4.225227989572096 25.424794656431313 0 0 0
164 5 7.470321061775254 4.042336634357551 25.36399708005066 0 0 0
125 7 10.03636844590013 1.407884497245983 23.3586986853473 0 0 0
129 7 8.744513352710431 3.5265207618520615 23.35143091585543 0 0 0
130 4 11.359976514350196 3.596632017533899 23.40637451107817 0 0 0
155 4 10.112501802175743 0.04193494398197567 25.56236306228059 0 0 0
159 7 8.86244438103083 2.0787756349716764 25.451799644878296 0 0 0
160 7 11.39378016396455 2.134313639743444 25.425179843392453 0 0 0
165 7 10.058334239961988 4.196794859917874 25.416446148531374 0 0 0
131 7 0.06361037763012821 5.750616448088756 23.40733341331626 0 0 0
132 7 2.5352942937146654 5.7787897620510424 23.36371592701136 0 0 0
136 7 1.2955637778474463 7.892329098068138 23.308407345158418 0 0 0
137 7 3.7692376739325453 7.95998459600937 23.28181153918355 0 0 0
161 4 0.10164033342608488 4.319292755371802 25.472619186102023 0 0 0
166 7 1.3301134129665604 6.3934517988111965 25.43355960069995 0 0 0
167 7 3.8003996896681276 6.417314746070357 25.446139991204202 0 0 0
171 6 0.10180938666959596 8.592245272175601 25.43393718454399 0 0 0
172 7 2.6148240448985582 8.587427626921246 25.379411167563998 0 0 0
133 6 5.057733838230677 5.838011906689712 23.391027315089726 0 0 0
134 7 7.552021516260157 5.757078508122984 23.318826740617883 0 0 0
138 7 6.3026745965763125 7.975359506350569 23.344912921648028 0 0 0
168 7 6.357756661927952 6.374152286905957 25.436975240115974 0 0 0
173 7 5.096717133807132 8.532677093147997 25.33604511898233 0 0 0
135 7 10.056722415181222 5.80357001194837 23.39215372357292 0 0 0
139 4 8.686357874389005 7.920538779261478 23.24853700664562 0 0 0
140 4 11.274330909853155 7.868138049478891 23.322018407807416 0 0 0
169 7 8.768168091835223 6.308857752368371 25.388198961925998 0 0 0
170 7 11.28169730701757 6.385887537977431 25.452763665803847 0 0 0
175 6 9.877365580814654 8.544861634202762 25.528344224164954 0 0 0
141 7 0.012065720205859781 10.045616588523055 23.347817689030514 0 0 0
142 7 2.4880761934681463 10.08413204694506 23.258641541666474 0 0 0
146 7 1.2943327470556552 12.213113563440883 23.354629878906767 0 0 0
147 7 3.7984739742931755 12.222390126273146 23.184081193635205 0 0 0
151 4 0.08447121709121741 12.852844265289905 25.419724945967882 0 -1 0
152 7 2.646941308409532 12.922398230764893 25.377816024463336 0 -1 0
176 7 1.3342366490478592 10.777107038124845 25.43597353070081 0 0 0
177 6 3.8714894961030906 10.794975127298896 25.277693391845588 0 0 0
143 7 5.046767552084511 10.083397749953845 23.185274742112085 0 0 0
144 7 7.49721133374108 10.067300433852946 22.92404042159871 0 0 0
148 4 6.20450263779688 12.248567919565579 23.18954015594334 0 0 0
154 7 7.593048613317707 12.920758679496393 25.479420524075465 0 -1 0
178 6 6.609001536507064 10.52104296248735 25.224642084883662 0 0 0
145 7 9.98757255634498 10.052171007736735 23.320115798493898 0 0 0
149 6 8.699801082376393 12.25045641582671 23.334405806853134 0 0 0
150 7 11.238878664385608 12.195796375556684 23.410109422684865 0 0 0
174 3 8.405440709683345 9.48710542236276 24.428170145222143 0 0 0
179 5 8.99015675675455 10.900188645007928 25.587939785779728 0 0 0
180 5 11.327889778814887 10.84466015565674 25.51141003815457 0 0 0
181 7 1.3836937727510317 0.643818349409005 27.50151359928392 0 0 0
182 7 3.870631332055188 0.6812168114447321 27.44108925128343 0 0 0
186 7 0.16495878937391953 2.835780574102773 27.499443748552718 0 0 0
187 7 2.6543066435323213 2.8308944274460957 27.572376551162744 0 0 0
211 7 0.20436629640239412 1.4233559600299528 29.59769848615159 0 0 0
212 7 2.707447297415871 1.3380378869032952 29.58703607905159 0 0 0
216 7 1.4052178219660196 3.5326792484568528 29.59492001236529 0 0 0
217 4 3.8189496730031616 3.5509088172378664 29.60516597881165 0 0 0
183 7 6.304017796990636 0.6934722093359826 27.57819351188032 0 0 0
188 7 5.077521967953921 2.8520012297972936 27.582766663324026 0 0 0
189 7 7.589308900504531 2.7713640671881237 27.470303309622988 0 0 0
213 5 5.130213247660949 1.404834690645706 29.608544607603136 0 0 0
214 7 7.607805992247284 1.3332377424691155 29.601383997855955 0 0 0
218 7 6.358558533353918 3.5148373818193663 29.55210528088619 0 0 0
184 7 8.879933850406665 0.6971085368944289 27.57509530726312 0 0 0
185 4 11.377838889313455 0.7003122051126208 27.547799627063792 0 0 0
190 7 10.138873156078855 2.8097526539620596 27.498169129266074 0 0 0
215 7 10.119304933909541 1.3819563441850224 29.641208754527682 0 0 0
219 7 8.833389214852362 3.490161790786662 29.539653209337636 0 0 0
220 7 11.363265705114673 3.537360599903114 29.530690083082636 0 0 0
191 7 1.3848802229061912 4.984408448760998 27.477957975462225 0 0 0
192 7 3.8275322108168237 4.968149047718861 27.487702564457834 0 0 0
196 7 0.13026144355382996 7.135490122502216 27.50512450145055 0 0 0
197 7 2.572713845035995 7.171562399159865 27.4802091252018 0 0 0
221 7 0.11435540422099762 5.705047731286787 29.578456400329628 0 0 0
222 7 2.584839312304591 5.706658816720676 29.555780813949163 0 0 0
226 7 1.3583659759745528 7.882342353060504 29.55791884102353 0 0 0
227 7 3.854782177528106 7.892587200436768 29.472493163233434 0 0 0
193 7 6.36385136166495 4.953496056798354 27.41997333903115 0 0 0
198 7 5.096139237693411 7.151859108260133 27.416640469764193 0 0 0
199 7 7.615316835913142 7.166249722324401 27.45506819355431 0 0 0
223 6 5.146937245053917 5.698878355808697 29.49551373038446 0 0 0
224 7 7.638294929259037 5.7155722298483065 29.58985746082972 0 0 0
228 7 6.38791132421 7.890840002402649 29.497231624058163 0 0 0
194 6 8.841818050431277 4.974621876138258 27.50110318008744 0 0 0
195 7 11.354594367505864 4.971928685088758 27.515885235341408 0 0 0
200 7 10.11797247443119 7.135181791116485 27.547921708693472 0 0 0
225 7 10.095513594706727 5.718348301634725 29.614458701796025 0 0 0
229 7 8.840782529372836 7.8600039642675865 29.53375636766967 0 0 0
230 7 11.36338848696636 7.9091652250318765 29.53291293779234 0 0 0
201 5 1.3730593856187878 9.304320117700339 27.521119506302625 0 0 0
202 7 3.8660140654009743 9.300194123202319 27.380246204165836 0 0 0
206 4 0.18132486102544446 11.45588312692438 27.53237085224133 0 0 0
207 7 2.605076400522699 11.436682177991196 27.44379886989216 0 0 0
231 7 0.15949097839770168 10.05819701295629 29.57751102793364 0 0 0
232 7 2.6282128214193223 10.006934555635574 29.432937084187806 0 0 0
236 7 1.4662697124194306 12.162657890996872 29.561929009011003 0 0 0
203 7 6.368905313100508 9.264036791454764 27.393105196207305 0 0 0
208 7 5.1321652221724685 11.479495083897543 27.32499908602634 0 0 0
209 6 7.57634414175626 11.503078983176431 27.64596446100191 0 0 0
233 7 5.143434612085913 10.034715144796408 29.328049436506046 0 0 0
234 7 7.5950971051394065 10.065921213520138 29.669280151376775 0 0 0
238 7 6.207058321226771 12.215687080023727 29.686842759473418 0 0 0
204 7 8.83322925552318 9.346415814465313 27.63114803476996 0 0 0
205 7 11.339508249000561 9.394445442093652 27.554739561373605 0 0 0
210 7 10.145293116439563 11.532043219548937 27.593018190017894 0 0 0
235 7 10.080011682524116 10.15773767248726 29.610296502769458 0 0 0
239 4 8.87317297558832 12.233356504076516 29.740150951189243 0 0 0
240 7 11.390272650114179 12.245837500364857 29.57163225548123 0 0 0
237 3 4.030630327138268 0.27420390289757823 30.562450604237554 0 1 0
241 7 0.1953039179081054 0.0836464099375967 31.643851148029842 0 0 0
242 7 2.5641793477972494 0.1257028760729514 31.746301460984704 0 0 0
246 4 1.3386519476311283 2.2269295243210343 31.671073503627056 0 0 0
247 7 3.8752963662452156 2.136923257543706 31.64881291001215 0 0 0
251 7 0.14122467967293464 4.31016047310554 31.656028472163932 0 0 0
252 7 2.627139224677942 4.305413625590284 31.672054338177666 0 0 0
248 7 6.402347757529206 2.1342963631453946 31.65621715830643 0 0 0
253 7 5.107086979264914 4.295681676072605 31.629566920819265 0 0 0
254 7 7.616139863998688 4.296796897985241 31.60282799170967 0 0 0
249 7 8.846308440816598 2.087559440838262 31.69270198075543 0 0 0
250 7 11.37767772029858 2.1231986295351155 31.66931376675494 0 0 0
255 1 10.099163729354366 4.204730447458952 31.51537365060787 0 0 0
256 7 1.3231292528153251 6.48823716207271 31.64002005518574 0 0 0
257 6 3.7851825275625055 6.488491700686478 31.664639069758625 0 0 0
286 7 0.08854689326599013 7.267147524187869 33.62926507619975 0 0 0
258 7 6.344727504191949 6.479420080329775 31.627925563063442 0 0 0
264 7 7.582933241984432 8.56182292004908 31.626960716304623 0 0 0
259 4 8.814043335341236 6.445753357481362 31.637615599904883 0 0 0
260 7 11.308986287887219 6.47535652888976 31.601187891146445 0 0 0
284 5 8.877871522912425 5.105248734167012 33.59822845470313 0 0 0
285 4 11.344853163261563 5.14243066991144 33.64253523101782 0 0 0
290 7 10.07703922387093 7.241587773030123 33.604832892557326 0 0 0
261 7 0.17177023372556025 8.69593097357186 31.65985720424738 0 0 0
262 7 2.6584010311224056 8.707278433871569 31.534975555925257 0 0 0
266 7 1.5583154163466135 10.81995026529386 31.578806542778107 0 0 0
267 4 3.914065249263948 11.260935346731495 30.860385870797078 0 0 0
292 7 3.953456917688674 9.362992274442425 33.50563529900361 0 0 0
243 7 5.1639365599300735 12.889328326932057 32.10783478031521 0 -1 0
244 7 7.621542307129132 12.922674167909937 31.721959199950685 0 -1 0
263 1 5.087708474008962 8.747552853254565 31.42396388290343 0 0 0
268 7 6.25443714943558 10.747841109091654 31.5852899172069 0 0 0
293 4 6.443342117259992 9.303470097306167 33.6530304361744 0 0 0
245 7 10.105165045722686 12.870062399610223 31.880534907451025 0 -1 0
265 6 10.096612806240604 8.666741151215273 31.552155954453532 0 0 0
269 7 8.767220097066767 10.785196839397896 31.754590966447022 0 0 0
270 7 11.422455335963459 10.89180491781216 31.62606558380877 0 0 0
296 3 11.066274033200505 11.81942049313737 33.344396393335174 -1 0 0
271 7 1.4703876406996885 0.8904652985565545 33.78075516010465 0 0 0
272 7 3.9161516029966137 0.9448258298544111 33.92665754951436 0 0 0
276 7 0.17432377974665705 2.982758846454597 33.741458858944306 0 0 0
277 7 2.6407468834447325 3.0684765379239525 33.801431180802766 0 0 0
301 7 0.1877619902524173 1.544418828822208 35.76159922475065 0 0 0
302 7 2.612816079999721 1.6582801265815177 35.86084407448451 0 0 0
306 4 1.41341188660857 3.8214776897475615 35.963121795265764 0 0 0
307 7 3.9941040459552983 3.719965103179987 35.840094625176924 0 0 0
273 7 6.462223284957462 0.9597887743156358 33.91251904739888 0 0 0
278 1 5.215015905602602 2.9832377762114763 33.72892843493256 0 0 0
279 7 7.7243699413833715 3.026871738762947 33.73963876572352 0 0 0
303 7 5.239677431640323 1.6515019516568368 35.93634147747614 0 0 0
304 4 7.772365116946182 1.6108878448191954 35.94951395760534 0 0 0
308 7 6.529523043098536 3.689323880459216 35.8125494126549 0 0 0
274 7 8.837269369299175 0.8875771551321281 33.8491351037931 0 0 0
275 4 11.43490304531118 0.7876227330767325 33.72726685768599 0 0 0
280 7 10.203682127761887 2.9861087944185067 33.72330717363599 0 0 0
305 7 10.220044601653269 1.5552066534637885 35.73990092803672 0 0 0
309 7 9.018136555170537 3.6582360276210015 35.79315097285058 0 0 0
310 4 11.59326976101393 3.9387185688165363 35.88160154228073 0 0 0
281 7 1.3190417351326722 5.168474941839625 33.86144398877541 0 0 0
282 4 3.844292838237894 5.122759064918206 33.76944959814839 0 0 0
287 7 2.6268075488999068 7.275507401343394 33.7461489602947 0 0 0
312 7 2.724412597709238 5.775783974176916 35.78159697585767 0 0 0
316 7 1.209667496785181 7.590298861869368 35.79108897081642 0 0 0
317 7 3.923790245238871 8.050911514945552 35.73552311010461 0 0 0
283 7 6.373573216953966 5.085704179857561 33.67615359914649 0 0 0
288 7 5.175632545427155 7.25750703468285 33.669985848667935 0 0 0
289 7 7.623305005723567 7.170540135297399 33.722802343400325 0 0 0
313 7 5.261150646145115 5.902324571770103 35.71818275115482 0 0 0
314 7 7.716812617097109 5.80726217305113 35.76290023416453 0 0 0
318 4 6.542657875197731 8.106750761110698 35.811316972457725 0 0 0
311 2 12.376157695394001 5.983396052360065 35.33144540292848 -1 0 0
315 7 10.130232416631248 5.784035107458582 35.59147138169556 0 0 0
319 7 8.949288965696619 7.958635368504711 35.82433441233755 0 0 0
320 7 11.344224420534841 7.912598867331417 35.598978260397374 0 0 0
350 7 11.669786687588024 6.246360087372144 37.30500051216383 0 0 0
355 3 10.42646576485083 7.894550834239437 37.27372408689342 0 0 0
291 7 1.4619780487750542 9.413571595200493 33.73440273775524 0 0 0
297 6 3.0165910146963326 11.563863919913896 33.67954933328618 0 0 0
321 6 0.2045887710810074 10.050331037149416 35.913470083349665 0 0 0
322 7 2.6935806666268465 10.18678090191684 35.76597530706871 0 0 0
326 7 0.4999676846172868 11.64007191864876 33.683973755608726 0 0 0
327 6 3.9118718520018163 12.496215855023324 36.112767166169874 0 0 0
356 4 1.3902180302578364 12.349413335147633 35.85319522108526 0 0 0
298 2 5.1944989724506225 12.27996033478543 34.21782301879188 0 0 0
299 7 6.978410304459643 11.563729186035841 33.68650150414612 0 0 0
323 6 5.22538445005694 10.227928228522424 35.579420650845556 0 0 0
324 7 7.900961083230813 10.340532489357624 35.71102746935564 0 0 0
328 7 6.4625478582897085 12.506635875623914 35.92687986909946 0 0 0
294 7 8.76082402863395 9.270120904192435 33.69779101645662 0 0 0
295 6 11.261424198961715 9.683063647975672 33.77037125324895 0 0 0
300 7 9.365830502176118 11.529438056640887 34.162019802161744 0 0 0
325 7 10.248506040679498 9.83791566589028 37.027693104997425 0 0 0
329 3 9.516751114792807 11.390962145987524 36.194913340107256 0 0 0
330 4 11.248538623401247 12.052733296860435 35.57244316039144 0 0 0
335 5 9.889052126242106 12.899655041245355 37.38548484264839 0 -1 0
332 7 2.4762397154156277 0.08817806402485194 38.04220278982131 0 0 0
336 7 1.3294313934211013 2.1702678772058515 37.83640450242075 0 0 0
337 7 3.8672144650994023 2.180538748277542 37.867105075789404 0 0 0
341 7 0.20383143413182597 4.230906303618455 38.081528551467045 0 0 0
342 7 2.7085254079808063 4.278682887955139 37.92967508102493 0 0 0
333 7 5.202475882092239 0.1434348714561636 38.130022799524795 0 0 0
334 7 7.638673794681439 0.06457893276115781 38.02433316121548 0 0 0
338 7 6.484299282581994 2.234243677647174 37.905776990300105 0 0 0
339 7 8.972973476220758 2.185266254675775 37.940481266405534 0 0 0
340 7 11.360939260167113 2.1788476266873036 37.73107868264038 0 0 0
361 8 8.87654145555273 3.640523281959643 38.943626897590484 0 0 0
346 7 1.5107401995960072 6.393466521154474 37.993790098054006 0 0 0
347 6 3.9580506216964357 6.460347380183763 37.763489415484 0 0 0
343 7 5.301569822915212 4.419605321051847 37.841420891992016 0 0 0
344 7 7.804887064922514 4.431859393758327 37.87821663965944 0 0 0
348 6 6.652493033481921 6.664644282051496 37.83090938533305 0 0 0
345 4 10.190909333102725 4.313515450639375 37.84715651366272 0 0 0
349 7 9.238559726772083 6.6125192073429035 37.85744757354095 0 0 0
351 7 12.23481366394421 8.545089009658623 37.84184333303698 -1 0 0
352 6 2.483543924630323 8.649487561345765 37.690665680765576 0 0 0
357 7 3.8359159046778974 10.795667700121248 37.95628720904422 0 0 0
360 7 1.3809833300523955 10.891341797314068 37.895257459441616 1 0 0
353 7 5.116161103614297 8.688091896816752 37.832132121635055 0 0 0
354 7 7.953675901319128 8.94338835675845 37.817483550414856 0 0 0
358 6 6.41316936271614 10.840072525666725 37.79339761627221 0 0 0
331 7 12.379609933185339 12.873590894346759 37.62521521893717 -1 -1 0
359 2 8.589884588945575 11.157524806187784 37.419493379184196 0 0 0

Velocities

1 0 0 0
2 0 0 0
3 0 0 0
9 0 0 0
5 0 0 0
6 0 0 0
10 0 0 0
16 0 0 0
20 0 0 0
26 0 0 0
27 0 0 0
23 0 0 0
28 0 0 0
29 0 0 0
24 0 0 0
25 0 0 0
30 0 0 0
7 0 0 0
31 0 0 0
32 0 0 0
36 0 0 0
37 0 0 0
56 0 0 0
8 0 0 0
33 0 0 0
34 0 0 0
38 0 0 0
4 0 0 0
35 0 0 0
39 0 0 0
40 0 0 0
11 0 0 0
12 0 0 0
17 0 0 0
42 0 0 0
47 0 0 0
13 0 0 0
18 0 0 0
19 0 0 0
43 0 0 0
44 0 0 0
48 0 0 0
14 0 0 0
15 0 0 0
41 0 0 0
45 0 0 0
49 0 0 0
50 0 0 0
85 0 0 0
21 0 0 0
22 0 0 0
46 0 0 0
52 0 0 0
57 0 0 0
87 0 0 0
53 0 0 0
54 0 0 0
58 0 0 0
51 0 0 0
55 0 0 0
59 0 0 0
60 0 0 0
66 0 0 0
67 0 0 0
91 0 0 0
92 0 0 0
96 0 0 0
97 0 0 0
63 0 0 0
64 0 0 0
68 0 0 0
74 0 0 0
93 0 0 0
98 0 0 0
99 0 0 0
65 0 0 0
69 0 0 0
70 0 0 0
75 0 0 0
94 0 0 0
95 0 0 0
100 0 0 0
72 0 0 0
76 0 0 0
77 0 0 0
82 0 0 0
101 0 0 0
102 0 0 0
107 0 0 0
73 0 0 0
78 0 0 0
103 0 0 0
108 0 0 0
109 0 0 0
71 0 0 0
79 0 0 0
80 0 0 0
81 0 0 0
104 0 0 0
105 0 0 0
106 0 0 0
110 0 0 0
61 0 0 0
62 0 0 0
86 0 0 0
111 0 0 0
112 0 0 0
116 0 0 0
117 0 0 0
83 0 0 0
84 0 0 0
88 0 0 0
113 0 0 0
118 0 0 0
119 0 0 0
89 0 0 0
90 0 0 0
114 0 0 0
115 0 0 0
120 0 0 0
121 0 0 0
122 0 0 0
126 0 0 0
127 0 0 0
156 0 0 0
157 0 0 0
162 0 0 0
123 0 0 0
124 0 0 0
128 0 0 0
153 0 0 0
158 0 0 0
163 0 0 0
164 0 0 0
125 0 0 0
129 0 0 0
130 0 0 0
155 0 0 0
159 0 0 0
160 0 0 0
165 0 0 0
131 0 0 0
132 0 0 0
136 0 0 0
137 0 0 0
161 0 0 0
166 0 0 0
167 0 0 0
171 0 0 0
172 0 0 0
133 0 0 0
134 0 0 0
138 0 0 0
168 0 0 0
173 0 0 0
135 0 0 0
139 0 0 0
140 0 0 0
169 0 0 0
170 0 0 0
175 0 0 0
141 0 0 0
142 0 0 0
146 0 0 0
147 0 0 0
151 0 0 0
152 0 0 0
176 0 0 0
177 0 0 0
143 0 0 0
144 0 0 0
148 0 0 0
154 0 0 0
178 0 0 0
145 0 0 0
149 0 0 0
150 0 0 0
174 0 0 0
179 0 0 0
180 0 0 0
181 0 0 0
182 0 0 0
186 0 0 0
187 0 0 0
211 0 0 0
212 0 0 0
216 0 0 0
217 0 0 0
183 0 0 0
188 0 0 0
189 0 0 0
213 0 0 0
214 0 0 0
218 0 0 0
184 0 0 0
185 0 0 0
190 0 0 0
215 0 0 0
219 0 0 0
220 0 0 0
191 0 0 0
192 0 0 0
196 0 0 0
197 0 0 0
221 0 0 0
222 0 0 0
226 0 0 0
227 0 0 0
193 0 0 0
198 0 0 0
199 0 0 0
223 0 0 0
224 0 0 0
228 0 0 0
194 0 0 0
195 0 0 0
200 0 0 0
225 0 0 0
229 0 0 0
230 0 0 0
201 0 0 0
202 0 0 0
206 0 0 0
207 0 0 0
231 0 0 0
232 0 0 0
236 0 0 0
203 0 0 0
208 0 0 0
209 0 0 0
233 0 0 0
234 0 0 0
238 0 0 0
204 0 0 0
205 0 0 0
210 0 0 0
235 0 0 0
239 0 0 0
240 0 0 0
237 0 0 0
241 0 0 0
242 0 0 0
246 0 0 0
247 0 0 0
251 0 0 0
252 0 0 0
248 0 0 0
253 0 0 0
254 0 0 0
249 0 0 0
250 0 0 0
255 0 0 0
256 0 0 0
257 0 0 0
286 0 0 0
258 0 0 0
264 0 0 0
259 0 0 0
260 0 0 0
284 0 0 0
285 0 0 0
290 0 0 0
261 0 0 0
262 0 0 0
266 0 0 0
267 0 0 0
292 0 0 0
243 0 0 0
244 0 0 0
263 0 0 0
268 0 0 0
293 0 0 0
245 0 0 0
265 0 0 0
269 0 0 0
270 0 0 0
296 0 0 0
271 0 0 0
272 0 0 0
276 0 0 0
277 0 0 0
301 0 0 0
302 0 0 0
306 0 0 0
307 0 0 0
273 0 0 0
278 0 0 0
279 0 0 0
303 0 0 0
304 0 0 0
308 0 0 0
274 0 0 0
275 0 0 0
280 0 0 0
305 0 0 0
309 0 0 0
310 0 0 0
281 0 0 0
282 0 0 0
287 0 0 0
312 0 0 0
316 0 0 0
317 0 0 0
283 0 0 0
288 0 0 0
289 0 0 0
313 0 0 0
314 0 0 0
318 0 0 0
311 0 0 0
315 0 0 0
319 0 0 0
320 0 0 0
350 0 0 0
355 0 0 0
291 0 0 0
297 0 0 0
321 0 0 0
322 0 0 0
326 0 0 0
327 0 0 0
356 0 0 0
298 0 0 0
299 0 0 0
323 0 0 0
324 0 0 0
328 0 0 0
294 0 0 0
295 0 0 0
300 0 0 0
325 0 0 0
329 0 0 0
330 0 0 0
335 0 0 0
332 0 0 0
336 0 0 0
337 0 0 0
341 0 0 0
342 0 0 0
333 0 0 0
334 0 0 0
338 0 0 0
339 0 0 0
340 0 0 0
361 0 0 0
346 0 0 0
347 0 0 0
343 0 0 0
344 0 0 0
348 0 0 0
345 0 0 0
349 0 0 0
351 0 0 0
352 0 0 0
357 0 0 0
360 0 0 0
353 0 0 0
354 0 0 0
358 0 0 0
331 0 0 0
359 0 0 0
