LAMMPS data file via write_data, version 11 Feb 2026, timestep = 144, units = metal

361 atoms
8 atom types

0 12.447907776 xlo xhi
0 12.9362452296 ylo yhi
0 52.3600831054 zlo zhi

Masses

1 26.9815
2 10.811
3 12.011
4 51.9961
5 55.845
6 95.95999999999999
7 58.6934
8 1.008

Atoms # atomic/kk

1 7 1.1447475034 1.4042530815 14.1767669076 0 0 0
2 7 3.6084602259 1.0698845996 14.6704381247 0 0 0
3 5 6.0765506298 0.9467816033 14.9127945674 0 0 0
9 7 7.3904254576 3.1552415677 14.921343358 0 0 0
5 7 11.0497419237 1.2529911546 14.6024861837 0 0 0
6 7 12.371824795299998 3.4559595715 14.8227813157 -1 0 0
10 7 9.9130540797 3.3904065996 14.7812471609 0 0 0
16 4 0.4694173902 7.8125304368 14.7997570607 0 0 0
20 7 10.4454755951 7.6697182118 14.1848688757 0 0 0
26 7 0.1281197666 12.2044764222 14.9105894271 0 0 0
27 7 2.482376412 11.8082341077 14.4640395444 0 0 0
23 7 6.9215809143 9.0056325864 14.7794199109 0 0 0
28 7 4.9597127568 11.7869866321 14.6074736033 0 0 0
29 6 7.487468691 11.492489151 14.9214469503 0 0 0
24 7 9.211267288 9.7383043985 14.542324574 0 0 0
25 7 11.7628351674 9.8745411843 14.7910184475 0 0 0
30 7 10.0617556164 11.945152431 14.7619795889 0 0 0
7 7 2.4276438825 3.274586701 14.9921379853 0 0 0
31 6 0.1320668178 1.5666912763 16.54569988 0 0 0
32 7 2.6047881521 1.6851371804 16.9156842324 0 0 0
36 7 1.2195215325 3.8560608354 17.0299024962 0 0 0
37 7 3.7103479774 3.8371572501 17.0572271382 0 0 0
56 2 1.9139638832 0.320698286899999 15.6094045829 0 1 0
8 7 4.9287232821 3.1271355871 15.0109940309 0 0 0
33 7 4.9854693445 1.6648399647 16.9552168616 0 0 0
34 7 7.410113639 1.7690174525 16.9802513671 0 0 0
38 5 6.1786870847 3.8598965293 16.9892925392 0 0 0
4 6 8.6405916037 0.9966073374 15.0011028893 0 0 0
35 7 9.9854439602 1.6623584179 16.9441720819 0 0 0
39 7 8.7306918901 3.8627101762 16.8623801969 0 0 0
40 7 11.1905275305 3.8067890199 17.0006893521 0 0 0
11 7 1.2348702966 5.4950064056 15.0806985502 0 0 0
12 7 3.723333195 5.3162088046 15.091556138 0 0 0
17 7 2.6528824888 7.4951525199 15.1538371669 0 0 0
42 7 2.4538170063 6.1274901805 17.1415379148 0 0 0
47 7 3.8866203033 8.1976953877 17.0635533141 0 0 0
13 7 6.1787690715 5.3054540189 15.034535629 0 0 0
18 7 5.0798141029 7.4787706901 15.0688046453 0 0 0
19 2 7.0597951203 7.0189274967 15.3897174295 0 0 0
43 7 4.9526824561 5.9628190941 17.0949149841 0 0 0
44 7 7.4770692341 5.9405064365 17.0881545432 0 0 0
48 7 6.3467693742 8.0549577382 17.0498728177 0 0 0
14 7 8.7041968087 5.6586120419 14.9658205562 0 0 0
15 6 11.1806031706 5.6044565055 15.1850152514 0 0 0
41 7 12.442168210099998 5.9982391836 17.2267436521 -1 0 0
45 7 9.923455112 6.0385351278 17.2532666192 0 0 0
49 7 8.7166078523 7.9219477302 16.0697967416 0 0 0
50 7 11.1854260308 7.9909608595 16.4539207548 0 0 0
85 6 9.7874825474 8.473382021 18.5408467256 0 0 0
21 2 1.1654244367 10.4783622607 15.2130316912 0 0 0
22 7 2.969847795 9.8650340587 15.6453950804 0 0 0
46 7 0.7946061559 9.3672820405 16.8749701293 0 0 0
52 7 1.3503573598 11.8646523864 16.9891542204 0 0 0
57 7 3.753873893 12.4366743176 16.6098759546 0 0 0
87 1 3.6650451701 10.7156807278 18.2659007397 0 0 0
53 7 5.3358928559 10.1219872041 16.3275402765 0 0 0
54 7 7.7336051436 10.0538114804 16.9470367537 0 0 0
58 6 6.3195663174 12.3667352783 16.9550847684 0 0 0
51 3 11.519673145099999 9.370279149 17.6624171524 -1 0 0
55 7 10.1852587848 10.2759719364 16.6816821896 0 0 0
59 7 8.8367077706 12.3810361477 16.9622360876 0 0 0
60 7 11.2428990064 12.4670428062 16.882988677 0 0 0
66 6 1.393007034 2.1659191631 19.0534804658 0 0 0
67 5 3.8310712323 2.169749835 19.077551421 0 0 0
91 4 1.3610097719 0.7490016766 21.3001474804 0 0 0
92 7 3.7532698079 0.7243006354 21.0553737996 0 0 0
96 7 0.082079932 2.7970216106 21.1874527472 0 0 0
97 7 2.5927240934 2.8497939446 21.1992924965 0 0 0
63 5 4.9567742477 0.0529982254 18.9618634931 0 0 0
64 7 7.4416746235 0.0821708056 19.1014191477 0 0 0
68 7 6.1949360288 2.1588642027 19.0801897325 0 0 0
74 6 7.5018096017 4.2853629911 19.0547359126 0 0 0
93 7 6.2598414465 0.7194660822 21.17367312 0 0 0
98 7 5.0257186556 2.8737258399 21.1536837203 0 0 0
99 5 7.4793105556 2.8150634673 21.1692986238 0 0 0
65 7 10.0018085899 0.0802466939 19.0961651875 0 0 0
69 7 8.7385472152 2.1539822136 18.9954608723 0 0 0
70 7 11.2870638013 2.2382207273 18.9541707741 0 0 0
75 5 9.908720947 4.3054275401 19.0335874063 0 0 0
94 7 8.7140507513 0.7135233683 21.2362014867 0 0 0
95 7 11.3045523296 0.6704651065 21.199536471 0 0 0
100 6 10.0309211856 2.7845552589 21.0550342549 0 0 0
72 7 2.4838430183 4.388962084 19.1070457725 0 0 0
76 7 1.200144222 6.4346976141 19.2600213636 0 0 0
77 7 3.7839563224 6.5073099035 19.1651823211 0 0 0
82 6 2.3588605673 8.4890673053 18.9154467805 0 0 0
101 7 1.204403147 4.986371594 21.2593935642 0 0 0
102 6 3.7298053141 5.0424743752 21.2297752978 0 0 0
107 7 2.4685484599 7.1728356576 21.2326094282 0 0 0
73 7 4.9759755061 4.316411451 19.087212733 0 0 0
78 7 6.1965388899 6.5190956683 19.1399785413 0 0 0
103 7 6.2751972116 5.0470676015 21.1760724515 0 0 0
108 7 5.0116983743 7.22861409 21.2268755354 0 0 0
109 7 7.4193353481 7.2485706051 21.2651304498 0 0 0
71 1 12.383629132 4.3782094725 19.1862342201 -1 0 0
79 7 8.6255974932 6.472044202 19.3232968982 0 0 0
80 7 11.1135754549 6.420590323 19.3581641471 0 0 0
81 4 12.342695017999999 8.4729562787 19.2006565517 -1 0 0
104 7 8.7408050898 5.0231569879 21.2437432022 0 0 0
105 3 10.084408905590422 4.372033956299551 22.288514987990357 0 0 0
106 7 12.435294388199999 7.0968971559 21.3158557077 -1 0 0
110 7 9.8903603607 7.1660305315 21.3021949042 0 0 0
61 6 0.0477387397 12.935022616100001 18.9949290075 0 -1 0
62 7 2.587482576 12.8543346047 19.0383469717 0 -1 0
86 7 1.2816847716 10.6903307998 19.1614661098 0 0 0
111 7 1.1796694452 9.2896516501 21.1960342799 0 0 0
112 6 3.7016357908 9.3557762036 21.1431867319 0 0 0
116 1 0.0369839214 11.486698451 21.2977096144 0 0 0
117 7 2.4704264091 11.5284142583 21.1452899236 0 0 0
83 7 4.9462384898 8.7330200409 19.0834474924 0 0 0
84 7 7.3974678157 8.6397297376 19.085743402 0 0 0
88 7 6.1625171869 10.8013148416 18.9301045672 0 0 0
113 7 6.2139769728 9.4092095126 21.0353192467 0 0 0
118 7 4.9639845145 11.5407295129 21.0425881559 0 0 0
119 4 7.3995383715 11.5362046003 21.0747824702 0 0 0
89 6 8.731338748 10.8500854071 19.0384744744 0 0 0
90 4 11.272219843 10.8209844576 18.9386324767 0 0 0
114 7 8.6997099562 9.3160354633 20.9928929717 0 0 0
115 6 11.109001975 9.2519683408 21.1755872983 0 0 0
120 7 9.9858618188 11.5164614705 21.1821863062 0 0 0
121 7 0.07745199468818809 1.3734923528889413 23.31376555961392 0 0 0
122 7 2.5687249640597374 1.384935692809752 23.33388526774961 0 0 0
126 6 1.3486694350498658 3.5679214759672857 23.26996272098044 0 0 0
127 7 3.8440880351634057 3.5715503191107993 23.366306080429773 0 0 0
156 1 1.4731863993473908 2.111193230530767 25.519971145217838 0 0 0
157 7 3.9594495285333045 2.117334844918505 25.448873464233724 0 0 0
162 7 2.592042861178104 4.243203441285561 25.43352982596301 0 0 0
123 7 4.9854275221194335 1.4099935557997028 23.16615267804628 0 0 0
124 7 7.387022973572231 1.4819611972958633 23.488087580100277 0 0 0
128 7 6.296797785297286 3.6459539048314182 23.18729280911989 0 0 0
153 7 5.188954103096474 0.05103816218647835 25.296478364754606 0 0 0
158 2 5.767658172798 2.4396140095918977 24.631609242289162 0 0 0
163 7 5.110914835896401 4.224637002653123 25.426636394129183 0 0 0
164 5 7.470243471336173 4.044754547091306 25.36425673754975 0 0 0
125 7 10.036469265841133 1.4084245536001185 23.35828604026438 0 0 0
129 7 8.744439074156368 3.5271280360047097 23.35133299501095 0 0 0
130 4 11.360372884213307 3.59706093593712 23.40613253240098 0 0 0
155 4 10.111835221231916 0.04297823824993829 25.55986582989288 0 0 0
159 7 8.861367928067853 2.079887826297922 25.4504825137812 0 0 0
160 7 11.393840415379929 2.1349947892980654 25.424563332254543 0 0 0
165 7 10.058425918074382 4.197376576841746 25.41602117336394 0 0 0
131 7 0.06417450544076925 5.7505667744193465 23.4078637045457 0 0 0
132 7 2.5355326198146364 5.778369510634816 23.364696416814276 0 0 0
136 7 1.295826271954989 7.891880079939801 23.30873544755166 0 0 0
137 7 3.7692092359776086 7.959654161063137 23.28231335128374 0 0 0
161 4 0.10231212272975966 4.319207934396473 25.47364817259926 0 0 0
166 7 1.330474575264154 6.392536051856315 25.435392325681658 0 0 0
167 7 3.800252783873422 6.41601600166736 25.448347415932517 0 0 0
171 6 0.10181664795819145 8.591366005794896 25.433911042434342 0 0 0
172 7 2.61458118757375 8.585770841232122 25.38057718290201 0 0 0
133 6 5.057476234138707 5.837981825641822 23.391925522512786 0 0 0
134 7 7.551690035566039 5.75737810250876 23.318795923602373 0 0 0
138 7 6.302635067099004 7.975436329633588 23.345829614803353 0 0 0
168 7 6.357091246005958 6.373233846841154 25.438254116611223 0 0 0
173 7 5.096027554074769 8.531244014664233 25.33722739334229 0 0 0
135 7 10.057008131262105 5.803741761277122 23.39185442691356 0 0 0
139 4 8.686213904817082 7.920104783304526 23.24760534163924 0 0 0
140 4 11.274765684693648 7.867980823650006 23.321551468993306 0 0 0
169 7 8.768084196792078 6.3096237600339595 25.38721356920751 0 0 0
170 7 11.281911519266007 6.385544793428649 25.452649078359524 0 0 0
175 6 9.878154403667796 8.545019173592365 25.526589572113714 0 0 0
141 7 0.012029700261624554 10.045212896150918 23.347731570917215 0 0 0
142 7 2.487811216410035 10.083558033372698 23.258712611816968 0 0 0
146 7 1.2941166017143386 12.212697302139548 23.354706771393545 0 0 0
147 7 3.7981111491226622 12.221632684616427 23.18447589339809 0 0 0
151 4 0.08416070954938755 12.852405663707348 25.419525745364947 0 -1 0
152 7 2.6462888050561695 12.921152728633354 25.378299776991547 0 -1 0
176 7 1.3340052480183477 10.776064353690442 25.436057007386403 0 0 0
177 6 3.870565518063191 10.793050813755407 25.27821612019962 0 0 0
143 7 5.0464735852613805 10.083093194571317 23.18552077986307 0 0 0
144 7 7.497073096096709 10.067522128460489 22.92368984698806 0 0 0
148 4 6.204168236660229 12.248342881714443 23.189368788554244 0 0 0
154 7 7.591838096737219 12.92122882642817 25.47620032693067 0 -1 0
178 6 6.608759593608145 10.519086012698871 25.224337033592832 0 0 0
145 7 9.987321294280617 10.051954163339408 23.319139471013067 0 0 0
149 6 8.699760455471955 12.250888880896845 23.33271749030116 0 0 0
150 7 11.238703565392516 12.195707921736943 23.40937385314159 0 0 0
174 3 8.404839705037118 9.485472958537276 24.427270071620576 0 0 0
179 5 8.990131096645344 10.901104009919683 25.583656493435864 0 0 0
180 5 11.328092237402455 10.844494178485585 25.510240086680973 0 0 0
181 7 1.3828276178522085 0.6421596729082116 27.502009430979342 0 0 0
182 7 3.8691785017746247 0.6799872837329303 27.441592318330404 0 0 0
186 7 0.16499665618919218 2.8360351512187005 27.499780815418234 0 0 0
187 7 2.653647190993562 2.829936949408133 27.57511974928029 0 0 0
211 7 0.20347737907414484 1.4229438943891766 29.595234391272733 0 0 0
212 7 2.704715984692959 1.3362107615619156 29.589081970105603 0 0 0
216 7 1.4056094532129788 3.5326451704098756 29.598416975366547 0 0 0
217 4 3.8182173339948418 3.550228184727039 29.61012422921144 0 0 0
183 7 6.302147111265235 0.694008351710239 27.57462377257351 0 0 0
188 7 5.075789365590548 2.8517804994703835 27.584997735746448 0 0 0
189 7 7.58788782233175 2.7727140813690765 27.469389615096993 0 0 0
213 5 5.127933615611461 1.4031984474808123 29.608450750823533 0 0 0
214 7 7.605668476117957 1.3351063256641946 29.59635647793715 0 0 0
218 7 6.3566736806042 3.5161940327642744 29.552878154111653 0 0 0
184 7 8.878664084424308 0.6980447343786633 27.57131041225381 0 0 0
185 4 11.37696891852152 0.7008052084429368 27.54470518922347 0 0 0
190 7 10.138339757066555 2.8107438424258033 27.497217382242084 0 0 0
215 7 10.117434614975085 1.382489512899059 29.636814609754296 0 0 0
219 7 8.83269287111478 3.4927961691009153 29.538458928317926 0 0 0
220 7 11.363093752599058 3.5380246878962835 29.530085866129397 0 0 0
191 7 1.3852414726863933 4.984208673258895 27.481551819373365 0 0 0
192 7 3.8267871395171023 4.967556907548138 27.492065033967727 0 0 0
196 7 0.13005895877809187 7.1348469248036075 27.506131096304475 0 0 0
197 7 2.572521065496001 7.170031455538802 27.484213355046236 0 0 0
221 7 0.1144439599344353 5.70430219206098 29.581203213724166 0 0 0
222 7 2.58545263956445 5.706061865311234 29.564054723319074 0 0 0
226 7 1.356591827591496 7.880028297515142 29.561555298221244 0 0 0
227 7 3.853114621006442 7.890341830114121 29.47836304707149 0 0 0
193 7 6.362098572127957 4.953897548436555 27.42273885572656 0 0 0
198 7 5.095069396062941 7.1507915105691 27.419580049956767 0 0 0
199 7 7.614165467407635 7.166888459516003 27.453867772398155 0 0 0
223 6 5.145090297243459 5.699407214529046 29.501388071898912 0 0 0
224 7 7.6371452893594745 5.717939203713763 29.5884750501164 0 0 0
228 7 6.386530466641947 7.891347758248289 29.497293207206692 0 0 0
194 6 8.840928035968728 4.9757437329581 27.500002481574093 0 0 0
195 7 11.354570963019466 4.972309676004282 27.516119803687463 0 0 0
200 7 10.117656607223308 7.135548367959052 27.546469039407416 0 0 0
225 7 10.095781791700453 5.719861194728976 29.613665329121392 0 0 0
229 7 8.839874523926682 7.862002341093284 29.52969755196554 0 0 0
230 7 11.362691360802618 7.908220409937613 29.533054948721723 0 0 0
201 5 1.3724374532617607 9.302276720701357 27.52142899041086 0 0 0
202 7 3.864998292050412 9.297972086031072 27.382050451863243 0 0 0
206 4 0.18140476477175196 11.45432291701868 27.53235526950016 0 0 0
207 7 2.6044376646357024 11.434411000280083 27.444713130076046 0 0 0
231 7 0.15898204058134172 10.055525462854435 29.57699215349135 0 0 0
232 7 2.6261136869034925 10.002641773199425 29.43417636764261 0 0 0
236 7 1.467429647909627 12.159932506282342 29.563189133058387 0 0 0
203 7 6.367545600168236 9.263785668858596 27.393282534796803 0 0 0
208 7 5.130994535933053 11.478230010995906 27.32459746463705 0 0 0
209 6 7.57564278589517 11.503829011540292 27.64132506413758 0 0 0
233 7 5.141528181727819 10.03342964047716 29.328222242615308 0 0 0
234 7 7.594405943116774 10.067368464030235 29.665794771398296 0 0 0
238 7 6.205796287257667 12.215332779843441 29.68147043495531 0 0 0
204 7 8.831868670084095 9.347247237726158 27.627107037827734 0 0 0
205 7 11.339025355356739 9.393861495315111 27.553844961059877 0 0 0
210 7 10.144865741675673 11.532595466711227 27.58897205379953 0 0 0
235 7 10.078322297694717 10.15869134756094 29.605477304902834 0 0 0
239 4 8.871404764749125 12.233723317678418 29.73391813008374 0 0 0
240 7 11.390348539145478 12.246296740383196 29.567184674791726 0 0 0
237 3 4.025739156183192 0.2705860969816395 30.558889862056617 0 1 0
241 7 0.1964440147583722 0.08201075654605124 31.64129310304752 0 0 0
242 7 2.5658584420989894 0.12028115898935433 31.751218862384164 0 0 0
246 4 1.3402837206042597 2.2239522604604898 31.667699453924648 0 0 0
247 7 3.874270484604419 2.1352899941851855 31.649488068767166 0 0 0
251 7 0.14290626032831127 4.309104304205065 31.659323197361115 0 0 0
252 7 2.628857258882414 4.305434200858784 31.68078279394472 0 0 0
248 7 6.4000452762782425 2.1370710059029174 31.652502808093853 0 0 0
253 7 5.105285793188039 4.298146162967413 31.63496142978618 0 0 0
254 7 7.614440628014768 4.301296102111923 31.60075588316587 0 0 0
249 7 8.843999012480651 2.091273747315009 31.687033753211875 0 0 0
250 7 11.377283663377018 2.1231918184019287 31.663773999173596 0 0 0
255 1 10.101359675581719 4.207900400683676 31.51468509391648 0 0 0
256 7 1.3241379844554642 6.486672626762318 31.645461129734286 0 0 0
257 6 3.785570096403363 6.488773245623555 31.678859816288956 0 0 0
286 7 0.10011163438129603 7.261524334117034 33.640649880626384 0 0 0
258 7 6.34390339549444 6.483099022111104 31.630608576854314 0 0 0
264 7 7.583397600828113 8.565158478382596 31.62226221567969 0 0 0
259 4 8.81587587543692 6.448481010518647 31.633071049306256 0 0 0
260 7 11.310908088426219 6.475896205351853 31.60408150728323 0 0 0
284 5 8.877764940216526 5.106481119931828 33.58964368968131 0 0 0
285 4 11.350088978712666 5.143200297676515 33.65084105396667 0 0 0
290 7 10.08216161316405 7.2459857460509225 33.60041086567688 0 0 0
261 7 0.1696400787143368 8.692289397922181 31.6657593416099 0 0 0
262 7 2.6553609621890164 8.703457991093067 31.539544361819676 0 0 0
266 7 1.5559246194163459 10.81610076320451 31.57976629684299 0 0 0
267 4 3.910230580502767 11.257611122176483 30.859099109865966 0 0 0
292 7 3.950046223871389 9.353147170140458 33.50910793379005 0 0 0
243 7 5.163454155286676 12.888101776854688 32.099102042708 0 -1 0
244 7 7.620401924743031 12.926035814364369 31.71103656220405 0 -1 0
263 1 5.086250521617651 8.748339643148734 31.425162842479363 0 0 0
268 7 6.254532327459524 10.74947929394036 31.58122660688854 0 0 0
293 4 6.447186224171665 9.314832613390426 33.64372225861916 0 0 0
245 7 10.10407765270143 12.872628853450646 31.869947051822734 0 -1 0
265 6 10.095089245569678 8.66872941401371 31.5479221417958 0 0 0
269 7 8.76867891630242 10.789387305218208 31.752884106128416 0 0 0
270 7 11.421729634304643 10.890712738367078 31.617832814571173 0 0 0
296 3 11.06757413554736 11.82048772883435 33.32923899969184 -1 0 0
271 7 1.4708458919565046 0.8865000312407055 33.782018419135404 0 0 0
272 7 3.91735109609761 0.9355655655173747 33.9259160666881 0 0 0
276 7 0.17114408535441628 2.9752374804641835 33.73698661365904 0 0 0
277 7 2.640674436006886 3.05943996074468 33.8013771371001 0 0 0
301 7 0.18411174165050734 1.5323635728500882 35.7604082769521 0 0 0
302 7 2.6174660664878955 1.6456600599571019 35.86669748187065 0 0 0
306 4 1.4041692154237413 3.7970023995398194 35.94188912634024 0 0 0
307 7 3.986407350222132 3.720665685044049 35.84272775776016 0 0 0
273 7 6.451018981332413 0.9613726839358703 33.90413344208619 0 0 0
278 1 5.207142977291008 2.985658310084823 33.72845638608503 0 0 0
279 7 7.716707844347206 3.030953638089477 33.73629384239577 0 0 0
303 7 5.235513258481013 1.6529009864213136 35.94630440143964 0 0 0
304 4 7.747233920257671 1.6281334945175328 35.92088580119095 0 0 0
308 7 6.5139288668496675 3.7012766196386413 35.80981161231098 0 0 0
274 7 8.826084324988665 0.8858760494393284 33.84126095426948 0 0 0
275 4 11.432100923311564 0.7837434351834173 33.717158450752095 0 0 0
280 7 10.194687073847453 2.9831992972407573 33.71365411407019 0 0 0
305 7 10.213300610659683 1.5506390751007137 35.72944577257961 0 0 0
309 7 9.004647383007429 3.6631649537427617 35.781940305000795 0 0 0
310 4 11.563312297470498 3.9150336781065063 35.846407573737956 0 0 0
281 7 1.3239475025899172 5.16337885417577 33.86759698736524 0 0 0
282 4 3.8417199182513513 5.128006406528186 33.79221304612165 0 0 0
287 7 2.6282349488164622 7.272295480781639 33.76695694307692 0 0 0
312 7 2.7079823370512686 5.771563978852279 35.815917397164526 0 0 0
316 7 1.2306558351645118 7.60793746537775 35.82056516537617 0 0 0
317 7 3.918336643374865 8.03062824807135 35.74759388067513 0 0 0
283 7 6.369599939356368 5.0912780274612786 33.68196319425706 0 0 0
288 7 5.181086188085216 7.258276426632722 33.68157067485304 0 0 0
289 7 7.62868876897832 7.174734825446673 33.71429393952688 0 0 0
313 7 5.249812053858654 5.915930322469204 35.74792301867905 0 0 0
314 7 7.708120020498159 5.814824225992232 35.75077012769015 0 0 0
318 4 6.563866099938861 8.109570776743386 35.798539583668195 0 0 0
311 2 12.398062151641307 5.980906279370214 35.34538012018186 -1 0 0
315 7 10.125090538769562 5.795929508973832 35.58524570644809 0 0 0
319 7 8.960300094043346 7.966810534679191 35.81962496494066 0 0 0
320 7 11.358357882483755 7.916126863895049 35.592509045567546 0 0 0
350 7 11.655089240164953 6.2725265874821705 37.311028528601746 0 0 0
355 3 10.436828572264098 7.888587639551594 37.26792123078274 0 0 0
291 7 1.4602982297645268 9.410724966525768 33.74459622700951 0 0 0
297 6 3.01097345660464 11.552625375176962 33.68914508668198 0 0 0
321 6 0.20144768978891892 10.059089358369608 35.91521463515627 0 0 0
322 7 2.686780370299141 10.156275794835306 35.78272006792898 0 0 0
326 7 0.4971013467014115 11.639054743055787 33.68409307609124 0 0 0
327 6 3.9154414286983235 12.478062268981851 36.10318907658876 0 0 0
356 4 1.3950710202116774 12.343865906798674 35.84709544526348 0 0 0
298 2 5.198467147002808 12.263439048951621 34.2022761082955 0 0 0
299 7 6.997324293850061 11.571978015831439 33.678200716284046 0 0 0
323 6 5.22422721808404 10.217602570402466 35.56966617647076 0 0 0
324 7 7.907595156443531 10.350890481028449 35.710021436134994 0 0 0
328 7 6.458945343481583 12.505443509262864 35.911683537337375 0 0 0
294 7 8.763070046859944 9.277105985449841 33.695937119032926 0 0 0
295 6 11.261118552822962 9.68845280836485 33.767264996896884 0 0 0
300 7 9.380847288830747 11.535884841066403 34.170900623158985 0 0 0
325 7 10.256262936408906 9.82880285574726 37.03504589402745 0 0 0
329 3 9.5297740960019 11.38933376325155 36.2056678575213 0 0 0
330 4 11.254351093016815 12.072620106225305 35.582491723591176 0 0 0
335 5 9.902994495910797 12.898668337090477 37.398525367219975 0 -1 0
332 7 2.4837244347703775 0.09686146402702668 38.031084537841224 0 0 0
336 7 1.326809284176571 2.1804300397586016 37.834347728338074 0 0 0
337 7 3.870085304473696 2.1960256663238127 37.87320225030821 0 0 0
341 7 0.20256795190099072 4.248707704422793 38.047563368623116 0 0 0
342 7 2.6945495182481203 4.288983976582262 37.90996731438661 0 0 0
333 7 5.210203901659131 0.16117798263063401 38.112238355777784 0 0 0
334 7 7.645305860828387 0.0670534043201697 37.9981351514669 0 0 0
338 7 6.522557964239346 2.2591642246082215 37.904420198482185 0 0 0
339 7 8.980608878381686 2.185575648258372 37.85449971249283 0 0 0
340 7 11.358942777115255 2.1903703948852327 37.72618303145323 0 0 0
346 7 1.4444138743270052 6.391316601834655 38.05755122723882 0 0 0
347 6 3.9491492465924365 6.477374450331703 37.820391786337495 0 0 0
361 8 2.637369244503284 7.20870358723129 39.04748068126915 0 0 0
343 7 5.287797545155475 4.426070341313074 37.83174113598448 0 0 0
344 7 7.819458032128718 4.443615722801269 37.85255678099446 0 0 0
348 6 6.647005590372019 6.669462476917699 37.82258798449662 0 0 0
345 4 10.206331133792677 4.329999540269238 37.8068751581173 0 0 0
349 7 9.226591008742865 6.62740556168912 37.86615131223207 0 0 0
351 7 12.269597556425104 8.552263001411092 37.83702116782283 -1 0 0
352 6 2.513367487958348 8.663412295350366 37.748696033523444 0 0 0
357 7 3.8491625906890814 10.807759906312361 37.963286878812355 0 0 0
360 7 1.3937687614915588 10.89169346825771 37.88966888253428 1 0 0
353 7 5.145026961702371 8.707603629407776 37.80715138459705 0 0 0
354 7 7.952991326114452 8.950315180606482 37.81270469383352 0 0 0
358 6 6.418933073497539 10.854811768154088 37.79108061006348 0 0 0
331 7 12.38996940017536 12.879351226953723 37.63017440815811 -1 -1 0
359 2 8.599929991498657 11.154843077802306 37.42799046635944 0 0 0

Velocities

1 0 0 0
2 0 0 0
3 0 0 0
9 0 0 0
5 0 0 0
6 0 0 0
10 0 0 0
16 0 0 0
20 0 0 0
26 0 0 0
27 0 0 0
23 0 0 0
28 0 0 0
29 0 0 0
24 0 0 0
25 0 0 0
30 0 0 0
7 0 0 0
31 0 0 0
32 0 0 0
36 0 0 0
37 0 0 0
56 0 0 0
8 0 0 0
33 0 0 0
34 0 0 0
38 0 0 0
4 0 0 0
35 0 0 0
39 0 0 0
40 0 0 0
11 0 0 0
12 0 0 0
17 0 0 0
42 0 0 0
47 0 0 0
13 0 0 0
18 0 0 0
19 0 0 0
43 0 0 0
44 0 0 0
48 0 0 0
14 0 0 0
15 0 0 0
41 0 0 0
45 0 0 0
49 0 0 0
50 0 0 0
85 0 0 0
21 0 0 0
22 0 0 0
46 0 0 0
52 0 0 0
57 0 0 0
87 0 0 0
53 0 0 0
54 0 0 0
58 0 0 0
51 0 0 0
55 0 0 0
59 0 0 0
60 0 0 0
66 0 0 0
67 0 0 0
91 0 0 0
92 0 0 0
96 0 0 0
97 0 0 0
63 0 0 0
64 0 0 0
68 0 0 0
74 0 0 0
93 0 0 0
98 0 0 0
99 0 0 0
65 0 0 0
69 0 0 0
70 0 0 0
75 0 0 0
94 0 0 0
95 0 0 0
100 0 0 0
72 0 0 0
76 0 0 0
77 0 0 0
82 0 0 0
101 0 0 0
102 0 0 0
107 0 0 0
73 0 0 0
78 0 0 0
103 0 0 0
108 0 0 0
109 0 0 0
71 0 0 0
79 0 0 0
80 0 0 0
81 0 0 0
104 0 0 0
105 0 0 0
106 0 0 0
110 0 0 0
61 0 0 0
62 0 0 0
86 0 0 0
111 0 0 0
112 0 0 0
116 0 0 0
117 0 0 0
83 0 0 0
84 0 0 0
88 0 0 0
113 0 0 0
118 0 0 0
119 0 0 0
89 0 0 0
90 0 0 0
114 0 0 0
115 0 0 0
120 0 0 0
121 0 0 0
122 0 0 0
126 0 0 0
127 0 0 0
156 0 0 0
157 0 0 0
162 0 0 0
123 0 0 0
124 0 0 0
128 0 0 0
153 0 0 0
158 0 0 0
163 0 0 0
164 0 0 0
125 0 0 0
129 0 0 0
130 0 0 0
155 0 0 0
159 0 0 0
160 0 0 0
165 0 0 0
131 0 0 0
132 0 0 0
136 0 0 0
137 0 0 0
161 0 0 0
166 0 0 0
167 0 0 0
171 0 0 0
172 0 0 0
133 0 0 0
134 0 0 0
138 0 0 0
168 0 0 0
173 0 0 0
135 0 0 0
139 0 0 0
140 0 0 0
169 0 0 0
170 0 0 0
175 0 0 0
141 0 0 0
142 0 0 0
146 0 0 0
147 0 0 0
151 0 0 0
152 0 0 0
176 0 0 0
177 0 0 0
143 0 0 0
144 0 0 0
148 0 0 0
154 0 0 0
178 0 0 0
145 0 0 0
149 0 0 0
150 0 0 0
174 0 0 0
179 0 0 0
180 0 0 0
181 0 0 0
182 0 0 0
186 0 0 0
187 0 0 0
211 0 0 0
212 0 0 0
216 0 0 0
217 0 0 0
183 0 0 0
188 0 0 0
189 0 0 0
213 0 0 0
214 0 0 0
218 0 0 0
184 0 0 0
185 0 0 0
190 0 0 0
215 0 0 0
219 0 0 0
220 0 0 0
191 0 0 0
192 0 0 0
196 0 0 0
197 0 0 0
221 0 0 0
222 0 0 0
226 0 0 0
227 0 0 0
193 0 0 0
198 0 0 0
199 0 0 0
223 0 0 0
224 0 0 0
228 0 0 0
194 0 0 0
195 0 0 0
200 0 0 0
225 0 0 0
229 0 0 0
230 0 0 0
201 0 0 0
202 0 0 0
206 0 0 0
207 0 0 0
231 0 0 0
232 0 0 0
236 0 0 0
203 0 0 0
208 0 0 0
209 0 0 0
233 0 0 0
234 0 0 0
238 0 0 0
204 0 0 0
205 0 0 0
210 0 0 0
235 0 0 0
239 0 0 0
240 0 0 0
237 0 0 0
241 0 0 0
242 0 0 0
246 0 0 0
247 0 0 0
251 0 0 0
252 0 0 0
248 0 0 0
253 0 0 0
254 0 0 0
249 0 0 0
250 0 0 0
255 0 0 0
256 0 0 0
257 0 0 0
286 0 0 0
258 0 0 0
264 0 0 0
259 0 0 0
260 0 0 0
284 0 0 0
285 0 0 0
290 0 0 0
261 0 0 0
262 0 0 0
266 0 0 0
267 0 0 0
292 0 0 0
243 0 0 0
244 0 0 0
263 0 0 0
268 0 0 0
293 0 0 0
245 0 0 0
265 0 0 0
269 0 0 0
270 0 0 0
296 0 0 0
271 0 0 0
272 0 0 0
276 0 0 0
277 0 0 0
301 0 0 0
302 0 0 0
306 0 0 0
307 0 0 0
273 0 0 0
278 0 0 0
279 0 0 0
303 0 0 0
304 0 0 0
308 0 0 0
274 0 0 0
275 0 0 0
280 0 0 0
305 0 0 0
309 0 0 0
310 0 0 0
281 0 0 0
282 0 0 0
287 0 0 0
312 0 0 0
316 0 0 0
317 0 0 0
283 0 0 0
288 0 0 0
289 0 0 0
313 0 0 0
314 0 0 0
318 0 0 0
311 0 0 0
315 0 0 0
319 0 0 0
320 0 0 0
350 0 0 0
355 0 0 0
291 0 0 0
297 0 0 0
321 0 0 0
322 0 0 0
326 0 0 0
327 0 0 0
356 0 0 0
298 0 0 0
299 0 0 0
323 0 0 0
324 0 0 0
328 0 0 0
294 0 0 0
295 0 0 0
300 0 0 0
325 0 0 0
329 0 0 0
330 0 0 0
335 0 0 0
332 0 0 0
336 0 0 0
337 0 0 0
341 0 0 0
342 0 0 0
333 0 0 0
334 0 0 0
338 0 0 0
339 0 0 0
340 0 0 0
346 0 0 0
347 0 0 0
361 0 0 0
343 0 0 0
344 0 0 0
348 0 0 0
345 0 0 0
349 0 0 0
351 0 0 0
352 0 0 0
357 0 0 0
360 0 0 0
353 0 0 0
354 0 0 0
358 0 0 0
331 0 0 0
359 0 0 0
