LAMMPS data file via write_data, version 11 Feb 2026, timestep = 142, units = metal

361 atoms
8 atom types

0 12.447907776 xlo xhi
0 12.9362452296 ylo yhi
0 52.3600831054 zlo zhi

Masses

1 26.9815
2 10.811
3 12.011
4 51.9961
5 55.845
6 95.95999999999999
7 58.6934
8 1.008

Atoms # atomic/kk

1 7 1.1447475034 1.4042530815 14.1767669076 0 0 0
2 7 3.6084602259 1.0698845996 14.6704381247 0 0 0
3 5 6.0765506298 0.9467816033 14.9127945674 0 0 0
9 7 7.3904254576 3.1552415677 14.921343358 0 0 0
5 7 11.0497419237 1.2529911546 14.6024861837 0 0 0
6 7 12.371824795299998 3.4559595715 14.8227813157 -1 0 0
10 7 9.9130540797 3.3904065996 14.7812471609 0 0 0
16 4 0.4694173902 7.8125304368 14.7997570607 0 0 0
20 7 10.4454755951 7.6697182118 14.1848688757 0 0 0
26 7 0.1281197666 12.2044764222 14.9105894271 0 0 0
27 7 2.482376412 11.8082341077 14.4640395444 0 0 0
23 7 6.9215809143 9.0056325864 14.7794199109 0 0 0
28 7 4.9597127568 11.7869866321 14.6074736033 0 0 0
29 6 7.487468691 11.492489151 14.9214469503 0 0 0
24 7 9.211267288 9.7383043985 14.542324574 0 0 0
25 7 11.7628351674 9.8745411843 14.7910184475 0 0 0
30 7 10.0617556164 11.945152431 14.7619795889 0 0 0
7 7 2.4276438825 3.274586701 14.9921379853 0 0 0
31 6 0.1320668178 1.5666912763 16.54569988 0 0 0
32 7 2.6047881521 1.6851371804 16.9156842324 0 0 0
36 7 1.2195215325 3.8560608354 17.0299024962 0 0 0
37 7 3.7103479774 3.8371572501 17.0572271382 0 0 0
56 2 1.9139638832 0.320698286899999 15.6094045829 0 1 0
8 7 4.9287232821 3.1271355871 15.0109940309 0 0 0
33 7 4.9854693445 1.6648399647 16.9552168616 0 0 0
34 7 7.410113639 1.7690174525 16.9802513671 0 0 0
38 5 6.1786870847 3.8598965293 16.9892925392 0 0 0
4 6 8.6405916037 0.9966073374 15.0011028893 0 0 0
35 7 9.9854439602 1.6623584179 16.9441720819 0 0 0
39 7 8.7306918901 3.8627101762 16.8623801969 0 0 0
40 7 11.1905275305 3.8067890199 17.0006893521 0 0 0
11 7 1.2348702966 5.4950064056 15.0806985502 0 0 0
12 7 3.723333195 5.3162088046 15.091556138 0 0 0
17 7 2.6528824888 7.4951525199 15.1538371669 0 0 0
42 7 2.4538170063 6.1274901805 17.1415379148 0 0 0
47 7 3.8866203033 8.1976953877 17.0635533141 0 0 0
13 7 6.1787690715 5.3054540189 15.034535629 0 0 0
18 7 5.0798141029 7.4787706901 15.0688046453 0 0 0
19 2 7.0597951203 7.0189274967 15.3897174295 0 0 0
43 7 4.9526824561 5.9628190941 17.0949149841 0 0 0
44 7 7.4770692341 5.9405064365 17.0881545432 0 0 0
48 7 6.3467693742 8.0549577382 17.0498728177 0 0 0
14 7 8.7041968087 5.6586120419 14.9658205562 0 0 0
15 6 11.1806031706 5.6044565055 15.1850152514 0 0 0
41 7 12.442168210099998 5.9982391836 17.2267436521 -1 0 0
45 7 9.923455112 6.0385351278 17.2532666192 0 0 0
49 7 8.7166078523 7.9219477302 16.0697967416 0 0 0
50 7 11.1854260308 7.9909608595 16.4539207548 0 0 0
85 6 9.7874825474 8.473382021 18.5408467256 0 0 0
21 2 1.1654244367 10.4783622607 15.2130316912 0 0 0
22 7 2.969847795 9.8650340587 15.6453950804 0 0 0
46 7 0.7946061559 9.3672820405 16.8749701293 0 0 0
52 7 1.3503573598 11.8646523864 16.9891542204 0 0 0
57 7 3.753873893 12.4366743176 16.6098759546 0 0 0
87 1 3.6650451701 10.7156807278 18.2659007397 0 0 0
53 7 5.3358928559 10.1219872041 16.3275402765 0 0 0
54 7 7.7336051436 10.0538114804 16.9470367537 0 0 0
58 6 6.3195663174 12.3667352783 16.9550847684 0 0 0
51 3 11.519673145099999 9.370279149 17.6624171524 -1 0 0
55 7 10.1852587848 10.2759719364 16.6816821896 0 0 0
59 7 8.8367077706 12.3810361477 16.9622360876 0 0 0
60 7 11.2428990064 12.4670428062 16.882988677 0 0 0
66 6 1.393007034 2.1659191631 19.0534804658 0 0 0
67 5 3.8310712323 2.169749835 19.077551421 0 0 0
91 4 1.3610097719 0.7490016766 21.3001474804 0 0 0
92 7 3.7532698079 0.7243006354 21.0553737996 0 0 0
96 7 0.082079932 2.7970216106 21.1874527472 0 0 0
97 7 2.5927240934 2.8497939446 21.1992924965 0 0 0
63 5 4.9567742477 0.0529982254 18.9618634931 0 0 0
64 7 7.4416746235 0.0821708056 19.1014191477 0 0 0
68 7 6.1949360288 2.1588642027 19.0801897325 0 0 0
74 6 7.5018096017 4.2853629911 19.0547359126 0 0 0
93 7 6.2598414465 0.7194660822 21.17367312 0 0 0
98 7 5.0257186556 2.8737258399 21.1536837203 0 0 0
99 5 7.4793105556 2.8150634673 21.1692986238 0 0 0
65 7 10.0018085899 0.0802466939 19.0961651875 0 0 0
69 7 8.7385472152 2.1539822136 18.9954608723 0 0 0
70 7 11.2870638013 2.2382207273 18.9541707741 0 0 0
75 5 9.908720947 4.3054275401 19.0335874063 0 0 0
94 7 8.7140507513 0.7135233683 21.2362014867 0 0 0
95 7 11.3045523296 0.6704651065 21.199536471 0 0 0
100 6 10.0309211856 2.7845552589 21.0550342549 0 0 0
72 7 2.4838430183 4.388962084 19.1070457725 0 0 0
76 7 1.200144222 6.4346976141 19.2600213636 0 0 0
77 7 3.7839563224 6.5073099035 19.1651823211 0 0 0
82 6 2.3588605673 8.4890673053 18.9154467805 0 0 0
101 7 1.204403147 4.986371594 21.2593935642 0 0 0
102 6 3.7298053141 5.0424743752 21.2297752978 0 0 0
107 7 2.4685484599 7.1728356576 21.2326094282 0 0 0
73 7 4.9759755061 4.316411451 19.087212733 0 0 0
78 7 6.1965388899 6.5190956683 19.1399785413 0 0 0
103 7 6.2751972116 5.0470676015 21.1760724515 0 0 0
108 7 5.0116983743 7.22861409 21.2268755354 0 0 0
109 7 7.4193353481 7.2485706051 21.2651304498 0 0 0
71 1 12.383629132 4.3782094725 19.1862342201 -1 0 0
79 7 8.6255974932 6.472044202 19.3232968982 0 0 0
80 7 11.1135754549 6.420590323 19.3581641471 0 0 0
81 4 12.342695017999999 8.4729562787 19.2006565517 -1 0 0
104 7 8.7408050898 5.0231569879 21.2437432022 0 0 0
105 3 10.084344664552603 4.372212990308537 22.288407808315487 0 0 0
106 7 12.435294388199999 7.0968971559 21.3158557077 -1 0 0
110 7 9.8903603607 7.1660305315 21.3021949042 0 0 0
61 6 0.0477387397 12.935022616100001 18.9949290075 0 -1 0
62 7 2.587482576 12.8543346047 19.0383469717 0 -1 0
86 7 1.2816847716 10.6903307998 19.1614661098 0 0 0
111 7 1.1796694452 9.2896516501 21.1960342799 0 0 0
112 6 3.7016357908 9.3557762036 21.1431867319 0 0 0
116 1 0.0369839214 11.486698451 21.2977096144 0 0 0
117 7 2.4704264091 11.5284142583 21.1452899236 0 0 0
83 7 4.9462384898 8.7330200409 19.0834474924 0 0 0
84 7 7.3974678157 8.6397297376 19.085743402 0 0 0
88 7 6.1625171869 10.8013148416 18.9301045672 0 0 0
113 7 6.2139769728 9.4092095126 21.0353192467 0 0 0
118 7 4.9639845145 11.5407295129 21.0425881559 0 0 0
119 4 7.3995383715 11.5362046003 21.0747824702 0 0 0
89 6 8.731338748 10.8500854071 19.0384744744 0 0 0
90 4 11.272219843 10.8209844576 18.9386324767 0 0 0
114 7 8.6997099562 9.3160354633 20.9928929717 0 0 0
115 6 11.109001975 9.2519683408 21.1755872983 0 0 0
120 7 9.9858618188 11.5164614705 21.1821863062 0 0 0
121 7 0.07769012673172263 1.3734461042479866 23.313318176289094 0 0 0
122 7 2.5690336461888448 1.3851138156953373 23.333174377548207 0 0 0
126 6 1.3486065846391977 3.5681619571869816 23.269120218767927 0 0 0
127 7 3.8440523215386513 3.5716943551226987 23.365089131970482 0 0 0
156 1 1.4732392082909076 2.1115156025460484 25.518001964117925 0 0 0
157 7 3.959436360889796 2.1178598009822562 25.44756292198201 0 0 0
162 7 2.592003628028723 4.243819295946799 25.43100672582429 0 0 0
123 7 4.985882437663545 1.4102201773942304 23.166290602899426 0 0 0
124 7 7.387196014565517 1.4814669318269729 23.490345428346767 0 0 0
128 7 6.296816891894017 3.6453561335435842 23.186976115799375 0 0 0
153 7 5.190304896852628 0.052369453715777406 25.297704516128427 0 0 0
158 2 5.769272785204014 2.4385735491880016 24.63261817817432 0 0 0
163 7 5.111305900099636 4.224930442611119 25.4244938712723 0 0 0
164 5 7.470595184312845 4.042668904357651 25.36312473469408 0 0 0
125 7 10.036582234960608 1.4078953729337405 23.358081247034885 0 0 0
129 7 8.744510577080272 3.526405899929104 23.350738900974303 0 0 0
130 4 11.36039066517361 3.596796937544708 23.40544676804044 0 0 0
155 4 10.112409048254095 0.04210368820852435 25.561719468772854 0 0 0
159 7 8.862582006727989 2.0786638662620893 25.450635237280594 0 0 0
160 7 11.394072534772016 2.1343673241945162 25.423617260918626 0 0 0
165 7 10.058621847291123 4.197109585011052 25.414764078343207 0 0 0
131 7 0.06391011328965365 5.750951511048211 23.407471322711718 0 0 0
132 7 2.535419857424037 5.778871105045051 23.363955620041775 0 0 0
136 7 1.2957228036537387 7.892477181440809 23.308727302552125 0 0 0
137 7 3.7693519355325917 7.959949390001367 23.28211638605044 0 0 0
161 4 0.10195843608706433 4.319396983063903 25.471834496749274 0 0 0
166 7 1.3303574487967607 6.393687631598916 25.434247602365957 0 0 0
167 7 3.8005265734672697 6.417226066442035 25.446693583434477 0 0 0
171 6 0.10199185162056737 8.592416017279726 25.434418619877007 0 0 0
172 7 2.6151536082799933 8.587253619350745 25.380250931346865 0 0 0
133 6 5.057739084062373 5.837953323388262 23.391197197095945 0 0 0
134 7 7.552037663656807 5.757146353687216 23.318644626493295 0 0 0
138 7 6.302721186411759 7.975283176421509 23.34517617336102 0 0 0
168 7 6.357751823971085 6.3740853675423095 25.437140559661064 0 0 0
173 7 5.096972753683862 8.532376032825407 25.336768705641568 0 0 0
135 7 10.056999091487354 5.803806185867045 23.391825053357476 0 0 0
139 4 8.686421199384434 7.920812047910715 23.248437447197613 0 0 0
140 4 11.274438987516556 7.868393257292277 23.322151067506116 0 0 0
169 7 8.76821532899829 6.309743363193446 25.387401510716103 0 0 0
170 7 11.28189817927342 6.3864429593048975 25.452759169102155 0 0 0
175 6 9.877437246281607 8.545527815813019 25.52854555821905 0 0 0
141 7 0.012143743906023977 10.045617815255651 23.347965755773572 0 0 0
142 7 2.4883149237976245 10.084021953022615 23.258952205850154 0 0 0
146 7 1.2944753227420402 12.212916214065132 23.354505449656294 0 0 0
147 7 3.7985697830351666 12.222007285919682 23.184381787925872 0 0 0
151 4 0.08464906624998406 12.852687144170728 25.41913390506457 0 -1 0
152 7 2.6471291253964337 12.921808605519043 25.377732458970712 0 -1 0
176 7 1.3344512437601403 10.776893307568994 25.43601837923619 0 0 0
177 6 3.871893791893849 10.794453410044518 25.278530650786795 0 0 0
143 7 5.046860218996766 10.083205491155336 23.185632832271462 0 0 0
144 7 7.497034914203308 10.067423403102364 22.924289251770603 0 0 0
148 4 6.204413819355293 12.24840029677302 23.189942642709354 0 0 0
154 7 7.592722652350288 12.920525568767987 25.48010303841206 0 -1 0
178 6 6.608959466987865 10.520792794080036 25.225717389014807 0 0 0
145 7 9.987508415367579 10.052373081344609 23.32018839234889 0 0 0
149 6 8.699682436465624 12.250566182523364 23.3346391620258 0 0 0
150 7 11.238909827484745 12.195808378545722 23.409779002427932 0 0 0
174 3 8.405307536808602 9.487326102380036 24.428322091655644 0 0 0
179 5 8.989787585289044 10.900463224384218 25.588201153314444 0 0 0
180 5 11.327861628502749 10.844808742285625 25.511183766666488 0 0 0
181 7 1.3841295439952161 0.6430687657087973 27.500671204693656 0 0 0
182 7 3.870480938555233 0.6805116431103225 27.44129606370594 0 0 0
186 7 0.1653978443785265 2.835665780773278 27.497404882450784 0 0 0
187 7 2.6543270138798483 2.8301896853877304 27.572077948532762 0 0 0
211 7 0.2049849719997256 1.4227981223136081 29.59430956367116 0 0 0
212 7 2.7072243567088474 1.3373116906561917 29.587779405769986 0 0 0
216 7 1.4051118777710672 3.532431442547418 29.593901571902165 0 0 0
217 4 3.818740674160788 3.5497913573284157 29.604944672755664 0 0 0
183 7 6.30344697235541 0.6922858710114844 27.579129691516773 0 0 0
188 7 5.077251278014183 2.8512502299279303 27.582092604868635 0 0 0
189 7 7.588703853719411 2.7704616173468994 27.468317541023367 0 0 0
213 5 5.129903255829074 1.4043809155522184 29.608548128884866 0 0 0
214 7 7.6071427719278715 1.331853171618588 29.600884190655247 0 0 0
218 7 6.358329994714395 3.513456135458031 29.550764051248347 0 0 0
184 7 8.879543878207231 0.696761285613908 27.574302453944604 0 0 0
185 4 11.377942895141189 0.7002476683654982 27.545671703938407 0 0 0
190 7 10.139154203981363 2.8095411501348946 27.49552691007143 0 0 0
215 7 10.119611192514183 1.3816411613100819 29.638087652791718 0 0 0
219 7 8.83337275570998 3.489092499571821 29.535350535302385 0 0 0
220 7 11.36402911492142 3.537140993142031 29.52740806323136 0 0 0
191 7 1.3850126831250353 4.984380903147856 27.477758485023188 0 0 0
192 7 3.8274741001197525 4.967446590764222 27.48739082247085 0 0 0
196 7 0.13083603370474006 7.136074062353431 27.50625205480991 0 0 0
197 7 2.5734081337397754 7.171489487238269 27.481941995856186 0 0 0
221 7 0.11472678729447792 5.705260784800557 29.578621020541263 0 0 0
222 7 2.585148797720703 5.70607036294008 29.555703597969938 0 0 0
226 7 1.3600699766391218 7.882496685600682 29.56100879926798 0 0 0
227 7 3.8558899371816566 7.892481729973893 29.475948390181994 0 0 0
193 7 6.363923565325332 4.952810791399824 27.419238058501087 0 0 0
198 7 5.096237137882434 7.151655186746009 27.417649458470027 0 0 0
199 7 7.614981916742604 7.166255113714211 27.45525169247193 0 0 0
223 6 5.147199002305898 5.697617140157973 29.49460886849063 0 0 0
224 7 7.638721085873592 5.71528408831113 29.586976363507702 0 0 0
228 7 6.387762414757799 7.890746195278084 29.499544446136543 0 0 0
194 6 8.842102527986906 4.9745054782391955 27.4987484067664 0 0 0
195 7 11.354950904411321 4.972275417457678 27.51463363531189 0 0 0
200 7 10.117771004010846 7.135699584671388 27.54777314808533 0 0 0
225 7 10.095995241073902 5.718805666414394 29.612193637175526 0 0 0
229 7 8.839653865497928 7.860941084657806 29.533989636716964 0 0 0
230 7 11.363322857880434 7.909749779134036 29.533344426795416 0 0 0
201 5 1.373525548159009 9.303893165453822 27.52184171016519 0 0 0
202 7 3.8664320591439143 9.29952514562817 27.381875579825625 0 0 0
206 4 0.18162862148359413 11.455584292871972 27.531864649471146 0 0 0
207 7 2.605332524995762 11.435424391222508 27.444336318488038 0 0 0
231 7 0.16004818556737768 10.057949228138279 29.57651470496256 0 0 0
232 7 2.6286032786151328 10.005208208210108 29.434806871461664 0 0 0
236 7 1.4679866265739607 12.161515911324912 29.56130628953488 0 0 0
203 7 6.368582630952062 9.263830655210521 27.394777111789317 0 0 0
208 7 5.132035857523302 11.478451435687298 27.326834800777508 0 0 0
209 6 7.576129283533702 11.502642370136398 27.64826277252055 0 0 0
233 7 5.144072890736805 10.033187966946379 29.330920315081883 0 0 0
234 7 7.594455696468054 10.066534887359252 29.673627615831958 0 0 0
238 7 6.205963719477829 12.214244058382986 29.690449419161638 0 0 0
204 7 8.832354833384896 9.34658404034192 27.631632674586488 0 0 0
205 7 11.339334774320777 9.394605637584469 27.5547160089007 0 0 0
210 7 10.14499919383193 11.532178579441908 27.59242321403928 0 0 0
235 7 10.079201258940987 10.158006587493764 29.609527828291093 0 0 0
239 4 8.87245434846339 12.233287141182446 29.741410430540437 0 0 0
240 7 11.39067020509368 12.245805342739464 29.56937403151804 0 0 0
237 3 4.030875078700531 0.2743696150759015 30.56320196660382 0 1 0
241 7 0.19694362298065995 0.08201295456925103 31.639196109996625 0 0 0
242 7 2.5653910542388676 0.12465185410327805 31.748577219772567 0 0 0
246 4 1.3388350530175166 2.225837974169305 31.66891354100015 0 0 0
247 7 3.874947261140706 2.136037557347806 31.64980479658895 0 0 0
251 7 0.14138523744783188 4.3092821189561255 31.655566055635756 0 0 0
252 7 2.626565450961713 4.304413103671815 31.671345285077624 0 0 0
248 7 6.400695875071339 2.131816006510054 31.65612530731297 0 0 0
253 7 5.106793321759326 4.293617346281381 31.628855997075448 0 0 0
254 7 7.616259932772051 4.294698199596821 31.597163967788532 0 0 0
249 7 8.845524771599758 2.0855009093293644 31.687990212208728 0 0 0
250 7 11.379446928326695 2.1222156157778578 31.664443011901685 0 0 0
255 1 10.099515492244686 4.203262770094946 31.50898008507295 0 0 0
256 7 1.3237211201590984 6.48857523149532 31.640546436513084 0 0 0
257 6 3.785684296375792 6.486684170538955 31.664028557406603 0 0 0
286 7 0.08765117065001818 7.2675699349351754 33.62915384027938 0 0 0
258 7 6.346096849385857 6.477346887164284 31.625139322225287 0 0 0
264 7 7.581100570870533 8.562971128846847 31.632002342299064 0 0 0
259 4 8.815322412130792 6.445079782446127 31.63447116287801 0 0 0
260 7 11.309058758151957 6.475735718773721 31.60057467821808 0 0 0
284 5 8.881727804275725 5.101613626043321 33.58766653209669 0 0 0
285 4 11.340689858989506 5.140935164462476 33.6403832586528 0 0 0
290 7 10.076138135254942 7.244270308235495 33.60347579568754 0 0 0
261 7 0.1730600680661472 8.695996592000597 31.659519995938254 0 0 0
262 7 2.664249324919515 8.709978370729337 31.543644302607373 0 0 0
266 7 1.5589479965557496 10.819461350760445 31.578635342429287 0 0 0
267 4 3.9140310334489765 11.260699028053631 30.85958995601349 0 0 0
292 7 3.9633853695110686 9.367472557795345 33.523257362094164 0 0 0
243 7 5.160258613419326 12.88744978214891 32.11027008213579 0 -1 0
244 7 7.618978041822496 12.920624043213696 31.72397212481341 0 -1 0
263 1 5.089054032944568 8.747486662762066 31.430394243286027 0 0 0
268 7 6.253799448345643 10.748216229974268 31.593969266736572 0 0 0
293 4 6.438793308976248 9.305843889691356 33.66673164402373 0 0 0
245 7 10.105413910813635 12.870188051871498 31.877372101835764 0 -1 0
265 6 10.094948462858312 8.667652932725737 31.552109517168876 0 0 0
269 7 8.768360219631063 10.786156467062703 31.758252353413077 0 0 0
270 7 11.42241670183107 10.891575872272014 31.62206260955006 0 0 0
296 3 11.065840923879879 11.818215642589289 33.33976887333342 -1 0 0
271 7 1.4694017442793503 0.8914602189598644 33.779119050200116 0 0 0
272 7 3.9128205689971174 0.9445654252720646 33.928247903692245 0 0 0
276 7 0.17211642921506748 2.9826618306108563 33.74311178711054 0 0 0
277 7 2.638692520904205 3.0684179984497666 33.800646635081094 0 0 0
301 7 0.18814020364719217 1.5409040393322815 35.76395319906328 0 0 0
302 7 2.6104026728224934 1.6658997137110523 35.86413918006007 0 0 0
306 4 1.4095855391091028 3.8235042323490784 35.96206666578137 0 0 0
307 7 3.996634293726811 3.7183498078922748 35.83769438487227 0 0 0
273 7 6.454912178769786 0.958210662953697 33.91376864936624 0 0 0
278 1 5.212429481531908 2.98145898992755 33.73135997490166 0 0 0
279 7 7.723604564771829 3.0256142997555155 33.735832185928686 0 0 0
303 7 5.244187403686624 1.651712614871689 35.94515701808112 0 0 0
304 4 7.758573912553018 1.6231559623156935 35.92545319356813 0 0 0
308 7 6.5264947191670295 3.689901698219305 35.805752085283196 0 0 0
274 7 8.831996854011823 0.8828177504468745 33.84660904545405 0 0 0
275 4 11.439780259742278 0.7845708617293203 33.7194146049122 0 0 0
280 7 10.198820188086435 2.980202691500829 33.71102991830547 0 0 0
305 7 10.224980287225163 1.550836831072811 35.72811692655384 0 0 0
309 7 9.01675286424702 3.6587765448900447 35.78348496894419 0 0 0
310 4 11.582351506854074 3.929675804546981 35.86718998472455 0 0 0
281 7 1.3185312488239442 5.17088395997631 33.85995176760506 0 0 0
282 4 3.8437051376000912 5.121678196560882 33.767640350223694 0 0 0
287 7 2.6280348085559098 7.275579335262793 33.747007033805794 0 0 0
312 7 2.7254364568890947 5.774101834771906 35.78177106259749 0 0 0
316 7 1.2105083453520686 7.589326237515216 35.79453179144339 0 0 0
317 7 3.923099807919342 8.048265729259523 35.732812025540326 0 0 0
283 7 6.375461734884292 5.083019241488151 33.6707883822237 0 0 0
288 7 5.1784243640641625 7.255880030717583 33.66761196404864 0 0 0
289 7 7.625212198016158 7.170439401165364 33.71857453149562 0 0 0
313 7 5.262708728836433 5.900828528795087 35.712435619835695 0 0 0
314 7 7.717771731338662 5.8015731402528505 35.74461882605792 0 0 0
318 4 6.5480068343765 8.102726770058192 35.81187467137221 0 0 0
311 2 12.369182439943259 5.985787972706737 35.326505869808685 -1 0 0
315 7 10.128137301722445 5.796184689789401 35.586817607611174 0 0 0
319 7 8.94700759540363 7.9613941595610696 35.83506258021694 0 0 0
320 7 11.343442557408457 7.919130655215692 35.596221175559485 0 0 0
350 7 11.680306159481699 6.2615607386522205 37.3025205184356 0 0 0
355 3 10.436218627716094 7.886115699227329 37.2816227991619 0 0 0
291 7 1.4631190332021242 9.41234059405044 33.73619037130702 0 0 0
297 6 3.018503860227377 11.56262604561383 33.68105776818247 0 0 0
321 6 0.2070708853304727 10.052787931617331 35.91152845309432 0 0 0
322 7 2.697848306317534 10.185508391676903 35.77136357357372 0 0 0
326 7 0.500698249512117 11.638535514000223 33.67989293633267 0 0 0
327 6 3.902823008162065 12.5036569037125 36.11542429091287 0 0 0
356 4 1.3927641314752783 12.350945145235958 35.84280451311284 0 0 0
298 2 5.191524539587163 12.27211170650199 34.23109993369403 0 0 0
299 7 6.9807335143927185 11.56442346316361 33.69968699548698 0 0 0
323 6 5.230817792614997 10.231782871915835 35.62432240187121 0 0 0
324 7 7.9045306232952575 10.33911624314218 35.718206648716716 0 0 0
328 7 6.462792384771397 12.503419975251287 35.93487304412272 0 0 0
294 7 8.758800178663266 9.272321158652554 33.70220617368843 0 0 0
295 6 11.261241409863445 9.683573887234184 33.76637141110959 0 0 0
300 7 9.370290580905737 11.528667279847541 34.171099511011484 0 0 0
325 7 10.250608513050485 9.829579256028376 37.02284782017263 0 0 0
329 3 9.516914129433626 11.387688546047253 36.20166676378149 0 0 0
330 4 11.253559408400852 12.057666331049564 35.57352217057698 0 0 0
335 5 9.894856083582784 12.89425361719927 37.38492439281648 0 -1 0
332 7 2.463852529645276 0.10436034822558467 38.03516364475423 0 0 0
336 7 1.3251125138787714 2.181999037353737 37.83821145480572 0 0 0
337 7 3.8819604627328013 2.1834114318095215 37.86674778175352 0 0 0
341 7 0.20650845623851186 4.242788166412272 38.07655543017163 0 0 0
342 7 2.713933271487677 4.280389535019144 37.92366878580859 0 0 0
333 7 5.189102390438148 0.15308149340518296 38.16611243753225 0 0 0
334 7 7.645130510967741 0.05721829104901859 37.99747209775451 0 0 0
338 7 6.521263441465221 2.253409890119973 37.90591386298181 0 0 0
339 7 8.987666612360655 2.183919045441759 37.857753894734785 0 0 0
340 7 11.36376244841207 2.1829053903253266 37.7334456969591 0 0 0
346 7 1.515206678146025 6.390751314184344 38.002041183588 0 0 0
347 6 3.9638303647709967 6.464741665503179 37.75769064072969 0 0 0
343 7 5.303814517415798 4.422578693710287 37.8389270916723 0 0 0
344 7 7.827524566916212 4.4287982988508805 37.85075423789363 0 0 0
348 6 6.660600321717568 6.658244840013919 37.81668253891112 0 0 0
345 4 10.21724268529128 4.325329069009029 37.81746045239601 0 0 0
349 7 9.241444953050586 6.612141411596932 37.874001921420884 0 0 0
351 7 12.239914467616593 8.551282778133613 37.84387094720518 -1 0 0
352 6 2.480145526129568 8.643521344186123 37.68947339536059 0 0 0
357 7 3.8282745358416332 10.815131844134264 37.98660390685898 0 0 0
360 7 1.3917767863740818 10.895734964766222 37.88622603818082 1 0 0
353 7 5.121326290847077 8.685760421048125 37.82680060022057 0 0 0
354 7 7.959129118824748 8.94512547272474 37.82461794347811 0 0 0
358 6 6.4322787249496844 10.839865113577702 37.82708296018131 0 0 0
361 8 5.057704157344851 11.575769308796696 38.9643961253695 0 0 0
331 7 12.383103255603968 12.867900763522108 37.62490222120649 -1 -1 0
359 2 8.597266828471115 11.148723659108894 37.433385620114635 0 0 0

Velocities

1 0 0 0
2 0 0 0
3 0 0 0
9 0 0 0
5 0 0 0
6 0 0 0
10 0 0 0
16 0 0 0
20 0 0 0
26 0 0 0
27 0 0 0
23 0 0 0
28 0 0 0
29 0 0 0
24 0 0 0
25 0 0 0
30 0 0 0
7 0 0 0
31 0 0 0
32 0 0 0
36 0 0 0
37 0 0 0
56 0 0 0
8 0 0 0
33 0 0 0
34 0 0 0
38 0 0 0
4 0 0 0
35 0 0 0
39 0 0 0
40 0 0 0
11 0 0 0
12 0 0 0
17 0 0 0
42 0 0 0
47 0 0 0
13 0 0 0
18 0 0 0
19 0 0 0
43 0 0 0
44 0 0 0
48 0 0 0
14 0 0 0
15 0 0 0
41 0 0 0
45 0 0 0
49 0 0 0
50 0 0 0
85 0 0 0
21 0 0 0
22 0 0 0
46 0 0 0
52 0 0 0
57 0 0 0
87 0 0 0
53 0 0 0
54 0 0 0
58 0 0 0
51 0 0 0
55 0 0 0
59 0 0 0
60 0 0 0
66 0 0 0
67 0 0 0
91 0 0 0
92 0 0 0
96 0 0 0
97 0 0 0
63 0 0 0
64 0 0 0
68 0 0 0
74 0 0 0
93 0 0 0
98 0 0 0
99 0 0 0
65 0 0 0
69 0 0 0
70 0 0 0
75 0 0 0
94 0 0 0
95 0 0 0
100 0 0 0
72 0 0 0
76 0 0 0
77 0 0 0
82 0 0 0
101 0 0 0
102 0 0 0
107 0 0 0
73 0 0 0
78 0 0 0
103 0 0 0
108 0 0 0
109 0 0 0
71 0 0 0
79 0 0 0
80 0 0 0
81 0 0 0
104 0 0 0
105 0 0 0
106 0 0 0
110 0 0 0
61 0 0 0
62 0 0 0
86 0 0 0
111 0 0 0
112 0 0 0
116 0 0 0
117 0 0 0
83 0 0 0
84 0 0 0
88 0 0 0
113 0 0 0
118 0 0 0
119 0 0 0
89 0 0 0
90 0 0 0
114 0 0 0
115 0 0 0
120 0 0 0
121 0 0 0
122 0 0 0
126 0 0 0
127 0 0 0
156 0 0 0
157 0 0 0
162 0 0 0
123 0 0 0
124 0 0 0
128 0 0 0
153 0 0 0
158 0 0 0
163 0 0 0
164 0 0 0
125 0 0 0
129 0 0 0
130 0 0 0
155 0 0 0
159 0 0 0
160 0 0 0
165 0 0 0
131 0 0 0
132 0 0 0
136 0 0 0
137 0 0 0
161 0 0 0
166 0 0 0
167 0 0 0
171 0 0 0
172 0 0 0
133 0 0 0
134 0 0 0
138 0 0 0
168 0 0 0
173 0 0 0
135 0 0 0
139 0 0 0
140 0 0 0
169 0 0 0
170 0 0 0
175 0 0 0
141 0 0 0
142 0 0 0
146 0 0 0
147 0 0 0
151 0 0 0
152 0 0 0
176 0 0 0
177 0 0 0
143 0 0 0
144 0 0 0
148 0 0 0
154 0 0 0
178 0 0 0
145 0 0 0
149 0 0 0
150 0 0 0
174 0 0 0
179 0 0 0
180 0 0 0
181 0 0 0
182 0 0 0
186 0 0 0
187 0 0 0
211 0 0 0
212 0 0 0
216 0 0 0
217 0 0 0
183 0 0 0
188 0 0 0
189 0 0 0
213 0 0 0
214 0 0 0
218 0 0 0
184 0 0 0
185 0 0 0
190 0 0 0
215 0 0 0
219 0 0 0
220 0 0 0
191 0 0 0
192 0 0 0
196 0 0 0
197 0 0 0
221 0 0 0
222 0 0 0
226 0 0 0
227 0 0 0
193 0 0 0
198 0 0 0
199 0 0 0
223 0 0 0
224 0 0 0
228 0 0 0
194 0 0 0
195 0 0 0
200 0 0 0
225 0 0 0
229 0 0 0
230 0 0 0
201 0 0 0
202 0 0 0
206 0 0 0
207 0 0 0
231 0 0 0
232 0 0 0
236 0 0 0
203 0 0 0
208 0 0 0
209 0 0 0
233 0 0 0
234 0 0 0
238 0 0 0
204 0 0 0
205 0 0 0
210 0 0 0
235 0 0 0
239 0 0 0
240 0 0 0
237 0 0 0
241 0 0 0
242 0 0 0
246 0 0 0
247 0 0 0
251 0 0 0
252 0 0 0
248 0 0 0
253 0 0 0
254 0 0 0
249 0 0 0
250 0 0 0
255 0 0 0
256 0 0 0
257 0 0 0
286 0 0 0
258 0 0 0
264 0 0 0
259 0 0 0
260 0 0 0
284 0 0 0
285 0 0 0
290 0 0 0
261 0 0 0
262 0 0 0
266 0 0 0
267 0 0 0
292 0 0 0
243 0 0 0
244 0 0 0
263 0 0 0
268 0 0 0
293 0 0 0
245 0 0 0
265 0 0 0
269 0 0 0
270 0 0 0
296 0 0 0
271 0 0 0
272 0 0 0
276 0 0 0
277 0 0 0
301 0 0 0
302 0 0 0
306 0 0 0
307 0 0 0
273 0 0 0
278 0 0 0
279 0 0 0
303 0 0 0
304 0 0 0
308 0 0 0
274 0 0 0
275 0 0 0
280 0 0 0
305 0 0 0
309 0 0 0
310 0 0 0
281 0 0 0
282 0 0 0
287 0 0 0
312 0 0 0
316 0 0 0
317 0 0 0
283 0 0 0
288 0 0 0
289 0 0 0
313 0 0 0
314 0 0 0
318 0 0 0
311 0 0 0
315 0 0 0
319 0 0 0
320 0 0 0
350 0 0 0
355 0 0 0
291 0 0 0
297 0 0 0
321 0 0 0
322 0 0 0
326 0 0 0
327 0 0 0
356 0 0 0
298 0 0 0
299 0 0 0
323 0 0 0
324 0 0 0
328 0 0 0
294 0 0 0
295 0 0 0
300 0 0 0
325 0 0 0
329 0 0 0
330 0 0 0
335 0 0 0
332 0 0 0
336 0 0 0
337 0 0 0
341 0 0 0
342 0 0 0
333 0 0 0
334 0 0 0
338 0 0 0
339 0 0 0
340 0 0 0
346 0 0 0
347 0 0 0
343 0 0 0
344 0 0 0
348 0 0 0
345 0 0 0
349 0 0 0
351 0 0 0
352 0 0 0
357 0 0 0
360 0 0 0
353 0 0 0
354 0 0 0
358 0 0 0
361 0 0 0
331 0 0 0
359 0 0 0
