LAMMPS data file via write_data, version 11 Feb 2026, timestep = 137, units = metal

361 atoms
8 atom types

0 12.447907776 xlo xhi
0 12.9362452296 ylo yhi
0 52.3600831054 zlo zhi

Masses

1 26.9815
2 10.811
3 12.011
4 51.9961
5 55.845
6 95.95999999999999
7 58.6934
8 1.008

Atoms # atomic/kk

1 7 1.1447475034 1.4042530815 14.1767669076 0 0 0
2 7 3.6084602259 1.0698845996 14.6704381247 0 0 0
3 5 6.0765506298 0.9467816033 14.9127945674 0 0 0
9 7 7.3904254576 3.1552415677 14.921343358 0 0 0
5 7 11.0497419237 1.2529911546 14.6024861837 0 0 0
6 7 12.371824795299998 3.4559595715 14.8227813157 -1 0 0
10 7 9.9130540797 3.3904065996 14.7812471609 0 0 0
16 4 0.4694173902 7.8125304368 14.7997570607 0 0 0
20 7 10.4454755951 7.6697182118 14.1848688757 0 0 0
26 7 0.1281197666 12.2044764222 14.9105894271 0 0 0
27 7 2.482376412 11.8082341077 14.4640395444 0 0 0
23 7 6.9215809143 9.0056325864 14.7794199109 0 0 0
28 7 4.9597127568 11.7869866321 14.6074736033 0 0 0
29 6 7.487468691 11.492489151 14.9214469503 0 0 0
24 7 9.211267288 9.7383043985 14.542324574 0 0 0
25 7 11.7628351674 9.8745411843 14.7910184475 0 0 0
30 7 10.0617556164 11.945152431 14.7619795889 0 0 0
7 7 2.4276438825 3.274586701 14.9921379853 0 0 0
31 6 0.1320668178 1.5666912763 16.54569988 0 0 0
32 7 2.6047881521 1.6851371804 16.9156842324 0 0 0
36 7 1.2195215325 3.8560608354 17.0299024962 0 0 0
37 7 3.7103479774 3.8371572501 17.0572271382 0 0 0
56 2 1.9139638832 0.320698286899999 15.6094045829 0 1 0
8 7 4.9287232821 3.1271355871 15.0109940309 0 0 0
33 7 4.9854693445 1.6648399647 16.9552168616 0 0 0
34 7 7.410113639 1.7690174525 16.9802513671 0 0 0
38 5 6.1786870847 3.8598965293 16.9892925392 0 0 0
4 6 8.6405916037 0.9966073374 15.0011028893 0 0 0
35 7 9.9854439602 1.6623584179 16.9441720819 0 0 0
39 7 8.7306918901 3.8627101762 16.8623801969 0 0 0
40 7 11.1905275305 3.8067890199 17.0006893521 0 0 0
11 7 1.2348702966 5.4950064056 15.0806985502 0 0 0
12 7 3.723333195 5.3162088046 15.091556138 0 0 0
17 7 2.6528824888 7.4951525199 15.1538371669 0 0 0
42 7 2.4538170063 6.1274901805 17.1415379148 0 0 0
47 7 3.8866203033 8.1976953877 17.0635533141 0 0 0
13 7 6.1787690715 5.3054540189 15.034535629 0 0 0
18 7 5.0798141029 7.4787706901 15.0688046453 0 0 0
19 2 7.0597951203 7.0189274967 15.3897174295 0 0 0
43 7 4.9526824561 5.9628190941 17.0949149841 0 0 0
44 7 7.4770692341 5.9405064365 17.0881545432 0 0 0
48 7 6.3467693742 8.0549577382 17.0498728177 0 0 0
14 7 8.7041968087 5.6586120419 14.9658205562 0 0 0
15 6 11.1806031706 5.6044565055 15.1850152514 0 0 0
41 7 12.442168210099998 5.9982391836 17.2267436521 -1 0 0
45 7 9.923455112 6.0385351278 17.2532666192 0 0 0
49 7 8.7166078523 7.9219477302 16.0697967416 0 0 0
50 7 11.1854260308 7.9909608595 16.4539207548 0 0 0
85 6 9.7874825474 8.473382021 18.5408467256 0 0 0
21 2 1.1654244367 10.4783622607 15.2130316912 0 0 0
22 7 2.969847795 9.8650340587 15.6453950804 0 0 0
46 7 0.7946061559 9.3672820405 16.8749701293 0 0 0
52 7 1.3503573598 11.8646523864 16.9891542204 0 0 0
57 7 3.753873893 12.4366743176 16.6098759546 0 0 0
87 1 3.6650451701 10.7156807278 18.2659007397 0 0 0
53 7 5.3358928559 10.1219872041 16.3275402765 0 0 0
54 7 7.7336051436 10.0538114804 16.9470367537 0 0 0
58 6 6.3195663174 12.3667352783 16.9550847684 0 0 0
51 3 11.519673145099999 9.370279149 17.6624171524 -1 0 0
55 7 10.1852587848 10.2759719364 16.6816821896 0 0 0
59 7 8.8367077706 12.3810361477 16.9622360876 0 0 0
60 7 11.2428990064 12.4670428062 16.882988677 0 0 0
66 6 1.393007034 2.1659191631 19.0534804658 0 0 0
67 5 3.8310712323 2.169749835 19.077551421 0 0 0
91 4 1.3610097719 0.7490016766 21.3001474804 0 0 0
92 7 3.7532698079 0.7243006354 21.0553737996 0 0 0
96 7 0.082079932 2.7970216106 21.1874527472 0 0 0
97 7 2.5927240934 2.8497939446 21.1992924965 0 0 0
63 5 4.9567742477 0.0529982254 18.9618634931 0 0 0
64 7 7.4416746235 0.0821708056 19.1014191477 0 0 0
68 7 6.1949360288 2.1588642027 19.0801897325 0 0 0
74 6 7.5018096017 4.2853629911 19.0547359126 0 0 0
93 7 6.2598414465 0.7194660822 21.17367312 0 0 0
98 7 5.0257186556 2.8737258399 21.1536837203 0 0 0
99 5 7.4793105556 2.8150634673 21.1692986238 0 0 0
65 7 10.0018085899 0.0802466939 19.0961651875 0 0 0
69 7 8.7385472152 2.1539822136 18.9954608723 0 0 0
70 7 11.2870638013 2.2382207273 18.9541707741 0 0 0
75 5 9.908720947 4.3054275401 19.0335874063 0 0 0
94 7 8.7140507513 0.7135233683 21.2362014867 0 0 0
95 7 11.3045523296 0.6704651065 21.199536471 0 0 0
100 6 10.0309211856 2.7845552589 21.0550342549 0 0 0
72 7 2.4838430183 4.388962084 19.1070457725 0 0 0
76 7 1.200144222 6.4346976141 19.2600213636 0 0 0
77 7 3.7839563224 6.5073099035 19.1651823211 0 0 0
82 6 2.3588605673 8.4890673053 18.9154467805 0 0 0
101 7 1.204403147 4.986371594 21.2593935642 0 0 0
102 6 3.7298053141 5.0424743752 21.2297752978 0 0 0
107 7 2.4685484599 7.1728356576 21.2326094282 0 0 0
73 7 4.9759755061 4.316411451 19.087212733 0 0 0
78 7 6.1965388899 6.5190956683 19.1399785413 0 0 0
103 7 6.2751972116 5.0470676015 21.1760724515 0 0 0
108 7 5.0116983743 7.22861409 21.2268755354 0 0 0
109 7 7.4193353481 7.2485706051 21.2651304498 0 0 0
71 1 12.383629132 4.3782094725 19.1862342201 -1 0 0
79 7 8.6255974932 6.472044202 19.3232968982 0 0 0
80 7 11.1135754549 6.420590323 19.3581641471 0 0 0
81 4 12.342695017999999 8.4729562787 19.2006565517 -1 0 0
104 7 8.7408050898 5.0231569879 21.2437432022 0 0 0
105 3 10.084433397732889 4.372039009957673 22.288426810004303 0 0 0
106 7 12.435294388199999 7.0968971559 21.3158557077 -1 0 0
110 7 9.8903603607 7.1660305315 21.3021949042 0 0 0
61 6 0.0477387397 12.935022616100001 18.9949290075 0 -1 0
62 7 2.587482576 12.8543346047 19.0383469717 0 -1 0
86 7 1.2816847716 10.6903307998 19.1614661098 0 0 0
111 7 1.1796694452 9.2896516501 21.1960342799 0 0 0
112 6 3.7016357908 9.3557762036 21.1431867319 0 0 0
116 1 0.0369839214 11.486698451 21.2977096144 0 0 0
117 7 2.4704264091 11.5284142583 21.1452899236 0 0 0
83 7 4.9462384898 8.7330200409 19.0834474924 0 0 0
84 7 7.3974678157 8.6397297376 19.085743402 0 0 0
88 7 6.1625171869 10.8013148416 18.9301045672 0 0 0
113 7 6.2139769728 9.4092095126 21.0353192467 0 0 0
118 7 4.9639845145 11.5407295129 21.0425881559 0 0 0
119 4 7.3995383715 11.5362046003 21.0747824702 0 0 0
89 6 8.731338748 10.8500854071 19.0384744744 0 0 0
90 4 11.272219843 10.8209844576 18.9386324767 0 0 0
114 7 8.6997099562 9.3160354633 20.9928929717 0 0 0
115 6 11.109001975 9.2519683408 21.1755872983 0 0 0
120 7 9.9858618188 11.5164614705 21.1821863062 0 0 0
121 7 0.07758103867990622 1.3735686190768959 23.31361964312258 0 0 0
122 7 2.5689078418075066 1.3853932626501317 23.333352111402082 0 0 0
126 6 1.348506446625871 3.568213028629856 23.269291937957757 0 0 0
127 7 3.843964266371463 3.5718859309063675 23.36501506693798 0 0 0
156 1 1.4732981217229457 2.11207095655495 25.518887824314305 0 0 0
157 7 3.9593176127213 2.118570470656995 25.447690212576557 0 0 0
162 7 2.592097587077266 4.244284251275875 25.430979403809534 0 0 0
123 7 4.985864587613839 1.4105790096397262 23.166122792883407 0 0 0
124 7 7.38727187876402 1.4815101784619638 23.490726479446327 0 0 0
128 7 6.296842394627499 3.645340846003354 23.18703169261135 0 0 0
153 7 5.190709909836653 0.05364384895668622 25.297364754541007 0 0 0
158 2 5.769314956786402 2.438494428401665 24.63280978842184 0 0 0
163 7 5.11145278304946 4.225401540792769 25.424180494785908 0 0 0
164 5 7.470644589931744 4.042609265035796 25.363073230545236 0 0 0
125 7 10.036559353862952 1.407822382093018 23.358544889814244 0 0 0
129 7 8.744554184881359 3.526370049202124 23.350826318277527 0 0 0
130 4 11.36030537980951 3.596596818538849 23.405833781452145 0 0 0
155 4 10.112989741111692 0.04229842097284114 25.5631852142934 0 0 0
159 7 8.863029355298545 2.078847816145985 25.451169836574255 0 0 0
160 7 11.394474093298738 2.1343536212999425 25.424841705549195 0 0 0
165 7 10.058810112217515 4.196962455846315 25.41497968360717 0 0 0
131 7 0.06377354243025786 5.750743110507277 23.40744075139774 0 0 0
132 7 2.535349662665266 5.778947626470782 23.36374293211574 0 0 0
136 7 1.2955497702527208 7.892488295523696 23.30855095708679 0 0 0
137 7 3.769283110880903 7.960082432670722 23.28183227766238 0 0 0
161 4 0.10200247671563675 4.319408698776306 25.472440684166802 0 0 0
166 7 1.330241689824472 6.393713597834762 25.433793575059532 0 0 0
167 7 3.8006634524045624 6.417738553928651 25.445940731613977 0 0 0
171 6 0.10169427827309303 8.592517753716319 25.434212702935625 0 0 0
172 7 2.6149968199236806 8.58773556453558 25.379498078137964 0 0 0
133 6 5.057783342267772 5.837997878397535 23.390795998708303 0 0 0
134 7 7.552137152405107 5.757224696995766 23.318319420150043 0 0 0
138 7 6.302648136596971 7.975349882702864 23.344582958036916 0 0 0
168 7 6.358016320918312 6.374629542931565 25.436289318989065 0 0 0
173 7 5.097094989626781 8.533252318031153 25.335876679827223 0 0 0
135 7 10.057015941099955 5.80370688540929 23.391616187372797 0 0 0
139 4 8.686467899477215 7.92121515674473 23.24866997981099 0 0 0
140 4 11.274262061835376 7.868365021811209 23.322235095026983 0 0 0
169 7 8.76841198673615 6.309625352227905 25.38688986197785 0 0 0
170 7 11.281746417532988 6.386235298138702 25.452607836358247 0 0 0
175 6 9.87700631748282 8.545654488052502 25.52893581289555 0 0 0
141 7 0.012119097537624678 10.045770731732313 23.348008500520212 0 0 0
142 7 2.488208124342274 10.084233573764912 23.258745056336092 0 0 0
146 7 1.2944839928747751 12.213169790526608 23.354673013885247 0 0 0
147 7 3.7985707001874247 12.22247051782492 23.18417249338466 0 0 0
151 4 0.08489368369968467 12.853108636262597 25.41972399873197 0 -1 0
152 7 2.647224176284232 12.922578661610462 25.37805099482253 0 -1 0
176 7 1.3343651760773276 10.777333705203443 25.436043044914527 0 0 0
177 6 3.8717747046914086 10.795286843748283 25.27792559522457 0 0 0
143 7 5.046842380574444 10.083465293631427 23.185390889321347 0 0 0
144 7 7.497082774623434 10.067336961474611 22.924120130751422 0 0 0
148 4 6.204546883205703 12.248680729897123 23.18966700120393 0 0 0
154 7 7.593278754565785 12.921077478561708 25.48063056722138 0 -1 0
178 6 6.609215669314309 10.52216613393726 25.225010503013895 0 0 0
145 7 9.987773525500161 10.052595369538956 23.32044395998164 0 0 0
149 6 8.699797832288972 12.250453451140409 23.3350935695141 0 0 0
150 7 11.239041254171118 12.195970863453736 23.410422270466974 0 0 0
174 3 8.405788962332442 9.48863644321798 24.42840752495709 0 0 0
179 5 8.99016409863152 10.900748813748507 25.589677779805157 0 0 0
180 5 11.327901298590268 10.84513699856093 25.51207926558872 0 0 0
181 7 1.3842331218759443 0.644061402474573 27.50213996510068 0 0 0
182 7 3.8707179341475726 0.681475119667991 27.441700040298066 0 0 0
186 7 0.1657414903791667 2.835287546223201 27.499723544797806 0 0 0
187 7 2.654537514905007 2.8312869156099922 27.572455455085375 0 0 0
211 7 0.20606886747477687 1.4220591947172827 29.600918906002693 0 0 0
212 7 2.7082824918825845 1.3400697187925126 29.587498671152648 0 0 0
216 7 1.4055830263559066 3.531640232087321 29.596554276121488 0 0 0
217 4 3.819603977437178 3.5511015902470553 29.604793597044935 0 0 0
183 7 6.30369946641263 0.6933859458812549 27.57929082117675 0 0 0
188 7 5.077593787319505 2.852222400403646 27.581767599857283 0 0 0
189 7 7.588926173132751 2.770998738811485 27.468441524767446 0 0 0
213 5 5.130400388003808 1.4073579826271212 29.60920059434757 0 0 0
214 7 7.607259640789372 1.332801863781498 29.601552781625987 0 0 0
218 7 6.358784464471781 3.514746303993761 29.550604750621073 0 0 0
184 7 8.879995058458364 0.6972950706765172 27.575495781948376 0 0 0
185 4 11.378872743678413 0.7006839967187445 27.54866930176005 0 0 0
190 7 10.139454525336532 2.809578392682393 27.49646703454527 0 0 0
215 7 10.120153252646881 1.3816833397741461 29.640139225356155 0 0 0
219 7 8.83373502247249 3.4893023509226966 29.53545399291449 0 0 0
220 7 11.364573099001891 3.53598834745057 29.529565032822756 0 0 0
191 7 1.3850936093470785 4.984166176217879 27.478091809007708 0 0 0
192 7 3.8278338170609616 4.968311862757891 27.4870209476587 0 0 0
196 7 0.13045816072060626 7.135543956454395 27.505398065146792 0 0 0
197 7 2.5732176416587906 7.171788715396043 27.48014973628458 0 0 0
221 7 0.11463128357269685 5.704320398975634 29.57821029500164 0 0 0
222 7 2.5852393715513062 5.706742048394322 29.55472451859783 0 0 0
226 7 1.3591906915097747 7.8828352337631635 29.55732948746593 0 0 0
227 7 3.855876289731696 7.89330767329427 29.472484729072924 0 0 0
193 7 6.3641822513439825 4.95373189495884 27.41869828825354 0 0 0
198 7 5.096766936159651 7.152373910262923 27.416219533377763 0 0 0
199 7 7.615995034758394 7.167140000796545 27.45378377659656 0 0 0
223 6 5.147473963090228 5.69892771232896 29.494163469473726 0 0 0
224 7 7.638940674876016 5.715960465577686 29.586138121814603 0 0 0
228 7 6.388953092665803 7.891601988940189 29.497020735820637 0 0 0
194 6 8.842159991568334 4.974615292536713 27.49841408286663 0 0 0
195 7 11.354985135631765 4.971566268101611 27.515134840804183 0 0 0
200 7 10.118134350125189 7.135430039121304 27.547631356142748 0 0 0
225 7 10.095953823334035 5.717553798031618 29.61221868379665 0 0 0
229 7 8.8409281246966 7.860788167448598 29.53354705701621 0 0 0
230 7 11.363174890397577 7.909108999867256 29.533167467484397 0 0 0
201 5 1.3733924006312754 9.304613545938814 27.520795967618223 0 0 0
202 7 3.8664648378072917 9.300543674454804 27.38045386624554 0 0 0
206 4 0.1817161490186232 11.456277953387957 27.532573701490534 0 0 0
207 7 2.605374399927361 11.436862802670928 27.44409844535159 0 0 0
231 7 0.16007889521037144 10.05844427714533 29.57653540115708 0 0 0
232 7 2.6283605535847436 10.007308466616003 29.43307107179024 0 0 0
236 7 1.4674234201985652 12.163202886816617 29.56249008159489 0 0 0
203 7 6.369211650543699 9.264705669391773 27.39311655570305 0 0 0
208 7 5.132301487814863 11.479750544621064 27.325637911792423 0 0 0
209 6 7.576240154953657 11.503559740913973 27.648629409840428 0 0 0
233 7 5.14479132647467 10.0347689350768 29.328575890668887 0 0 0
234 7 7.595416232440517 10.06781526686754 29.673202118899397 0 0 0
238 7 6.20479913179298 12.216444939441756 29.689866292765874 0 0 0
204 7 8.833125336268347 9.347441794111194 27.632397874144306 0 0 0
205 7 11.33938568672537 9.39481422883968 27.554999015086924 0 0 0
210 7 10.145519805532864 11.532828164750377 27.594389688703465 0 0 0
235 7 10.080007142143728 10.158430516993201 29.6112089520323 0 0 0
239 4 8.872705254012281 12.234054942005113 29.743096826379546 0 0 0
240 7 11.391224914322 12.246106914658322 29.57291481303793 0 0 0
237 3 4.032095639799183 0.2757025622142916 30.56186267721667 0 1 0
241 7 0.19589914391415564 0.08044631453091153 31.649357734024893 0 0 0
242 7 2.563099982638798 0.1291972477646801 31.74415205041004 0 0 0
246 4 1.3379972613613302 2.2263902502273663 31.67954275441626 0 0 0
247 7 3.8743149908245074 2.1385501380103973 31.652665840193997 0 0 0
251 7 0.14089289685156267 4.308131280981945 31.65723499094653 0 0 0
252 7 2.6271044292682073 4.305594055020141 31.670541386018947 0 0 0
248 7 6.399863282870711 2.1331325074333614 31.657417945991813 0 0 0
253 7 5.107228747575982 4.2953362063899965 31.628776533150234 0 0 0
254 7 7.616038617033931 4.295238595028747 31.596523522069173 0 0 0
249 7 8.84487998747695 2.085409348556913 31.687912360812554 0 0 0
250 7 11.378667017062874 2.120601622824215 31.669759898280695 0 0 0
255 1 10.099212655928381 4.201405448672777 31.510377281316472 0 0 0
256 7 1.3230916593283064 6.489334726270665 31.637101705975866 0 0 0
257 6 3.7858650086316437 6.489041586981329 31.662782797637888 0 0 0
286 7 0.08327444402961953 7.26613119283318 33.62581408619987 0 0 0
258 7 6.346785509608718 6.478846623399269 31.624474989461017 0 0 0
264 7 7.583353098664834 8.563626349056197 31.62918239702169 0 0 0
259 4 8.81521658070251 6.44464496591724 31.633989394816048 0 0 0
260 7 11.307854267579973 6.473393995807628 31.600259645035568 0 0 0
284 5 8.880571497713644 5.099887938645484 33.5871440989422 0 0 0
285 4 11.340203937006418 5.137156358007479 33.64253581990638 0 0 0
290 7 10.075573552732163 7.242568301917893 33.602597666341794 0 0 0
261 7 0.1715047828427461 8.694765768864162 31.657005841373806 0 0 0
262 7 2.660713610967953 8.710208039103756 31.535633397037696 0 0 0
266 7 1.5558619836719638 10.821700758776856 31.580233359220227 0 0 0
267 4 3.9142739521945504 11.263175086611236 30.85719349822843 0 0 0
292 7 3.9570499719850547 9.35704014750226 33.51159030787884 0 0 0
243 7 5.158141675766381 12.889111338211167 32.112892644136 0 -1 0
244 7 7.6183993864104185 12.921468705807559 31.724414195131267 0 -1 0
263 1 5.089637949640468 8.749004439591614 31.424992311723905 0 0 0
268 7 6.254739569012823 10.74987625479142 31.591226076321572 0 0 0
293 4 6.444957331257274 9.303776986048677 33.65999217295166 0 0 0
245 7 10.10637303012665 12.868965581568443 31.879945092574413 0 -1 0
265 6 10.09586687554971 8.666976289091657 31.552785385158185 0 0 0
269 7 8.769023558190087 10.786746463651209 31.760338963129502 0 0 0
270 7 11.424302420583276 10.890541810024509 31.625341634733054 0 0 0
296 3 11.07333693600225 11.814919423027145 33.34326946647666 -1 0 0
271 7 1.471755477455402 0.8868733300775213 33.78786374480226 0 0 0
272 7 3.9121562958412954 0.9478166624002602 33.93605053156817 0 0 0
276 7 0.17021150068197027 2.978916481926775 33.74763730692135 0 0 0
277 7 2.635024293980172 3.0717730665032112 33.802742325104695 0 0 0
301 7 0.18386352484657129 1.5349320927282106 35.77071857327193 0 0 0
302 7 2.605350955852927 1.6772554394005463 35.86956361538676 0 0 0
306 4 1.3782030786390136 3.8468154829925023 35.955716952932825 0 0 0
307 7 3.9906896160979346 3.7212563003712122 35.84091611406478 0 0 0
273 7 6.453697898752448 0.9595947175411486 33.918563183731095 0 0 0
278 1 5.210020838258626 2.9842467628109834 33.73270312776219 0 0 0
279 7 7.721353242003003 3.0251604277431587 33.734593922973566 0 0 0
303 7 5.238588096329439 1.6509445536137382 35.957463622677224 0 0 0
304 4 7.761862595651263 1.6161405739120016 35.92812864561594 0 0 0
308 7 6.522432718629227 3.6877473982279056 35.80301460028881 0 0 0
274 7 8.830337291284144 0.8831728871531445 33.84338206780704 0 0 0
275 4 11.436416100636519 0.7797524948373347 33.72827991212361 0 0 0
280 7 10.196864816104561 2.977195082610889 33.71639360402416 0 0 0
305 7 10.21763275188587 1.544970991079522 35.73567764502731 0 0 0
309 7 9.009648961333736 3.6550749295637703 35.78472629946245 0 0 0
310 4 11.566863227075158 3.920469184817662 35.869663293435444 0 0 0
281 7 1.3195745733013595 5.1727743821969945 33.84847453351189 0 0 0
282 4 3.843721814890812 5.123215165696528 33.76522950010099 0 0 0
287 7 2.6266152814210844 7.275258931880599 33.74350643527024 0 0 0
312 7 2.723896724717879 5.779912313341625 35.775282781815285 0 0 0
316 7 1.2045336291812965 7.5844907693569095 35.78408890727042 0 0 0
317 7 3.928613280788683 8.04834200524978 35.73206391694913 0 0 0
283 7 6.37547086913925 5.084336773550904 33.671570442027395 0 0 0
288 7 5.179293693439402 7.2532686851675745 33.66663767225323 0 0 0
289 7 7.626777549869407 7.170367407030029 33.7188024059157 0 0 0
313 7 5.2603284180906655 5.899116838195532 35.715284915387365 0 0 0
314 7 7.714732669124184 5.803500812757488 35.74658869869754 0 0 0
318 4 6.547839143687743 8.105507345984826 35.809476665864594 0 0 0
311 2 12.365650449556014 5.980162422897084 35.32619806042442 -1 0 0
315 7 10.124077871716947 5.792470951845776 35.584393142435054 0 0 0
319 7 8.947984324037426 7.959560518773741 35.82944366411105 0 0 0
320 7 11.340664275438996 7.91314158102934 35.59902613726323 0 0 0
350 7 11.67019713932181 6.253045882123854 37.30518281804023 0 0 0
355 3 10.430109655056455 7.8828303024871005 37.28340306519848 0 0 0
291 7 1.4600156052866018 9.410034009783587 33.729500546094975 0 0 0
297 6 3.0258652865043185 11.557750355954754 33.66266683241209 0 0 0
321 6 0.20578892466671178 10.045343041896606 35.91631503634935 0 0 0
322 7 2.6898908864933864 10.18145611232041 35.749664148374144 0 0 0
326 7 0.5067028054141318 11.638287886313917 33.69993956583014 0 0 0
327 6 3.8884685133984003 12.497757856558291 36.11490391596555 0 0 0
356 4 1.3912811191280277 12.34811315517195 35.88124184564241 0 0 0
298 2 5.189758290876094 12.280346158360837 34.23050722739662 0 0 0
299 7 6.980507392382795 11.566125370748537 33.69643313104682 0 0 0
323 6 5.229104016545988 10.23144972023262 35.586207356537756 0 0 0
324 7 7.905502684241912 10.343995593829677 35.718939890782636 0 0 0
328 7 6.454145358083211 12.506184703551044 35.9384599929035 0 0 0
294 7 8.762625911481711 9.273336261615048 33.70346505538669 0 0 0
295 6 11.261894679560315 9.6826877105212 33.77004002649049 0 0 0
300 7 9.377167998836729 11.533072149797224 34.17422562167304 0 0 0
325 7 10.248242878687542 9.826417437721052 37.03516916654321 0 0 0
329 3 9.518992290990226 11.384622354819287 36.209124890590786 0 0 0
330 4 11.254756314262437 12.056711173456605 35.59238633366257 0 0 0
335 5 9.901302406442788 12.88830024628537 37.39863239671782 0 -1 0
332 7 2.490102656605958 0.0744473653802923 38.119711551687956 0 0 0
336 7 1.3216727567993007 2.1719790590646224 37.83559715054153 0 0 0
337 7 3.86567893939362 2.1979524552134904 37.90200902916845 0 0 0
341 7 0.2003579694184719 4.235665139746887 38.0809252001293 0 0 0
342 7 2.7010074388376393 4.2853569103233 37.9162408264043 0 0 0
361 8 3.8552689889332195 0.862814710793834 38.92038610782793 0 0 0
333 7 5.196919691143148 0.13956894875258544 38.16370098838364 0 0 0
334 7 7.643028790626835 0.04594085329615619 38.01985793634894 0 0 0
338 7 6.531773926403888 2.2473236370847043 37.900603187849704 0 0 0
339 7 8.985755539172017 2.1736900582570686 37.86423806142654 0 0 0
340 7 11.360060982555865 2.1795878737448815 37.738949682689736 0 0 0
346 7 1.5062831004801476 6.3944841136970325 37.99294994383661 0 0 0
347 6 3.9568549954156396 6.457782871774349 37.76144845072918 0 0 0
343 7 5.294802318553448 4.414372359006772 37.840269239088386 0 0 0
344 7 7.820848921046207 4.422462820522766 37.85170969477315 0 0 0
348 6 6.6531528881338255 6.6510503949616595 37.81843161370547 0 0 0
345 4 10.208880588815324 4.3190438009626835 37.820054669149364 0 0 0
349 7 9.231534093453527 6.610863770389602 37.87112617897264 0 0 0
351 7 12.239015062577444 8.541090021594272 37.845351327892836 -1 0 0
352 6 2.4847868115753755 8.642094819269868 37.67785021875151 0 0 0
357 7 3.8250775770379293 10.770006942651149 37.93943391654263 0 0 0
360 7 1.3780660292501572 10.882621505127856 37.899502055750396 1 0 0
353 7 5.124793950115641 8.67644644763965 37.83027848963163 0 0 0
354 7 7.948244220727383 8.942882556919642 37.8229429535598 0 0 0
358 6 6.407744914297803 10.834960773930352 37.802976156474145 0 0 0
331 7 12.382431605091519 12.877085635248005 37.65652031982889 -1 -1 0
359 2 8.596651628039586 11.138182380943414 37.43911566069384 0 0 0

Velocities

1 0 0 0
2 0 0 0
3 0 0 0
9 0 0 0
5 0 0 0
6 0 0 0
10 0 0 0
16 0 0 0
20 0 0 0
26 0 0 0
27 0 0 0
23 0 0 0
28 0 0 0
29 0 0 0
24 0 0 0
25 0 0 0
30 0 0 0
7 0 0 0
31 0 0 0
32 0 0 0
36 0 0 0
37 0 0 0
56 0 0 0
8 0 0 0
33 0 0 0
34 0 0 0
38 0 0 0
4 0 0 0
35 0 0 0
39 0 0 0
40 0 0 0
11 0 0 0
12 0 0 0
17 0 0 0
42 0 0 0
47 0 0 0
13 0 0 0
18 0 0 0
19 0 0 0
43 0 0 0
44 0 0 0
48 0 0 0
14 0 0 0
15 0 0 0
41 0 0 0
45 0 0 0
49 0 0 0
50 0 0 0
85 0 0 0
21 0 0 0
22 0 0 0
46 0 0 0
52 0 0 0
57 0 0 0
87 0 0 0
53 0 0 0
54 0 0 0
58 0 0 0
51 0 0 0
55 0 0 0
59 0 0 0
60 0 0 0
66 0 0 0
67 0 0 0
91 0 0 0
92 0 0 0
96 0 0 0
97 0 0 0
63 0 0 0
64 0 0 0
68 0 0 0
74 0 0 0
93 0 0 0
98 0 0 0
99 0 0 0
65 0 0 0
69 0 0 0
70 0 0 0
75 0 0 0
94 0 0 0
95 0 0 0
100 0 0 0
72 0 0 0
76 0 0 0
77 0 0 0
82 0 0 0
101 0 0 0
102 0 0 0
107 0 0 0
73 0 0 0
78 0 0 0
103 0 0 0
108 0 0 0
109 0 0 0
71 0 0 0
79 0 0 0
80 0 0 0
81 0 0 0
104 0 0 0
105 0 0 0
106 0 0 0
110 0 0 0
61 0 0 0
62 0 0 0
86 0 0 0
111 0 0 0
112 0 0 0
116 0 0 0
117 0 0 0
83 0 0 0
84 0 0 0
88 0 0 0
113 0 0 0
118 0 0 0
119 0 0 0
89 0 0 0
90 0 0 0
114 0 0 0
115 0 0 0
120 0 0 0
121 0 0 0
122 0 0 0
126 0 0 0
127 0 0 0
156 0 0 0
157 0 0 0
162 0 0 0
123 0 0 0
124 0 0 0
128 0 0 0
153 0 0 0
158 0 0 0
163 0 0 0
164 0 0 0
125 0 0 0
129 0 0 0
130 0 0 0
155 0 0 0
159 0 0 0
160 0 0 0
165 0 0 0
131 0 0 0
132 0 0 0
136 0 0 0
137 0 0 0
161 0 0 0
166 0 0 0
167 0 0 0
171 0 0 0
172 0 0 0
133 0 0 0
134 0 0 0
138 0 0 0
168 0 0 0
173 0 0 0
135 0 0 0
139 0 0 0
140 0 0 0
169 0 0 0
170 0 0 0
175 0 0 0
141 0 0 0
142 0 0 0
146 0 0 0
147 0 0 0
151 0 0 0
152 0 0 0
176 0 0 0
177 0 0 0
143 0 0 0
144 0 0 0
148 0 0 0
154 0 0 0
178 0 0 0
145 0 0 0
149 0 0 0
150 0 0 0
174 0 0 0
179 0 0 0
180 0 0 0
181 0 0 0
182 0 0 0
186 0 0 0
187 0 0 0
211 0 0 0
212 0 0 0
216 0 0 0
217 0 0 0
183 0 0 0
188 0 0 0
189 0 0 0
213 0 0 0
214 0 0 0
218 0 0 0
184 0 0 0
185 0 0 0
190 0 0 0
215 0 0 0
219 0 0 0
220 0 0 0
191 0 0 0
192 0 0 0
196 0 0 0
197 0 0 0
221 0 0 0
222 0 0 0
226 0 0 0
227 0 0 0
193 0 0 0
198 0 0 0
199 0 0 0
223 0 0 0
224 0 0 0
228 0 0 0
194 0 0 0
195 0 0 0
200 0 0 0
225 0 0 0
229 0 0 0
230 0 0 0
201 0 0 0
202 0 0 0
206 0 0 0
207 0 0 0
231 0 0 0
232 0 0 0
236 0 0 0
203 0 0 0
208 0 0 0
209 0 0 0
233 0 0 0
234 0 0 0
238 0 0 0
204 0 0 0
205 0 0 0
210 0 0 0
235 0 0 0
239 0 0 0
240 0 0 0
237 0 0 0
241 0 0 0
242 0 0 0
246 0 0 0
247 0 0 0
251 0 0 0
252 0 0 0
248 0 0 0
253 0 0 0
254 0 0 0
249 0 0 0
250 0 0 0
255 0 0 0
256 0 0 0
257 0 0 0
286 0 0 0
258 0 0 0
264 0 0 0
259 0 0 0
260 0 0 0
284 0 0 0
285 0 0 0
290 0 0 0
261 0 0 0
262 0 0 0
266 0 0 0
267 0 0 0
292 0 0 0
243 0 0 0
244 0 0 0
263 0 0 0
268 0 0 0
293 0 0 0
245 0 0 0
265 0 0 0
269 0 0 0
270 0 0 0
296 0 0 0
271 0 0 0
272 0 0 0
276 0 0 0
277 0 0 0
301 0 0 0
302 0 0 0
306 0 0 0
307 0 0 0
273 0 0 0
278 0 0 0
279 0 0 0
303 0 0 0
304 0 0 0
308 0 0 0
274 0 0 0
275 0 0 0
280 0 0 0
305 0 0 0
309 0 0 0
310 0 0 0
281 0 0 0
282 0 0 0
287 0 0 0
312 0 0 0
316 0 0 0
317 0 0 0
283 0 0 0
288 0 0 0
289 0 0 0
313 0 0 0
314 0 0 0
318 0 0 0
311 0 0 0
315 0 0 0
319 0 0 0
320 0 0 0
350 0 0 0
355 0 0 0
291 0 0 0
297 0 0 0
321 0 0 0
322 0 0 0
326 0 0 0
327 0 0 0
356 0 0 0
298 0 0 0
299 0 0 0
323 0 0 0
324 0 0 0
328 0 0 0
294 0 0 0
295 0 0 0
300 0 0 0
325 0 0 0
329 0 0 0
330 0 0 0
335 0 0 0
332 0 0 0
336 0 0 0
337 0 0 0
341 0 0 0
342 0 0 0
361 0 0 0
333 0 0 0
334 0 0 0
338 0 0 0
339 0 0 0
340 0 0 0
346 0 0 0
347 0 0 0
343 0 0 0
344 0 0 0
348 0 0 0
345 0 0 0
349 0 0 0
351 0 0 0
352 0 0 0
357 0 0 0
360 0 0 0
353 0 0 0
354 0 0 0
358 0 0 0
331 0 0 0
359 0 0 0
