LAMMPS data file via write_data, version 11 Feb 2026, timestep = 143, units = metal

361 atoms
8 atom types

0 12.447907776 xlo xhi
0 12.9362452296 ylo yhi
0 52.3600831054 zlo zhi

Masses

1 26.9815
2 10.811
3 12.011
4 51.9961
5 55.845
6 95.95999999999999
7 58.6934
8 1.008

Atoms # atomic/kk

1 7 1.1447475034 1.4042530815 14.1767669076 0 0 0
2 7 3.6084602259 1.0698845996 14.6704381247 0 0 0
3 5 6.0765506298 0.9467816033 14.9127945674 0 0 0
9 7 7.3904254576 3.1552415677 14.921343358 0 0 0
5 7 11.0497419237 1.2529911546 14.6024861837 0 0 0
6 7 12.371824795299998 3.4559595715 14.8227813157 -1 0 0
10 7 9.9130540797 3.3904065996 14.7812471609 0 0 0
16 4 0.4694173902 7.8125304368 14.7997570607 0 0 0
20 7 10.4454755951 7.6697182118 14.1848688757 0 0 0
26 7 0.1281197666 12.2044764222 14.9105894271 0 0 0
27 7 2.482376412 11.8082341077 14.4640395444 0 0 0
23 7 6.9215809143 9.0056325864 14.7794199109 0 0 0
28 7 4.9597127568 11.7869866321 14.6074736033 0 0 0
29 6 7.487468691 11.492489151 14.9214469503 0 0 0
24 7 9.211267288 9.7383043985 14.542324574 0 0 0
25 7 11.7628351674 9.8745411843 14.7910184475 0 0 0
30 7 10.0617556164 11.945152431 14.7619795889 0 0 0
7 7 2.4276438825 3.274586701 14.9921379853 0 0 0
31 6 0.1320668178 1.5666912763 16.54569988 0 0 0
32 7 2.6047881521 1.6851371804 16.9156842324 0 0 0
36 7 1.2195215325 3.8560608354 17.0299024962 0 0 0
37 7 3.7103479774 3.8371572501 17.0572271382 0 0 0
56 2 1.9139638832 0.320698286899999 15.6094045829 0 1 0
8 7 4.9287232821 3.1271355871 15.0109940309 0 0 0
33 7 4.9854693445 1.6648399647 16.9552168616 0 0 0
34 7 7.410113639 1.7690174525 16.9802513671 0 0 0
38 5 6.1786870847 3.8598965293 16.9892925392 0 0 0
4 6 8.6405916037 0.9966073374 15.0011028893 0 0 0
35 7 9.9854439602 1.6623584179 16.9441720819 0 0 0
39 7 8.7306918901 3.8627101762 16.8623801969 0 0 0
40 7 11.1905275305 3.8067890199 17.0006893521 0 0 0
11 7 1.2348702966 5.4950064056 15.0806985502 0 0 0
12 7 3.723333195 5.3162088046 15.091556138 0 0 0
17 7 2.6528824888 7.4951525199 15.1538371669 0 0 0
42 7 2.4538170063 6.1274901805 17.1415379148 0 0 0
47 7 3.8866203033 8.1976953877 17.0635533141 0 0 0
13 7 6.1787690715 5.3054540189 15.034535629 0 0 0
18 7 5.0798141029 7.4787706901 15.0688046453 0 0 0
19 2 7.0597951203 7.0189274967 15.3897174295 0 0 0
43 7 4.9526824561 5.9628190941 17.0949149841 0 0 0
44 7 7.4770692341 5.9405064365 17.0881545432 0 0 0
48 7 6.3467693742 8.0549577382 17.0498728177 0 0 0
14 7 8.7041968087 5.6586120419 14.9658205562 0 0 0
15 6 11.1806031706 5.6044565055 15.1850152514 0 0 0
41 7 12.442168210099998 5.9982391836 17.2267436521 -1 0 0
45 7 9.923455112 6.0385351278 17.2532666192 0 0 0
49 7 8.7166078523 7.9219477302 16.0697967416 0 0 0
50 7 11.1854260308 7.9909608595 16.4539207548 0 0 0
85 6 9.7874825474 8.473382021 18.5408467256 0 0 0
21 2 1.1654244367 10.4783622607 15.2130316912 0 0 0
22 7 2.969847795 9.8650340587 15.6453950804 0 0 0
46 7 0.7946061559 9.3672820405 16.8749701293 0 0 0
52 7 1.3503573598 11.8646523864 16.9891542204 0 0 0
57 7 3.753873893 12.4366743176 16.6098759546 0 0 0
87 1 3.6650451701 10.7156807278 18.2659007397 0 0 0
53 7 5.3358928559 10.1219872041 16.3275402765 0 0 0
54 7 7.7336051436 10.0538114804 16.9470367537 0 0 0
58 6 6.3195663174 12.3667352783 16.9550847684 0 0 0
51 3 11.519673145099999 9.370279149 17.6624171524 -1 0 0
55 7 10.1852587848 10.2759719364 16.6816821896 0 0 0
59 7 8.8367077706 12.3810361477 16.9622360876 0 0 0
60 7 11.2428990064 12.4670428062 16.882988677 0 0 0
66 6 1.393007034 2.1659191631 19.0534804658 0 0 0
67 5 3.8310712323 2.169749835 19.077551421 0 0 0
91 4 1.3610097719 0.7490016766 21.3001474804 0 0 0
92 7 3.7532698079 0.7243006354 21.0553737996 0 0 0
96 7 0.082079932 2.7970216106 21.1874527472 0 0 0
97 7 2.5927240934 2.8497939446 21.1992924965 0 0 0
63 5 4.9567742477 0.0529982254 18.9618634931 0 0 0
64 7 7.4416746235 0.0821708056 19.1014191477 0 0 0
68 7 6.1949360288 2.1588642027 19.0801897325 0 0 0
74 6 7.5018096017 4.2853629911 19.0547359126 0 0 0
93 7 6.2598414465 0.7194660822 21.17367312 0 0 0
98 7 5.0257186556 2.8737258399 21.1536837203 0 0 0
99 5 7.4793105556 2.8150634673 21.1692986238 0 0 0
65 7 10.0018085899 0.0802466939 19.0961651875 0 0 0
69 7 8.7385472152 2.1539822136 18.9954608723 0 0 0
70 7 11.2870638013 2.2382207273 18.9541707741 0 0 0
75 5 9.908720947 4.3054275401 19.0335874063 0 0 0
94 7 8.7140507513 0.7135233683 21.2362014867 0 0 0
95 7 11.3045523296 0.6704651065 21.199536471 0 0 0
100 6 10.0309211856 2.7845552589 21.0550342549 0 0 0
72 7 2.4838430183 4.388962084 19.1070457725 0 0 0
76 7 1.200144222 6.4346976141 19.2600213636 0 0 0
77 7 3.7839563224 6.5073099035 19.1651823211 0 0 0
82 6 2.3588605673 8.4890673053 18.9154467805 0 0 0
101 7 1.204403147 4.986371594 21.2593935642 0 0 0
102 6 3.7298053141 5.0424743752 21.2297752978 0 0 0
107 7 2.4685484599 7.1728356576 21.2326094282 0 0 0
73 7 4.9759755061 4.316411451 19.087212733 0 0 0
78 7 6.1965388899 6.5190956683 19.1399785413 0 0 0
103 7 6.2751972116 5.0470676015 21.1760724515 0 0 0
108 7 5.0116983743 7.22861409 21.2268755354 0 0 0
109 7 7.4193353481 7.2485706051 21.2651304498 0 0 0
71 1 12.383629132 4.3782094725 19.1862342201 -1 0 0
79 7 8.6255974932 6.472044202 19.3232968982 0 0 0
80 7 11.1135754549 6.420590323 19.3581641471 0 0 0
81 4 12.342695017999999 8.4729562787 19.2006565517 -1 0 0
104 7 8.7408050898 5.0231569879 21.2437432022 0 0 0
105 3 10.084277437066874 4.372033676606464 22.288598485462014 0 0 0
106 7 12.435294388199999 7.0968971559 21.3158557077 -1 0 0
110 7 9.8903603607 7.1660305315 21.3021949042 0 0 0
61 6 0.0477387397 12.935022616100001 18.9949290075 0 -1 0
62 7 2.587482576 12.8543346047 19.0383469717 0 -1 0
86 7 1.2816847716 10.6903307998 19.1614661098 0 0 0
111 7 1.1796694452 9.2896516501 21.1960342799 0 0 0
112 6 3.7016357908 9.3557762036 21.1431867319 0 0 0
116 1 0.0369839214 11.486698451 21.2977096144 0 0 0
117 7 2.4704264091 11.5284142583 21.1452899236 0 0 0
83 7 4.9462384898 8.7330200409 19.0834474924 0 0 0
84 7 7.3974678157 8.6397297376 19.085743402 0 0 0
88 7 6.1625171869 10.8013148416 18.9301045672 0 0 0
113 7 6.2139769728 9.4092095126 21.0353192467 0 0 0
118 7 4.9639845145 11.5407295129 21.0425881559 0 0 0
119 4 7.3995383715 11.5362046003 21.0747824702 0 0 0
89 6 8.731338748 10.8500854071 19.0384744744 0 0 0
90 4 11.272219843 10.8209844576 18.9386324767 0 0 0
114 7 8.6997099562 9.3160354633 20.9928929717 0 0 0
115 6 11.109001975 9.2519683408 21.1755872983 0 0 0
120 7 9.9858618188 11.5164614705 21.1821863062 0 0 0
121 7 0.07751973037211918 1.3735683513364294 23.31349414154654 0 0 0
122 7 2.5688646468925986 1.3849763716361378 23.333590273567143 0 0 0
126 6 1.3487085722561647 3.5681034318574554 23.26972468552108 0 0 0
127 7 3.8441812549066703 3.5716064703256123 23.366355544207988 0 0 0
156 1 1.4732668258161001 2.1112454728055403 25.51891279255503 0 0 0
157 7 3.9596093590343844 2.117281113809335 25.44872542386507 0 0 0
162 7 2.5920112993115008 4.2434462305116645 25.43331770962289 0 0 0
123 7 4.985561309158501 1.4099871225644083 23.166294433061942 0 0 0
124 7 7.386995142980456 1.4818024607138138 23.48844117825436 0 0 0
128 7 6.296820924875609 3.6459689870937324 23.18726994943819 0 0 0
153 7 5.189079962676945 0.05077607499613789 25.29668035091934 0 0 0
158 2 5.767685201767972 2.4399486504352663 24.63169861360359 0 0 0
163 7 5.110779241530613 4.2247552296598005 25.42710568059822 0 0 0
164 5 7.46996093958046 4.044287585876218 25.364472832646786 0 0 0
125 7 10.036377932291737 1.408317248046088 23.35825801673003 0 0 0
129 7 8.74434760672641 3.5270144967275985 23.35136488588442 0 0 0
130 4 11.360309900596357 3.5970557743950944 23.406093580299814 0 0 0
155 4 10.111796594514717 0.04239825048571718 25.560339017898848 0 0 0
159 7 8.861135748588483 2.0793856542209954 25.45048050113303 0 0 0
160 7 11.393537028759702 2.1346708616429413 25.4240041565477 0 0 0
165 7 10.058114860249825 4.1972391258354715 25.41594302410794 0 0 0
131 7 0.0640428042232079 5.750685699301833 23.40767322969779 0 0 0
132 7 2.5355676197302865 5.778479400678612 23.364631201138174 0 0 0
136 7 1.295809587888594 7.891955113074009 23.308585494664204 0 0 0
137 7 3.7692457217314757 7.959613504727126 23.28226264507165 0 0 0
161 4 0.10210452333243038 4.319269161302832 25.473133845448853 0 0 0
166 7 1.3303107361136786 6.392676201560454 25.43514429263654 0 0 0
167 7 3.8002083308850088 6.416046301688497 25.448439896930825 0 0 0
171 6 0.10185144993083446 8.59158525515432 25.433629649399336 0 0 0
172 7 2.6146331515867676 8.585768897979321 25.380403683494823 0 0 0
133 6 5.057578373427665 5.8379946481316844 23.392191484427357 0 0 0
134 7 7.551704729293728 5.7573403993218015 23.319059582974067 0 0 0
138 7 6.302708059546757 7.975296949149881 23.34577692502859 0 0 0
168 7 6.3572503202490385 6.372890511613515 25.438945170910603 0 0 0
173 7 5.096218575014739 8.530874987941784 25.33713780164451 0 0 0
135 7 10.056813052928456 5.803724339605155 23.392012310046187 0 0 0
139 4 8.686212484269534 7.920074686478712 23.247778052233613 0 0 0
140 4 11.27460613471228 7.8680331601285864 23.321570177333925 0 0 0
169 7 8.767947971786834 6.309394782362482 25.38787784916528 0 0 0
170 7 11.28178473062706 6.385720681983975 25.452557721949233 0 0 0
175 6 9.877921507880913 8.544836840095483 25.526986780754033 0 0 0
141 7 0.011971938663104132 10.045314808673403 23.34754652065218 0 0 0
142 7 2.4878865079036503 10.083579341060096 23.25866834455376 0 0 0
146 7 1.2941968594721798 12.212727996751898 23.354503096896032 0 0 0
147 7 3.7982434437838175 12.221587702142388 23.184409259564344 0 0 0
151 4 0.08419975095898033 12.85250390223839 25.418836981692472 0 -1 0
152 7 2.646530180274871 12.921001918013564 25.377857800541307 0 -1 0
176 7 1.334064761891802 10.77612014239623 25.435772355687128 0 0 0
177 6 3.870866219490198 10.792907895168929 25.27820243373713 0 0 0
143 7 5.046570730927164 10.082964333428624 23.18545201511158 0 0 0
144 7 7.49710384759522 10.06744174135203 22.92381419881874 0 0 0
148 4 6.20423144296702 12.248279616027673 23.18942703025797 0 0 0
154 7 7.591916279075692 12.920591611190394 25.4767976712429 0 -1 0
178 6 6.608567752940417 10.51907448168674 25.22445146096747 0 0 0
145 7 9.987235216155469 10.051923881167289 23.319350184399205 0 0 0
149 6 8.69978017381323 12.250741420681559 23.333132545457527 0 0 0
150 7 11.238661071802873 12.19576104254052 23.409182468068824 0 0 0
174 3 8.404790903971964 9.485502996373336 24.42752098812637 0 0 0
179 5 8.98988612547398 10.900402119593119 25.58488292321774 0 0 0
180 5 11.327829157076012 10.844531421579612 25.5098047915758 0 0 0
181 7 1.3832600447725156 0.642315900258924 27.50039699641426 0 0 0
182 7 3.869463070348576 0.6797589841446243 27.44117541591002 0 0 0
186 7 0.16485938659313365 2.8359003211668403 27.49816845142476 0 0 0
187 7 2.65361912714799 2.8304164902712214 27.573831967457682 0 0 0
211 7 0.20352323102741168 1.4229745252432406 29.593206198185094 0 0 0
212 7 2.705082454729864 1.3388518301999657 29.586907441426415 0 0 0
216 7 1.4047656886164015 3.5329779253801137 29.59673491821881 0 0 0
217 4 3.817209542004151 3.5514585161982275 29.610639642971616 0 0 0
183 7 6.302171692867722 0.6930474381945376 27.57502206464099 0 0 0
188 7 5.075409439287876 2.852099642500052 27.58558601359355 0 0 0
189 7 7.586911486103404 2.7717216119480668 27.469257292105855 0 0 0
213 5 5.129769424082758 1.4052627734694272 29.60716469102047 0 0 0
214 7 7.605800495836902 1.3333416110663172 29.597484849165173 0 0 0
218 7 6.356676785814932 3.5160216657433097 29.55473039133558 0 0 0
184 7 8.878429907416995 0.697259957746087 27.57183123751325 0 0 0
185 4 11.376894516694948 0.7003264875197422 27.544719081989996 0 0 0
190 7 10.137894773555026 2.8099560940749466 27.49630131099633 0 0 0
215 7 10.11761675438151 1.3816336694120133 29.636900687198814 0 0 0
219 7 8.830786856907922 3.4900287015751443 29.537251267137076 0 0 0
220 7 11.362522058267535 3.5372423148750154 29.527656985585278 0 0 0
191 7 1.3849904919254628 4.984438658069769 27.481183007374863 0 0 0
192 7 3.826460029181539 4.968065215862711 27.492656335338065 0 0 0
196 7 0.12978248804853795 7.135148809050379 27.505734476717226 0 0 0
197 7 2.5723116037562987 7.170003579481719 27.484243753699204 0 0 0
221 7 0.11425539837626919 5.704924011559023 29.580237403248844 0 0 0
222 7 2.5845772432973226 5.706050185879649 29.565099495096305 0 0 0
226 7 1.3567881950635718 7.879010031095024 29.56211530212315 0 0 0
227 7 3.8534350676578875 7.889334315247349 29.477927433017317 0 0 0
193 7 6.362028354281925 4.95343287344418 27.423828779967533 0 0 0
198 7 5.09528889090912 7.150308104758136 27.419894399583537 0 0 0
199 7 7.6142328878359935 7.165508007990772 27.455927289197376 0 0 0
223 6 5.14516637676813 5.699046327261102 29.502481057074167 0 0 0
224 7 7.637810035200661 5.7159734872490695 29.591491810643998 0 0 0
228 7 6.386774239790051 7.890329227639845 29.49842621813472 0 0 0
194 6 8.840702961873218 4.974885221276181 27.500596798961542 0 0 0
195 7 11.354273074647336 4.972234464052824 27.515442115610778 0 0 0
200 7 10.117197671081483 7.135223496354775 27.54672295546865 0 0 0
225 7 10.095519844156046 5.718940614836085 29.61293949623699 0 0 0
229 7 8.839967944820737 7.860076279703369 29.53238542614829 0 0 0
230 7 11.362203695309212 7.909386514503084 29.531928352257264 0 0 0
201 5 1.3726493049223212 9.302060744959215 27.52129286001614 0 0 0
202 7 3.8654858986117353 9.297325412908133 27.381745545678875 0 0 0
206 4 0.1812094631542133 11.454957439116027 27.53089009307938 0 0 0
207 7 2.6049650092515844 11.433833888439308 27.444501297582807 0 0 0
231 7 0.159815794838683 10.056711258866425 29.57473974231979 0 0 0
232 7 2.627274114104444 10.00138094773609 29.43384493848538 0 0 0
236 7 1.4688760302443375 12.160520728966457 29.56039055385234 0 0 0
203 7 6.368360453582373 9.262637134651838 27.392928477773136 0 0 0
208 7 5.131174467348526 11.47757031047235 27.32505974251855 0 0 0
209 6 7.575691614945437 11.502844229967621 27.642590611225263 0 0 0
233 7 5.142939867351042 10.031976619419373 29.32743365792493 0 0 0
234 7 7.594893860396952 10.066278781485916 29.666860696122235 0 0 0
238 7 6.205874347927107 12.214649984722202 29.6828915301649 0 0 0
204 7 8.832275970720882 9.346000296042359 27.628927011527974 0 0 0
205 7 11.33891775108976 9.394093359652222 27.553181405939913 0 0 0
210 7 10.144644567718824 11.531870358858244 27.58988243010105 0 0 0
235 7 10.079110512440552 10.15768944682672 29.6072939720377 0 0 0
239 4 8.87226789901399 12.233034854285586 29.735567495936085 0 0 0
240 7 11.390460805377927 12.24557602184177 29.567310806144906 0 0 0
237 3 4.027664799233249 0.2779290459210921 30.56059420044368 0 1 0
241 7 0.19663442046800694 0.081699810510877 31.637194997955564 0 0 0
242 7 2.564387989299081 0.12251666663861253 31.74694019603799 0 0 0
246 4 1.3377545296133533 2.224818907210679 31.6679123086354 0 0 0
247 7 3.8742460772579896 2.1350521099512516 31.65007386095294 0 0 0
251 7 0.1393541699580866 4.308241233909654 31.65535136064552 0 0 0
252 7 2.624185509673669 4.305713686749705 31.681840070124444 0 0 0
248 7 6.400849182049089 2.1355526836705003 31.653999434583206 0 0 0
253 7 5.103334754348196 4.297269885017852 31.635832985516938 0 0 0
254 7 7.614199939699269 4.2991152641022286 31.6047386067851 0 0 0
249 7 8.843493505093027 2.0856732442809367 31.68837068693757 0 0 0
250 7 11.377156891096256 2.1216652830548046 31.662687652485175 0 0 0
255 1 10.094854441279189 4.202288380172181 31.509072159321832 0 0 0
256 7 1.3228766351622379 6.483759476210172 31.6518944933583 0 0 0
257 6 3.7844515592559707 6.488559418637398 31.679599120937294 0 0 0
286 7 0.0888709425098901 7.274399318886245 33.637084509882555 0 0 0
258 7 6.344457255277574 6.480414473740307 31.63070938934447 0 0 0
264 7 7.582475680401002 8.562640992641278 31.623865413090197 0 0 0
259 4 8.817033003349154 6.445966193996391 31.639264544205457 0 0 0
260 7 11.30993305432225 6.4766349655927185 31.600647774683356 0 0 0
284 5 8.885547733664596 5.104278516122218 33.60209507518882 0 0 0
285 4 11.329550265154325 5.138749175779935 33.63028104864946 0 0 0
290 7 10.080627045212129 7.246298927649106 33.60692807808185 0 0 0
261 7 0.17083171518572088 8.69338903173068 31.65864177723167 0 0 0
262 7 2.656213020299388 8.701527023549874 31.540056403005405 0 0 0
266 7 1.5603947055220355 10.816803806654084 31.575291496438393 0 0 0
267 4 3.9126673436663135 11.264634877957011 30.850218627167205 0 0 0
292 7 3.950616078886216 9.346984787175044 33.513710644083375 0 0 0
243 7 5.163783140009419 12.88688679086271 32.10223856578759 0 -1 0
244 7 7.620758709325829 12.922404938156513 31.714396870561558 0 -1 0
263 1 5.084613184403764 8.748208295264552 31.42546113904532 0 0 0
268 7 6.253144163340568 10.74741844630397 31.58164662889255 0 0 0
293 4 6.442623245270358 9.304071188394337 33.648395346270064 0 0 0
245 7 10.1054521514683 12.869403143884785 31.87353645883187 0 -1 0
265 6 10.094710440593115 8.667408813711859 31.550408338475552 0 0 0
269 7 8.767809829053178 10.786745991083414 31.75303020999524 0 0 0
270 7 11.423896471906213 10.88992848261921 31.619410560957657 0 0 0
296 3 11.070156843047954 11.817448894211953 33.33372683879683 -1 0 0
271 7 1.4772951018655693 0.8863350660254964 33.77960548489895 0 0 0
272 7 3.923953910403777 0.9375489063811911 33.92989474512176 0 0 0
276 7 0.17111626296384458 2.975377099930998 33.73756839409311 0 0 0
277 7 2.6416603396718457 3.059310169964472 33.79924296323236 0 0 0
301 7 0.19380638407236261 1.5293725031086274 35.75942162487679 0 0 0
302 7 2.629685171811798 1.6407498049673042 35.86439000578634 0 0 0
306 4 1.441975812762519 3.772439963726509 35.95614415749122 0 0 0
307 7 4.005274279400218 3.7120509695590895 35.83813803921605 0 0 0
273 7 6.461385435732198 0.9579504854732174 33.90403089717883 0 0 0
278 1 5.213516541951709 2.983661834344144 33.72815488096667 0 0 0
279 7 7.72590490765014 3.0285025217170887 33.740351475068614 0 0 0
303 7 5.255214027138162 1.6493925115219599 35.948468499359045 0 0 0
304 4 7.765383530597566 1.6255787164793898 35.925024918616465 0 0 0
308 7 6.532507860603115 3.6953632961075535 35.809413061421154 0 0 0
274 7 8.835271618864821 0.8826681338040835 33.84580076070981 0 0 0
275 4 11.43811009409984 0.7830351987338394 33.71721711882199 0 0 0
280 7 10.19820049572188 2.978155450363434 33.71001036332092 0 0 0
305 7 10.226953323694755 1.5513932825724355 35.73058635546851 0 0 0
309 7 9.02304578318337 3.6639017808020773 35.78512038795723 0 0 0
310 4 11.595857142973726 3.930162018079137 35.87220581712846 0 0 0
281 7 1.3054669709035667 5.166123053640745 33.89328790030622 0 0 0
282 4 3.8290090323446475 5.120581190273134 33.790442144319584 0 0 0
287 7 2.619225747999071 7.265598819619604 33.771396231802434 0 0 0
312 7 2.7138112283831255 5.760991210252068 35.8257674792815 0 0 0
316 7 1.205335590810481 7.563269342176669 35.8368908825315 0 0 0
317 7 3.926325131955413 8.03980746123267 35.742163723001966 0 0 0
283 7 6.371898001007499 5.086490112532869 33.68143276225175 0 0 0
288 7 5.177344144167022 7.250006332116536 33.677770073240275 0 0 0
289 7 7.627049722887855 7.171355788808376 33.718300755394665 0 0 0
313 7 5.2556869625460285 5.901706274272412 35.730474601545936 0 0 0
314 7 7.720951685202465 5.809316398914685 35.75035443187816 0 0 0
318 4 6.552206168787653 8.102654363258841 35.80830657990163 0 0 0
311 2 12.321715847984281 6.004410781313463 35.31003227987617 -1 0 0
315 7 10.144272266955479 5.802787145340304 35.6047503245708 0 0 0
319 7 8.952251936487993 7.968447031255388 35.820691629119175 0 0 0
320 7 11.346735462703304 7.930171558325073 35.60574096839281 0 0 0
350 7 11.69821862484766 6.275908116470717 37.350490012579876 0 0 0
355 3 10.43963364676967 7.890249882422763 37.280239898124535 0 0 0
291 7 1.464166825490693 9.412978988548877 33.73314557614956 0 0 0
297 6 3.022904641375305 11.556145331724425 33.67705638560248 0 0 0
321 6 0.21266473575758862 10.065881456094917 35.90056879268549 0 0 0
322 7 2.7031846972658844 10.175124731975087 35.76446711192023 0 0 0
326 7 0.5037369415224103 11.64095543160867 33.6775836273283 0 0 0
327 6 3.933576756563447 12.482235647300413 36.10988965745247 0 0 0
356 4 1.4111025229319394 12.34403460352419 35.84570473754698 0 0 0
298 2 5.204234944874284 12.266520513107045 34.20564444040047 0 0 0
299 7 6.994511684835453 11.560784073971083 33.679710091833925 0 0 0
323 6 5.231886162141278 10.216121689710635 35.5800681239794 0 0 0
324 7 7.909960921347595 10.341529186234764 35.7161737351883 0 0 0
328 7 6.476303056130564 12.502393514892578 35.913732456597714 0 0 0
294 7 8.759641952298841 9.274290127618462 33.69594827190406 0 0 0
295 6 11.26307762279844 9.684366468293117 33.766835007548956 0 0 0
300 7 9.37756032094344 11.530409108444173 34.168164904870885 0 0 0
325 7 10.253217053075867 9.826160720406065 37.040381217575074 0 0 0
329 3 9.529364073620393 11.385067604918026 36.20371147446198 0 0 0
330 4 11.2557946582195 12.060654461793717 35.57435855464928 0 0 0
335 5 9.906784365315884 12.893882634554938 37.392183206109294 0 -1 0
332 7 2.49752544335565 0.08317659967361764 38.036199098586344 0 0 0
336 7 1.342131905200203 2.14955177082106 37.836517004305335 0 0 0
337 7 3.880553125233574 2.183953701553797 37.86809603451191 0 0 0
341 7 0.22066073537263853 4.200172662572188 38.1163428790964 0 0 0
342 7 2.716260080896009 4.272586910531526 37.920579953880015 0 0 0
333 7 5.224486920210306 0.15994582051632486 38.122790655975194 0 0 0
334 7 7.65338732122701 0.06156261065843638 38.005026012831266 0 0 0
338 7 6.5372645822737665 2.2596653675791387 37.90965364256604 0 0 0
339 7 8.99266235747245 2.17727171213907 37.859726918395154 0 0 0
340 7 11.371747981176355 2.1681660439344066 37.73502892308516 0 0 0
346 7 1.5197010703172866 6.433444619309738 38.18554264568748 0 0 0
347 6 3.956366116733364 6.463703772466863 37.785637610051026 0 0 0
361 8 0.0015734647236659235 5.690948845247162 38.70207530332339 0 0 0
343 7 5.300318203255468 4.420908958978053 37.84515849261235 0 0 0
344 7 7.828333516837796 4.432090101823851 37.851357417617606 0 0 0
348 6 6.651819264113364 6.657353068855664 37.82399726002955 0 0 0
345 4 10.213098632487707 4.315584688023842 37.83026723721329 0 0 0
349 7 9.22053163737107 6.6209429484447195 37.85409291165736 0 0 0
351 7 12.272047528343865 8.586303259924223 37.83406084490118 -1 0 0
352 6 2.5044643341707453 8.661459999835527 37.70591980514732 0 0 0
357 7 3.853335777153389 10.80234364924484 37.96648890731497 0 0 0
360 7 1.3976058035885819 10.894133803007673 37.890750705260196 1 0 0
353 7 5.132875527476268 8.685993392214096 37.83525053359483 0 0 0
354 7 7.9494440795478 8.945585622537717 37.8207023754263 0 0 0
358 6 6.418416156977258 10.847939548728855 37.793751686989644 0 0 0
331 7 12.394988873512451 12.862305498382987 37.62223789589115 -1 -1 0
359 2 8.601018853579241 11.15277645211543 37.42917549965677 0 0 0

Velocities

1 0 0 0
2 0 0 0
3 0 0 0
9 0 0 0
5 0 0 0
6 0 0 0
10 0 0 0
16 0 0 0
20 0 0 0
26 0 0 0
27 0 0 0
23 0 0 0
28 0 0 0
29 0 0 0
24 0 0 0
25 0 0 0
30 0 0 0
7 0 0 0
31 0 0 0
32 0 0 0
36 0 0 0
37 0 0 0
56 0 0 0
8 0 0 0
33 0 0 0
34 0 0 0
38 0 0 0
4 0 0 0
35 0 0 0
39 0 0 0
40 0 0 0
11 0 0 0
12 0 0 0
17 0 0 0
42 0 0 0
47 0 0 0
13 0 0 0
18 0 0 0
19 0 0 0
43 0 0 0
44 0 0 0
48 0 0 0
14 0 0 0
15 0 0 0
41 0 0 0
45 0 0 0
49 0 0 0
50 0 0 0
85 0 0 0
21 0 0 0
22 0 0 0
46 0 0 0
52 0 0 0
57 0 0 0
87 0 0 0
53 0 0 0
54 0 0 0
58 0 0 0
51 0 0 0
55 0 0 0
59 0 0 0
60 0 0 0
66 0 0 0
67 0 0 0
91 0 0 0
92 0 0 0
96 0 0 0
97 0 0 0
63 0 0 0
64 0 0 0
68 0 0 0
74 0 0 0
93 0 0 0
98 0 0 0
99 0 0 0
65 0 0 0
69 0 0 0
70 0 0 0
75 0 0 0
94 0 0 0
95 0 0 0
100 0 0 0
72 0 0 0
76 0 0 0
77 0 0 0
82 0 0 0
101 0 0 0
102 0 0 0
107 0 0 0
73 0 0 0
78 0 0 0
103 0 0 0
108 0 0 0
109 0 0 0
71 0 0 0
79 0 0 0
80 0 0 0
81 0 0 0
104 0 0 0
105 0 0 0
106 0 0 0
110 0 0 0
61 0 0 0
62 0 0 0
86 0 0 0
111 0 0 0
112 0 0 0
116 0 0 0
117 0 0 0
83 0 0 0
84 0 0 0
88 0 0 0
113 0 0 0
118 0 0 0
119 0 0 0
89 0 0 0
90 0 0 0
114 0 0 0
115 0 0 0
120 0 0 0
121 0 0 0
122 0 0 0
126 0 0 0
127 0 0 0
156 0 0 0
157 0 0 0
162 0 0 0
123 0 0 0
124 0 0 0
128 0 0 0
153 0 0 0
158 0 0 0
163 0 0 0
164 0 0 0
125 0 0 0
129 0 0 0
130 0 0 0
155 0 0 0
159 0 0 0
160 0 0 0
165 0 0 0
131 0 0 0
132 0 0 0
136 0 0 0
137 0 0 0
161 0 0 0
166 0 0 0
167 0 0 0
171 0 0 0
172 0 0 0
133 0 0 0
134 0 0 0
138 0 0 0
168 0 0 0
173 0 0 0
135 0 0 0
139 0 0 0
140 0 0 0
169 0 0 0
170 0 0 0
175 0 0 0
141 0 0 0
142 0 0 0
146 0 0 0
147 0 0 0
151 0 0 0
152 0 0 0
176 0 0 0
177 0 0 0
143 0 0 0
144 0 0 0
148 0 0 0
154 0 0 0
178 0 0 0
145 0 0 0
149 0 0 0
150 0 0 0
174 0 0 0
179 0 0 0
180 0 0 0
181 0 0 0
182 0 0 0
186 0 0 0
187 0 0 0
211 0 0 0
212 0 0 0
216 0 0 0
217 0 0 0
183 0 0 0
188 0 0 0
189 0 0 0
213 0 0 0
214 0 0 0
218 0 0 0
184 0 0 0
185 0 0 0
190 0 0 0
215 0 0 0
219 0 0 0
220 0 0 0
191 0 0 0
192 0 0 0
196 0 0 0
197 0 0 0
221 0 0 0
222 0 0 0
226 0 0 0
227 0 0 0
193 0 0 0
198 0 0 0
199 0 0 0
223 0 0 0
224 0 0 0
228 0 0 0
194 0 0 0
195 0 0 0
200 0 0 0
225 0 0 0
229 0 0 0
230 0 0 0
201 0 0 0
202 0 0 0
206 0 0 0
207 0 0 0
231 0 0 0
232 0 0 0
236 0 0 0
203 0 0 0
208 0 0 0
209 0 0 0
233 0 0 0
234 0 0 0
238 0 0 0
204 0 0 0
205 0 0 0
210 0 0 0
235 0 0 0
239 0 0 0
240 0 0 0
237 0 0 0
241 0 0 0
242 0 0 0
246 0 0 0
247 0 0 0
251 0 0 0
252 0 0 0
248 0 0 0
253 0 0 0
254 0 0 0
249 0 0 0
250 0 0 0
255 0 0 0
256 0 0 0
257 0 0 0
286 0 0 0
258 0 0 0
264 0 0 0
259 0 0 0
260 0 0 0
284 0 0 0
285 0 0 0
290 0 0 0
261 0 0 0
262 0 0 0
266 0 0 0
267 0 0 0
292 0 0 0
243 0 0 0
244 0 0 0
263 0 0 0
268 0 0 0
293 0 0 0
245 0 0 0
265 0 0 0
269 0 0 0
270 0 0 0
296 0 0 0
271 0 0 0
272 0 0 0
276 0 0 0
277 0 0 0
301 0 0 0
302 0 0 0
306 0 0 0
307 0 0 0
273 0 0 0
278 0 0 0
279 0 0 0
303 0 0 0
304 0 0 0
308 0 0 0
274 0 0 0
275 0 0 0
280 0 0 0
305 0 0 0
309 0 0 0
310 0 0 0
281 0 0 0
282 0 0 0
287 0 0 0
312 0 0 0
316 0 0 0
317 0 0 0
283 0 0 0
288 0 0 0
289 0 0 0
313 0 0 0
314 0 0 0
318 0 0 0
311 0 0 0
315 0 0 0
319 0 0 0
320 0 0 0
350 0 0 0
355 0 0 0
291 0 0 0
297 0 0 0
321 0 0 0
322 0 0 0
326 0 0 0
327 0 0 0
356 0 0 0
298 0 0 0
299 0 0 0
323 0 0 0
324 0 0 0
328 0 0 0
294 0 0 0
295 0 0 0
300 0 0 0
325 0 0 0
329 0 0 0
330 0 0 0
335 0 0 0
332 0 0 0
336 0 0 0
337 0 0 0
341 0 0 0
342 0 0 0
333 0 0 0
334 0 0 0
338 0 0 0
339 0 0 0
340 0 0 0
346 0 0 0
347 0 0 0
361 0 0 0
343 0 0 0
344 0 0 0
348 0 0 0
345 0 0 0
349 0 0 0
351 0 0 0
352 0 0 0
357 0 0 0
360 0 0 0
353 0 0 0
354 0 0 0
358 0 0 0
331 0 0 0
359 0 0 0
