LAMMPS data file via write_data, version 11 Feb 2026, timestep = 181, units = metal

361 atoms
8 atom types

0 12.447907776 xlo xhi
0 12.9362452296 ylo yhi
0 52.3600831054 zlo zhi

Masses

1 26.9815
2 10.811
3 12.011
4 51.9961
5 55.845
6 95.95999999999999
7 58.6934
8 1.008

Atoms # atomic/kk

1 7 1.1447475034 1.4042530815 14.1767669076 0 0 0
2 7 3.6084602259 1.0698845996 14.6704381247 0 0 0
3 5 6.0765506298 0.9467816033 14.9127945674 0 0 0
9 7 7.3904254576 3.1552415677 14.921343358 0 0 0
5 7 11.0497419237 1.2529911546 14.6024861837 0 0 0
6 7 12.371824795299998 3.4559595715 14.8227813157 -1 0 0
10 7 9.9130540797 3.3904065996 14.7812471609 0 0 0
16 4 0.4694173902 7.8125304368 14.7997570607 0 0 0
20 7 10.4454755951 7.6697182118 14.1848688757 0 0 0
26 7 0.1281197666 12.2044764222 14.9105894271 0 0 0
27 7 2.482376412 11.8082341077 14.4640395444 0 0 0
23 7 6.9215809143 9.0056325864 14.7794199109 0 0 0
28 7 4.9597127568 11.7869866321 14.6074736033 0 0 0
29 6 7.487468691 11.492489151 14.9214469503 0 0 0
24 7 9.211267288 9.7383043985 14.542324574 0 0 0
25 7 11.7628351674 9.8745411843 14.7910184475 0 0 0
30 7 10.0617556164 11.945152431 14.7619795889 0 0 0
7 7 2.4276438825 3.274586701 14.9921379853 0 0 0
31 6 0.1320668178 1.5666912763 16.54569988 0 0 0
32 7 2.6047881521 1.6851371804 16.9156842324 0 0 0
36 7 1.2195215325 3.8560608354 17.0299024962 0 0 0
37 7 3.7103479774 3.8371572501 17.0572271382 0 0 0
56 2 1.9139638832 0.320698286899999 15.6094045829 0 1 0
8 7 4.9287232821 3.1271355871 15.0109940309 0 0 0
33 7 4.9854693445 1.6648399647 16.9552168616 0 0 0
34 7 7.410113639 1.7690174525 16.9802513671 0 0 0
38 5 6.1786870847 3.8598965293 16.9892925392 0 0 0
4 6 8.6405916037 0.9966073374 15.0011028893 0 0 0
35 7 9.9854439602 1.6623584179 16.9441720819 0 0 0
39 7 8.7306918901 3.8627101762 16.8623801969 0 0 0
40 7 11.1905275305 3.8067890199 17.0006893521 0 0 0
11 7 1.2348702966 5.4950064056 15.0806985502 0 0 0
12 7 3.723333195 5.3162088046 15.091556138 0 0 0
17 7 2.6528824888 7.4951525199 15.1538371669 0 0 0
42 7 2.4538170063 6.1274901805 17.1415379148 0 0 0
47 7 3.8866203033 8.1976953877 17.0635533141 0 0 0
13 7 6.1787690715 5.3054540189 15.034535629 0 0 0
18 7 5.0798141029 7.4787706901 15.0688046453 0 0 0
19 2 7.0597951203 7.0189274967 15.3897174295 0 0 0
43 7 4.9526824561 5.9628190941 17.0949149841 0 0 0
44 7 7.4770692341 5.9405064365 17.0881545432 0 0 0
48 7 6.3467693742 8.0549577382 17.0498728177 0 0 0
14 7 8.7041968087 5.6586120419 14.9658205562 0 0 0
15 6 11.1806031706 5.6044565055 15.1850152514 0 0 0
41 7 12.442168210099998 5.9982391836 17.2267436521 -1 0 0
45 7 9.923455112 6.0385351278 17.2532666192 0 0 0
49 7 8.7166078523 7.9219477302 16.0697967416 0 0 0
50 7 11.1854260308 7.9909608595 16.4539207548 0 0 0
85 6 9.7874825474 8.473382021 18.5408467256 0 0 0
21 2 1.1654244367 10.4783622607 15.2130316912 0 0 0
22 7 2.969847795 9.8650340587 15.6453950804 0 0 0
46 7 0.7946061559 9.3672820405 16.8749701293 0 0 0
52 7 1.3503573598 11.8646523864 16.9891542204 0 0 0
57 7 3.753873893 12.4366743176 16.6098759546 0 0 0
87 1 3.6650451701 10.7156807278 18.2659007397 0 0 0
53 7 5.3358928559 10.1219872041 16.3275402765 0 0 0
54 7 7.7336051436 10.0538114804 16.9470367537 0 0 0
58 6 6.3195663174 12.3667352783 16.9550847684 0 0 0
51 3 11.519673145099999 9.370279149 17.6624171524 -1 0 0
55 7 10.1852587848 10.2759719364 16.6816821896 0 0 0
59 7 8.8367077706 12.3810361477 16.9622360876 0 0 0
60 7 11.2428990064 12.4670428062 16.882988677 0 0 0
66 6 1.393007034 2.1659191631 19.0534804658 0 0 0
67 5 3.8310712323 2.169749835 19.077551421 0 0 0
91 4 1.3610097719 0.7490016766 21.3001474804 0 0 0
92 7 3.7532698079 0.7243006354 21.0553737996 0 0 0
96 7 0.082079932 2.7970216106 21.1874527472 0 0 0
97 7 2.5927240934 2.8497939446 21.1992924965 0 0 0
63 5 4.9567742477 0.0529982254 18.9618634931 0 0 0
64 7 7.4416746235 0.0821708056 19.1014191477 0 0 0
68 7 6.1949360288 2.1588642027 19.0801897325 0 0 0
74 6 7.5018096017 4.2853629911 19.0547359126 0 0 0
93 7 6.2598414465 0.7194660822 21.17367312 0 0 0
98 7 5.0257186556 2.8737258399 21.1536837203 0 0 0
99 5 7.4793105556 2.8150634673 21.1692986238 0 0 0
65 7 10.0018085899 0.0802466939 19.0961651875 0 0 0
69 7 8.7385472152 2.1539822136 18.9954608723 0 0 0
70 7 11.2870638013 2.2382207273 18.9541707741 0 0 0
75 5 9.908720947 4.3054275401 19.0335874063 0 0 0
94 7 8.7140507513 0.7135233683 21.2362014867 0 0 0
95 7 11.3045523296 0.6704651065 21.199536471 0 0 0
100 6 10.0309211856 2.7845552589 21.0550342549 0 0 0
72 7 2.4838430183 4.388962084 19.1070457725 0 0 0
76 7 1.200144222 6.4346976141 19.2600213636 0 0 0
77 7 3.7839563224 6.5073099035 19.1651823211 0 0 0
82 6 2.3588605673 8.4890673053 18.9154467805 0 0 0
101 7 1.204403147 4.986371594 21.2593935642 0 0 0
102 6 3.7298053141 5.0424743752 21.2297752978 0 0 0
107 7 2.4685484599 7.1728356576 21.2326094282 0 0 0
73 7 4.9759755061 4.316411451 19.087212733 0 0 0
78 7 6.1965388899 6.5190956683 19.1399785413 0 0 0
103 7 6.2751972116 5.0470676015 21.1760724515 0 0 0
108 7 5.0116983743 7.22861409 21.2268755354 0 0 0
109 7 7.4193353481 7.2485706051 21.2651304498 0 0 0
71 1 12.383629132 4.3782094725 19.1862342201 -1 0 0
79 7 8.6255974932 6.472044202 19.3232968982 0 0 0
80 7 11.1135754549 6.420590323 19.3581641471 0 0 0
81 4 12.342695017999999 8.4729562787 19.2006565517 -1 0 0
104 7 8.7408050898 5.0231569879 21.2437432022 0 0 0
105 3 10.084409020391513 4.372034047339588 22.288514896274428 0 0 0
106 7 12.435294388199999 7.0968971559 21.3158557077 -1 0 0
110 7 9.8903603607 7.1660305315 21.3021949042 0 0 0
61 6 0.0477387397 12.935022616100001 18.9949290075 0 -1 0
62 7 2.587482576 12.8543346047 19.0383469717 0 -1 0
86 7 1.2816847716 10.6903307998 19.1614661098 0 0 0
111 7 1.1796694452 9.2896516501 21.1960342799 0 0 0
112 6 3.7016357908 9.3557762036 21.1431867319 0 0 0
116 1 0.0369839214 11.486698451 21.2977096144 0 0 0
117 7 2.4704264091 11.5284142583 21.1452899236 0 0 0
83 7 4.9462384898 8.7330200409 19.0834474924 0 0 0
84 7 7.3974678157 8.6397297376 19.085743402 0 0 0
88 7 6.1625171869 10.8013148416 18.9301045672 0 0 0
113 7 6.2139769728 9.4092095126 21.0353192467 0 0 0
118 7 4.9639845145 11.5407295129 21.0425881559 0 0 0
119 4 7.3995383715 11.5362046003 21.0747824702 0 0 0
89 6 8.731338748 10.8500854071 19.0384744744 0 0 0
90 4 11.272219843 10.8209844576 18.9386324767 0 0 0
114 7 8.6997099562 9.3160354633 20.9928929717 0 0 0
115 6 11.109001975 9.2519683408 21.1755872983 0 0 0
120 7 9.9858618188 11.5164614705 21.1821863062 0 0 0
121 7 0.07745211591019907 1.3734925151456403 23.31376553782303 0 0 0
122 7 2.568725077435647 1.384935852358711 23.333885241006925 0 0 0
126 6 1.3486695879348671 3.5679216312340682 23.269962725562014 0 0 0
127 7 3.8440881968456253 3.57155044766176 23.366306060149505 0 0 0
156 1 1.4731867061038844 2.1111935762051814 25.519971175309273 0 0 0
157 7 3.959449767518643 2.1173351792996566 25.448873492555823 0 0 0
162 7 2.5920431930007743 4.24320377885151 25.43352979989382 0 0 0
123 7 4.985427632466487 1.4099937097260624 23.16615262345062 0 0 0
124 7 7.3870231378707025 1.481961281592835 23.48808752515496 0 0 0
128 7 6.296797968373472 3.645953991289959 23.187292867191758 0 0 0
153 7 5.1889544708858315 0.05103864793584311 25.296478342629975 0 0 0
158 2 5.767658427895912 2.4396139690579863 24.631609249842747 0 0 0
163 7 5.110915236811716 4.224637194141032 25.4266363530399 0 0 0
164 5 7.47024389276464 4.044754996670172 25.364256728807636 0 0 0
125 7 10.036469389361379 1.4084246805830838 23.35828603715146 0 0 0
129 7 8.744439250871366 3.527128142912795 23.351332982817244 0 0 0
130 4 11.360373044564376 3.597061104099386 23.406132429630564 0 0 0
155 4 10.111835544052658 0.04297862227171363 25.559865822247886 0 0 0
159 7 8.861368224486384 2.0798882001133125 25.450482502187644 0 0 0
160 7 11.393840726150543 2.134995157994041 25.424563298727076 0 0 0
165 7 10.05842625705536 4.197376945536303 25.416021103248053 0 0 0
131 7 0.06417471959194199 5.750566951101376 23.407863727943802 0 0 0
132 7 2.535532808795728 5.7783696519208885 23.364696422476246 0 0 0
136 7 1.295826439359909 7.8918802328816335 23.30873543290319 0 0 0
137 7 3.7692094016758895 7.959654282741755 23.282313345448635 0 0 0
161 4 0.10231246195680174 4.319208292499797 25.473648153875846 0 0 0
166 7 1.3304748986869785 6.39253640503071 25.435392289417187 0 0 0
167 7 3.8002531340709895 6.4160163191480954 25.44834737513287 0 0 0
171 6 0.10181697412906597 8.591366351743188 25.433911025021803 0 0 0
172 7 2.614581528211845 8.585771185694268 25.38057716576883 0 0 0
133 6 5.057476411209666 5.837981898053336 23.391925494334608 0 0 0
134 7 7.5516902436332485 5.757378234624389 23.318795909936696 0 0 0
138 7 6.302635181953071 7.975436400422582 23.34582950414822 0 0 0
168 7 6.357091551951277 6.373234194767094 25.438254011074783 0 0 0
173 7 5.096027907938688 8.53124438061064 25.33722731626955 0 0 0
135 7 10.057008349691468 5.80374186995273 23.391854347342996 0 0 0
139 4 8.686214073198684 7.920105004027289 23.247605391542148 0 0 0
140 4 11.274765851653465 7.867980970338888 23.3215514803666 0 0 0
169 7 8.768084526428062 6.309624157971546 25.387213475966625 0 0 0
170 7 11.281911824511788 6.385545152435254 25.452649012146114 0 0 0
175 6 9.87815470915632 8.5450195801508 25.526589554650354 0 0 0
141 7 0.0120298774074437 10.045213062401043 23.347731565136538 0 0 0
142 7 2.4878113892743827 10.083558177136327 23.258712627215736 0 0 0
146 7 1.2941167370674096 12.212697460246574 23.354706756215847 0 0 0
147 7 3.7981112748111934 12.221632850722415 23.184475839157155 0 0 0
151 4 0.0841610107165017 12.85240600943158 25.41952572954963 0 -1 0
152 7 2.6462891122654395 12.921153058459867 25.378299750634934 0 -1 0
176 7 1.3340055715268855 10.776064681043893 25.436056988031154 0 0 0
177 6 3.8705658709500566 10.793051184097692 25.27821606742902 0 0 0
143 7 5.046473725402105 10.083093311055476 23.18552073605647 0 0 0
144 7 7.497073193575652 10.067522177560964 22.923689810304364 0 0 0
148 4 6.204168349297681 12.24834298813704 23.189368769077998 0 0 0
154 7 7.59183845056143 12.921229205094361 25.47620039325548 0 -1 0
178 6 6.608759904425657 10.519086470380651 25.224336972038667 0 0 0
145 7 9.987321514345771 10.051954369913176 23.319139438325443 0 0 0
149 6 8.69976057625028 12.250888949663587 23.332717530951935 0 0 0
150 7 11.238703719441393 12.195708110650905 23.40937387216397 0 0 0
174 3 8.404840022525473 9.485473390233741 24.42727004152891 0 0 0
179 5 8.990131428831766 10.901104359392143 25.583656550410183 0 0 0
180 5 11.328092563991731 10.844494529952106 25.510240085869132 0 0 0
181 7 1.3828280435484686 0.6421601107477781 27.502009424007362 0 0 0
182 7 3.8691789200690936 0.6799876789419378 27.44159232927469 0 0 0
186 7 0.16499708091570225 2.8360355890798354 27.499780783115728 0 0 0
187 7 2.6536476292203957 2.8299373678296043 27.575119748038063 0 0 0
211 7 0.20347793139537207 1.4229444080799007 29.59523434754364 0 0 0
212 7 2.704716586709597 1.3362111988276493 29.589081975036088 0 0 0
216 7 1.4056099937100928 3.532645664870591 29.598416927238315 0 0 0
217 4 3.8182178649256064 3.550228662540227 29.610124215341884 0 0 0
183 7 6.302147562458298 0.6940088146947865 27.574623809018426 0 0 0
188 7 5.075789813990825 2.8517808995658176 27.584997739749422 0 0 0
189 7 7.58788827414395 2.772714544097582 27.469389611628337 0 0 0
213 5 5.127934144173507 1.4031989361161772 29.608450804453266 0 0 0
214 7 7.605669001306547 1.3351068424203398 29.596356482753983 0 0 0
218 7 6.356674211457224 3.5161945539583197 29.552878117894977 0 0 0
184 7 8.87866452237545 0.6980451919990392 27.571310412557075 0 0 0
185 4 11.376969350423886 0.7008056619362785 27.544705173677517 0 0 0
190 7 10.138340185231453 2.8107442966741747 27.497217348818843 0 0 0
215 7 10.117435134010137 1.3824900343637059 29.63681461203602 0 0 0
219 7 8.832693403858915 3.4927966861357924 29.5384589054102 0 0 0
220 7 11.36309427593321 3.5380251826609133 29.53008581352803 0 0 0
191 7 1.385241921427082 4.9842090930336145 27.481551774531365 0 0 0
192 7 3.826787602482993 4.967557309739568 27.49206497655578 0 0 0
196 7 0.13005940924277581 7.134847350754176 27.50613106003366 0 0 0
197 7 2.5725215216084867 7.170031868155308 27.484213298723088 0 0 0
221 7 0.11444449972908814 5.704302681567528 29.58120314937565 0 0 0
222 7 2.5854531731409973 5.706062362415122 29.56405465280881 0 0 0
226 7 1.356592373428671 7.880028807880949 29.561555233803016 0 0 0
227 7 3.8531151533229386 7.8903423506570185 29.478362956488965 0 0 0
193 7 6.36209901033595 4.953897978834901 27.422738776504115 0 0 0
198 7 5.095069839903638 7.150791948229639 27.419579959829463 0 0 0
199 7 7.614165931505386 7.166888937113459 27.45386763969392 0 0 0
223 6 5.145090827810676 5.69940772661202 29.501387987106963 0 0 0
224 7 7.637145820959372 5.717939724252048 29.588474967402107 0 0 0
228 7 6.386531028269336 7.891348268506499 29.497293076915177 0 0 0
194 6 8.840928487116722 4.975744195008504 27.50000243279528 0 0 0
195 7 11.354571405915408 4.972310117065047 27.5161197538214 0 0 0
200 7 10.117657064823748 7.135548817868537 27.54646900295166 0 0 0
225 7 10.09578233544349 5.719861693786927 29.61366527623157 0 0 0
229 7 8.839875073810877 7.862002839463017 29.529697511620114 0 0 0
230 7 11.362691899933276 7.908220908080426 29.53305489194014 0 0 0
201 5 1.372437901607774 9.30227713942476 27.521428957025556 0 0 0
202 7 3.864998746526149 9.297972535322955 27.38205038889277 0 0 0
206 4 0.1814051802894462 11.454323377005569 27.53235524010759 0 0 0
207 7 2.6044380620945726 11.434411433446046 27.44471304298892 0 0 0
231 7 0.15898256531407695 10.055525969977804 29.57699209882869 0 0 0
232 7 2.6261142244314284 10.002642328684347 29.434176308209757 0 0 0
236 7 1.4674301223454325 12.159933015359986 29.56318908391805 0 0 0
203 7 6.367546040367942 9.263786120675737 27.39328244357529 0 0 0
208 7 5.130994962325485 11.478230466861564 27.324597392194857 0 0 0
209 6 7.575643202369313 11.5038294526875 27.641325099970413 0 0 0
233 7 5.141528706397958 10.033430157592914 29.328222184178312 0 0 0
234 7 7.59440646118622 10.067368974197066 29.665794779810454 0 0 0
238 7 6.205796774015834 12.215333295245205 29.681470461569706 0 0 0
204 7 8.831869136006965 9.347247707724204 27.62710705513898 0 0 0
205 7 11.339025798343021 9.393861945646723 27.55384493552787 0 0 0
210 7 10.14486617355577 11.532595930493542 27.58897204113497 0 0 0
235 7 10.078322822446099 10.158691871460965 29.605477283600877 0 0 0
239 4 8.871405286940524 12.233723837778593 29.7339181165155 0 0 0
240 7 11.390349044115938 12.246297268469858 29.567184650217214 0 0 0
237 3 4.025739792906439 0.2705862925952582 30.558889698774763 0 1 0
241 7 0.196444652195649 0.08201131885424971 31.641293066799975 0 0 0
242 7 2.5658590939806096 0.120281685397731 31.751218776685075 0 0 0
246 4 1.3402843729146363 2.2239527962878514 31.667699371944714 0 0 0
247 7 3.8742710713170934 2.1352905892642884 31.64948806879101 0 0 0
251 7 0.1429068853087628 4.309104851098015 31.65932311628398 0 0 0
252 7 2.6288578650791528 4.305434766280922 31.680782744332564 0 0 0
248 7 6.400045894382104 2.13707160227113 31.65250278529817 0 0 0
253 7 5.10528641725445 4.298146742224947 31.63496138742447 0 0 0
254 7 7.614441263776832 4.301296667630594 31.600755836122673 0 0 0
249 7 8.843999631248566 2.0912743158412814 31.687033769840543 0 0 0
250 7 11.37728430057466 2.123192377600255 31.663773960486477 0 0 0
255 1 10.1013603047292 4.207900953676553 31.51468504941412 0 0 0
256 7 1.32413860347062 6.486673186764595 31.645461037558494 0 0 0
257 6 3.7855706968162757 6.48877378174394 31.678859716339904 0 0 0
286 7 0.10011233980452522 7.261524933958712 33.64064979707331 0 0 0
258 7 6.34390402062756 6.483099563972809 31.630608464492227 0 0 0
264 7 7.5833982486714335 8.56515900588502 31.622262155535513 0 0 0
259 4 8.815876508264344 6.448481548624002 31.633070974675178 0 0 0
260 7 11.310908718886761 6.475896755133147 31.60408143336504 0 0 0
284 5 8.877765656282964 5.106481715302461 33.58964363767577 0 0 0
285 4 11.350089697458852 5.1432008763828625 33.65084096769299 0 0 0
290 7 10.082162324513968 7.24598633623349 33.60041080149296 0 0 0
261 7 0.16964070626368877 8.692289956134392 31.665759279766714 0 0 0
262 7 2.6553616148356194 8.703458565979595 31.539544262570722 0 0 0
266 7 1.5559251910928533 10.816101297337747 31.57976625750818 0 0 0
267 4 3.9102311785829427 11.25761140311713 30.859099348452766 0 0 0
292 7 3.950046966468796 9.353147877268016 33.50910772451786 0 0 0
243 7 5.163454799534497 12.888102386757256 32.099101949107556 0 -1 0
244 7 7.620402564460713 12.926036396697006 31.71103653499872 0 -1 0
263 1 5.086251213461258 8.748340105013531 31.425162727285347 0 0 0
268 7 6.254532930069565 10.749479820253711 31.581226632809983 0 0 0
293 4 6.447186944794909 9.314833219234933 33.64372215641258 0 0 0
245 7 10.104078286182364 12.872629431011665 31.869947055411988 0 -1 0
265 6 10.095089880390862 8.668729975403398 31.54792208930577 0 0 0
269 7 8.768679531947967 10.789387861896875 31.752884067370168 0 0 0
270 7 11.421730244528648 10.890713308895295 31.617832770948038 0 0 0
296 3 11.067574862220937 11.820488349073214 33.32923896073162 -1 0 0
271 7 1.4708466308533135 0.886500659800645 33.78201836578801 0 0 0
272 7 3.9173518261914686 0.9355662042967977 33.92591601591579 0 0 0
276 7 0.17114480950811845 2.97523809181908 33.73698655059443 0 0 0
277 7 2.640675166325915 3.0594406014337325 33.80137712778947 0 0 0
301 7 0.1841125116941704 1.5323642301927665 35.76040823870702 0 0 0
302 7 2.6174668433370876 1.6456607064484374 35.86669745152827 0 0 0
306 4 1.4041699733367978 3.7970030573165285 35.94188909512704 0 0 0
307 7 3.9864081130991327 3.7206663422146256 35.84272772535622 0 0 0
273 7 6.4510196942739295 0.9613732976475485 33.90413335518867 0 0 0
278 1 5.207143700065443 2.985658940321577 33.72845636307027 0 0 0
279 7 7.716708564407358 3.030954252756192 33.736293829497576 0 0 0
303 7 5.235514025125891 1.6529016359933304 35.94630435730097 0 0 0
304 4 7.74723466016115 1.6281341312470496 35.9208857677399 0 0 0
308 7 6.513929624425751 3.701277270316594 35.80981157942614 0 0 0
274 7 8.826085046535582 0.8858766601611748 33.841260985722215 0 0 0
275 4 11.432101650490532 0.7837440578007451 33.717158426986344 0 0 0
280 7 10.19468779348592 2.9831998988583264 33.71365408178583 0 0 0
305 7 10.213301389810367 1.5506397191888337 35.72944576465729 0 0 0
309 7 9.004648139537242 3.663165579606164 35.781940275808545 0 0 0
310 4 11.563313058993652 3.9150342935207654 35.846407534522626 0 0 0
281 7 1.32394823271531 5.163379476782205 33.86759692024061 0 0 0
282 4 3.8417206378566044 5.12800703274884 33.792212978186924 0 0 0
287 7 2.6282356639598072 7.272296129940767 33.76695684375394 0 0 0
312 7 2.7079830980581963 5.771564632132461 35.81591732231202 0 0 0
316 7 1.2306565666273193 7.60793807643031 35.82056508434857 0 0 0
317 7 3.9183373857046537 8.030628901686011 35.74759373498647 0 0 0
283 7 6.369600650956243 5.091278639451788 33.6819631166657 0 0 0
288 7 5.1810868730657 7.25827706148237 33.681570533148985 0 0 0
289 7 7.62868946776753 7.174735411485832 33.71429383803876 0 0 0
313 7 5.249812816216291 5.915930990517206 35.7479229058681 0 0 0
314 7 7.708120779395598 5.8148248483439575 35.75077003833842 0 0 0
318 4 6.563866850827604 8.109571401883578 35.79853944741193 0 0 0
311 2 12.398062880313654 5.980906886579446 35.34538000322576 -1 0 0
315 7 10.125091301369496 5.795930111445816 35.585245635154614 0 0 0
319 7 8.960300843932542 7.966811133600169 35.81962488940269 0 0 0
320 7 11.358358633380478 7.916127478941356 35.5925089575184 0 0 0
350 7 11.655090061941538 6.272527186232521 37.3110284138231 0 0 0
355 3 10.436829341701532 7.888588268504363 37.26792115946625 0 0 0
291 7 1.460298936240723 9.410725575596594 33.74459615278021 0 0 0
297 6 3.0109741526491263 11.552626023553076 33.68914504739702 0 0 0
321 6 0.20144843421668301 10.05908998961538 35.9152145740328 0 0 0
322 7 2.6867811018773025 10.156276436048302 35.78271997494549 0 0 0
326 7 0.49710207576202037 11.639055368897345 33.6840930440486 0 0 0
327 6 3.9154421954660172 12.478062899897845 36.10318898590292 0 0 0
356 4 1.3950717798181613 12.343866549708675 35.84709539165645 0 0 0
298 2 5.198467881258595 12.263439670825411 34.20227601036251 0 0 0
299 7 6.997325028267068 11.571978628305395 33.678200662667955 0 0 0
323 6 5.224227955692073 10.217603206353097 35.56966604742419 0 0 0
324 7 7.907595888659853 10.350891103173897 35.710021360719814 0 0 0
328 7 6.458946104285928 12.505444144869038 35.911683450103844 0 0 0
294 7 8.763070758208606 9.277106566565353 33.6959370660503 0 0 0
295 6 11.26111927895102 9.68845341450173 33.767264960652895 0 0 0
300 7 9.380848020595481 11.535885441494818 34.170900540456984 0 0 0
325 7 10.256263677463751 9.82880349857873 37.03504578592176 0 0 0
329 3 9.529774815412067 11.389334401737358 36.20566778364989 0 0 0
330 4 11.254351827967659 12.072620727926276 35.582491668097575 0 0 0
335 5 9.90299523332016 12.89866895847943 37.3985253194066 0 -1 0
332 7 2.483725218371866 0.09686211065179307 38.03108446538492 0 0 0
336 7 1.326810075976671 2.180430684927914 37.834347696533214 0 0 0
337 7 3.8700860848180585 2.1960263396637627 37.87320221178489 0 0 0
341 7 0.20256873467581 4.24870833805109 38.0475633475188 0 0 0
342 7 2.694550297265088 4.288984648009918 37.909967269341934 0 0 0
333 7 5.210204648219014 0.16117863575402935 38.11223827496472 0 0 0
334 7 7.645306595055226 0.06705405323213726 37.99813507265791 0 0 0
338 7 6.52255872697574 2.2591649027599954 37.904420161510615 0 0 0
339 7 8.980609655888887 2.1855762956018068 37.85449967578714 0 0 0
340 7 11.358943568353821 2.1903710333721964 37.72618302166319 0 0 0
346 7 1.4444146687948065 6.3913172564215905 38.057551217959535 0 0 0
347 6 3.9491500212807717 6.47737512080436 37.820391676677446 0 0 0
361 8 2.6373700610758237 7.208704275653881 39.0474806053704 0 0 0
343 7 5.2877983268659134 4.426071038737884 37.83174108069732 0 0 0
344 7 7.8194588197844785 4.443616383395744 37.852556740514835 0 0 0
348 6 6.647006384052833 6.669463139850928 37.82258787694593 0 0 0
345 4 10.20633192162873 4.330000178606789 37.80687512168197 0 0 0
349 7 9.226591814025452 6.6274062024044476 37.86615125201393 0 0 0
351 7 12.26959829600188 8.552263617030434 37.8370210894544 -1 0 0
352 6 2.5133682482461026 8.663412927321547 37.74869591862684 0 0 0
357 7 3.849163353387962 10.807760542889392 37.96328676359993 0 0 0
360 7 1.3937695288081946 10.891694116474936 37.8896688082019 1 0 0
353 7 5.1450277282748145 8.70760427050834 37.80715123178834 0 0 0
354 7 7.952992067867379 8.95031581702045 37.81270458348909 0 0 0
358 6 6.4189338102173865 10.854812419319863 37.791080519585314 0 0 0
331 7 12.389970147548846 12.879351865358359 37.6301743341214 -1 -1 0
359 2 8.59993071685134 11.154843730406077 37.427990351011 0 0 0

Velocities

1 0 0 0
2 0 0 0
3 0 0 0
9 0 0 0
5 0 0 0
6 0 0 0
10 0 0 0
16 0 0 0
20 0 0 0
26 0 0 0
27 0 0 0
23 0 0 0
28 0 0 0
29 0 0 0
24 0 0 0
25 0 0 0
30 0 0 0
7 0 0 0
31 0 0 0
32 0 0 0
36 0 0 0
37 0 0 0
56 0 0 0
8 0 0 0
33 0 0 0
34 0 0 0
38 0 0 0
4 0 0 0
35 0 0 0
39 0 0 0
40 0 0 0
11 0 0 0
12 0 0 0
17 0 0 0
42 0 0 0
47 0 0 0
13 0 0 0
18 0 0 0
19 0 0 0
43 0 0 0
44 0 0 0
48 0 0 0
14 0 0 0
15 0 0 0
41 0 0 0
45 0 0 0
49 0 0 0
50 0 0 0
85 0 0 0
21 0 0 0
22 0 0 0
46 0 0 0
52 0 0 0
57 0 0 0
87 0 0 0
53 0 0 0
54 0 0 0
58 0 0 0
51 0 0 0
55 0 0 0
59 0 0 0
60 0 0 0
66 0 0 0
67 0 0 0
91 0 0 0
92 0 0 0
96 0 0 0
97 0 0 0
63 0 0 0
64 0 0 0
68 0 0 0
74 0 0 0
93 0 0 0
98 0 0 0
99 0 0 0
65 0 0 0
69 0 0 0
70 0 0 0
75 0 0 0
94 0 0 0
95 0 0 0
100 0 0 0
72 0 0 0
76 0 0 0
77 0 0 0
82 0 0 0
101 0 0 0
102 0 0 0
107 0 0 0
73 0 0 0
78 0 0 0
103 0 0 0
108 0 0 0
109 0 0 0
71 0 0 0
79 0 0 0
80 0 0 0
81 0 0 0
104 0 0 0
105 0 0 0
106 0 0 0
110 0 0 0
61 0 0 0
62 0 0 0
86 0 0 0
111 0 0 0
112 0 0 0
116 0 0 0
117 0 0 0
83 0 0 0
84 0 0 0
88 0 0 0
113 0 0 0
118 0 0 0
119 0 0 0
89 0 0 0
90 0 0 0
114 0 0 0
115 0 0 0
120 0 0 0
121 0 0 0
122 0 0 0
126 0 0 0
127 0 0 0
156 0 0 0
157 0 0 0
162 0 0 0
123 0 0 0
124 0 0 0
128 0 0 0
153 0 0 0
158 0 0 0
163 0 0 0
164 0 0 0
125 0 0 0
129 0 0 0
130 0 0 0
155 0 0 0
159 0 0 0
160 0 0 0
165 0 0 0
131 0 0 0
132 0 0 0
136 0 0 0
137 0 0 0
161 0 0 0
166 0 0 0
167 0 0 0
171 0 0 0
172 0 0 0
133 0 0 0
134 0 0 0
138 0 0 0
168 0 0 0
173 0 0 0
135 0 0 0
139 0 0 0
140 0 0 0
169 0 0 0
170 0 0 0
175 0 0 0
141 0 0 0
142 0 0 0
146 0 0 0
147 0 0 0
151 0 0 0
152 0 0 0
176 0 0 0
177 0 0 0
143 0 0 0
144 0 0 0
148 0 0 0
154 0 0 0
178 0 0 0
145 0 0 0
149 0 0 0
150 0 0 0
174 0 0 0
179 0 0 0
180 0 0 0
181 0 0 0
182 0 0 0
186 0 0 0
187 0 0 0
211 0 0 0
212 0 0 0
216 0 0 0
217 0 0 0
183 0 0 0
188 0 0 0
189 0 0 0
213 0 0 0
214 0 0 0
218 0 0 0
184 0 0 0
185 0 0 0
190 0 0 0
215 0 0 0
219 0 0 0
220 0 0 0
191 0 0 0
192 0 0 0
196 0 0 0
197 0 0 0
221 0 0 0
222 0 0 0
226 0 0 0
227 0 0 0
193 0 0 0
198 0 0 0
199 0 0 0
223 0 0 0
224 0 0 0
228 0 0 0
194 0 0 0
195 0 0 0
200 0 0 0
225 0 0 0
229 0 0 0
230 0 0 0
201 0 0 0
202 0 0 0
206 0 0 0
207 0 0 0
231 0 0 0
232 0 0 0
236 0 0 0
203 0 0 0
208 0 0 0
209 0 0 0
233 0 0 0
234 0 0 0
238 0 0 0
204 0 0 0
205 0 0 0
210 0 0 0
235 0 0 0
239 0 0 0
240 0 0 0
237 0 0 0
241 0 0 0
242 0 0 0
246 0 0 0
247 0 0 0
251 0 0 0
252 0 0 0
248 0 0 0
253 0 0 0
254 0 0 0
249 0 0 0
250 0 0 0
255 0 0 0
256 0 0 0
257 0 0 0
286 0 0 0
258 0 0 0
264 0 0 0
259 0 0 0
260 0 0 0
284 0 0 0
285 0 0 0
290 0 0 0
261 0 0 0
262 0 0 0
266 0 0 0
267 0 0 0
292 0 0 0
243 0 0 0
244 0 0 0
263 0 0 0
268 0 0 0
293 0 0 0
245 0 0 0
265 0 0 0
269 0 0 0
270 0 0 0
296 0 0 0
271 0 0 0
272 0 0 0
276 0 0 0
277 0 0 0
301 0 0 0
302 0 0 0
306 0 0 0
307 0 0 0
273 0 0 0
278 0 0 0
279 0 0 0
303 0 0 0
304 0 0 0
308 0 0 0
274 0 0 0
275 0 0 0
280 0 0 0
305 0 0 0
309 0 0 0
310 0 0 0
281 0 0 0
282 0 0 0
287 0 0 0
312 0 0 0
316 0 0 0
317 0 0 0
283 0 0 0
288 0 0 0
289 0 0 0
313 0 0 0
314 0 0 0
318 0 0 0
311 0 0 0
315 0 0 0
319 0 0 0
320 0 0 0
350 0 0 0
355 0 0 0
291 0 0 0
297 0 0 0
321 0 0 0
322 0 0 0
326 0 0 0
327 0 0 0
356 0 0 0
298 0 0 0
299 0 0 0
323 0 0 0
324 0 0 0
328 0 0 0
294 0 0 0
295 0 0 0
300 0 0 0
325 0 0 0
329 0 0 0
330 0 0 0
335 0 0 0
332 0 0 0
336 0 0 0
337 0 0 0
341 0 0 0
342 0 0 0
333 0 0 0
334 0 0 0
338 0 0 0
339 0 0 0
340 0 0 0
346 0 0 0
347 0 0 0
361 0 0 0
343 0 0 0
344 0 0 0
348 0 0 0
345 0 0 0
349 0 0 0
351 0 0 0
352 0 0 0
357 0 0 0
360 0 0 0
353 0 0 0
354 0 0 0
358 0 0 0
331 0 0 0
359 0 0 0
