LAMMPS data file via write_data, version 11 Feb 2026, timestep = 177, units = metal

361 atoms
8 atom types

0 12.447907776 xlo xhi
0 12.9362452296 ylo yhi
0 52.3600831054 zlo zhi

Masses

1 26.9815
2 10.811
3 12.011
4 51.9961
5 55.845
6 95.95999999999999
7 58.6934
8 1.008

Atoms # atomic/kk

1 7 1.1447475034 1.4042530815 14.1767669076 0 0 0
2 7 3.6084602259 1.0698845996 14.6704381247 0 0 0
3 5 6.0765506298 0.9467816033 14.9127945674 0 0 0
9 7 7.3904254576 3.1552415677 14.921343358 0 0 0
5 7 11.0497419237 1.2529911546 14.6024861837 0 0 0
6 7 12.371824795299998 3.4559595715 14.8227813157 -1 0 0
10 7 9.9130540797 3.3904065996 14.7812471609 0 0 0
16 4 0.4694173902 7.8125304368 14.7997570607 0 0 0
20 7 10.4454755951 7.6697182118 14.1848688757 0 0 0
26 7 0.1281197666 12.2044764222 14.9105894271 0 0 0
27 7 2.482376412 11.8082341077 14.4640395444 0 0 0
23 7 6.9215809143 9.0056325864 14.7794199109 0 0 0
28 7 4.9597127568 11.7869866321 14.6074736033 0 0 0
29 6 7.487468691 11.492489151 14.9214469503 0 0 0
24 7 9.211267288 9.7383043985 14.542324574 0 0 0
25 7 11.7628351674 9.8745411843 14.7910184475 0 0 0
30 7 10.0617556164 11.945152431 14.7619795889 0 0 0
7 7 2.4276438825 3.274586701 14.9921379853 0 0 0
31 6 0.1320668178 1.5666912763 16.54569988 0 0 0
32 7 2.6047881521 1.6851371804 16.9156842324 0 0 0
36 7 1.2195215325 3.8560608354 17.0299024962 0 0 0
37 7 3.7103479774 3.8371572501 17.0572271382 0 0 0
56 2 1.9139638832 0.320698286899999 15.6094045829 0 1 0
8 7 4.9287232821 3.1271355871 15.0109940309 0 0 0
33 7 4.9854693445 1.6648399647 16.9552168616 0 0 0
34 7 7.410113639 1.7690174525 16.9802513671 0 0 0
38 5 6.1786870847 3.8598965293 16.9892925392 0 0 0
4 6 8.6405916037 0.9966073374 15.0011028893 0 0 0
35 7 9.9854439602 1.6623584179 16.9441720819 0 0 0
39 7 8.7306918901 3.8627101762 16.8623801969 0 0 0
40 7 11.1905275305 3.8067890199 17.0006893521 0 0 0
11 7 1.2348702966 5.4950064056 15.0806985502 0 0 0
12 7 3.723333195 5.3162088046 15.091556138 0 0 0
17 7 2.6528824888 7.4951525199 15.1538371669 0 0 0
42 7 2.4538170063 6.1274901805 17.1415379148 0 0 0
47 7 3.8866203033 8.1976953877 17.0635533141 0 0 0
13 7 6.1787690715 5.3054540189 15.034535629 0 0 0
18 7 5.0798141029 7.4787706901 15.0688046453 0 0 0
19 2 7.0597951203 7.0189274967 15.3897174295 0 0 0
43 7 4.9526824561 5.9628190941 17.0949149841 0 0 0
44 7 7.4770692341 5.9405064365 17.0881545432 0 0 0
48 7 6.3467693742 8.0549577382 17.0498728177 0 0 0
14 7 8.7041968087 5.6586120419 14.9658205562 0 0 0
15 6 11.1806031706 5.6044565055 15.1850152514 0 0 0
41 7 12.442168210099998 5.9982391836 17.2267436521 -1 0 0
45 7 9.923455112 6.0385351278 17.2532666192 0 0 0
49 7 8.7166078523 7.9219477302 16.0697967416 0 0 0
50 7 11.1854260308 7.9909608595 16.4539207548 0 0 0
85 6 9.7874825474 8.473382021 18.5408467256 0 0 0
21 2 1.1654244367 10.4783622607 15.2130316912 0 0 0
22 7 2.969847795 9.8650340587 15.6453950804 0 0 0
46 7 0.7946061559 9.3672820405 16.8749701293 0 0 0
52 7 1.3503573598 11.8646523864 16.9891542204 0 0 0
57 7 3.753873893 12.4366743176 16.6098759546 0 0 0
87 1 3.6650451701 10.7156807278 18.2659007397 0 0 0
53 7 5.3358928559 10.1219872041 16.3275402765 0 0 0
54 7 7.7336051436 10.0538114804 16.9470367537 0 0 0
58 6 6.3195663174 12.3667352783 16.9550847684 0 0 0
51 3 11.519673145099999 9.370279149 17.6624171524 -1 0 0
55 7 10.1852587848 10.2759719364 16.6816821896 0 0 0
59 7 8.8367077706 12.3810361477 16.9622360876 0 0 0
60 7 11.2428990064 12.4670428062 16.882988677 0 0 0
66 6 1.393007034 2.1659191631 19.0534804658 0 0 0
67 5 3.8310712323 2.169749835 19.077551421 0 0 0
91 4 1.3610097719 0.7490016766 21.3001474804 0 0 0
92 7 3.7532698079 0.7243006354 21.0553737996 0 0 0
96 7 0.082079932 2.7970216106 21.1874527472 0 0 0
97 7 2.5927240934 2.8497939446 21.1992924965 0 0 0
63 5 4.9567742477 0.0529982254 18.9618634931 0 0 0
64 7 7.4416746235 0.0821708056 19.1014191477 0 0 0
68 7 6.1949360288 2.1588642027 19.0801897325 0 0 0
74 6 7.5018096017 4.2853629911 19.0547359126 0 0 0
93 7 6.2598414465 0.7194660822 21.17367312 0 0 0
98 7 5.0257186556 2.8737258399 21.1536837203 0 0 0
99 5 7.4793105556 2.8150634673 21.1692986238 0 0 0
65 7 10.0018085899 0.0802466939 19.0961651875 0 0 0
69 7 8.7385472152 2.1539822136 18.9954608723 0 0 0
70 7 11.2870638013 2.2382207273 18.9541707741 0 0 0
75 5 9.908720947 4.3054275401 19.0335874063 0 0 0
94 7 8.7140507513 0.7135233683 21.2362014867 0 0 0
95 7 11.3045523296 0.6704651065 21.199536471 0 0 0
100 6 10.0309211856 2.7845552589 21.0550342549 0 0 0
72 7 2.4838430183 4.388962084 19.1070457725 0 0 0
76 7 1.200144222 6.4346976141 19.2600213636 0 0 0
77 7 3.7839563224 6.5073099035 19.1651823211 0 0 0
82 6 2.3588605673 8.4890673053 18.9154467805 0 0 0
101 7 1.204403147 4.986371594 21.2593935642 0 0 0
102 6 3.7298053141 5.0424743752 21.2297752978 0 0 0
107 7 2.4685484599 7.1728356576 21.2326094282 0 0 0
73 7 4.9759755061 4.316411451 19.087212733 0 0 0
78 7 6.1965388899 6.5190956683 19.1399785413 0 0 0
103 7 6.2751972116 5.0470676015 21.1760724515 0 0 0
108 7 5.0116983743 7.22861409 21.2268755354 0 0 0
109 7 7.4193353481 7.2485706051 21.2651304498 0 0 0
71 1 12.383629132 4.3782094725 19.1862342201 -1 0 0
79 7 8.6255974932 6.472044202 19.3232968982 0 0 0
80 7 11.1135754549 6.420590323 19.3581641471 0 0 0
81 4 12.342695017999999 8.4729562787 19.2006565517 -1 0 0
104 7 8.7408050898 5.0231569879 21.2437432022 0 0 0
105 3 10.084447317625603 4.372012024726362 22.288486378662917 0 0 0
106 7 12.435294388199999 7.0968971559 21.3158557077 -1 0 0
110 7 9.8903603607 7.1660305315 21.3021949042 0 0 0
61 6 0.0477387397 12.935022616100001 18.9949290075 0 -1 0
62 7 2.587482576 12.8543346047 19.0383469717 0 -1 0
86 7 1.2816847716 10.6903307998 19.1614661098 0 0 0
111 7 1.1796694452 9.2896516501 21.1960342799 0 0 0
112 6 3.7016357908 9.3557762036 21.1431867319 0 0 0
116 1 0.0369839214 11.486698451 21.2977096144 0 0 0
117 7 2.4704264091 11.5284142583 21.1452899236 0 0 0
83 7 4.9462384898 8.7330200409 19.0834474924 0 0 0
84 7 7.3974678157 8.6397297376 19.085743402 0 0 0
88 7 6.1625171869 10.8013148416 18.9301045672 0 0 0
113 7 6.2139769728 9.4092095126 21.0353192467 0 0 0
118 7 4.9639845145 11.5407295129 21.0425881559 0 0 0
119 4 7.3995383715 11.5362046003 21.0747824702 0 0 0
89 6 8.731338748 10.8500854071 19.0384744744 0 0 0
90 4 11.272219843 10.8209844576 18.9386324767 0 0 0
114 7 8.6997099562 9.3160354633 20.9928929717 0 0 0
115 6 11.109001975 9.2519683408 21.1755872983 0 0 0
120 7 9.9858618188 11.5164614705 21.1821863062 0 0 0
121 7 0.07751073561121061 1.373540403163224 23.313709532637745 0 0 0
122 7 2.5687759578440166 1.3850711860158675 23.333766242258932 0 0 0
126 6 1.3486786877703574 3.568043034668791 23.269917320139797 0 0 0
127 7 3.844068087707791 3.5716705637708923 23.366225648339764 0 0 0
156 1 1.473381463330718 2.1114721440711914 25.519833874865874 0 0 0
157 7 3.9594918213694053 2.1176769468042527 25.44878736056067 0 0 0
162 7 2.592074163066691 4.243589627335282 25.433377328521296 0 0 0
123 7 4.985515658621631 1.4101756334984956 23.16611078533019 0 0 0
124 7 7.387082015409214 1.4819488077016014 23.488745578691212 0 0 0
128 7 6.29681494521264 3.6459071208503864 23.18723416424563 0 0 0
153 7 5.1893675904810825 0.051654583909821784 25.29647950376223 0 0 0
158 2 5.767869568871763 2.4395674253382533 24.631778157097358 0 0 0
163 7 5.1109621806008265 4.224831991584728 25.42646518324197 0 0 0
164 5 7.470286934882247 4.044391309183198 25.364001650633067 0 0 0
125 7 10.036519390056904 1.4083568057633726 23.35841335510417 0 0 0
129 7 8.744510296797259 3.5270208034847554 23.351293159589375 0 0 0
130 4 11.360450548291972 3.5970130822104824 23.406068517216074 0 0 0
155 4 10.112108864855392 0.04293649737191745 25.560667693678724 0 0 0
159 7 8.861870844730992 2.0798157235444283 25.45078391189238 0 0 0
160 7 11.394192956425428 2.1349202158727865 25.424689797679825 0 0 0
165 7 10.05874762275875 4.197292864881804 25.41580491739928 0 0 0
131 7 0.0641789261374172 5.75064496535655 23.407960856968995 0 0 0
132 7 2.5355133576942017 5.778518954725366 23.36465007709594 0 0 0
136 7 1.2957556844125722 7.891999333636464 23.308751305869098 0 0 0
137 7 3.7692087522823594 7.959735754027507 23.282208965541802 0 0 0
161 4 0.10241134483118938 4.31935964598344 25.47375276937671 0 0 0
166 7 1.3304609660061786 6.39278644007366 25.435432658208992 0 0 0
167 7 3.800354288470658 6.416369772400064 25.448106171233025 0 0 0
171 6 0.10167956955417924 8.59148528413141 25.434066682680257 0 0 0
172 7 2.614625592332153 8.5860590310961 25.38036735966576 0 0 0
133 6 5.0575042063828235 5.837998943492915 23.391790477324182 0 0 0
134 7 7.551793983597454 5.757379880559278 23.31859042906934 0 0 0
138 7 6.302653117329905 7.975405208530412 23.34542760612932 0 0 0
168 7 6.357353836359924 6.373452748617442 25.437789269136516 0 0 0
173 7 5.096312506541541 8.531636150502738 25.336708172186363 0 0 0
135 7 10.057125637984921 5.803737209382075 23.391755554754177 0 0 0
139 4 8.686267470883607 7.920367514992302 23.24776643087525 0 0 0
140 4 11.274646958446585 7.868070799397122 23.321736878337276 0 0 0
169 7 8.768232163458851 6.309566272508898 25.386871446767945 0 0 0
170 7 11.281911924602035 6.385635135412149 25.452808602897058 0 0 0
175 6 9.877733738611779 8.545114492368379 25.527054406300955 0 0 0
141 7 0.012022989847778285 10.04529047893251 23.347781966326743 0 0 0
142 7 2.487863432007153 10.083666271999805 23.258643298242593 0 0 0
146 7 1.2942072136451772 12.212780922540937 23.35464791500386 0 0 0
147 7 3.7982246338239403 12.221829672471921 23.184327241709322 0 0 0
151 4 0.08437958948565562 12.85252754087827 25.419401601146816 0 -1 0
152 7 2.6465314331430054 12.921392503375992 25.378100162093112 0 -1 0
176 7 1.3340341928354535 10.776151999764005 25.43592592020608 0 0 0
177 6 3.870847145657399 10.793424041056072 25.27790910503861 0 0 0
143 7 5.046583435142015 10.08316470452895 23.185349858018235 0 0 0
144 7 7.497093388308887 10.06749791698186 22.923688228919605 0 0 0
148 4 6.204284239356696 12.248491692253133 23.189314244801604 0 0 0
154 7 7.592244195492282 12.921404169360004 25.477270123449987 0 -1 0
178 6 6.608850007718317 10.52000534956978 25.224206933436584 0 0 0
145 7 9.987409950180385 10.052103679099316 23.31937446177112 0 0 0
149 6 8.699775409817558 12.250860501030333 23.333278307511634 0 0 0
150 7 11.238756001012943 12.1957952448434 23.409548179597568 0 0 0
174 3 8.405034608983959 9.486217230636626 24.427413776458803 0 0 0
179 5 8.99011418723517 10.901073652228778 25.58485872779678 0 0 0
180 5 11.327964324015678 10.84461714904553 25.51044403245214 0 0 0
181 7 1.3831307724811197 0.6425706462624187 27.50149406153514 0 0 0
182 7 3.8694696586433777 0.6802623005864515 27.44135507069498 0 0 0
186 7 0.16538087964073875 2.8360737990286067 27.500033203632892 0 0 0
187 7 2.653712898757374 2.830656155690258 27.574864930815703 0 0 0
211 7 0.20420541219945718 1.4231084086295214 29.596233667563773 0 0 0
212 7 2.705616196515009 1.3381100314657748 29.587725985582967 0 0 0
216 7 1.4056909976193275 3.5331330547574358 29.599155416302818 0 0 0
217 4 3.8178940594850306 3.55146541225191 29.61103947953325 0 0 0
183 7 6.302362670113806 0.6942197753733432 27.57561335687054 0 0 0
188 7 5.075569355747611 2.852314831694264 27.585297723401176 0 0 0
189 7 7.587847000357956 2.7724916824151142 27.46909824300661 0 0 0
213 5 5.128674455991526 1.4051035974034924 29.609015917314096 0 0 0
214 7 7.605854615663179 1.335008885780546 29.597614690662216 0 0 0
218 7 6.356931749839913 3.5164660023267844 29.552673003229614 0 0 0
184 7 8.87901501228929 0.698149128590288 27.57260132573907 0 0 0
185 4 11.377377435929706 0.7008853248141301 27.545469774638562 0 0 0
190 7 10.138853734327318 2.810564447658186 27.497194400939296 0 0 0
215 7 10.118388180043219 1.3825400140075226 29.63838131714541 0 0 0
219 7 8.832846255624293 3.4918688744941915 29.537171679867665 0 0 0
220 7 11.363883064956545 3.5375696516968804 29.530353220072698 0 0 0
191 7 1.3852546588425108 4.984445791664431 27.48171773241774 0 0 0
192 7 3.8267661365421657 4.968099167614369 27.491839352780133 0 0 0
196 7 0.13011604420068815 7.1348845841192094 27.506481229124837 0 0 0
197 7 2.5726040464483515 7.170295106997656 27.483978984775703 0 0 0
221 7 0.11463374174066797 5.704294377622117 29.582120511679125 0 0 0
222 7 2.585114395303478 5.706168967778303 29.564330621797033 0 0 0
226 7 1.356998513342657 7.879549634484067 29.56218903598597 0 0 0
227 7 3.853811754548005 7.890617508254827 29.477044513140793 0 0 0
193 7 6.362460092857621 4.954014456824081 27.422063313225213 0 0 0
198 7 5.0956404642978805 7.151162577053717 27.418806249769048 0 0 0
199 7 7.614877866483978 7.167081458546377 27.453405331140946 0 0 0
223 6 5.145525726394069 5.699649426638775 29.500360177057743 0 0 0
224 7 7.637742819054962 5.717745936357004 29.58730389190167 0 0 0
228 7 6.387500296244598 7.891572216009203 29.496564711955116 0 0 0
194 6 8.841268552318692 4.975481378478445 27.499279168493544 0 0 0
195 7 11.354851314653864 4.972225731440493 27.516399424603605 0 0 0
200 7 10.117778411279833 7.135522381892806 27.54664197146275 0 0 0
225 7 10.095827835804682 5.719359156207747 29.613151039153916 0 0 0
229 7 8.840379943982224 7.861885797154396 29.530485018562718 0 0 0
230 7 11.362683859522509 7.908608001874054 29.533016686099742 0 0 0
201 5 1.3724264473515515 9.302165592596317 27.52141160000054 0 0 0
202 7 3.865423786635366 9.298225332651109 27.381391989066653 0 0 0
206 4 0.1813968020128155 11.454602590612694 27.5319973590743 0 0 0
207 7 2.604670376941333 11.434542196109565 27.444165667426898 0 0 0
231 7 0.15925615604821472 10.055879852443686 29.576468524642312 0 0 0
232 7 2.626498142912776 10.002674344982399 29.43324884763211 0 0 0
236 7 1.4678330084921436 12.160794003900705 29.561812281719018 0 0 0
203 7 6.3682114958174765 9.263977447166852 27.392542956647176 0 0 0
208 7 5.131375476603986 11.478579014480975 27.324403654369558 0 0 0
209 6 7.575829858845743 11.503997431772675 27.642728779905855 0 0 0
233 7 5.142664654341315 10.033387334010133 29.32735528225545 0 0 0
234 7 7.594862915114918 10.067844521839351 29.66729024281242 0 0 0
238 7 6.205254460861032 12.21580493077033 29.682557740568257 0 0 0
204 7 8.832226491630404 9.34747094303689 27.628259970199757 0 0 0
205 7 11.338947227971106 9.394072945891878 27.553939650881933 0 0 0
210 7 10.144971261291252 11.532724188390864 27.59004039801812 0 0 0
235 7 10.078776892712684 10.158756774299734 29.60678019935731 0 0 0
239 4 8.871982576798915 12.234034079939333 29.736080507297256 0 0 0
240 7 11.390736779234356 12.246330392891684 29.567992077634663 0 0 0
237 3 4.026813031560061 0.2707888829366323 30.556276408724013 0 1 0
241 7 0.19662723199360477 0.08206441848986111 31.641957459098805 0 0 0
242 7 2.565098974793242 0.12322017862442042 31.7469676185577 0 0 0
246 4 1.3402937250103908 2.225026634327609 31.669190353289547 0 0 0
247 7 3.8733806259633403 2.1376109859036125 31.65107018372337 0 0 0
251 7 0.1425568296638672 4.3088409788955095 31.661061090437776 0 0 0
252 7 2.6271430405985425 4.306634452456698 31.683611198244797 0 0 0
248 7 6.399363602791026 2.1376950510070025 31.654117306107306 0 0 0
253 7 5.1048240214485086 4.298399020603534 31.63450614026424 0 0 0
254 7 7.614554029592931 4.300099039868012 31.598616945076817 0 0 0
249 7 8.844063579123684 2.089776400789783 31.687389400096293 0 0 0
250 7 11.378394510628098 2.1226576028403623 31.666746106586263 0 0 0
255 1 10.100001810190358 4.205445482201707 31.512446077434877 0 0 0
256 7 1.3241027876363403 6.485387028249482 31.649694171466784 0 0 0
257 6 3.7858378363785907 6.48898392179114 31.676823074734678 0 0 0
286 7 0.09331841723575188 7.263091747448114 33.63980196978739 0 0 0
258 7 6.345439561137909 6.482589713440938 31.628002682968212 0 0 0
264 7 7.584100258129321 8.565123465915546 31.623565723980427 0 0 0
259 4 8.816161128316924 6.447611310780185 31.633369392394762 0 0 0
260 7 11.310110814092512 6.4755822522112885 31.602781791605533 0 0 0
284 5 8.877874940878256 5.104730724874426 33.58801245350128 0 0 0
285 4 11.344724619828057 5.140176695562405 33.64398485609831 0 0 0
290 7 10.080098604522842 7.245260273257493 33.60161697986359 0 0 0
261 7 0.17031918528329162 8.691950796062333 31.663981364393607 0 0 0
262 7 2.656753763403096 8.703778519973099 31.538586044303283 0 0 0
266 7 1.5572278579157754 10.817097034904407 31.57743359204495 0 0 0
267 4 3.911383713371838 11.259307601432072 30.855858543274362 0 0 0
292 7 3.952309283357104 9.35259478917561 33.50825142498222 0 0 0
243 7 5.162577074541606 12.889476971716576 32.09868906224576 0 -1 0
244 7 7.620132123892447 12.925551667870035 31.713126897320603 0 -1 0
263 1 5.087297448724336 8.748218865316057 31.42411969427555 0 0 0
268 7 6.254035397803524 10.749798781041461 31.582597207363552 0 0 0
293 4 6.44769875749618 9.31109265548291 33.64525361136774 0 0 0
245 7 10.105103986413832 12.87197594584796 31.873228138876808 0 -1 0
265 6 10.095532129792284 8.66855921598138 31.549273128166355 0 0 0
269 7 8.76883707159968 10.78905384250884 31.7548247915991 0 0 0
270 7 11.42291292521348 10.890898497211435 31.61873889690936 0 0 0
296 3 11.069584949003097 11.818026178312836 33.333303450933634 -1 0 0
271 7 1.4721952449061888 0.8864840880675497 33.7823110451529 0 0 0
272 7 3.917894353095475 0.9377158268702971 33.92648983022733 0 0 0
276 7 0.1720945789102214 2.974901313759729 33.741595444920705 0 0 0
277 7 2.640198527343025 3.0628785363614144 33.805756344328444 0 0 0
301 7 0.1878807907664949 1.529764367658806 35.76510223654006 0 0 0
302 7 2.61701477022135 1.6447388535611713 35.86688230421148 0 0 0
306 4 1.4141384343542978 3.795117023730646 35.95923554935687 0 0 0
307 7 3.982618854503372 3.7243628440764933 35.857337555392945 0 0 0
273 7 6.450827420820085 0.9629790196921933 33.90455461529648 0 0 0
278 1 5.2047918695904745 2.988530027981405 33.73380335420063 0 0 0
279 7 7.718277558530638 3.030331072722874 33.73510508372033 0 0 0
303 7 5.235054562304611 1.6568743856707195 35.94920661039295 0 0 0
304 4 7.751713246951988 1.6273939894166793 35.92022452955488 0 0 0
308 7 6.518053660400398 3.699713847523124 35.80527191870115 0 0 0
274 7 8.826388480290543 0.8853539206174984 33.8424091482432 0 0 0
275 4 11.434556628510185 0.7814135605954916 33.721295694692024 0 0 0
280 7 10.19626787824115 2.98052705114312 33.71396631562675 0 0 0
305 7 10.216836132679893 1.5464394700708195 35.730613997099475 0 0 0
309 7 9.011765063568612 3.6598685956204906 35.78242348054696 0 0 0
310 4 11.582792897079392 3.92283484462761 35.855284273416764 0 0 0
281 7 1.3191684139195763 5.165084376059064 33.883188394341474 0 0 0
282 4 3.8379421580700033 5.129948171490822 33.79186016947021 0 0 0
287 7 2.625192306355357 7.2719246927541 33.76586664988933 0 0 0
312 7 2.722574568912021 5.775746376486616 35.82306025779651 0 0 0
316 7 1.217061047757553 7.5844307702638165 35.81803123736697 0 0 0
317 7 3.927190729064264 8.035442428002563 35.73953266916615 0 0 0
283 7 6.371289167929084 5.090051270136411 33.67579422864956 0 0 0
288 7 5.180685186859254 7.25734266911954 33.675991208045644 0 0 0
289 7 7.627744380862794 7.174359439254914 33.716156770082705 0 0 0
313 7 5.26156360417451 5.916815678175513 35.73584287800015 0 0 0
314 7 7.713067443812888 5.810562678135284 35.74965278940984 0 0 0
318 4 6.556196230999023 8.11126088029606 35.80147526641351 0 0 0
311 2 12.374511042499398 5.980506796338924 35.34208903500537 -1 0 0
315 7 10.127568402500689 5.79347939348553 35.58314961254776 0 0 0
319 7 8.95201819792581 7.963379255438004 35.825095992720385 0 0 0
320 7 11.34606965330999 7.920635969116634 35.594746790640286 0 0 0
350 7 11.651993923347412 6.269415376065054 37.3110301662731 0 0 0
355 3 10.428602412983663 7.893613790342637 37.27274928705197 0 0 0
291 7 1.4620222755092667 9.41117010997732 33.737206984669776 0 0 0
297 6 3.0173214048663524 11.555103457831239 33.677747141005774 0 0 0
321 6 0.20682979639744056 10.046349037781376 35.9127822861171 0 0 0
322 7 2.6961647598273677 10.165758318813353 35.76695550639179 0 0 0
326 7 0.5000326142742618 11.637993320624805 33.68368679760994 0 0 0
327 6 3.9177006804399803 12.483843240763099 36.10404494191814 0 0 0
356 4 1.3975757779124323 12.339033383233026 35.8475081491656 0 0 0
298 2 5.198663460352349 12.265951240419318 34.20106852541677 0 0 0
299 7 6.9962590479757845 11.570219537628512 33.68009199777755 0 0 0
323 6 5.228446977903109 10.222231107971222 35.57015945069779 0 0 0
324 7 7.9085667879992565 10.350510090956783 35.713162067296004 0 0 0
328 7 6.459747273343619 12.50856229996498 35.912055742195484 0 0 0
294 7 8.763559281685877 9.27658591914079 33.698900085576405 0 0 0
295 6 11.261962579598926 9.686930978458633 33.76626853955632 0 0 0
300 7 9.380539768407282 11.536063564667637 34.17208923682452 0 0 0
325 7 10.262799115408638 9.832484506246885 37.043555580406355 0 0 0
329 3 9.529388380638705 11.38539230114736 36.20724438980683 0 0 0
330 4 11.257463171205535 12.062011057793542 35.58430773147938 0 0 0
335 5 9.905306220796138 12.89403414823522 37.39876244444801 0 -1 0
332 7 2.4810968975126246 0.09724192378001748 38.02961514618188 0 0 0
336 7 1.3315639956258492 2.1900618091753565 37.84273419597474 0 0 0
337 7 3.86255425709636 2.2007906775852613 37.876976584309034 0 0 0
341 7 0.1901801587391061 4.250625206384341 38.06482298213903 0 0 0
342 7 2.6837543549705773 4.297382616055068 37.96004558045212 0 0 0
333 7 5.208746593343417 0.1618293641568491 38.115110307112936 0 0 0
334 7 7.646177035993205 0.06161934494809227 37.99824894215211 0 0 0
338 7 6.5258181087815625 2.2558664126467614 37.90466008291041 0 0 0
339 7 8.981845014566778 2.1803914054155342 37.85694001053567 0 0 0
340 7 11.359994114144055 2.185017437457436 37.72901448586978 0 0 0
346 7 1.4308549164945648 6.418905308276884 38.075408925976966 0 0 0
347 6 3.9683808929432134 6.482291592587906 37.81447418923356 0 0 0
361 8 2.665002278620074 6.191522462602027 39.14665413261156 0 0 0
343 7 5.297728666004723 4.4244714226295665 37.82504936622772 0 0 0
344 7 7.8224198152148885 4.4390546019798185 37.85136942817965 0 0 0
348 6 6.656643958900713 6.671492433071986 37.81915249330312 0 0 0
345 4 10.202809896163552 4.324133028528476 37.80936952081547 0 0 0
349 7 9.229347980527429 6.623291277997733 37.869286267684274 0 0 0
351 7 12.272752781021564 8.53828749751787 37.83780209867093 -1 0 0
352 6 2.5074759863316056 8.647457686311316 37.708404164959255 0 0 0
357 7 3.8460059052524893 10.796998309462662 37.95519850833937 0 0 0
360 7 1.4006382081162436 10.884309783291068 37.88570417253732 1 0 0
353 7 5.1438613099228245 8.693371565479971 37.823353812176904 0 0 0
354 7 7.960204843691923 8.954407175256195 37.818022531992206 0 0 0
358 6 6.415695522185781 10.852380751986708 37.78815508720043 0 0 0
331 7 12.39301313012245 12.871851983834206 37.63155974621696 -1 -1 0
359 2 8.601468870773077 11.149587203073756 37.43272882745018 0 0 0

Velocities

1 0 0 0
2 0 0 0
3 0 0 0
9 0 0 0
5 0 0 0
6 0 0 0
10 0 0 0
16 0 0 0
20 0 0 0
26 0 0 0
27 0 0 0
23 0 0 0
28 0 0 0
29 0 0 0
24 0 0 0
25 0 0 0
30 0 0 0
7 0 0 0
31 0 0 0
32 0 0 0
36 0 0 0
37 0 0 0
56 0 0 0
8 0 0 0
33 0 0 0
34 0 0 0
38 0 0 0
4 0 0 0
35 0 0 0
39 0 0 0
40 0 0 0
11 0 0 0
12 0 0 0
17 0 0 0
42 0 0 0
47 0 0 0
13 0 0 0
18 0 0 0
19 0 0 0
43 0 0 0
44 0 0 0
48 0 0 0
14 0 0 0
15 0 0 0
41 0 0 0
45 0 0 0
49 0 0 0
50 0 0 0
85 0 0 0
21 0 0 0
22 0 0 0
46 0 0 0
52 0 0 0
57 0 0 0
87 0 0 0
53 0 0 0
54 0 0 0
58 0 0 0
51 0 0 0
55 0 0 0
59 0 0 0
60 0 0 0
66 0 0 0
67 0 0 0
91 0 0 0
92 0 0 0
96 0 0 0
97 0 0 0
63 0 0 0
64 0 0 0
68 0 0 0
74 0 0 0
93 0 0 0
98 0 0 0
99 0 0 0
65 0 0 0
69 0 0 0
70 0 0 0
75 0 0 0
94 0 0 0
95 0 0 0
100 0 0 0
72 0 0 0
76 0 0 0
77 0 0 0
82 0 0 0
101 0 0 0
102 0 0 0
107 0 0 0
73 0 0 0
78 0 0 0
103 0 0 0
108 0 0 0
109 0 0 0
71 0 0 0
79 0 0 0
80 0 0 0
81 0 0 0
104 0 0 0
105 0 0 0
106 0 0 0
110 0 0 0
61 0 0 0
62 0 0 0
86 0 0 0
111 0 0 0
112 0 0 0
116 0 0 0
117 0 0 0
83 0 0 0
84 0 0 0
88 0 0 0
113 0 0 0
118 0 0 0
119 0 0 0
89 0 0 0
90 0 0 0
114 0 0 0
115 0 0 0
120 0 0 0
121 0 0 0
122 0 0 0
126 0 0 0
127 0 0 0
156 0 0 0
157 0 0 0
162 0 0 0
123 0 0 0
124 0 0 0
128 0 0 0
153 0 0 0
158 0 0 0
163 0 0 0
164 0 0 0
125 0 0 0
129 0 0 0
130 0 0 0
155 0 0 0
159 0 0 0
160 0 0 0
165 0 0 0
131 0 0 0
132 0 0 0
136 0 0 0
137 0 0 0
161 0 0 0
166 0 0 0
167 0 0 0
171 0 0 0
172 0 0 0
133 0 0 0
134 0 0 0
138 0 0 0
168 0 0 0
173 0 0 0
135 0 0 0
139 0 0 0
140 0 0 0
169 0 0 0
170 0 0 0
175 0 0 0
141 0 0 0
142 0 0 0
146 0 0 0
147 0 0 0
151 0 0 0
152 0 0 0
176 0 0 0
177 0 0 0
143 0 0 0
144 0 0 0
148 0 0 0
154 0 0 0
178 0 0 0
145 0 0 0
149 0 0 0
150 0 0 0
174 0 0 0
179 0 0 0
180 0 0 0
181 0 0 0
182 0 0 0
186 0 0 0
187 0 0 0
211 0 0 0
212 0 0 0
216 0 0 0
217 0 0 0
183 0 0 0
188 0 0 0
189 0 0 0
213 0 0 0
214 0 0 0
218 0 0 0
184 0 0 0
185 0 0 0
190 0 0 0
215 0 0 0
219 0 0 0
220 0 0 0
191 0 0 0
192 0 0 0
196 0 0 0
197 0 0 0
221 0 0 0
222 0 0 0
226 0 0 0
227 0 0 0
193 0 0 0
198 0 0 0
199 0 0 0
223 0 0 0
224 0 0 0
228 0 0 0
194 0 0 0
195 0 0 0
200 0 0 0
225 0 0 0
229 0 0 0
230 0 0 0
201 0 0 0
202 0 0 0
206 0 0 0
207 0 0 0
231 0 0 0
232 0 0 0
236 0 0 0
203 0 0 0
208 0 0 0
209 0 0 0
233 0 0 0
234 0 0 0
238 0 0 0
204 0 0 0
205 0 0 0
210 0 0 0
235 0 0 0
239 0 0 0
240 0 0 0
237 0 0 0
241 0 0 0
242 0 0 0
246 0 0 0
247 0 0 0
251 0 0 0
252 0 0 0
248 0 0 0
253 0 0 0
254 0 0 0
249 0 0 0
250 0 0 0
255 0 0 0
256 0 0 0
257 0 0 0
286 0 0 0
258 0 0 0
264 0 0 0
259 0 0 0
260 0 0 0
284 0 0 0
285 0 0 0
290 0 0 0
261 0 0 0
262 0 0 0
266 0 0 0
267 0 0 0
292 0 0 0
243 0 0 0
244 0 0 0
263 0 0 0
268 0 0 0
293 0 0 0
245 0 0 0
265 0 0 0
269 0 0 0
270 0 0 0
296 0 0 0
271 0 0 0
272 0 0 0
276 0 0 0
277 0 0 0
301 0 0 0
302 0 0 0
306 0 0 0
307 0 0 0
273 0 0 0
278 0 0 0
279 0 0 0
303 0 0 0
304 0 0 0
308 0 0 0
274 0 0 0
275 0 0 0
280 0 0 0
305 0 0 0
309 0 0 0
310 0 0 0
281 0 0 0
282 0 0 0
287 0 0 0
312 0 0 0
316 0 0 0
317 0 0 0
283 0 0 0
288 0 0 0
289 0 0 0
313 0 0 0
314 0 0 0
318 0 0 0
311 0 0 0
315 0 0 0
319 0 0 0
320 0 0 0
350 0 0 0
355 0 0 0
291 0 0 0
297 0 0 0
321 0 0 0
322 0 0 0
326 0 0 0
327 0 0 0
356 0 0 0
298 0 0 0
299 0 0 0
323 0 0 0
324 0 0 0
328 0 0 0
294 0 0 0
295 0 0 0
300 0 0 0
325 0 0 0
329 0 0 0
330 0 0 0
335 0 0 0
332 0 0 0
336 0 0 0
337 0 0 0
341 0 0 0
342 0 0 0
333 0 0 0
334 0 0 0
338 0 0 0
339 0 0 0
340 0 0 0
346 0 0 0
347 0 0 0
361 0 0 0
343 0 0 0
344 0 0 0
348 0 0 0
345 0 0 0
349 0 0 0
351 0 0 0
352 0 0 0
357 0 0 0
360 0 0 0
353 0 0 0
354 0 0 0
358 0 0 0
331 0 0 0
359 0 0 0
