LAMMPS data file via write_data, version 11 Feb 2026, timestep = 138, units = metal

361 atoms
8 atom types

0 12.447907776 xlo xhi
0 12.9362452296 ylo yhi
0 52.3600831054 zlo zhi

Masses

1 26.9815
2 10.811
3 12.011
4 51.9961
5 55.845
6 95.95999999999999
7 58.6934
8 1.008

Atoms # atomic/kk

1 7 1.1447475034 1.4042530815 14.1767669076 0 0 0
2 7 3.6084602259 1.0698845996 14.6704381247 0 0 0
3 5 6.0765506298 0.9467816033 14.9127945674 0 0 0
9 7 7.3904254576 3.1552415677 14.921343358 0 0 0
5 7 11.0497419237 1.2529911546 14.6024861837 0 0 0
6 7 12.371824795299998 3.4559595715 14.8227813157 -1 0 0
10 7 9.9130540797 3.3904065996 14.7812471609 0 0 0
16 4 0.4694173902 7.8125304368 14.7997570607 0 0 0
20 7 10.4454755951 7.6697182118 14.1848688757 0 0 0
26 7 0.1281197666 12.2044764222 14.9105894271 0 0 0
27 7 2.482376412 11.8082341077 14.4640395444 0 0 0
23 7 6.9215809143 9.0056325864 14.7794199109 0 0 0
28 7 4.9597127568 11.7869866321 14.6074736033 0 0 0
29 6 7.487468691 11.492489151 14.9214469503 0 0 0
24 7 9.211267288 9.7383043985 14.542324574 0 0 0
25 7 11.7628351674 9.8745411843 14.7910184475 0 0 0
30 7 10.0617556164 11.945152431 14.7619795889 0 0 0
7 7 2.4276438825 3.274586701 14.9921379853 0 0 0
31 6 0.1320668178 1.5666912763 16.54569988 0 0 0
32 7 2.6047881521 1.6851371804 16.9156842324 0 0 0
36 7 1.2195215325 3.8560608354 17.0299024962 0 0 0
37 7 3.7103479774 3.8371572501 17.0572271382 0 0 0
56 2 1.9139638832 0.320698286899999 15.6094045829 0 1 0
8 7 4.9287232821 3.1271355871 15.0109940309 0 0 0
33 7 4.9854693445 1.6648399647 16.9552168616 0 0 0
34 7 7.410113639 1.7690174525 16.9802513671 0 0 0
38 5 6.1786870847 3.8598965293 16.9892925392 0 0 0
4 6 8.6405916037 0.9966073374 15.0011028893 0 0 0
35 7 9.9854439602 1.6623584179 16.9441720819 0 0 0
39 7 8.7306918901 3.8627101762 16.8623801969 0 0 0
40 7 11.1905275305 3.8067890199 17.0006893521 0 0 0
11 7 1.2348702966 5.4950064056 15.0806985502 0 0 0
12 7 3.723333195 5.3162088046 15.091556138 0 0 0
17 7 2.6528824888 7.4951525199 15.1538371669 0 0 0
42 7 2.4538170063 6.1274901805 17.1415379148 0 0 0
47 7 3.8866203033 8.1976953877 17.0635533141 0 0 0
13 7 6.1787690715 5.3054540189 15.034535629 0 0 0
18 7 5.0798141029 7.4787706901 15.0688046453 0 0 0
19 2 7.0597951203 7.0189274967 15.3897174295 0 0 0
43 7 4.9526824561 5.9628190941 17.0949149841 0 0 0
44 7 7.4770692341 5.9405064365 17.0881545432 0 0 0
48 7 6.3467693742 8.0549577382 17.0498728177 0 0 0
14 7 8.7041968087 5.6586120419 14.9658205562 0 0 0
15 6 11.1806031706 5.6044565055 15.1850152514 0 0 0
41 7 12.442168210099998 5.9982391836 17.2267436521 -1 0 0
45 7 9.923455112 6.0385351278 17.2532666192 0 0 0
49 7 8.7166078523 7.9219477302 16.0697967416 0 0 0
50 7 11.1854260308 7.9909608595 16.4539207548 0 0 0
85 6 9.7874825474 8.473382021 18.5408467256 0 0 0
21 2 1.1654244367 10.4783622607 15.2130316912 0 0 0
22 7 2.969847795 9.8650340587 15.6453950804 0 0 0
46 7 0.7946061559 9.3672820405 16.8749701293 0 0 0
52 7 1.3503573598 11.8646523864 16.9891542204 0 0 0
57 7 3.753873893 12.4366743176 16.6098759546 0 0 0
87 1 3.6650451701 10.7156807278 18.2659007397 0 0 0
53 7 5.3358928559 10.1219872041 16.3275402765 0 0 0
54 7 7.7336051436 10.0538114804 16.9470367537 0 0 0
58 6 6.3195663174 12.3667352783 16.9550847684 0 0 0
51 3 11.519673145099999 9.370279149 17.6624171524 -1 0 0
55 7 10.1852587848 10.2759719364 16.6816821896 0 0 0
59 7 8.8367077706 12.3810361477 16.9622360876 0 0 0
60 7 11.2428990064 12.4670428062 16.882988677 0 0 0
66 6 1.393007034 2.1659191631 19.0534804658 0 0 0
67 5 3.8310712323 2.169749835 19.077551421 0 0 0
91 4 1.3610097719 0.7490016766 21.3001474804 0 0 0
92 7 3.7532698079 0.7243006354 21.0553737996 0 0 0
96 7 0.082079932 2.7970216106 21.1874527472 0 0 0
97 7 2.5927240934 2.8497939446 21.1992924965 0 0 0
63 5 4.9567742477 0.0529982254 18.9618634931 0 0 0
64 7 7.4416746235 0.0821708056 19.1014191477 0 0 0
68 7 6.1949360288 2.1588642027 19.0801897325 0 0 0
74 6 7.5018096017 4.2853629911 19.0547359126 0 0 0
93 7 6.2598414465 0.7194660822 21.17367312 0 0 0
98 7 5.0257186556 2.8737258399 21.1536837203 0 0 0
99 5 7.4793105556 2.8150634673 21.1692986238 0 0 0
65 7 10.0018085899 0.0802466939 19.0961651875 0 0 0
69 7 8.7385472152 2.1539822136 18.9954608723 0 0 0
70 7 11.2870638013 2.2382207273 18.9541707741 0 0 0
75 5 9.908720947 4.3054275401 19.0335874063 0 0 0
94 7 8.7140507513 0.7135233683 21.2362014867 0 0 0
95 7 11.3045523296 0.6704651065 21.199536471 0 0 0
100 6 10.0309211856 2.7845552589 21.0550342549 0 0 0
72 7 2.4838430183 4.388962084 19.1070457725 0 0 0
76 7 1.200144222 6.4346976141 19.2600213636 0 0 0
77 7 3.7839563224 6.5073099035 19.1651823211 0 0 0
82 6 2.3588605673 8.4890673053 18.9154467805 0 0 0
101 7 1.204403147 4.986371594 21.2593935642 0 0 0
102 6 3.7298053141 5.0424743752 21.2297752978 0 0 0
107 7 2.4685484599 7.1728356576 21.2326094282 0 0 0
73 7 4.9759755061 4.316411451 19.087212733 0 0 0
78 7 6.1965388899 6.5190956683 19.1399785413 0 0 0
103 7 6.2751972116 5.0470676015 21.1760724515 0 0 0
108 7 5.0116983743 7.22861409 21.2268755354 0 0 0
109 7 7.4193353481 7.2485706051 21.2651304498 0 0 0
71 1 12.383629132 4.3782094725 19.1862342201 -1 0 0
79 7 8.6255974932 6.472044202 19.3232968982 0 0 0
80 7 11.1135754549 6.420590323 19.3581641471 0 0 0
81 4 12.342695017999999 8.4729562787 19.2006565517 -1 0 0
104 7 8.7408050898 5.0231569879 21.2437432022 0 0 0
105 3 10.084425075622462 4.371909817340646 22.28861147248563 0 0 0
106 7 12.435294388199999 7.0968971559 21.3158557077 -1 0 0
110 7 9.8903603607 7.1660305315 21.3021949042 0 0 0
61 6 0.0477387397 12.935022616100001 18.9949290075 0 -1 0
62 7 2.587482576 12.8543346047 19.0383469717 0 -1 0
86 7 1.2816847716 10.6903307998 19.1614661098 0 0 0
111 7 1.1796694452 9.2896516501 21.1960342799 0 0 0
112 6 3.7016357908 9.3557762036 21.1431867319 0 0 0
116 1 0.0369839214 11.486698451 21.2977096144 0 0 0
117 7 2.4704264091 11.5284142583 21.1452899236 0 0 0
83 7 4.9462384898 8.7330200409 19.0834474924 0 0 0
84 7 7.3974678157 8.6397297376 19.085743402 0 0 0
88 7 6.1625171869 10.8013148416 18.9301045672 0 0 0
113 7 6.2139769728 9.4092095126 21.0353192467 0 0 0
118 7 4.9639845145 11.5407295129 21.0425881559 0 0 0
119 4 7.3995383715 11.5362046003 21.0747824702 0 0 0
89 6 8.731338748 10.8500854071 19.0384744744 0 0 0
90 4 11.272219843 10.8209844576 18.9386324767 0 0 0
114 7 8.6997099562 9.3160354633 20.9928929717 0 0 0
115 6 11.109001975 9.2519683408 21.1755872983 0 0 0
120 7 9.9858618188 11.5164614705 21.1821863062 0 0 0
121 7 0.0773368024721815 1.3736500702265142 23.31394212530959 0 0 0
122 7 2.568567981949996 1.3855181585872731 23.333610036955616 0 0 0
126 6 1.3483004469281363 3.5681989743302043 23.26977437674137 0 0 0
127 7 3.8437155243142365 3.5719733412615433 23.365423286039764 0 0 0
156 1 1.4729616617967842 2.112251137161282 25.5201605532052 0 0 0
157 7 3.958804788812591 2.1188038186261875 25.4480631897118 0 0 0
162 7 2.5917929532939508 4.244308980480058 25.432119002510653 0 0 0
123 7 4.98560972092652 1.4107231232801771 23.165977703304026 0 0 0
124 7 7.3871893079757855 1.4818177572427587 23.490614229887758 0 0 0
128 7 6.296724981714152 3.645456102816341 23.18716361666745 0 0 0
153 7 5.19048398397377 0.05404404886640395 25.29690234894086 0 0 0
158 2 5.7685890682264604 2.438735082596398 24.632703755882776 0 0 0
163 7 5.11114693816237 4.225504528364176 25.424589816576933 0 0 0
164 5 7.470418775890229 4.042729499255898 25.36334799785314 0 0 0
125 7 10.036544626419468 1.407985569333393 23.35884711973354 0 0 0
129 7 8.744617575443623 3.5265698045389295 23.35130901981757 0 0 0
130 4 11.36016026607089 3.596735205885389 23.40652823423475 0 0 0
155 4 10.113293546905384 0.04249264330539786 25.56273101832609 0 0 0
159 7 8.863288965929005 2.07923414414568 25.45178307634719 0 0 0
160 7 11.39466348601675 2.134790882106834 25.426022377671146 0 0 0
165 7 10.058884631265736 4.196919762582942 25.416365074329576 0 0 0
131 7 0.06383277177955272 5.750648403287164 23.408029916181654 0 0 0
132 7 2.53526442193318 5.778810821277707 23.364056057131275 0 0 0
136 7 1.295617715710721 7.892245560029423 23.30849510535769 0 0 0
137 7 3.769269604814988 7.960022940080687 23.28172047922848 0 0 0
161 4 0.10201360133792851 4.319595486912766 25.474008882299586 0 0 0
166 7 1.33031949113245 6.393271440547301 25.43471188991301 0 0 0
167 7 3.800611073534929 6.417574237942105 25.446126888509564 0 0 0
171 6 0.10158852083880607 8.59170292382255 25.433849552541044 0 0 0
172 7 2.6149988951209857 8.587324724286848 25.379238659497645 0 0 0
133 6 5.0576403068577935 5.837997267248036 23.39075532628128 0 0 0
134 7 7.552056358799097 5.757139938914597 23.318301500015057 0 0 0
138 7 6.302618696484378 7.975414672478583 23.3444152634971 0 0 0
168 7 6.357847181024496 6.374583203293143 25.435992043243676 0 0 0
173 7 5.097066231809133 8.533277406185235 25.33549101957761 0 0 0
135 7 10.056998524757892 5.803579872307085 23.39195163756117 0 0 0
139 4 8.68628908230619 7.920798034801718 23.248401721201553 0 0 0
140 4 11.274236982190603 7.868109038887174 23.322054011007346 0 0 0
169 7 8.768255967221425 6.308986804929588 25.387202095270467 0 0 0
170 7 11.281645007683501 6.385695310217008 25.453242348233985 0 0 0
175 6 9.876861181193647 8.544990423163155 25.528232591277774 0 0 0
141 7 0.012052513171649695 10.045456661112949 23.347718068169666 0 0 0
142 7 2.4881250259853664 10.084141265628542 23.258443613484904 0 0 0
146 7 1.2942932241742884 12.213140588122819 23.3545603188254 0 0 0
147 7 3.798376403084061 12.222615613129863 23.184028161878494 0 0 0
151 4 0.08472810214520354 12.852952607925143 25.419554799586663 0 -1 0
152 7 2.6467019656274573 12.922632385355904 25.37803304792954 0 -1 0
176 7 1.3342403023495928 10.776824981502509 25.435338268779425 0 0 0
177 6 3.8715167932549717 10.795300156263753 25.277395510333132 0 0 0
143 7 5.0467956470583 10.083563686828532 23.185146359316416 0 0 0
144 7 7.497103946041088 10.067432487716397 22.9239280705355 0 0 0
148 4 6.204461212880716 12.248837170270805 23.189562299158364 0 0 0
154 7 7.593515378791752 12.92153919369051 25.479727626374245 0 -1 0
178 6 6.609214241749897 10.52214456935169 25.224507862078767 0 0 0
145 7 9.98760269576422 10.052285673405843 23.320000405609903 0 0 0
149 6 8.699764496500531 12.250660210798554 23.33445558884447 0 0 0
150 7 11.238885601098296 12.195849182758 23.41011508852817 0 0 0
174 3 8.405464013881812 9.487725146067953 24.42798953180314 0 0 0
179 5 8.990449844396409 10.900817111428102 25.587619453291097 0 0 0
180 5 11.328006556330937 10.844676761694318 25.511088994776095 0 0 0
181 7 1.3832195248230295 0.6441959815724737 27.502537805506346 0 0 0
182 7 3.8696966374116952 0.6818249650903639 27.441593969532047 0 0 0
186 7 0.16561108151269138 2.836177687288322 27.50226946973017 0 0 0
187 7 2.6536570387265486 2.832013031933002 27.574153552119952 0 0 0
211 7 0.2044042400965104 1.42402969150822 29.60290151588188 0 0 0
212 7 2.704510355858012 1.341728106124684 29.58778641467374 0 0 0
216 7 1.4056550835134531 3.5320238628300786 29.602119341853076 0 0 0
217 4 3.8190071059545594 3.552640242230131 29.60607240509257 0 0 0
183 7 6.303390781678507 0.6944020289091173 27.577604195018708 0 0 0
188 7 5.076716282693761 2.852586093901576 27.58239605537179 0 0 0
189 7 7.589219645243421 2.7718723512442764 27.46886698097471 0 0 0
213 5 5.128118967701076 1.4054365212847773 29.60841334332424 0 0 0
214 7 7.60750498021434 1.3344339801545657 29.599446034121527 0 0 0
218 7 6.357980117773282 3.5160266006593806 29.54940128747256 0 0 0
184 7 8.880695308137158 0.697945480732258 27.57549553648939 0 0 0
185 4 11.378598360853882 0.7017633784987933 27.549162871508834 0 0 0
190 7 10.139570897024665 2.8103649479962134 27.498780825073144 0 0 0
215 7 10.119671529515154 1.3829609856438658 29.643280535876627 0 0 0
219 7 8.833556383013844 3.4908536540564894 29.537969163585018 0 0 0
220 7 11.364285495660932 3.5370991577232447 29.533346876688135 0 0 0
191 7 1.385035925304799 4.984214995002627 27.480882401943028 0 0 0
192 7 3.8275042567800033 4.96885832402296 27.488194798858128 0 0 0
196 7 0.1301330681483281 7.134823095836201 27.506188217898465 0 0 0
197 7 2.5730998486250356 7.171305685004439 27.48088931636862 0 0 0
221 7 0.11445458620347436 5.703762290533367 29.581801993219454 0 0 0
222 7 2.5853034851689545 5.70629154946576 29.558566633443494 0 0 0
226 7 1.3585626774996804 7.880867619810664 29.5580749160251 0 0 0
227 7 3.855593913748411 7.892912434378258 29.472033049294232 0 0 0
193 7 6.363844531996129 4.954288589116158 27.4188094717998 0 0 0
198 7 5.096720766079514 7.152626764423606 27.415802116446248 0 0 0
199 7 7.615572690009986 7.167660570372662 27.453036348716893 0 0 0
223 6 5.147257804742498 5.700527521600205 29.494740208726252 0 0 0
224 7 7.638196872587056 5.717476558597269 29.586253260169677 0 0 0
228 7 6.388485247571867 7.8931648632726885 29.496095573708836 0 0 0
194 6 8.841927334739522 4.975084663856582 27.499706712009132 0 0 0
195 7 11.354892502681615 4.971813661427872 27.517279657607272 0 0 0
200 7 10.11794232189454 7.135420184451145 27.54768865121248 0 0 0
225 7 10.095522754886337 5.718789848200254 29.613978063964673 0 0 0
229 7 8.840243564519794 7.861586338743365 29.5321890260672 0 0 0
230 7 11.362815660820125 7.9084314880347435 29.53380777023049 0 0 0
201 5 1.3731661778959268 9.303321357063341 27.519487811338216 0 0 0
202 7 3.8665460615879974 9.30034986066402 27.379682572632714 0 0 0
206 4 0.1815948988929055 11.455998647290492 27.53136166807101 0 0 0
207 7 2.6049717487410393 11.436655081804243 27.443125900071006 0 0 0
231 7 0.16055534631307972 10.057500915686791 29.57396752348531 0 0 0
232 7 2.627764272820164 10.00548955852526 29.4306331313613 0 0 0
236 7 1.468014782566553 12.163358762930981 29.561991895412465 0 0 0
203 7 6.368824159823105 9.26551456846007 27.392833812486177 0 0 0
208 7 5.132198089732931 11.480400394915149 27.324614994188405 0 0 0
209 6 7.576801756957178 11.504262098236094 27.646178274249742 0 0 0
233 7 5.143680154508127 10.036444702639896 29.327757873304932 0 0 0
234 7 7.595834603362155 10.068870862265578 29.671336189594065 0 0 0
238 7 6.20763857403017 12.216837171066079 29.68563198896137 0 0 0
204 7 8.83274617718809 9.347743586391488 27.630689742707265 0 0 0
205 7 11.339189853915082 9.394092746899785 27.554077726196308 0 0 0
210 7 10.145868214811756 11.532782047486217 27.592472962584853 0 0 0
235 7 10.07971706284781 10.158053608500122 29.609020812770297 0 0 0
239 4 8.874520579815169 12.234330103618314 29.741242409600424 0 0 0
240 7 11.391757140973745 12.247053669039513 29.56996988454403 0 0 0
237 3 4.022885113939843 0.27599241248256845 30.558379057457053 0 1 0
241 7 0.19355606732870664 0.08282672323423325 31.64908715877118 0 0 0
242 7 2.5596197930326805 0.12950510852248334 31.74778298019681 0 0 0
246 4 1.33596644149585 2.226984740583459 31.68844375689317 0 0 0
247 7 3.8727319400164 2.1401679156621767 31.650029697038253 0 0 0
251 7 0.14188632543000426 4.308688813222988 31.664099767436827 0 0 0
252 7 2.6275431237421527 4.306186097622054 31.678601527441558 0 0 0
248 7 6.400006037990379 2.1364184971176745 31.651558450731336 0 0 0
253 7 5.106939037071541 4.2982484396178755 31.628219811688158 0 0 0
254 7 7.6150311778671105 4.298541532040515 31.596917808079137 0 0 0
249 7 8.844464287119346 2.0882143635263595 31.692354236053433 0 0 0
250 7 11.377875931764187 2.122881206501103 31.675915357501875 0 0 0
255 1 10.099582345836785 4.204434404705236 31.513985361234138 0 0 0
256 7 1.3234948673506295 6.486816920890473 31.643077750679673 0 0 0
257 6 3.7864228579023704 6.490207975963911 31.666164170683246 0 0 0
286 7 0.08536218105725617 7.2654549201245056 33.62914615496883 0 0 0
258 7 6.34638760319405 6.482101287463018 31.624896868788674 0 0 0
264 7 7.583379777849661 8.566491574097158 31.627125273012034 0 0 0
259 4 8.813950103965226 6.447171883938737 31.634449434398487 0 0 0
260 7 11.30737255592421 6.472845051083335 31.604059811531958 0 0 0
284 5 8.878041660937495 5.105257654697368 33.58784284249962 0 0 0
285 4 11.34353353831405 5.137680485440402 33.64981389469007 0 0 0
290 7 10.074704900500212 7.243989887080151 33.60366087507323 0 0 0
261 7 0.17115207976837454 8.693454518343763 31.656173312747487 0 0 0
262 7 2.6594345965831008 8.707467419075972 31.53369020355489 0 0 0
266 7 1.5581882270645682 10.819524153162247 31.57521782586986 0 0 0
267 4 3.9104970394075202 11.26395504914841 30.855057585039326 0 0 0
292 7 3.9542523274751553 9.358456832706048 33.50680056779597 0 0 0
243 7 5.159737879050628 12.8920864582007 32.09982308342676 0 -1 0
244 7 7.621469240038346 12.92541711387124 31.717383829485893 0 -1 0
263 1 5.0884638869533365 8.75035207230074 31.42268799278357 0 0 0
268 7 6.25369244614281 10.752128285869235 31.587536117220907 0 0 0
293 4 6.443977667859787 9.312768664871735 33.65167837312382 0 0 0
245 7 10.106602034456742 12.872446366911204 31.880956057619233 0 -1 0
265 6 10.094929474946936 8.6669331974933 31.551930965443816 0 0 0
269 7 8.770481877522117 10.789393957232337 31.75941485935137 0 0 0
270 7 11.424299312432852 10.891002950712101 31.61742569822857 0 0 0
296 3 11.076464048605727 11.815057741862839 33.33360330113273 -1 0 0
271 7 1.4750214895077345 0.8854186809113255 33.7984317629535 0 0 0
272 7 3.9176594130649667 0.9464981042305372 33.92816163837449 0 0 0
276 7 0.16774348062826314 2.980695059790476 33.75510152804849 0 0 0
277 7 2.6351475474602313 3.068846778352584 33.80964160498166 0 0 0
301 7 0.18934684847249905 1.538787201833346 35.780002355960626 0 0 0
302 7 2.611964496753913 1.6598374563148426 35.87985408979134 0 0 0
306 4 1.3932428783077302 3.8231861904538653 35.97571494644362 0 0 0
307 7 3.9909372827841576 3.7216048016659093 35.83906837044492 0 0 0
273 7 6.453115024282275 0.9609052199854742 33.90353100448097 0 0 0
278 1 5.211093605007766 2.986662643791192 33.72652544158515 0 0 0
279 7 7.720092672319869 3.029613106969096 33.73593304562132 0 0 0
303 7 5.23797109762253 1.6568353565886667 35.947109829365125 0 0 0
304 4 7.74410270422966 1.6283695474618038 35.92083561562572 0 0 0
308 7 6.518203920328415 3.7002332899095287 35.804093663688896 0 0 0
274 7 8.830585025937157 0.8849964044635483 33.852742769065344 0 0 0
275 4 11.437328095277197 0.7767947821428208 33.73646760223738 0 0 0
280 7 10.194969049572599 2.9827702541319514 33.71731986145097 0 0 0
305 7 10.222806815413199 1.563093573471124 35.73746968629087 0 0 0
309 7 9.00565770550977 3.6610272801759716 35.78682554876348 0 0 0
310 4 11.563865759345964 3.9141640131691187 35.89376644105088 0 0 0
281 7 1.3176978932029766 5.169430360448725 33.86727758409345 0 0 0
282 4 3.84504342496193 5.125127359044952 33.77136891324101 0 0 0
287 7 2.6265133928750384 7.272057099373702 33.750103685404405 0 0 0
312 7 2.723679470838302 5.772895423277705 35.788780071425634 0 0 0
316 7 1.2040245506334917 7.577893876043839 35.793074869110384 0 0 0
317 7 3.925939376873546 8.04973793203652 35.73474650124136 0 0 0
283 7 6.373821984539036 5.090061629706462 33.673848541241206 0 0 0
288 7 5.178919842802331 7.258875225217736 33.66796040244986 0 0 0
289 7 7.625006923797508 7.176907138714724 33.71813864018135 0 0 0
313 7 5.258519017396095 5.909262419802799 35.718922286089885 0 0 0
314 7 7.7144389811073735 5.8139428485144835 35.74784801420795 0 0 0
318 4 6.550864965794367 8.113243331626196 35.809378934619055 0 0 0
311 2 12.363163630335068 5.980606087730187 35.3333579397192 -1 0 0
315 7 10.127331042747105 5.792480458770179 35.58744455770687 0 0 0
319 7 8.950783778945816 7.9666721171425605 35.8282620709829 0 0 0
320 7 11.339326515157955 7.916538611591321 35.597804118801484 0 0 0
350 7 11.669775093754252 6.26604878008521 37.30822414953376 0 0 0
355 3 10.430652435998944 7.896004179870077 37.28459649880537 0 0 0
291 7 1.4640854884373504 9.40923054953668 33.724463120876536 0 0 0
297 6 3.02058584769892 11.562136076092342 33.67076747543162 0 0 0
321 6 0.21098520018326403 10.036006433728794 35.903113718427996 0 0 0
322 7 2.694697027856561 10.184382446016869 35.752731263122776 0 0 0
326 7 0.5070035773741947 11.634775356118102 33.68519227531882 0 0 0
327 6 3.910309002954869 12.491754547876754 36.08892973585457 0 0 0
356 4 1.3717149202909487 12.336179864285095 35.87851384420075 0 0 0
298 2 5.201518701838422 12.265673136677506 34.197887257417605 0 0 0
299 7 7.002176889768884 11.568952716448296 33.6851679849082 0 0 0
323 6 5.227307663481301 10.22671312911222 35.58183714531419 0 0 0
324 7 7.910040391135704 10.351252810849559 35.721013669020344 0 0 0
328 7 6.456811078923987 12.50837321744552 35.9174792627042 0 0 0
294 7 8.760754692156457 9.278890226234696 33.70352178176057 0 0 0
295 6 11.261367402671805 9.683626394368606 33.763057862948635 0 0 0
300 7 9.38959839631485 11.535844996356245 34.179487700233615 0 0 0
325 7 10.25362905929943 9.839167161294412 37.03583719241517 0 0 0
329 3 9.52781326435795 11.402193500155885 36.205725317992595 0 0 0
330 4 11.274489216975958 12.057384274572911 35.59319254741713 0 0 0
335 5 9.90769018092211 12.904482393598906 37.39986637915389 0 -1 0
332 7 2.5114134727656645 0.08050678122414583 38.03422255816847 0 0 0
336 7 1.34164599530925 2.184357832717953 37.891346422475294 0 0 0
337 7 3.872075939554792 2.194525914030532 37.877409186093786 0 0 0
341 7 0.20091951124728727 4.257153240538797 38.08189191396706 0 0 0
342 7 2.702975715034534 4.285320762415174 37.931344812988385 0 0 0
333 7 5.210113928552763 0.1560971978580336 38.1103556260959 0 0 0
334 7 7.642386895246923 0.0710955643372909 38.005109865283856 0 0 0
338 7 6.516402100957806 2.261252772955642 37.905967355600914 0 0 0
339 7 8.964252138109117 2.198836826894673 37.85495810208879 0 0 0
340 7 11.354311043137377 2.1504288999134364 37.80340196511741 0 0 0
361 8 12.244377094165614 1.2142757235304953 38.82496594882455 0 0 0
346 7 1.5116638317994224 6.406718929553304 38.00326321945312 0 0 0
347 6 3.9568999141934222 6.466964681032199 37.769045159736265 0 0 0
343 7 5.293868202030154 4.4262683225809525 37.84013389354712 0 0 0
344 7 7.820523949071486 4.440135633824398 37.85248817877254 0 0 0
348 6 6.651885763251899 6.663832472373919 37.82247813996305 0 0 0
345 4 10.210395949875844 4.333360609755315 37.81513816511022 0 0 0
349 7 9.231826449342053 6.623810172204585 37.87436723559588 0 0 0
351 7 12.24088248964468 8.553604014651526 37.84669928496627 -1 0 0
352 6 2.4850503472616974 8.655549270363403 37.68326904120722 0 0 0
357 7 3.840667166961925 10.800000445065466 37.94531586119568 0 0 0
360 7 1.385384220387552 10.886382564467585 37.8931844901672 1 0 0
353 7 5.121851413330722 8.68990568619962 37.830484037987574 0 0 0
354 7 7.9509998891084965 8.950399045842541 37.821262861434775 0 0 0
358 6 6.414121307571761 10.85042961566275 37.794254038949084 0 0 0
331 7 12.395837880794502 12.90251369483808 37.7186503407251 -1 -1 0
359 2 8.59677084644735 11.177130512495602 37.42968099639718 0 0 0

Velocities

1 0 0 0
2 0 0 0
3 0 0 0
9 0 0 0
5 0 0 0
6 0 0 0
10 0 0 0
16 0 0 0
20 0 0 0
26 0 0 0
27 0 0 0
23 0 0 0
28 0 0 0
29 0 0 0
24 0 0 0
25 0 0 0
30 0 0 0
7 0 0 0
31 0 0 0
32 0 0 0
36 0 0 0
37 0 0 0
56 0 0 0
8 0 0 0
33 0 0 0
34 0 0 0
38 0 0 0
4 0 0 0
35 0 0 0
39 0 0 0
40 0 0 0
11 0 0 0
12 0 0 0
17 0 0 0
42 0 0 0
47 0 0 0
13 0 0 0
18 0 0 0
19 0 0 0
43 0 0 0
44 0 0 0
48 0 0 0
14 0 0 0
15 0 0 0
41 0 0 0
45 0 0 0
49 0 0 0
50 0 0 0
85 0 0 0
21 0 0 0
22 0 0 0
46 0 0 0
52 0 0 0
57 0 0 0
87 0 0 0
53 0 0 0
54 0 0 0
58 0 0 0
51 0 0 0
55 0 0 0
59 0 0 0
60 0 0 0
66 0 0 0
67 0 0 0
91 0 0 0
92 0 0 0
96 0 0 0
97 0 0 0
63 0 0 0
64 0 0 0
68 0 0 0
74 0 0 0
93 0 0 0
98 0 0 0
99 0 0 0
65 0 0 0
69 0 0 0
70 0 0 0
75 0 0 0
94 0 0 0
95 0 0 0
100 0 0 0
72 0 0 0
76 0 0 0
77 0 0 0
82 0 0 0
101 0 0 0
102 0 0 0
107 0 0 0
73 0 0 0
78 0 0 0
103 0 0 0
108 0 0 0
109 0 0 0
71 0 0 0
79 0 0 0
80 0 0 0
81 0 0 0
104 0 0 0
105 0 0 0
106 0 0 0
110 0 0 0
61 0 0 0
62 0 0 0
86 0 0 0
111 0 0 0
112 0 0 0
116 0 0 0
117 0 0 0
83 0 0 0
84 0 0 0
88 0 0 0
113 0 0 0
118 0 0 0
119 0 0 0
89 0 0 0
90 0 0 0
114 0 0 0
115 0 0 0
120 0 0 0
121 0 0 0
122 0 0 0
126 0 0 0
127 0 0 0
156 0 0 0
157 0 0 0
162 0 0 0
123 0 0 0
124 0 0 0
128 0 0 0
153 0 0 0
158 0 0 0
163 0 0 0
164 0 0 0
125 0 0 0
129 0 0 0
130 0 0 0
155 0 0 0
159 0 0 0
160 0 0 0
165 0 0 0
131 0 0 0
132 0 0 0
136 0 0 0
137 0 0 0
161 0 0 0
166 0 0 0
167 0 0 0
171 0 0 0
172 0 0 0
133 0 0 0
134 0 0 0
138 0 0 0
168 0 0 0
173 0 0 0
135 0 0 0
139 0 0 0
140 0 0 0
169 0 0 0
170 0 0 0
175 0 0 0
141 0 0 0
142 0 0 0
146 0 0 0
147 0 0 0
151 0 0 0
152 0 0 0
176 0 0 0
177 0 0 0
143 0 0 0
144 0 0 0
148 0 0 0
154 0 0 0
178 0 0 0
145 0 0 0
149 0 0 0
150 0 0 0
174 0 0 0
179 0 0 0
180 0 0 0
181 0 0 0
182 0 0 0
186 0 0 0
187 0 0 0
211 0 0 0
212 0 0 0
216 0 0 0
217 0 0 0
183 0 0 0
188 0 0 0
189 0 0 0
213 0 0 0
214 0 0 0
218 0 0 0
184 0 0 0
185 0 0 0
190 0 0 0
215 0 0 0
219 0 0 0
220 0 0 0
191 0 0 0
192 0 0 0
196 0 0 0
197 0 0 0
221 0 0 0
222 0 0 0
226 0 0 0
227 0 0 0
193 0 0 0
198 0 0 0
199 0 0 0
223 0 0 0
224 0 0 0
228 0 0 0
194 0 0 0
195 0 0 0
200 0 0 0
225 0 0 0
229 0 0 0
230 0 0 0
201 0 0 0
202 0 0 0
206 0 0 0
207 0 0 0
231 0 0 0
232 0 0 0
236 0 0 0
203 0 0 0
208 0 0 0
209 0 0 0
233 0 0 0
234 0 0 0
238 0 0 0
204 0 0 0
205 0 0 0
210 0 0 0
235 0 0 0
239 0 0 0
240 0 0 0
237 0 0 0
241 0 0 0
242 0 0 0
246 0 0 0
247 0 0 0
251 0 0 0
252 0 0 0
248 0 0 0
253 0 0 0
254 0 0 0
249 0 0 0
250 0 0 0
255 0 0 0
256 0 0 0
257 0 0 0
286 0 0 0
258 0 0 0
264 0 0 0
259 0 0 0
260 0 0 0
284 0 0 0
285 0 0 0
290 0 0 0
261 0 0 0
262 0 0 0
266 0 0 0
267 0 0 0
292 0 0 0
243 0 0 0
244 0 0 0
263 0 0 0
268 0 0 0
293 0 0 0
245 0 0 0
265 0 0 0
269 0 0 0
270 0 0 0
296 0 0 0
271 0 0 0
272 0 0 0
276 0 0 0
277 0 0 0
301 0 0 0
302 0 0 0
306 0 0 0
307 0 0 0
273 0 0 0
278 0 0 0
279 0 0 0
303 0 0 0
304 0 0 0
308 0 0 0
274 0 0 0
275 0 0 0
280 0 0 0
305 0 0 0
309 0 0 0
310 0 0 0
281 0 0 0
282 0 0 0
287 0 0 0
312 0 0 0
316 0 0 0
317 0 0 0
283 0 0 0
288 0 0 0
289 0 0 0
313 0 0 0
314 0 0 0
318 0 0 0
311 0 0 0
315 0 0 0
319 0 0 0
320 0 0 0
350 0 0 0
355 0 0 0
291 0 0 0
297 0 0 0
321 0 0 0
322 0 0 0
326 0 0 0
327 0 0 0
356 0 0 0
298 0 0 0
299 0 0 0
323 0 0 0
324 0 0 0
328 0 0 0
294 0 0 0
295 0 0 0
300 0 0 0
325 0 0 0
329 0 0 0
330 0 0 0
335 0 0 0
332 0 0 0
336 0 0 0
337 0 0 0
341 0 0 0
342 0 0 0
333 0 0 0
334 0 0 0
338 0 0 0
339 0 0 0
340 0 0 0
361 0 0 0
346 0 0 0
347 0 0 0
343 0 0 0
344 0 0 0
348 0 0 0
345 0 0 0
349 0 0 0
351 0 0 0
352 0 0 0
357 0 0 0
360 0 0 0
353 0 0 0
354 0 0 0
358 0 0 0
331 0 0 0
359 0 0 0
