LAMMPS data file via write_data, version 11 Feb 2026, timestep = 140, units = metal

361 atoms
8 atom types

0 12.447907776 xlo xhi
0 12.9362452296 ylo yhi
0 52.3600831054 zlo zhi

Masses

1 26.9815
2 10.811
3 12.011
4 51.9961
5 55.845
6 95.95999999999999
7 58.6934
8 1.008

Atoms # atomic/kk

1 7 1.1447475034 1.4042530815 14.1767669076 0 0 0
2 7 3.6084602259 1.0698845996 14.6704381247 0 0 0
3 5 6.0765506298 0.9467816033 14.9127945674 0 0 0
9 7 7.3904254576 3.1552415677 14.921343358 0 0 0
5 7 11.0497419237 1.2529911546 14.6024861837 0 0 0
6 7 12.371824795299998 3.4559595715 14.8227813157 -1 0 0
10 7 9.9130540797 3.3904065996 14.7812471609 0 0 0
16 4 0.4694173902 7.8125304368 14.7997570607 0 0 0
20 7 10.4454755951 7.6697182118 14.1848688757 0 0 0
26 7 0.1281197666 12.2044764222 14.9105894271 0 0 0
27 7 2.482376412 11.8082341077 14.4640395444 0 0 0
23 7 6.9215809143 9.0056325864 14.7794199109 0 0 0
28 7 4.9597127568 11.7869866321 14.6074736033 0 0 0
29 6 7.487468691 11.492489151 14.9214469503 0 0 0
24 7 9.211267288 9.7383043985 14.542324574 0 0 0
25 7 11.7628351674 9.8745411843 14.7910184475 0 0 0
30 7 10.0617556164 11.945152431 14.7619795889 0 0 0
7 7 2.4276438825 3.274586701 14.9921379853 0 0 0
31 6 0.1320668178 1.5666912763 16.54569988 0 0 0
32 7 2.6047881521 1.6851371804 16.9156842324 0 0 0
36 7 1.2195215325 3.8560608354 17.0299024962 0 0 0
37 7 3.7103479774 3.8371572501 17.0572271382 0 0 0
56 2 1.9139638832 0.320698286899999 15.6094045829 0 1 0
8 7 4.9287232821 3.1271355871 15.0109940309 0 0 0
33 7 4.9854693445 1.6648399647 16.9552168616 0 0 0
34 7 7.410113639 1.7690174525 16.9802513671 0 0 0
38 5 6.1786870847 3.8598965293 16.9892925392 0 0 0
4 6 8.6405916037 0.9966073374 15.0011028893 0 0 0
35 7 9.9854439602 1.6623584179 16.9441720819 0 0 0
39 7 8.7306918901 3.8627101762 16.8623801969 0 0 0
40 7 11.1905275305 3.8067890199 17.0006893521 0 0 0
11 7 1.2348702966 5.4950064056 15.0806985502 0 0 0
12 7 3.723333195 5.3162088046 15.091556138 0 0 0
17 7 2.6528824888 7.4951525199 15.1538371669 0 0 0
42 7 2.4538170063 6.1274901805 17.1415379148 0 0 0
47 7 3.8866203033 8.1976953877 17.0635533141 0 0 0
13 7 6.1787690715 5.3054540189 15.034535629 0 0 0
18 7 5.0798141029 7.4787706901 15.0688046453 0 0 0
19 2 7.0597951203 7.0189274967 15.3897174295 0 0 0
43 7 4.9526824561 5.9628190941 17.0949149841 0 0 0
44 7 7.4770692341 5.9405064365 17.0881545432 0 0 0
48 7 6.3467693742 8.0549577382 17.0498728177 0 0 0
14 7 8.7041968087 5.6586120419 14.9658205562 0 0 0
15 6 11.1806031706 5.6044565055 15.1850152514 0 0 0
41 7 12.442168210099998 5.9982391836 17.2267436521 -1 0 0
45 7 9.923455112 6.0385351278 17.2532666192 0 0 0
49 7 8.7166078523 7.9219477302 16.0697967416 0 0 0
50 7 11.1854260308 7.9909608595 16.4539207548 0 0 0
85 6 9.7874825474 8.473382021 18.5408467256 0 0 0
21 2 1.1654244367 10.4783622607 15.2130316912 0 0 0
22 7 2.969847795 9.8650340587 15.6453950804 0 0 0
46 7 0.7946061559 9.3672820405 16.8749701293 0 0 0
52 7 1.3503573598 11.8646523864 16.9891542204 0 0 0
57 7 3.753873893 12.4366743176 16.6098759546 0 0 0
87 1 3.6650451701 10.7156807278 18.2659007397 0 0 0
53 7 5.3358928559 10.1219872041 16.3275402765 0 0 0
54 7 7.7336051436 10.0538114804 16.9470367537 0 0 0
58 6 6.3195663174 12.3667352783 16.9550847684 0 0 0
51 3 11.519673145099999 9.370279149 17.6624171524 -1 0 0
55 7 10.1852587848 10.2759719364 16.6816821896 0 0 0
59 7 8.8367077706 12.3810361477 16.9622360876 0 0 0
60 7 11.2428990064 12.4670428062 16.882988677 0 0 0
66 6 1.393007034 2.1659191631 19.0534804658 0 0 0
67 5 3.8310712323 2.169749835 19.077551421 0 0 0
91 4 1.3610097719 0.7490016766 21.3001474804 0 0 0
92 7 3.7532698079 0.7243006354 21.0553737996 0 0 0
96 7 0.082079932 2.7970216106 21.1874527472 0 0 0
97 7 2.5927240934 2.8497939446 21.1992924965 0 0 0
63 5 4.9567742477 0.0529982254 18.9618634931 0 0 0
64 7 7.4416746235 0.0821708056 19.1014191477 0 0 0
68 7 6.1949360288 2.1588642027 19.0801897325 0 0 0
74 6 7.5018096017 4.2853629911 19.0547359126 0 0 0
93 7 6.2598414465 0.7194660822 21.17367312 0 0 0
98 7 5.0257186556 2.8737258399 21.1536837203 0 0 0
99 5 7.4793105556 2.8150634673 21.1692986238 0 0 0
65 7 10.0018085899 0.0802466939 19.0961651875 0 0 0
69 7 8.7385472152 2.1539822136 18.9954608723 0 0 0
70 7 11.2870638013 2.2382207273 18.9541707741 0 0 0
75 5 9.908720947 4.3054275401 19.0335874063 0 0 0
94 7 8.7140507513 0.7135233683 21.2362014867 0 0 0
95 7 11.3045523296 0.6704651065 21.199536471 0 0 0
100 6 10.0309211856 2.7845552589 21.0550342549 0 0 0
72 7 2.4838430183 4.388962084 19.1070457725 0 0 0
76 7 1.200144222 6.4346976141 19.2600213636 0 0 0
77 7 3.7839563224 6.5073099035 19.1651823211 0 0 0
82 6 2.3588605673 8.4890673053 18.9154467805 0 0 0
101 7 1.204403147 4.986371594 21.2593935642 0 0 0
102 6 3.7298053141 5.0424743752 21.2297752978 0 0 0
107 7 2.4685484599 7.1728356576 21.2326094282 0 0 0
73 7 4.9759755061 4.316411451 19.087212733 0 0 0
78 7 6.1965388899 6.5190956683 19.1399785413 0 0 0
103 7 6.2751972116 5.0470676015 21.1760724515 0 0 0
108 7 5.0116983743 7.22861409 21.2268755354 0 0 0
109 7 7.4193353481 7.2485706051 21.2651304498 0 0 0
71 1 12.383629132 4.3782094725 19.1862342201 -1 0 0
79 7 8.6255974932 6.472044202 19.3232968982 0 0 0
80 7 11.1135754549 6.420590323 19.3581641471 0 0 0
81 4 12.342695017999999 8.4729562787 19.2006565517 -1 0 0
104 7 8.7408050898 5.0231569879 21.2437432022 0 0 0
105 3 10.084221352436888 4.371953936523779 22.288692178431578 0 0 0
106 7 12.435294388199999 7.0968971559 21.3158557077 -1 0 0
110 7 9.8903603607 7.1660305315 21.3021949042 0 0 0
61 6 0.0477387397 12.935022616100001 18.9949290075 0 -1 0
62 7 2.587482576 12.8543346047 19.0383469717 0 -1 0
86 7 1.2816847716 10.6903307998 19.1614661098 0 0 0
111 7 1.1796694452 9.2896516501 21.1960342799 0 0 0
112 6 3.7016357908 9.3557762036 21.1431867319 0 0 0
116 1 0.0369839214 11.486698451 21.2977096144 0 0 0
117 7 2.4704264091 11.5284142583 21.1452899236 0 0 0
83 7 4.9462384898 8.7330200409 19.0834474924 0 0 0
84 7 7.3974678157 8.6397297376 19.085743402 0 0 0
88 7 6.1625171869 10.8013148416 18.9301045672 0 0 0
113 7 6.2139769728 9.4092095126 21.0353192467 0 0 0
118 7 4.9639845145 11.5407295129 21.0425881559 0 0 0
119 4 7.3995383715 11.5362046003 21.0747824702 0 0 0
89 6 8.731338748 10.8500854071 19.0384744744 0 0 0
90 4 11.272219843 10.8209844576 18.9386324767 0 0 0
114 7 8.6997099562 9.3160354633 20.9928929717 0 0 0
115 6 11.109001975 9.2519683408 21.1755872983 0 0 0
120 7 9.9858618188 11.5164614705 21.1821863062 0 0 0
121 7 0.0773805042963619 1.3735650498123844 23.313780544797677 0 0 0
122 7 2.5688136650405244 1.3853939163451974 23.333331974073772 0 0 0
126 6 1.3483417081817644 3.568154217869304 23.269336594524248 0 0 0
127 7 3.843933411561322 3.571863095711172 23.365194961635282 0 0 0
156 1 1.4728502501575356 2.1118959011056053 25.51878249321835 0 0 0
157 7 3.9592428901060415 2.1184205998042267 25.44781684250702 0 0 0
162 7 2.5918993744321863 4.244018610411906 25.431173377646935 0 0 0
123 7 4.985795929789767 1.4105349641785276 23.166082835664422 0 0 0
124 7 7.387243278816297 1.4816173465797384 23.4903113660841 0 0 0
128 7 6.296818148322569 3.6454619369344154 23.18723031234777 0 0 0
153 7 5.190465784394624 0.0532890687289449 25.296996435723017 0 0 0
158 2 5.769032741415218 2.4386074694608886 24.63268142997019 0 0 0
163 7 5.111262009063269 4.225227943133545 25.42479468870647 0 0 0
164 5 7.470321196425121 4.042336706307465 25.36399710972024 0 0 0
125 7 10.036368482066123 1.4078844833272965 23.35869871857252 0 0 0
129 7 8.744513394440212 3.5265207371525946 23.351430928688465 0 0 0
130 4 11.359976543937838 3.596632008382289 23.40637450790635 0 0 0
155 4 10.112501899808787 0.04193495825129332 25.562363128123287 0 0 0
159 7 8.862444455945363 2.0787756563725246 25.451799690571214 0 0 0
160 7 11.393780254641003 2.1343136448258244 25.425179879376067 0 0 0
165 7 10.058334333659715 4.196794883585111 25.416446162534136 0 0 0
131 7 0.06361043079839271 5.7506164364894135 23.40733344726079 0 0 0
132 7 2.5352943492739737 5.778789744964423 23.363715942799207 0 0 0
136 7 1.2955638353879233 7.892329086768056 23.30840735396899 0 0 0
137 7 3.769237737351188 7.9599845701547505 23.281811552080942 0 0 0
161 4 0.10164043065927524 4.319292758705927 25.472619221577418 0 0 0
166 7 1.3301134935000882 6.3934518013863055 25.433559636769637 0 0 0
167 7 3.8003997822636073 6.417314729778049 25.44614001872105 0 0 0
171 6 0.10180949451417466 8.592245282574535 25.433937219664905 0 0 0
172 7 2.614824155288604 8.58742761774954 25.379411203768313 0 0 0
133 6 5.057733894001647 5.838011868981762 23.391027336454407 0 0 0
134 7 7.552021571974241 5.757078501697812 23.3188267694535 0 0 0
138 7 6.302674642619483 7.9753594610523395 23.344912926653613 0 0 0
168 7 6.357756741172621 6.374152278937379 25.43697527937839 0 0 0
173 7 5.096717239406225 8.532677100378441 25.33604515006948 0 0 0
135 7 10.056722466231 5.803570011286275 23.392153742688016 0 0 0
139 4 8.686357931062476 7.92053879288536 23.248537042026395 0 0 0
140 4 11.274330959972337 7.868138054667495 23.322018424489634 0 0 0
169 7 8.768168183497805 6.308857812617977 25.388198999214186 0 0 0
170 7 11.281697385066577 6.385887553748265 25.452763688423193 0 0 0
175 6 9.877365683948264 8.544861679022246 25.52834425576042 0 0 0
141 7 0.012065774091791957 10.045616584774743 23.347817711987833 0 0 0
142 7 2.488076254123237 10.084132019626368 23.258641572824807 0 0 0
146 7 1.2943328031367387 12.213113552772139 23.354629900628204 0 0 0
147 7 3.798474021886012 12.222390101651094 23.18408120611389 0 0 0
151 4 0.08447132952668263 12.852844266987843 25.419724972635514 0 -1 0
152 7 2.6469414189622236 12.922398238551859 25.37781606365953 0 -1 0
176 7 1.334236759770447 10.77710704434901 25.435973567788068 0 0 0
177 6 3.8714896071197105 10.794975141688354 25.277693411459797 0 0 0
143 7 5.046767609080487 10.08339770986384 23.185274755985695 0 0 0
144 7 7.497211366599958 10.067300400183566 22.924040424538564 0 0 0
148 4 6.2045026812265425 12.248567890717416 23.189540159906578 0 0 0
154 7 7.593048727141724 12.920758684237176 25.479420617575457 0 -1 0
178 6 6.609001623397994 10.52104299644432 25.224642106833777 0 0 0
145 7 9.987572621301696 10.052171026646795 23.320115811333054 0 0 0
149 6 8.699801121911568 12.250456394789323 23.334405848603556 0 0 0
150 7 11.238878719904568 12.195796381887689 23.410109464715532 0 0 0
174 3 8.405440818837002 9.487105490266778 24.42817016551445 0 0 0
179 5 8.990156858913773 10.900188661662796 25.587939872851507 0 0 0
180 5 11.327889879226847 10.844660176319561 25.511410099452444 0 0 0
181 7 1.3836938844509348 0.6438183591104601 27.501513673475934 0 0 0
182 7 3.870631452417808 0.6812168182228886 27.441089307510914 0 0 0
186 7 0.16495887704500112 2.835780566571422 27.4994438025952 0 0 0
187 7 2.6543067257371256 2.8308944119292683 27.57237663009518 0 0 0
211 7 0.2043664166935206 1.4233559447415776 29.597698574037295 0 0 0
212 7 2.707447450725095 1.3380378188759698 29.587036189048142 0 0 0
216 7 1.4052179089457018 3.532679228364279 29.59492007811874 0 0 0
217 4 3.818949742757176 3.550908782137255 29.605166088923877 0 0 0
183 7 6.304017905146609 0.6934721971957275 27.578193622088722 0 0 0
188 7 5.0775220393025755 2.852001212627031 27.582766764867802 0 0 0
189 7 7.589308974993103 2.7713640644002617 27.47030334967364 0 0 0
213 5 5.130213337853769 1.4048346435757129 29.608544750335092 0 0 0
214 7 7.6078060892476405 1.3332377201550563 29.601384083340935 0 0 0
218 7 6.358558613322333 3.51483734763004 29.55210535983303 0 0 0
184 7 8.879933950802641 0.6971085342910606 27.575095378706973 0 0 0
185 4 11.377838993776352 0.7003121961826642 27.547799703053784 0 0 0
190 7 10.13887324952859 2.809752652024883 27.498169158365958 0 0 0
215 7 10.119305030902352 1.381956341540276 29.6412088171812 0 0 0
219 7 8.833389300395702 3.490161774881991 29.539653248349996 0 0 0
220 7 11.363265797572902 3.5373605867310336 29.530690126493806 0 0 0
191 7 1.3848803094689117 4.984408450312438 27.477958021701543 0 0 0
192 7 3.8275322920601673 4.968149030738804 27.487702615443933 0 0 0
196 7 0.13026152627187745 7.135490142173921 27.50512454323158 0 0 0
197 7 2.572713929970882 7.171562408453322 27.480209160667986 0 0 0
221 7 0.11435547801335919 5.705047726130844 29.578456436711733 0 0 0
222 7 2.584839387558975 5.706658806922807 29.55578085357279 0 0 0
226 7 1.3583660587197501 7.882342370853505 29.55791889224595 0 0 0
227 7 3.854782264290664 7.892587196831343 29.47249321811621 0 0 0
193 7 6.363851431762046 4.953496036992856 27.419973392758017 0 0 0
198 7 5.096139309688077 7.151859103056537 27.416640519343275 0 0 0
199 7 7.6153168962848 7.166249692882484 27.455068266789475 0 0 0
223 6 5.146937319028132 5.69887833663989 29.49551378412273 0 0 0
224 7 7.638295012289622 5.715572190831791 29.58985753235437 0 0 0
228 7 6.387911403366238 7.890839987044084 29.49723168602095 0 0 0
194 6 8.841818139847147 4.974621871699842 27.50110321244638 0 0 0
195 7 11.354594457458843 4.9719286935540925 27.515885264560858 0 0 0
200 7 10.117972547302633 7.135181806233353 27.54792174511945 0 0 0
225 7 10.095513675345726 5.718348283023207 29.61445874326423 0 0 0
229 7 8.840782616602814 7.860003925483333 29.53375644234824 0 0 0
230 7 11.363388570333228 7.909165225676318 29.53291298734172 0 0 0
201 5 1.3730594900489255 9.304320149683308 27.521119549767032 0 0 0
202 7 3.866014158600924 9.300194139073772 27.38024624410955 0 0 0
206 4 0.18132496686334762 11.45588314009365 27.532370913977978 0 0 0
207 7 2.6050765123888624 11.436682200135932 27.44379891629514 0 0 0
231 7 0.15949106312555386 10.058197023600178 29.577511099524514 0 0 0
232 7 2.6282129269229584 10.006934582378854 29.432937157029286 0 0 0
236 7 1.4662697884656737 12.162657890509701 29.561929074730223 0 0 0
203 7 6.368905406751436 9.264036786962983 27.393105247195734 0 0 0
208 7 5.132165336461094 11.479495093351831 27.32499910924923 0 0 0
209 6 7.576344236189113 11.503078970386516 27.64596457115356 0 0 0
233 7 5.143434703854272 10.034715151248886 29.328049502282784 0 0 0
234 7 7.595097197293358 10.065921181774787 29.669280263191084 0 0 0
238 7 6.207058392839845 12.215687054794445 29.68684288278267 0 0 0
204 7 8.833229335620038 9.346415793621361 27.63114810883149 0 0 0
205 7 11.339508344981242 9.394445447751686 27.554739608079124 0 0 0
210 7 10.145293214122256 11.532043215572653 27.593018273876275 0 0 0
235 7 10.080011762052001 10.157737652665944 29.610296584293685 0 0 0
239 4 8.873173068114676 12.23335648773658 29.740151053748928 0 0 0
240 7 11.390272731316925 12.245837490120426 29.571632343341438 0 0 0
237 3 4.030630474697112 0.2742037125767111 30.562450675557976 0 1 0
241 7 0.19530404000231685 0.08364637615206251 31.64385124134004 0 0 0
242 7 2.5641795000233825 0.12570283758828021 31.746301549347915 0 0 0
246 4 1.3386520566481293 2.226929483033476 31.671073589281278 0 0 0
247 7 3.875296441673129 2.1369232525122643 31.648813034776655 0 0 0
251 7 0.141224762447493 4.310160440752925 31.65602852314285 0 0 0
252 7 2.6271392848690747 4.30541360935581 31.67205442731071 0 0 0
248 7 6.402347845583283 2.1342963315059094 31.656217269468094 0 0 0
253 7 5.107087065563693 4.295681640324231 31.6295670080064 0 0 0
254 7 7.616139945212669 4.296796852041535 31.602828069143797 0 0 0
249 7 8.846308527248873 2.087559404212738 31.692702059699226 0 0 0
250 7 11.377677817450655 2.1231986056148213 31.66931382919852 0 0 0
255 1 10.099163809665638 4.204730399417127 31.51537370412372 0 0 0
256 7 1.3231293308140022 6.48823714265554 31.6400201017061 0 0 0
257 6 3.7851825923506124 6.488491666324848 31.664639121155634 0 0 0
286 7 0.08854696711546475 7.267147511887425 33.629265124712916 0 0 0
258 7 6.344727583855359 6.4794200320858 31.627925631089973 0 0 0
264 7 7.582933339422074 8.561822869031742 31.626960833218607 0 0 0
259 4 8.814043406441483 6.44575331709132 31.637615672664285 0 0 0
260 7 11.308986361722765 6.475356497261448 31.601187933644507 0 0 0
284 5 8.877871631403089 5.105248685263926 33.5982285320387 0 0 0
285 4 11.34485325894671 5.142430630068888 33.64253526308769 0 0 0
290 7 10.077039311284166 7.241587718850463 33.60483295660363 0 0 0
261 7 0.17177032629771155 8.6959309616184 31.659857264227767 0 0 0
262 7 2.6584011420739055 8.707278428937936 31.534975618035986 0 0 0
266 7 1.5583154852494225 10.819950252325222 31.578806642556355 0 0 0
267 4 3.9140653610892397 11.260935181938292 30.860386146252413 0 0 0
292 7 3.9534570485063254 9.362992321917984 33.50563534886955 0 0 0
243 7 5.163936655298531 12.889328313591008 32.107834918572486 0 -1 0
244 7 7.621542394001327 12.922674133354372 31.721959318074394 0 -1 0
263 1 5.087708594113663 8.74755278583708 31.42396395463029 0 0 0
268 7 6.254437248233043 10.747841066044955 31.585290053762566 0 0 0
293 4 6.44334222948202 9.303470054869443 33.653030550505854 0 0 0
245 7 10.105165143506031 12.870062387521571 31.880535015992134 0 -1 0
265 6 10.096612888582387 8.666741118240557 31.55215604095874 0 0 0
269 7 8.767220188219238 10.785196800454123 31.75459108554115 0 0 0
270 7 11.422455396366113 10.891804903311135 31.62606567123068 0 0 0
296 3 11.066274113091701 11.819420487624699 33.34439650973247 -1 0 0
271 7 1.4703877901914608 0.8904652735158157 33.7807552760696 0 0 0
272 7 3.916151749097519 0.9448258230539246 33.92665770490957 0 0 0
276 7 0.17432391469046327 2.982758819324383 33.741458941123305 0 0 0
277 7 2.6407470102625834 3.0684765285524476 33.80143130775806 0 0 0
301 7 0.18776215807737487 1.544418803419549 35.761599340124455 0 0 0
302 7 2.6128162302970748 1.6582800962314672 35.86084421571942 0 0 0
306 4 1.413412036959253 3.821477666418398 35.96312190890832 0 0 0
307 7 3.9941041877551506 3.7199650492059546 35.84009473402837 0 0 0
273 7 6.462223441008571 0.9597887484299661 33.91251918237459 0 0 0
278 1 5.215016037657581 2.983237751370439 33.728928559559705 0 0 0
279 7 7.7243700729113165 3.0268716978525374 33.73963886091654 0 0 0
303 7 5.239677585975833 1.6515018820031013 35.93634162795052 0 0 0
304 4 7.772365304510692 1.6108877663848709 35.94951412662561 0 0 0
308 7 6.529523193518003 3.689323801063775 35.812549530740746 0 0 0
274 7 8.837269530740542 0.8875771243381041 33.84913522996995 0 0 0
275 4 11.434903188072802 0.7876227165982733 33.72726695068839 0 0 0
280 7 10.203682255184896 2.9861087628953333 33.72330725620235 0 0 0
305 7 10.22004479086769 1.5552066403326867 35.73990103426018 0 0 0
309 7 9.018136694252552 3.6582359631113337 35.79315109469228 0 0 0
310 4 11.593269897868662 3.9387185026885425 35.881601629675885 0 0 0
281 7 1.3190418124698364 5.168474938865713 33.86144410173461 0 0 0
282 4 3.8442929451847347 5.122759038491119 33.76944964929181 0 0 0
287 7 2.626807654882551 7.275507398958877 33.74614903438886 0 0 0
312 7 2.724412750948898 5.775783941084146 35.781597038477074 0 0 0
316 7 1.2096675716933911 7.590298768521717 35.79108904106688 0 0 0
317 7 3.9237903518816397 8.050911477465714 35.73552318747418 0 0 0
283 7 6.37357333237335 5.085704136157899 33.67615368351827 0 0 0
288 7 5.175632634508734 7.257507014633259 33.66998591507323 0 0 0
289 7 7.623305098980067 7.170540076439375 33.722802450735 0 0 0
313 7 5.261150780231612 5.902324503988066 35.718182819250174 0 0 0
314 7 7.716812748391442 5.807262092631607 35.762900343600506 0 0 0
318 4 6.542657946876434 8.10675069530289 35.81131707363065 0 0 0
311 2 12.376157705997075 5.983396019015158 35.33144546862516 -1 0 0
315 7 10.130232551766655 5.784035032913087 35.591471454811554 0 0 0
319 7 8.949289044126367 7.958635278495802 35.82433452006129 0 0 0
320 7 11.344224504800678 7.912598821755452 35.59897832657783 0 0 0
350 7 11.669786775125253 6.2463600593493815 37.305000622007924 0 0 0
355 3 10.426465877890358 7.894550732296538 37.27372417009596 0 0 0
291 7 1.4619781625410861 9.413571580147241 33.734402833764555 0 0 0
297 6 3.0165911048325267 11.563863936178658 33.679549483938516 0 0 0
321 6 0.20458887392290664 10.05033099717164 35.913470168868116 0 0 0
322 7 2.6935807890513908 10.186780868229453 35.765975422823026 0 0 0
326 7 0.4999677759010824 11.640071898052279 33.683973859508704 0 0 0
327 6 3.911871987221595 12.496215808513433 36.1127673499141 0 0 0
356 4 1.390218146618479 12.34941329013846 35.85319533507134 0 0 0
298 2 5.19449909150121 12.279960356519904 34.21782319932314 0 0 0
299 7 6.978410381719798 11.563729150738848 33.68650164940664 0 0 0
323 6 5.225384566057774 10.22792818974406 35.57942077030708 0 0 0
324 7 7.9009611963924415 10.340532409374841 35.71102759589713 0 0 0
328 7 6.462548022885756 12.506635815827622 35.926880022722976 0 0 0
294 7 8.760824138687873 9.270120839300203 33.69779113656197 0 0 0
295 6 11.261424300952928 9.683063616230024 33.770371333285226 0 0 0
300 7 9.365830588817031 11.52943800118741 34.16201991362654 0 0 0
325 7 10.248506100945859 9.837915548157842 37.0276931679075 0 0 0
329 3 9.516751214105769 11.390962085923368 36.194913485106085 0 0 0
330 4 11.248538713922809 12.052733245554506 35.572443259327216 0 0 0
335 5 9.889052193949533 12.899655024405506 37.385484927295195 0 -1 0
332 7 2.476239799958061 0.08817800189171922 38.04220292689789 0 0 0
336 7 1.329431537833692 2.170267848208329 37.836404636348796 0 0 0
337 7 3.8672146097535887 2.180538697136371 37.867105227821725 0 0 0
341 7 0.2038315615994979 4.230906278844519 38.08152863706877 0 0 0
342 7 2.708525548042444 4.278682842516857 37.92967519458079 0 0 0
333 7 5.202475994689461 0.14343482869057603 38.13002298101077 0 0 0
334 7 7.638673906742004 0.06457888734571658 38.02433336155944 0 0 0
338 7 6.48429942859216 2.234243622467886 37.905777140106245 0 0 0
339 7 8.972973628425962 2.185266211963839 37.9404814510521 0 0 0
340 7 11.360939411405884 2.1788475946794894 37.73107880335096 0 0 0
346 7 1.510740320497753 6.393466456639488 37.99379016301367 0 0 0
347 6 3.9580507532808245 6.460347327431832 37.763489486901314 0 0 0
343 7 5.301569948387705 4.419605262464945 37.8414209945749 0 0 0
344 7 7.804887193776338 4.431859322503193 37.878216773754396 0 0 0
348 6 6.652493141984994 6.664644216589976 37.83090948773283 0 0 0
345 4 10.190909462790806 4.313515404405014 37.847156625473936 0 0 0
349 7 9.238559817687642 6.612519128821838 37.8574476736544 0 0 0
351 7 12.234813773833515 8.54508896219137 37.84184340770128 -1 0 0
361 8 8.876541592087422 3.640523274889278 38.94362705590426 0 0 0
352 6 2.4835440111045783 8.649487495492735 37.69066575645156 0 0 0
357 7 3.835915987841854 10.79566764155014 37.95628737457137 0 0 0
360 7 1.3809834082975099 10.891341730172817 37.89525758127668 1 0 0
353 7 5.1161611981064 8.68809185052576 37.83213222621575 0 0 0
354 7 7.953675961351167 8.943388278763347 37.81748366176593 0 0 0
358 6 6.413169446605466 10.840072481159295 37.79339775529623 0 0 0
331 7 12.3796100169148 12.873590833121959 37.625215303378425 -1 -1 0
359 2 8.589884662279024 11.157524776025715 37.41949348066441 0 0 0

Velocities

1 0 0 0
2 0 0 0
3 0 0 0
9 0 0 0
5 0 0 0
6 0 0 0
10 0 0 0
16 0 0 0
20 0 0 0
26 0 0 0
27 0 0 0
23 0 0 0
28 0 0 0
29 0 0 0
24 0 0 0
25 0 0 0
30 0 0 0
7 0 0 0
31 0 0 0
32 0 0 0
36 0 0 0
37 0 0 0
56 0 0 0
8 0 0 0
33 0 0 0
34 0 0 0
38 0 0 0
4 0 0 0
35 0 0 0
39 0 0 0
40 0 0 0
11 0 0 0
12 0 0 0
17 0 0 0
42 0 0 0
47 0 0 0
13 0 0 0
18 0 0 0
19 0 0 0
43 0 0 0
44 0 0 0
48 0 0 0
14 0 0 0
15 0 0 0
41 0 0 0
45 0 0 0
49 0 0 0
50 0 0 0
85 0 0 0
21 0 0 0
22 0 0 0
46 0 0 0
52 0 0 0
57 0 0 0
87 0 0 0
53 0 0 0
54 0 0 0
58 0 0 0
51 0 0 0
55 0 0 0
59 0 0 0
60 0 0 0
66 0 0 0
67 0 0 0
91 0 0 0
92 0 0 0
96 0 0 0
97 0 0 0
63 0 0 0
64 0 0 0
68 0 0 0
74 0 0 0
93 0 0 0
98 0 0 0
99 0 0 0
65 0 0 0
69 0 0 0
70 0 0 0
75 0 0 0
94 0 0 0
95 0 0 0
100 0 0 0
72 0 0 0
76 0 0 0
77 0 0 0
82 0 0 0
101 0 0 0
102 0 0 0
107 0 0 0
73 0 0 0
78 0 0 0
103 0 0 0
108 0 0 0
109 0 0 0
71 0 0 0
79 0 0 0
80 0 0 0
81 0 0 0
104 0 0 0
105 0 0 0
106 0 0 0
110 0 0 0
61 0 0 0
62 0 0 0
86 0 0 0
111 0 0 0
112 0 0 0
116 0 0 0
117 0 0 0
83 0 0 0
84 0 0 0
88 0 0 0
113 0 0 0
118 0 0 0
119 0 0 0
89 0 0 0
90 0 0 0
114 0 0 0
115 0 0 0
120 0 0 0
121 0 0 0
122 0 0 0
126 0 0 0
127 0 0 0
156 0 0 0
157 0 0 0
162 0 0 0
123 0 0 0
124 0 0 0
128 0 0 0
153 0 0 0
158 0 0 0
163 0 0 0
164 0 0 0
125 0 0 0
129 0 0 0
130 0 0 0
155 0 0 0
159 0 0 0
160 0 0 0
165 0 0 0
131 0 0 0
132 0 0 0
136 0 0 0
137 0 0 0
161 0 0 0
166 0 0 0
167 0 0 0
171 0 0 0
172 0 0 0
133 0 0 0
134 0 0 0
138 0 0 0
168 0 0 0
173 0 0 0
135 0 0 0
139 0 0 0
140 0 0 0
169 0 0 0
170 0 0 0
175 0 0 0
141 0 0 0
142 0 0 0
146 0 0 0
147 0 0 0
151 0 0 0
152 0 0 0
176 0 0 0
177 0 0 0
143 0 0 0
144 0 0 0
148 0 0 0
154 0 0 0
178 0 0 0
145 0 0 0
149 0 0 0
150 0 0 0
174 0 0 0
179 0 0 0
180 0 0 0
181 0 0 0
182 0 0 0
186 0 0 0
187 0 0 0
211 0 0 0
212 0 0 0
216 0 0 0
217 0 0 0
183 0 0 0
188 0 0 0
189 0 0 0
213 0 0 0
214 0 0 0
218 0 0 0
184 0 0 0
185 0 0 0
190 0 0 0
215 0 0 0
219 0 0 0
220 0 0 0
191 0 0 0
192 0 0 0
196 0 0 0
197 0 0 0
221 0 0 0
222 0 0 0
226 0 0 0
227 0 0 0
193 0 0 0
198 0 0 0
199 0 0 0
223 0 0 0
224 0 0 0
228 0 0 0
194 0 0 0
195 0 0 0
200 0 0 0
225 0 0 0
229 0 0 0
230 0 0 0
201 0 0 0
202 0 0 0
206 0 0 0
207 0 0 0
231 0 0 0
232 0 0 0
236 0 0 0
203 0 0 0
208 0 0 0
209 0 0 0
233 0 0 0
234 0 0 0
238 0 0 0
204 0 0 0
205 0 0 0
210 0 0 0
235 0 0 0
239 0 0 0
240 0 0 0
237 0 0 0
241 0 0 0
242 0 0 0
246 0 0 0
247 0 0 0
251 0 0 0
252 0 0 0
248 0 0 0
253 0 0 0
254 0 0 0
249 0 0 0
250 0 0 0
255 0 0 0
256 0 0 0
257 0 0 0
286 0 0 0
258 0 0 0
264 0 0 0
259 0 0 0
260 0 0 0
284 0 0 0
285 0 0 0
290 0 0 0
261 0 0 0
262 0 0 0
266 0 0 0
267 0 0 0
292 0 0 0
243 0 0 0
244 0 0 0
263 0 0 0
268 0 0 0
293 0 0 0
245 0 0 0
265 0 0 0
269 0 0 0
270 0 0 0
296 0 0 0
271 0 0 0
272 0 0 0
276 0 0 0
277 0 0 0
301 0 0 0
302 0 0 0
306 0 0 0
307 0 0 0
273 0 0 0
278 0 0 0
279 0 0 0
303 0 0 0
304 0 0 0
308 0 0 0
274 0 0 0
275 0 0 0
280 0 0 0
305 0 0 0
309 0 0 0
310 0 0 0
281 0 0 0
282 0 0 0
287 0 0 0
312 0 0 0
316 0 0 0
317 0 0 0
283 0 0 0
288 0 0 0
289 0 0 0
313 0 0 0
314 0 0 0
318 0 0 0
311 0 0 0
315 0 0 0
319 0 0 0
320 0 0 0
350 0 0 0
355 0 0 0
291 0 0 0
297 0 0 0
321 0 0 0
322 0 0 0
326 0 0 0
327 0 0 0
356 0 0 0
298 0 0 0
299 0 0 0
323 0 0 0
324 0 0 0
328 0 0 0
294 0 0 0
295 0 0 0
300 0 0 0
325 0 0 0
329 0 0 0
330 0 0 0
335 0 0 0
332 0 0 0
336 0 0 0
337 0 0 0
341 0 0 0
342 0 0 0
333 0 0 0
334 0 0 0
338 0 0 0
339 0 0 0
340 0 0 0
346 0 0 0
347 0 0 0
343 0 0 0
344 0 0 0
348 0 0 0
345 0 0 0
349 0 0 0
351 0 0 0
361 0 0 0
352 0 0 0
357 0 0 0
360 0 0 0
353 0 0 0
354 0 0 0
358 0 0 0
331 0 0 0
359 0 0 0
