LAMMPS data file via write_data, version 11 Feb 2026, timestep = 149, units = metal

361 atoms
8 atom types

0 12.447907776 xlo xhi
0 12.9362452296 ylo yhi
0 52.3600831054 zlo zhi

Masses

1 26.9815
2 10.811
3 12.011
4 51.9961
5 55.845
6 95.95999999999999
7 58.6934
8 1.008

Atoms # atomic/kk

1 7 1.1447475034 1.4042530815 14.1767669076 0 0 0
2 7 3.6084602259 1.0698845996 14.6704381247 0 0 0
3 5 6.0765506298 0.9467816033 14.9127945674 0 0 0
9 7 7.3904254576 3.1552415677 14.921343358 0 0 0
5 7 11.0497419237 1.2529911546 14.6024861837 0 0 0
6 7 12.371824795299998 3.4559595715 14.8227813157 -1 0 0
10 7 9.9130540797 3.3904065996 14.7812471609 0 0 0
16 4 0.4694173902 7.8125304368 14.7997570607 0 0 0
20 7 10.4454755951 7.6697182118 14.1848688757 0 0 0
26 7 0.1281197666 12.2044764222 14.9105894271 0 0 0
27 7 2.482376412 11.8082341077 14.4640395444 0 0 0
23 7 6.9215809143 9.0056325864 14.7794199109 0 0 0
28 7 4.9597127568 11.7869866321 14.6074736033 0 0 0
29 6 7.487468691 11.492489151 14.9214469503 0 0 0
24 7 9.211267288 9.7383043985 14.542324574 0 0 0
25 7 11.7628351674 9.8745411843 14.7910184475 0 0 0
30 7 10.0617556164 11.945152431 14.7619795889 0 0 0
7 7 2.4276438825 3.274586701 14.9921379853 0 0 0
31 6 0.1320668178 1.5666912763 16.54569988 0 0 0
32 7 2.6047881521 1.6851371804 16.9156842324 0 0 0
36 7 1.2195215325 3.8560608354 17.0299024962 0 0 0
37 7 3.7103479774 3.8371572501 17.0572271382 0 0 0
56 2 1.9139638832 0.320698286899999 15.6094045829 0 1 0
8 7 4.9287232821 3.1271355871 15.0109940309 0 0 0
33 7 4.9854693445 1.6648399647 16.9552168616 0 0 0
34 7 7.410113639 1.7690174525 16.9802513671 0 0 0
38 5 6.1786870847 3.8598965293 16.9892925392 0 0 0
4 6 8.6405916037 0.9966073374 15.0011028893 0 0 0
35 7 9.9854439602 1.6623584179 16.9441720819 0 0 0
39 7 8.7306918901 3.8627101762 16.8623801969 0 0 0
40 7 11.1905275305 3.8067890199 17.0006893521 0 0 0
11 7 1.2348702966 5.4950064056 15.0806985502 0 0 0
12 7 3.723333195 5.3162088046 15.091556138 0 0 0
17 7 2.6528824888 7.4951525199 15.1538371669 0 0 0
42 7 2.4538170063 6.1274901805 17.1415379148 0 0 0
47 7 3.8866203033 8.1976953877 17.0635533141 0 0 0
13 7 6.1787690715 5.3054540189 15.034535629 0 0 0
18 7 5.0798141029 7.4787706901 15.0688046453 0 0 0
19 2 7.0597951203 7.0189274967 15.3897174295 0 0 0
43 7 4.9526824561 5.9628190941 17.0949149841 0 0 0
44 7 7.4770692341 5.9405064365 17.0881545432 0 0 0
48 7 6.3467693742 8.0549577382 17.0498728177 0 0 0
14 7 8.7041968087 5.6586120419 14.9658205562 0 0 0
15 6 11.1806031706 5.6044565055 15.1850152514 0 0 0
41 7 12.442168210099998 5.9982391836 17.2267436521 -1 0 0
45 7 9.923455112 6.0385351278 17.2532666192 0 0 0
49 7 8.7166078523 7.9219477302 16.0697967416 0 0 0
50 7 11.1854260308 7.9909608595 16.4539207548 0 0 0
85 6 9.7874825474 8.473382021 18.5408467256 0 0 0
21 2 1.1654244367 10.4783622607 15.2130316912 0 0 0
22 7 2.969847795 9.8650340587 15.6453950804 0 0 0
46 7 0.7946061559 9.3672820405 16.8749701293 0 0 0
52 7 1.3503573598 11.8646523864 16.9891542204 0 0 0
57 7 3.753873893 12.4366743176 16.6098759546 0 0 0
87 1 3.6650451701 10.7156807278 18.2659007397 0 0 0
53 7 5.3358928559 10.1219872041 16.3275402765 0 0 0
54 7 7.7336051436 10.0538114804 16.9470367537 0 0 0
58 6 6.3195663174 12.3667352783 16.9550847684 0 0 0
51 3 11.519673145099999 9.370279149 17.6624171524 -1 0 0
55 7 10.1852587848 10.2759719364 16.6816821896 0 0 0
59 7 8.8367077706 12.3810361477 16.9622360876 0 0 0
60 7 11.2428990064 12.4670428062 16.882988677 0 0 0
66 6 1.393007034 2.1659191631 19.0534804658 0 0 0
67 5 3.8310712323 2.169749835 19.077551421 0 0 0
91 4 1.3610097719 0.7490016766 21.3001474804 0 0 0
92 7 3.7532698079 0.7243006354 21.0553737996 0 0 0
96 7 0.082079932 2.7970216106 21.1874527472 0 0 0
97 7 2.5927240934 2.8497939446 21.1992924965 0 0 0
63 5 4.9567742477 0.0529982254 18.9618634931 0 0 0
64 7 7.4416746235 0.0821708056 19.1014191477 0 0 0
68 7 6.1949360288 2.1588642027 19.0801897325 0 0 0
74 6 7.5018096017 4.2853629911 19.0547359126 0 0 0
93 7 6.2598414465 0.7194660822 21.17367312 0 0 0
98 7 5.0257186556 2.8737258399 21.1536837203 0 0 0
99 5 7.4793105556 2.8150634673 21.1692986238 0 0 0
65 7 10.0018085899 0.0802466939 19.0961651875 0 0 0
69 7 8.7385472152 2.1539822136 18.9954608723 0 0 0
70 7 11.2870638013 2.2382207273 18.9541707741 0 0 0
75 5 9.908720947 4.3054275401 19.0335874063 0 0 0
94 7 8.7140507513 0.7135233683 21.2362014867 0 0 0
95 7 11.3045523296 0.6704651065 21.199536471 0 0 0
100 6 10.0309211856 2.7845552589 21.0550342549 0 0 0
72 7 2.4838430183 4.388962084 19.1070457725 0 0 0
76 7 1.200144222 6.4346976141 19.2600213636 0 0 0
77 7 3.7839563224 6.5073099035 19.1651823211 0 0 0
82 6 2.3588605673 8.4890673053 18.9154467805 0 0 0
101 7 1.204403147 4.986371594 21.2593935642 0 0 0
102 6 3.7298053141 5.0424743752 21.2297752978 0 0 0
107 7 2.4685484599 7.1728356576 21.2326094282 0 0 0
73 7 4.9759755061 4.316411451 19.087212733 0 0 0
78 7 6.1965388899 6.5190956683 19.1399785413 0 0 0
103 7 6.2751972116 5.0470676015 21.1760724515 0 0 0
108 7 5.0116983743 7.22861409 21.2268755354 0 0 0
109 7 7.4193353481 7.2485706051 21.2651304498 0 0 0
71 1 12.383629132 4.3782094725 19.1862342201 -1 0 0
79 7 8.6255974932 6.472044202 19.3232968982 0 0 0
80 7 11.1135754549 6.420590323 19.3581641471 0 0 0
81 4 12.342695017999999 8.4729562787 19.2006565517 -1 0 0
104 7 8.7408050898 5.0231569879 21.2437432022 0 0 0
105 3 10.084389308904774 4.372018747357169 22.288481620035412 0 0 0
106 7 12.435294388199999 7.0968971559 21.3158557077 -1 0 0
110 7 9.8903603607 7.1660305315 21.3021949042 0 0 0
61 6 0.0477387397 12.935022616100001 18.9949290075 0 -1 0
62 7 2.587482576 12.8543346047 19.0383469717 0 -1 0
86 7 1.2816847716 10.6903307998 19.1614661098 0 0 0
111 7 1.1796694452 9.2896516501 21.1960342799 0 0 0
112 6 3.7016357908 9.3557762036 21.1431867319 0 0 0
116 1 0.0369839214 11.486698451 21.2977096144 0 0 0
117 7 2.4704264091 11.5284142583 21.1452899236 0 0 0
83 7 4.9462384898 8.7330200409 19.0834474924 0 0 0
84 7 7.3974678157 8.6397297376 19.085743402 0 0 0
88 7 6.1625171869 10.8013148416 18.9301045672 0 0 0
113 7 6.2139769728 9.4092095126 21.0353192467 0 0 0
118 7 4.9639845145 11.5407295129 21.0425881559 0 0 0
119 4 7.3995383715 11.5362046003 21.0747824702 0 0 0
89 6 8.731338748 10.8500854071 19.0384744744 0 0 0
90 4 11.272219843 10.8209844576 18.9386324767 0 0 0
114 7 8.6997099562 9.3160354633 20.9928929717 0 0 0
115 6 11.109001975 9.2519683408 21.1755872983 0 0 0
120 7 9.9858618188 11.5164614705 21.1821863062 0 0 0
121 7 0.07756917746816129 1.373586270009192 23.313566832134534 0 0 0
122 7 2.568893355852142 1.3852566090647065 23.333413026612003 0 0 0
126 6 1.3486141934573879 3.5682010048270323 23.269531074133777 0 0 0
127 7 3.84405325554182 3.5717981651469985 23.365618888281908 0 0 0
156 1 1.4734054253574824 2.1118141597365394 25.519026994763934 0 0 0
157 7 3.959466241859167 2.1180622832902314 25.44807402044715 0 0 0
162 7 2.592118609440108 4.244046679994852 25.432131156314373 0 0 0
123 7 4.985745878040659 1.41034470764287 23.16618281906618 0 0 0
124 7 7.387164369424527 1.4816721579726084 23.4897893001719 0 0 0
128 7 6.296825223677271 3.6456424922735753 23.187091252123555 0 0 0
153 7 5.1899717308046105 0.0523974001515495 25.29701905431332 0 0 0
158 2 5.7685981466131 2.4392089987989864 24.6322926330606 0 0 0
163 7 5.111118111088871 4.225178806392528 25.425467904827407 0 0 0
164 5 7.470327612173456 4.043326712120565 25.36356290131823 0 0 0
125 7 10.036524609567536 1.4080359216442315 23.35844536444395 0 0 0
129 7 8.744479030407373 3.526638195678891 23.351040834146964 0 0 0
130 4 11.360347309437607 3.5967893624686815 23.405928666633706 0 0 0
155 4 10.11248416364531 0.04227934656152012 25.561938150307387 0 0 0
159 7 8.862335534135761 2.0790573239518557 25.45091370730356 0 0 0
160 7 11.3941898182969 2.134484001869693 25.424593520764986 0 0 0
165 7 10.058590080959737 4.1970050643991 25.415337269926614 0 0 0
131 7 0.06389168515848828 5.750744236923614 23.40757449646681 0 0 0
132 7 2.535457118182744 5.778777475263097 23.364191713215046 0 0 0
136 7 1.2956435885690132 7.89227084071246 23.308545547426053 0 0 0
137 7 3.7692701986529373 7.959898341598953 23.28204225841404 0 0 0
161 4 0.10213681332607691 4.319410913182527 25.472799471051115 0 0 0
166 7 1.330242001968232 6.393361855959853 25.434405139607346 0 0 0
167 7 3.8004930452838224 6.417063799065799 25.447195552374204 0 0 0
171 6 0.10153774774160869 8.592133708813007 25.43383233774782 0 0 0
172 7 2.6147798697095372 8.58689155034291 25.379859015746902 0 0 0
133 6 5.057668155480948 5.838024023839793 23.391438770549392 0 0 0
134 7 7.551941007054746 5.757298576545348 23.318565829544912 0 0 0
138 7 6.302676518421425 7.975335255387374 23.34503235109598 0 0 0
168 7 6.357718778346918 6.373954836548017 25.437365473837648 0 0 0
173 7 5.0968181164975075 8.532232497792434 25.33639915731246 0 0 0
135 7 10.056939050081008 5.803686994456835 23.391747571984414 0 0 0
139 4 8.686364000507407 7.920779625484425 23.24831179180387 0 0 0
140 4 11.274332669534944 7.868205897147958 23.321950477132322 0 0 0
169 7 8.76821963760813 6.309531733659059 25.387158064356807 0 0 0
170 7 11.281673736611035 6.385979159261879 25.45260791428644 0 0 0
175 6 9.877228050570606 8.545307984243836 25.528306544003208 0 0 0
141 7 0.012029151097495387 10.045590162981926 23.34776913986156 0 0 0
142 7 2.488060380653023 10.083958369123083 23.258673504658866 0 0 0
146 7 1.294369822783013 12.213001836792966 23.354506644011323 0 0 0
147 7 3.798437755216363 12.222104033465802 23.184212676509397 0 0 0
151 4 0.08461948304271916 12.852868716743524 25.41927164069642 0 -1 0
152 7 2.6468887297752426 12.921902501330768 25.37780697668861 0 -1 0
176 7 1.3341481567962674 10.77683176771482 25.43576325962769 0 0 0
177 6 3.8714278995733946 10.794227019666833 25.27791879175378 0 0 0
143 7 5.0467754418471875 10.083250991309525 23.1853679665288 0 0 0
144 7 7.497109048377144 10.067393649975978 22.924005855122143 0 0 0
148 4 6.204438314717312 12.248527823029438 23.18957714711329 0 0 0
154 7 7.5927319030859985 12.920914885844818 25.478985282321556 0 -1 0
178 6 6.608964791526476 10.520937411631287 25.22480689210481 0 0 0
145 7 9.987568612620787 10.052311256270348 23.320064125123263 0 0 0
149 6 8.699814599258714 12.250582790683884 23.334288211119574 0 0 0
150 7 11.23889940487939 12.195863777624073 23.40992352953184 0 0 0
174 3 8.405393593021229 9.487415777005856 24.42807483234261 0 0 0
179 5 8.990083115361234 10.900627571275955 25.587811122511933 0 0 0
180 5 11.327843666472795 10.844891041895105 25.511342215115466 0 0 0
181 7 1.3836775830893486 0.6433298886865387 27.50117443096715 0 0 0
182 7 3.869945656766225 0.6808324392703394 27.44127995780906 0 0 0
186 7 0.1654570371276556 2.835736454150249 27.499230793994062 0 0 0
187 7 2.654223213330718 2.831190521232623 27.573229933085777 0 0 0
211 7 0.20431195165222055 1.4227255040925542 29.59710289087425 0 0 0
212 7 2.7055748814309375 1.3404516349389193 29.587428252664708 0 0 0
216 7 1.4053712662805542 3.532984247818139 29.596821999594614 0 0 0
217 4 3.8186706321799972 3.5517553450450725 29.608348057909794 0 0 0
183 7 6.30283102588134 0.6934095101020366 27.577049633666093 0 0 0
188 7 5.076390480902594 2.8523086642945743 27.58353468374128 0 0 0
189 7 7.588081363570123 2.7713171953418283 27.468541769346285 0 0 0
213 5 5.129267946151632 1.406029779324583 29.6080168441553 0 0 0
214 7 7.6066158621672635 1.3331422488312161 29.599061126978192 0 0 0
218 7 6.357693540263371 3.515303555220541 29.551676317174998 0 0 0
184 7 8.879503733206352 0.6972901316562741 27.574130346117077 0 0 0
185 4 11.377843786839685 0.7003812858950099 27.54694680043885 0 0 0
190 7 10.13890194721121 2.8096745728897607 27.49656714402212 0 0 0
215 7 10.11926898659846 1.381771405775054 29.63968894809517 0 0 0
219 7 8.832664486474442 3.489784139640178 29.536070272368768 0 0 0
220 7 11.363641735752239 3.536502155574349 29.529059964554996 0 0 0
191 7 1.3851144637527484 4.984601253870224 27.479560330147486 0 0 0
192 7 3.827275693807217 4.96838973834979 27.489843333755577 0 0 0
196 7 0.12993971851306985 7.135462501538981 27.50549759030508 0 0 0
197 7 2.5727730338125903 7.1710322284585 27.4821122653851 0 0 0
221 7 0.1142623700487227 5.7049525356880695 29.57872781804818 0 0 0
222 7 2.5849129623227816 5.706086847935243 29.560258763966893 0 0 0
226 7 1.3578103615881794 7.881297407325723 29.558982846882458 0 0 0
227 7 3.8549152872138936 7.891126626348854 29.47491157581364 0 0 0
193 7 6.36324667509017 4.9537163199925995 27.420712835242284 0 0 0
198 7 5.096341716287163 7.151526031737687 27.417939656795145 0 0 0
199 7 7.615423097668046 7.16675564124878 27.454508917623386 0 0 0
223 6 5.146784443827953 5.698991879586021 29.498042014001086 0 0 0
224 7 7.638532119412229 5.716379079629846 29.587626384703672 0 0 0
228 7 6.38832098155701 7.8914793224363295 29.497704290422284 0 0 0
194 6 8.841488145490018 4.974688174518717 27.49898711410669 0 0 0
195 7 11.35464010852176 4.971783021626404 27.51526384322747 0 0 0
200 7 10.117716146495491 7.135358887667437 27.547385554484336 0 0 0
225 7 10.095609177611227 5.718237051766171 29.612361459090046 0 0 0
229 7 8.840710386716264 7.861013638551747 29.533129934322197 0 0 0
230 7 11.36252583414691 7.909129534780747 29.533365194997895 0 0 0
201 5 1.3726857055861585 9.303575679401156 27.520544083718516 0 0 0
202 7 3.8662540327272925 9.298939006005945 27.38078758085564 0 0 0
206 4 0.18149920782599147 11.455599605086855 27.531995719377857 0 0 0
207 7 2.6052731137490897 11.435430601050811 27.443817629473887 0 0 0
231 7 0.15945947387028606 10.057680257391938 29.576166972037612 0 0 0
232 7 2.6278851657231983 10.003719097257553 29.432180669060852 0 0 0
236 7 1.4687954430573567 12.162031746539395 29.56100048672341 0 0 0
203 7 6.368924521908292 9.264080590227817 27.393187907671134 0 0 0
208 7 5.131853890106754 11.478827334902652 27.32541264046277 0 0 0
209 6 7.576186329939488 11.503510138001836 27.646126033884517 0 0 0
233 7 5.143876565659231 10.033646846491882 29.328244907523594 0 0 0
234 7 7.595465749864347 10.06777868482772 29.671013092845943 0 0 0
238 7 6.205684151465708 12.215692842703533 29.686002966125283 0 0 0
204 7 8.832827938279788 9.347171852784124 27.631150776646418 0 0 0
205 7 11.33905225753844 9.394379945781008 27.55452681395652 0 0 0
210 7 10.145293262366055 11.532376881419053 27.592832202785093 0 0 0
235 7 10.079631822970658 10.158202506375694 29.610189653801218 0 0 0
239 4 8.873739518753842 12.233884274545806 29.740862740557137 0 0 0
240 7 11.391217116187308 12.245707448323397 29.571029519706617 0 0 0
237 3 4.027022500370393 0.27792221394149363 30.560993983178797 0 1 0
241 7 0.19614759007565333 0.08172912342812047 31.643320081049723 0 0 0
242 7 2.5623245785921385 0.12687392609018458 31.747126661934576 0 0 0
246 4 1.3368267587640685 2.2258680404874456 31.67063450618983 0 0 0
247 7 3.8738504489729517 2.1374026159424746 31.65195503576251 0 0 0
251 7 0.1402161374295808 4.309274634302538 31.655108767070526 0 0 0
252 7 2.626192492797983 4.304992096832095 31.679359499626337 0 0 0
248 7 6.3993919030530595 2.1344092815197255 31.65402269890517 0 0 0
253 7 5.1061608035404005 4.296190270471455 31.632754661106162 0 0 0
254 7 7.614906028136484 4.296795581313513 31.598392923434687 0 0 0
249 7 8.843767659322207 2.0861487079218053 31.688111366785073 0 0 0
250 7 11.37793322171825 2.121102827319352 31.668515281310672 0 0 0
255 1 10.098434101561024 4.202326005665231 31.51011414511302 0 0 0
256 7 1.3235271611690205 6.487533436003218 31.642482353777716 0 0 0
257 6 3.786123182625519 6.4876177702172635 31.67035952942674 0 0 0
286 7 0.08613721387469368 7.265882448971142 33.62823971725844 0 0 0
258 7 6.3465718952360515 6.47993232987417 31.62713340309378 0 0 0
264 7 7.5834881578040125 8.56424182159668 31.627055459954924 0 0 0
259 4 8.81549098384296 6.445707939526263 31.635194686634755 0 0 0
260 7 11.308102086818511 6.473749904634613 31.600952648768768 0 0 0
284 5 8.881952739634603 5.101728937747525 33.58810953733784 0 0 0
285 4 11.341019253752586 5.1348704442995885 33.64140795166837 0 0 0
290 7 10.079092206079862 7.243031405466473 33.60348757042503 0 0 0
261 7 0.17165979773787282 8.6944891580027 31.659193818211403 0 0 0
262 7 2.6592493440909006 8.705215633625926 31.537755408512286 0 0 0
266 7 1.5598147262929316 10.81798971787459 31.57498903300603 0 0 0
267 4 3.912021801076336 11.265026783523114 30.851893785635564 0 0 0
292 7 3.9550831527370516 9.352946133849178 33.512794058987346 0 0 0
243 7 5.1589844528235735 12.888665087713306 32.10597017651687 0 -1 0
244 7 7.619524873318231 12.922412087987624 31.718167917927282 0 -1 0
263 1 5.087166202432094 8.748495139856692 31.425218567534383 0 0 0
268 7 6.252436138118881 10.74968823126591 31.58666452054888 0 0 0
293 4 6.444851633702833 9.305652454732584 33.652982931447866 0 0 0
245 7 10.107003747431474 12.870351646177216 31.881001485698732 0 -1 0
265 6 10.095791261789072 8.667359924494548 31.552670804633046 0 0 0
269 7 8.768446376678272 10.787368141513772 31.75863972467269 0 0 0
270 7 11.423060259668324 10.89012190402051 31.624305819031257 0 0 0
296 3 11.07146403448587 11.81675552861427 33.34089277654008 -1 0 0
271 7 1.4752665748027474 0.8871120017375721 33.789062701548836 0 0 0
272 7 3.9162890970631894 0.9437003698537223 33.93417463217506 0 0 0
276 7 0.1738729411672947 2.9793520387307377 33.74022804218916 0 0 0
277 7 2.642523591988302 3.065328042854217 33.80764343395769 0 0 0
301 7 0.19307788143262974 1.5432911200366437 35.77500575999954 0 0 0
302 7 2.613015645570368 1.662551613015594 35.8835494133071 0 0 0
306 4 1.424523142508762 3.829858251006536 35.94364325254919 0 0 0
307 7 3.996829234101038 3.7206287124479758 35.85566974034361 0 0 0
273 7 6.4576386757634525 0.9577838136808896 33.90520620344552 0 0 0
278 1 5.212454484009581 2.9845004186816793 33.73363177223782 0 0 0
279 7 7.721713325266478 3.0274568019401493 33.73615960775748 0 0 0
303 7 5.2477725486160445 1.652292195597045 35.939771164656115 0 0 0
304 4 7.760250377908405 1.6197979711492196 35.92618547963769 0 0 0
308 7 6.524491863868974 3.694160204242539 35.80915315265795 0 0 0
274 7 8.832386406671844 0.8829260348630421 33.846004678113424 0 0 0
275 4 11.444539566042213 0.7815647488488016 33.72914785304282 0 0 0
280 7 10.197769549668646 2.977206052731495 33.711834582721245 0 0 0
305 7 10.2242135321 1.5498640279273115 35.729130551824056 0 0 0
309 7 9.011121828434664 3.6569793390904914 35.78202794504872 0 0 0
310 4 11.571163102310546 3.925045181125276 35.87984403094619 0 0 0
281 7 1.3229642335409357 5.170753341628212 33.86134811018639 0 0 0
282 4 3.8410104549683166 5.122646294797597 33.77965176161589 0 0 0
287 7 2.6285059808438342 7.271653592131164 33.754947168713976 0 0 0
312 7 2.729484540259759 5.776303708600329 35.80812452794007 0 0 0
316 7 1.2067782429630205 7.57717106824523 35.79279853290574 0 0 0
317 7 3.931171996700079 8.045682891211442 35.74111706904139 0 0 0
283 7 6.3753156044796615 5.086643629841683 33.676365152417766 0 0 0
288 7 5.1806465478893005 7.254023751055239 33.67073909190173 0 0 0
289 7 7.627987156477315 7.17201172137776 33.71912915038651 0 0 0
313 7 5.264785426303353 5.906829756865746 35.72331227894162 0 0 0
314 7 7.717134965127362 5.8073337113238 35.749395490002485 0 0 0
318 4 6.5542294231620835 8.112202058161742 35.810928930030954 0 0 0
311 2 12.35231321354947 5.982178007307335 35.32172034705474 -1 0 0
315 7 10.12737824532485 5.793371103463215 35.58439587296609 0 0 0
319 7 8.953432804411245 7.962331835560316 35.827281735793555 0 0 0
320 7 11.344516137970862 7.910265178372292 35.604106498719844 0 0 0
350 7 11.677871486470835 6.249066560174629 37.31285840675856 0 0 0
355 3 10.433745786992985 7.888629677086618 37.287014038443296 0 0 0
291 7 1.4642644966448706 9.40871618550256 33.73204337884618 0 0 0
297 6 3.025420202153663 11.558456301103607 33.6693809524312 0 0 0
321 6 0.21130537725073867 10.040357801934421 35.9138150299307 0 0 0
322 7 2.7018403943281886 10.18445103747234 35.75571035921663 0 0 0
326 7 0.5042180215903334 11.633950339192257 33.679292695033986 0 0 0
327 6 3.9124379673959777 12.496138303340132 36.10765772332338 0 0 0
356 4 1.3927202079083416 12.334770487714234 35.841482645998276 0 0 0
298 2 5.198954820023298 12.271124304401443 34.210403308032575 0 0 0
299 7 6.993081978661721 11.563435781287762 33.68635042997885 0 0 0
323 6 5.229788692949959 10.225850523080684 35.580872472996006 0 0 0
324 7 7.911065276623031 10.346063375013886 35.72073389156981 0 0 0
328 7 6.460724147705617 12.50390863929213 35.920526560493535 0 0 0
294 7 8.762214058113369 9.274250808260515 33.702355084781885 0 0 0
295 6 11.26364716689543 9.680839175829094 33.77086869207341 0 0 0
300 7 9.379743493810533 11.531787701721393 34.17442059510575 0 0 0
325 7 10.25957132686624 9.830163989895032 37.03909140195935 0 0 0
329 3 9.532811986511227 11.386748778436841 36.209076095326836 0 0 0
330 4 11.263172577817844 12.054199789439197 35.58286692774271 0 0 0
335 5 9.910712158501811 12.896760723443748 37.395249670432946 0 -1 0
332 7 2.476026238259857 0.10081926652345213 38.028116885571706 0 0 0
336 7 1.3252078614767453 2.1737898731666845 37.893854032256435 0 0 0
337 7 3.9073424957159655 2.173807339825261 37.85946454200686 0 0 0
341 7 0.22556753010297978 4.248812282740973 38.12224753370074 0 0 0
342 7 2.719289972434111 4.280750127279383 37.982833148727785 0 0 0
361 8 1.481476563141405 3.479077530182931 38.9428686386493 0 0 0
333 7 5.222768149295541 0.1420862034857802 38.120333417768826 0 0 0
334 7 7.653841481521447 0.055188220252788314 38.00588477020421 0 0 0
338 7 6.529599675565925 2.2491478041256356 37.90636401571878 0 0 0
339 7 8.98499418295224 2.1809411787132857 37.85891398659254 0 0 0
340 7 11.354653868323128 2.1711025729119826 37.73443057816304 0 0 0
346 7 1.5107972259104023 6.446376034849294 38.01243355271416 0 0 0
347 6 3.9708788208273216 6.455729614835574 37.783539468769725 0 0 0
343 7 5.303180927230343 4.4157776937437125 37.84737055361995 0 0 0
344 7 7.827160279224019 4.4326409513506935 37.853806002882685 0 0 0
348 6 6.65703092924738 6.66289172337427 37.822848580558215 0 0 0
345 4 10.221638096184504 4.325563110716561 37.807097634416394 0 0 0
349 7 9.235229905205463 6.615154667707591 37.87046713616911 0 0 0
351 7 12.24617635965073 8.540051926572545 37.846541320448885 -1 0 0
352 6 2.4970824381010224 8.659270759408464 37.68452450062161 0 0 0
357 7 3.8466210165276373 10.80483749136774 37.95547174740875 0 0 0
360 7 1.3922595564894864 10.893165333484294 37.88994273864834 1 0 0
353 7 5.124396204813507 8.689130533231811 37.83458443956317 0 0 0
354 7 7.962211117344221 8.944129920099995 37.82350073637111 0 0 0
358 6 6.421431629098466 10.839239937420317 37.79535692529275 0 0 0
331 7 12.393619817540037 12.875105079261449 37.628833207816605 -1 -1 0
359 2 8.60559282188021 11.150888202412588 37.43507470815018 0 0 0

Velocities

1 0 0 0
2 0 0 0
3 0 0 0
9 0 0 0
5 0 0 0
6 0 0 0
10 0 0 0
16 0 0 0
20 0 0 0
26 0 0 0
27 0 0 0
23 0 0 0
28 0 0 0
29 0 0 0
24 0 0 0
25 0 0 0
30 0 0 0
7 0 0 0
31 0 0 0
32 0 0 0
36 0 0 0
37 0 0 0
56 0 0 0
8 0 0 0
33 0 0 0
34 0 0 0
38 0 0 0
4 0 0 0
35 0 0 0
39 0 0 0
40 0 0 0
11 0 0 0
12 0 0 0
17 0 0 0
42 0 0 0
47 0 0 0
13 0 0 0
18 0 0 0
19 0 0 0
43 0 0 0
44 0 0 0
48 0 0 0
14 0 0 0
15 0 0 0
41 0 0 0
45 0 0 0
49 0 0 0
50 0 0 0
85 0 0 0
21 0 0 0
22 0 0 0
46 0 0 0
52 0 0 0
57 0 0 0
87 0 0 0
53 0 0 0
54 0 0 0
58 0 0 0
51 0 0 0
55 0 0 0
59 0 0 0
60 0 0 0
66 0 0 0
67 0 0 0
91 0 0 0
92 0 0 0
96 0 0 0
97 0 0 0
63 0 0 0
64 0 0 0
68 0 0 0
74 0 0 0
93 0 0 0
98 0 0 0
99 0 0 0
65 0 0 0
69 0 0 0
70 0 0 0
75 0 0 0
94 0 0 0
95 0 0 0
100 0 0 0
72 0 0 0
76 0 0 0
77 0 0 0
82 0 0 0
101 0 0 0
102 0 0 0
107 0 0 0
73 0 0 0
78 0 0 0
103 0 0 0
108 0 0 0
109 0 0 0
71 0 0 0
79 0 0 0
80 0 0 0
81 0 0 0
104 0 0 0
105 0 0 0
106 0 0 0
110 0 0 0
61 0 0 0
62 0 0 0
86 0 0 0
111 0 0 0
112 0 0 0
116 0 0 0
117 0 0 0
83 0 0 0
84 0 0 0
88 0 0 0
113 0 0 0
118 0 0 0
119 0 0 0
89 0 0 0
90 0 0 0
114 0 0 0
115 0 0 0
120 0 0 0
121 0 0 0
122 0 0 0
126 0 0 0
127 0 0 0
156 0 0 0
157 0 0 0
162 0 0 0
123 0 0 0
124 0 0 0
128 0 0 0
153 0 0 0
158 0 0 0
163 0 0 0
164 0 0 0
125 0 0 0
129 0 0 0
130 0 0 0
155 0 0 0
159 0 0 0
160 0 0 0
165 0 0 0
131 0 0 0
132 0 0 0
136 0 0 0
137 0 0 0
161 0 0 0
166 0 0 0
167 0 0 0
171 0 0 0
172 0 0 0
133 0 0 0
134 0 0 0
138 0 0 0
168 0 0 0
173 0 0 0
135 0 0 0
139 0 0 0
140 0 0 0
169 0 0 0
170 0 0 0
175 0 0 0
141 0 0 0
142 0 0 0
146 0 0 0
147 0 0 0
151 0 0 0
152 0 0 0
176 0 0 0
177 0 0 0
143 0 0 0
144 0 0 0
148 0 0 0
154 0 0 0
178 0 0 0
145 0 0 0
149 0 0 0
150 0 0 0
174 0 0 0
179 0 0 0
180 0 0 0
181 0 0 0
182 0 0 0
186 0 0 0
187 0 0 0
211 0 0 0
212 0 0 0
216 0 0 0
217 0 0 0
183 0 0 0
188 0 0 0
189 0 0 0
213 0 0 0
214 0 0 0
218 0 0 0
184 0 0 0
185 0 0 0
190 0 0 0
215 0 0 0
219 0 0 0
220 0 0 0
191 0 0 0
192 0 0 0
196 0 0 0
197 0 0 0
221 0 0 0
222 0 0 0
226 0 0 0
227 0 0 0
193 0 0 0
198 0 0 0
199 0 0 0
223 0 0 0
224 0 0 0
228 0 0 0
194 0 0 0
195 0 0 0
200 0 0 0
225 0 0 0
229 0 0 0
230 0 0 0
201 0 0 0
202 0 0 0
206 0 0 0
207 0 0 0
231 0 0 0
232 0 0 0
236 0 0 0
203 0 0 0
208 0 0 0
209 0 0 0
233 0 0 0
234 0 0 0
238 0 0 0
204 0 0 0
205 0 0 0
210 0 0 0
235 0 0 0
239 0 0 0
240 0 0 0
237 0 0 0
241 0 0 0
242 0 0 0
246 0 0 0
247 0 0 0
251 0 0 0
252 0 0 0
248 0 0 0
253 0 0 0
254 0 0 0
249 0 0 0
250 0 0 0
255 0 0 0
256 0 0 0
257 0 0 0
286 0 0 0
258 0 0 0
264 0 0 0
259 0 0 0
260 0 0 0
284 0 0 0
285 0 0 0
290 0 0 0
261 0 0 0
262 0 0 0
266 0 0 0
267 0 0 0
292 0 0 0
243 0 0 0
244 0 0 0
263 0 0 0
268 0 0 0
293 0 0 0
245 0 0 0
265 0 0 0
269 0 0 0
270 0 0 0
296 0 0 0
271 0 0 0
272 0 0 0
276 0 0 0
277 0 0 0
301 0 0 0
302 0 0 0
306 0 0 0
307 0 0 0
273 0 0 0
278 0 0 0
279 0 0 0
303 0 0 0
304 0 0 0
308 0 0 0
274 0 0 0
275 0 0 0
280 0 0 0
305 0 0 0
309 0 0 0
310 0 0 0
281 0 0 0
282 0 0 0
287 0 0 0
312 0 0 0
316 0 0 0
317 0 0 0
283 0 0 0
288 0 0 0
289 0 0 0
313 0 0 0
314 0 0 0
318 0 0 0
311 0 0 0
315 0 0 0
319 0 0 0
320 0 0 0
350 0 0 0
355 0 0 0
291 0 0 0
297 0 0 0
321 0 0 0
322 0 0 0
326 0 0 0
327 0 0 0
356 0 0 0
298 0 0 0
299 0 0 0
323 0 0 0
324 0 0 0
328 0 0 0
294 0 0 0
295 0 0 0
300 0 0 0
325 0 0 0
329 0 0 0
330 0 0 0
335 0 0 0
332 0 0 0
336 0 0 0
337 0 0 0
341 0 0 0
342 0 0 0
361 0 0 0
333 0 0 0
334 0 0 0
338 0 0 0
339 0 0 0
340 0 0 0
346 0 0 0
347 0 0 0
343 0 0 0
344 0 0 0
348 0 0 0
345 0 0 0
349 0 0 0
351 0 0 0
352 0 0 0
357 0 0 0
360 0 0 0
353 0 0 0
354 0 0 0
358 0 0 0
331 0 0 0
359 0 0 0
