LAMMPS data file via write_data, version 11 Feb 2026, timestep = 154, units = metal

361 atoms
8 atom types

0 12.447907776 xlo xhi
0 12.9362452296 ylo yhi
0 52.3600831054 zlo zhi

Masses

1 26.9815
2 10.811
3 12.011
4 51.9961
5 55.845
6 95.95999999999999
7 58.6934
8 1.008

Atoms # atomic/kk

1 7 1.1447475034 1.4042530815 14.1767669076 0 0 0
2 7 3.6084602259 1.0698845996 14.6704381247 0 0 0
3 5 6.0765506298 0.9467816033 14.9127945674 0 0 0
9 7 7.3904254576 3.1552415677 14.921343358 0 0 0
5 7 11.0497419237 1.2529911546 14.6024861837 0 0 0
6 7 12.371824795299998 3.4559595715 14.8227813157 -1 0 0
10 7 9.9130540797 3.3904065996 14.7812471609 0 0 0
16 4 0.4694173902 7.8125304368 14.7997570607 0 0 0
20 7 10.4454755951 7.6697182118 14.1848688757 0 0 0
26 7 0.1281197666 12.2044764222 14.9105894271 0 0 0
27 7 2.482376412 11.8082341077 14.4640395444 0 0 0
23 7 6.9215809143 9.0056325864 14.7794199109 0 0 0
28 7 4.9597127568 11.7869866321 14.6074736033 0 0 0
29 6 7.487468691 11.492489151 14.9214469503 0 0 0
24 7 9.211267288 9.7383043985 14.542324574 0 0 0
25 7 11.7628351674 9.8745411843 14.7910184475 0 0 0
30 7 10.0617556164 11.945152431 14.7619795889 0 0 0
7 7 2.4276438825 3.274586701 14.9921379853 0 0 0
31 6 0.1320668178 1.5666912763 16.54569988 0 0 0
32 7 2.6047881521 1.6851371804 16.9156842324 0 0 0
36 7 1.2195215325 3.8560608354 17.0299024962 0 0 0
37 7 3.7103479774 3.8371572501 17.0572271382 0 0 0
56 2 1.9139638832 0.320698286899999 15.6094045829 0 1 0
8 7 4.9287232821 3.1271355871 15.0109940309 0 0 0
33 7 4.9854693445 1.6648399647 16.9552168616 0 0 0
34 7 7.410113639 1.7690174525 16.9802513671 0 0 0
38 5 6.1786870847 3.8598965293 16.9892925392 0 0 0
4 6 8.6405916037 0.9966073374 15.0011028893 0 0 0
35 7 9.9854439602 1.6623584179 16.9441720819 0 0 0
39 7 8.7306918901 3.8627101762 16.8623801969 0 0 0
40 7 11.1905275305 3.8067890199 17.0006893521 0 0 0
11 7 1.2348702966 5.4950064056 15.0806985502 0 0 0
12 7 3.723333195 5.3162088046 15.091556138 0 0 0
17 7 2.6528824888 7.4951525199 15.1538371669 0 0 0
42 7 2.4538170063 6.1274901805 17.1415379148 0 0 0
47 7 3.8866203033 8.1976953877 17.0635533141 0 0 0
13 7 6.1787690715 5.3054540189 15.034535629 0 0 0
18 7 5.0798141029 7.4787706901 15.0688046453 0 0 0
19 2 7.0597951203 7.0189274967 15.3897174295 0 0 0
43 7 4.9526824561 5.9628190941 17.0949149841 0 0 0
44 7 7.4770692341 5.9405064365 17.0881545432 0 0 0
48 7 6.3467693742 8.0549577382 17.0498728177 0 0 0
14 7 8.7041968087 5.6586120419 14.9658205562 0 0 0
15 6 11.1806031706 5.6044565055 15.1850152514 0 0 0
41 7 12.442168210099998 5.9982391836 17.2267436521 -1 0 0
45 7 9.923455112 6.0385351278 17.2532666192 0 0 0
49 7 8.7166078523 7.9219477302 16.0697967416 0 0 0
50 7 11.1854260308 7.9909608595 16.4539207548 0 0 0
85 6 9.7874825474 8.473382021 18.5408467256 0 0 0
21 2 1.1654244367 10.4783622607 15.2130316912 0 0 0
22 7 2.969847795 9.8650340587 15.6453950804 0 0 0
46 7 0.7946061559 9.3672820405 16.8749701293 0 0 0
52 7 1.3503573598 11.8646523864 16.9891542204 0 0 0
57 7 3.753873893 12.4366743176 16.6098759546 0 0 0
87 1 3.6650451701 10.7156807278 18.2659007397 0 0 0
53 7 5.3358928559 10.1219872041 16.3275402765 0 0 0
54 7 7.7336051436 10.0538114804 16.9470367537 0 0 0
58 6 6.3195663174 12.3667352783 16.9550847684 0 0 0
51 3 11.519673145099999 9.370279149 17.6624171524 -1 0 0
55 7 10.1852587848 10.2759719364 16.6816821896 0 0 0
59 7 8.8367077706 12.3810361477 16.9622360876 0 0 0
60 7 11.2428990064 12.4670428062 16.882988677 0 0 0
66 6 1.393007034 2.1659191631 19.0534804658 0 0 0
67 5 3.8310712323 2.169749835 19.077551421 0 0 0
91 4 1.3610097719 0.7490016766 21.3001474804 0 0 0
92 7 3.7532698079 0.7243006354 21.0553737996 0 0 0
96 7 0.082079932 2.7970216106 21.1874527472 0 0 0
97 7 2.5927240934 2.8497939446 21.1992924965 0 0 0
63 5 4.9567742477 0.0529982254 18.9618634931 0 0 0
64 7 7.4416746235 0.0821708056 19.1014191477 0 0 0
68 7 6.1949360288 2.1588642027 19.0801897325 0 0 0
74 6 7.5018096017 4.2853629911 19.0547359126 0 0 0
93 7 6.2598414465 0.7194660822 21.17367312 0 0 0
98 7 5.0257186556 2.8737258399 21.1536837203 0 0 0
99 5 7.4793105556 2.8150634673 21.1692986238 0 0 0
65 7 10.0018085899 0.0802466939 19.0961651875 0 0 0
69 7 8.7385472152 2.1539822136 18.9954608723 0 0 0
70 7 11.2870638013 2.2382207273 18.9541707741 0 0 0
75 5 9.908720947 4.3054275401 19.0335874063 0 0 0
94 7 8.7140507513 0.7135233683 21.2362014867 0 0 0
95 7 11.3045523296 0.6704651065 21.199536471 0 0 0
100 6 10.0309211856 2.7845552589 21.0550342549 0 0 0
72 7 2.4838430183 4.388962084 19.1070457725 0 0 0
76 7 1.200144222 6.4346976141 19.2600213636 0 0 0
77 7 3.7839563224 6.5073099035 19.1651823211 0 0 0
82 6 2.3588605673 8.4890673053 18.9154467805 0 0 0
101 7 1.204403147 4.986371594 21.2593935642 0 0 0
102 6 3.7298053141 5.0424743752 21.2297752978 0 0 0
107 7 2.4685484599 7.1728356576 21.2326094282 0 0 0
73 7 4.9759755061 4.316411451 19.087212733 0 0 0
78 7 6.1965388899 6.5190956683 19.1399785413 0 0 0
103 7 6.2751972116 5.0470676015 21.1760724515 0 0 0
108 7 5.0116983743 7.22861409 21.2268755354 0 0 0
109 7 7.4193353481 7.2485706051 21.2651304498 0 0 0
71 1 12.383629132 4.3782094725 19.1862342201 -1 0 0
79 7 8.6255974932 6.472044202 19.3232968982 0 0 0
80 7 11.1135754549 6.420590323 19.3581641471 0 0 0
81 4 12.342695017999999 8.4729562787 19.2006565517 -1 0 0
104 7 8.7408050898 5.0231569879 21.2437432022 0 0 0
105 3 10.084194052565202 4.371925097961979 22.288687762268317 0 0 0
106 7 12.435294388199999 7.0968971559 21.3158557077 -1 0 0
110 7 9.8903603607 7.1660305315 21.3021949042 0 0 0
61 6 0.0477387397 12.935022616100001 18.9949290075 0 -1 0
62 7 2.587482576 12.8543346047 19.0383469717 0 -1 0
86 7 1.2816847716 10.6903307998 19.1614661098 0 0 0
111 7 1.1796694452 9.2896516501 21.1960342799 0 0 0
112 6 3.7016357908 9.3557762036 21.1431867319 0 0 0
116 1 0.0369839214 11.486698451 21.2977096144 0 0 0
117 7 2.4704264091 11.5284142583 21.1452899236 0 0 0
83 7 4.9462384898 8.7330200409 19.0834474924 0 0 0
84 7 7.3974678157 8.6397297376 19.085743402 0 0 0
88 7 6.1625171869 10.8013148416 18.9301045672 0 0 0
113 7 6.2139769728 9.4092095126 21.0353192467 0 0 0
118 7 4.9639845145 11.5407295129 21.0425881559 0 0 0
119 4 7.3995383715 11.5362046003 21.0747824702 0 0 0
89 6 8.731338748 10.8500854071 19.0384744744 0 0 0
90 4 11.272219843 10.8209844576 18.9386324767 0 0 0
114 7 8.6997099562 9.3160354633 20.9928929717 0 0 0
115 6 11.109001975 9.2519683408 21.1755872983 0 0 0
120 7 9.9858618188 11.5164614705 21.1821863062 0 0 0
121 7 0.0774182584203351 1.373643212176307 23.313723410228324 0 0 0
122 7 2.5688626266159456 1.3853790138259552 23.333474198119283 0 0 0
126 6 1.348465075867885 3.5681772315502207 23.26943866875737 0 0 0
127 7 3.8440340876712704 3.5718108375308857 23.365595690821394 0 0 0
156 1 1.473256431262202 2.1119672033960355 25.51898792155399 0 0 0
157 7 3.9595381821392217 2.1183477154597212 25.44850014661202 0 0 0
162 7 2.5920756213557334 4.244023326340949 25.431746748790168 0 0 0
123 7 4.985748119462038 1.4104817175709305 23.166126370612176 0 0 0
124 7 7.387186614234885 1.4816669984304482 23.490191360849693 0 0 0
128 7 6.296842129453733 3.6455843151187803 23.18728350887549 0 0 0
153 7 5.190336816160523 0.05307916962833637 25.29696845973105 0 0 0
158 2 5.768734914276246 2.4388905220368606 24.632477397617873 0 0 0
163 7 5.111229962289001 4.2250713303431 25.4256207092224 0 0 0
164 5 7.4702079479699055 4.042620757308707 25.36427370595833 0 0 0
125 7 10.036311272238033 1.408016248172218 23.358791311348284 0 0 0
129 7 8.744465642333173 3.5266143429477155 23.351506399883846 0 0 0
130 4 11.360050589899156 3.596702583357406 23.40630333315342 0 0 0
155 4 10.11228566741774 0.042231911303006915 25.56248747216961 0 0 0
159 7 8.862146262506217 2.078978938350105 25.451952555491825 0 0 0
160 7 11.393805628786989 2.1344372966659675 25.425027198473796 0 0 0
165 7 10.058335388252162 4.196848613187977 25.41631216684589 0 0 0
131 7 0.06367825483567335 5.750609457652351 23.407225950839642 0 0 0
132 7 2.535391090973858 5.778725207009753 23.36387760565029 0 0 0
136 7 1.2956043469895513 7.892260259495307 23.30831998279815 0 0 0
137 7 3.7692671757119114 7.959881125439721 23.28182896067653 0 0 0
161 4 0.10181593870086833 4.319317190725003 25.47256878331097 0 0 0
166 7 1.3301387108758054 6.393329278620142 25.433628826168427 0 0 0
167 7 3.8004373170914003 6.4170002991818125 25.446671035673372 0 0 0
171 6 0.10177524417084133 8.592198734055543 25.433642753771604 0 0 0
172 7 2.6147865395635685 8.587139579990522 25.379288324406776 0 0 0
133 6 5.057723496931379 5.837960556819502 23.391336480832297 0 0 0
134 7 7.551972343171834 5.757139383166422 23.318858804361525 0 0 0
138 7 6.3026974346622255 7.975278892906386 23.344975109497074 0 0 0
168 7 6.357735561046029 6.373685267635987 25.437465175629065 0 0 0
173 7 5.0967286225703905 8.532219880250288 25.33607291786599 0 0 0
135 7 10.056721277184733 5.803611921884493 23.392028556278763 0 0 0
139 4 8.686302115584372 7.920539467355736 23.24836250219651 0 0 0
140 4 11.274368239317818 7.868147060978686 23.32183907602944 0 0 0
169 7 8.768185126060525 6.308902737558557 25.38804818586285 0 0 0
170 7 11.28173487498 6.385842883819852 25.452466652568074 0 0 0
175 6 9.877446414591027 8.544881092486486 25.52788038899524 0 0 0
141 7 0.012012549520406132 10.045652374849483 23.347680841998564 0 0 0
142 7 2.4880206406320764 10.08406233813596 23.25853410027308 0 0 0
146 7 1.2943253800215293 12.213142858710686 23.354638322660815 0 0 0
147 7 3.7984472122037305 12.222317249303442 23.18407316186595 0 0 0
151 4 0.08453293510635117 12.853010536609643 25.419682714657604 0 -1 0
152 7 2.647094711925641 12.922292451005628 25.377919264454487 0 -1 0
176 7 1.3341830261022274 10.777050508695675 25.43574162900423 0 0 0
177 6 3.87147404086421 10.794635366405268 25.277499836978496 0 0 0
143 7 5.046772969818955 10.08328241172651 23.18518672166504 0 0 0
144 7 7.49716974041352 10.067333874944705 22.92392597374879 0 0 0
148 4 6.204462638044659 12.248574783026765 23.18952559702815 0 0 0
154 7 7.592911537377149 12.92089189609319 25.479397194916793 0 -1 0
178 6 6.608941240935979 10.520897992110477 25.224456794099925 0 0 0
145 7 9.98752520382439 10.052233556800935 23.31993920426576 0 0 0
149 6 8.699781352575073 12.250549533277823 23.334405893299213 0 0 0
150 7 11.238825070526007 12.195935975527268 23.41010125035931 0 0 0
174 3 8.405378922771547 9.487076199123024 24.427986174962907 0 0 0
179 5 8.990107386386528 10.90028843890588 25.587616660640965 0 0 0
180 5 11.327803760840707 10.84485672247105 25.511088681097554 0 0 0
181 7 1.3838571371410906 0.643815959766033 27.501331547381184 0 0 0
182 7 3.8706416191618085 0.6810750584718862 27.441597742513572 0 0 0
186 7 0.1651250851662976 2.835821627643855 27.499105314468945 0 0 0
187 7 2.6543694051205073 2.831107605516867 27.573219812813836 0 0 0
211 7 0.20465813548072212 1.4233081061219133 29.597123197179155 0 0 0
212 7 2.707873319432819 1.3391067037094102 29.587371158244917 0 0 0
216 7 1.4051629429572274 3.5329766332988224 29.595396268849793 0 0 0
217 4 3.8186660777060073 3.55159056092052 29.60859883181438 0 0 0
183 7 6.303686109480279 0.6937380696231362 27.578346565367934 0 0 0
188 7 5.076884623632641 2.8524305478107768 27.584763568948084 0 0 0
189 7 7.588551244535034 2.771475904194037 27.470678537704124 0 0 0
213 5 5.13091949678342 1.4065937426217638 29.60977158807907 0 0 0
214 7 7.607171292852766 1.333712439042334 29.602355735102098 0 0 0
218 7 6.358225862446919 3.5150740881911986 29.5543848342895 0 0 0
184 7 8.879446246479693 0.6974252596671421 27.575511509768905 0 0 0
185 4 11.37762014392246 0.7006104025591354 27.547607303200042 0 0 0
190 7 10.138684685247558 2.8097197555146547 27.4979675859099 0 0 0
215 7 10.118777849246507 1.3820832581307805 29.641783652026934 0 0 0
219 7 8.832550078639638 3.4897008930917606 29.53915527652671 0 0 0
220 7 11.36346487332582 3.536975384945332 29.529672480233923 0 0 0
191 7 1.3848548256890996 4.984508085058806 27.478489532959124 0 0 0
192 7 3.8272783290985046 4.968249983335692 27.489251911900137 0 0 0
196 7 0.13000376107850467 7.135364654063462 27.50489262143823 0 0 0
197 7 2.5724649665425368 7.171263038130306 27.480568790281133 0 0 0
221 7 0.11416005836983299 5.704872909651363 29.578577407621115 0 0 0
222 7 2.5844674016877707 5.706513926722131 29.557679119985576 0 0 0
226 7 1.357777694249013 7.881616106900567 29.557929869841313 0 0 0
227 7 3.8545495671634065 7.891705591097033 29.472502276909 0 0 0
193 7 6.36348338297739 4.953361738120482 27.421180687885727 0 0 0
198 7 5.096113862076833 7.151250652033681 27.417322615442693 0 0 0
199 7 7.615255549981498 7.165797571614418 27.455202287287825 0 0 0
223 6 5.146784221517403 5.698358429363976 29.497581419128718 0 0 0
224 7 7.6384223880390945 5.714958388517376 29.59069327916497 0 0 0
228 7 6.387955656667926 7.890288805733831 29.496917231986014 0 0 0
194 6 8.841578215350085 4.974480897487855 27.50091495822038 0 0 0
195 7 11.354541512677867 4.971853962063305 27.515527387876105 0 0 0
200 7 10.117855634811669 7.135088826719981 27.547273363641878 0 0 0
225 7 10.095537448912166 5.7179846948688215 29.613514204346007 0 0 0
229 7 8.840890175207013 7.859768956260801 29.53302745910833 0 0 0
230 7 11.362954736585992 7.909332954591103 29.532181426130567 0 0 0
201 5 1.3728277439333423 9.30394832739892 27.52064149273765 0 0 0
202 7 3.86603939979048 9.299558697579876 27.37990989671281 0 0 0
206 4 0.1812521959770095 11.456082441296864 27.531856264867567 0 0 0
207 7 2.6051887078358877 11.436217579834102 27.443478757493057 0 0 0
231 7 0.1594912640191163 10.0581495656077 29.576370193906598 0 0 0
232 7 2.6280840300990116 10.005761533262168 29.432129798305112 0 0 0
236 7 1.467368188410231 12.162594722347608 29.560851893989618 0 0 0
203 7 6.369093020620209 9.263501657043978 27.392428591136987 0 0 0
208 7 5.132147458457687 11.479311249759549 27.324656529223635 0 0 0
209 6 7.5761926168911184 11.503180981854179 27.64554733746447 0 0 0
233 7 5.143849204861848 10.03401721712285 29.326809406326117 0 0 0
234 7 7.595179787819545 10.066361716046792 29.668516998463016 0 0 0
238 7 6.206015897931539 12.216267974175073 29.686101553097526 0 0 0
204 7 8.83309838963961 9.346395012687498 27.63060466229346 0 0 0
205 7 11.339252408613442 9.394601915976152 27.55410064189184 0 0 0
210 7 10.145059134486047 11.532331029006457 27.592716879659825 0 0 0
235 7 10.079780494681486 10.157977157578946 29.609612107427456 0 0 0
239 4 8.872807241446111 12.233762004981479 29.740110499984524 0 0 0
240 7 11.390353748177478 12.246161507199808 29.571088276982362 0 0 0
237 3 4.0316545500549 0.27472235203923595 30.561087938780435 0 1 0
241 7 0.1972433628014238 0.08257170677275448 31.642555960178267 0 0 0
242 7 2.5653239340597636 0.12587134042568188 31.744986263374297 0 0 0
246 4 1.3402874857866014 2.226186931247858 31.66974564880487 0 0 0
247 7 3.875413162387133 2.1375275774859843 31.651697149190163 0 0 0
251 7 0.14110557969612111 4.3090188576209245 31.655964891514554 0 0 0
252 7 2.6258899188306795 4.305552047272971 31.675809058663408 0 0 0
248 7 6.401734674672273 2.1350658935233238 31.660841476878176 0 0 0
253 7 5.106451749444445 4.2957664360682095 31.634396424905514 0 0 0
254 7 7.614903463980766 4.295604705879305 31.604440122324288 0 0 0
249 7 8.845194496577623 2.0869152534934283 31.69448843043909 0 0 0
250 7 11.37859977686454 2.1223441527428744 31.668593311673764 0 0 0
255 1 10.097960675431995 4.202311395402949 31.512381062123346 0 0 0
256 7 1.322403558107277 6.487043930918708 31.641805968828226 0 0 0
257 6 3.785061600659574 6.488720598056441 31.666579180525055 0 0 0
286 7 0.08555659361799652 7.268612775345479 33.62913552620571 0 0 0
258 7 6.345207287049252 6.479063403057308 31.62857731061615 0 0 0
264 7 7.583206351911067 8.562237124455384 31.624715152140535 0 0 0
259 4 8.815232456003363 6.445141996262651 31.637649497566137 0 0 0
260 7 11.308449435294476 6.475576623763593 31.600005750823588 0 0 0
284 5 8.878795437049433 5.104540840328061 33.59539539416236 0 0 0
285 4 11.340278183907719 5.141384736746185 33.63749678048769 0 0 0
290 7 10.07682510909221 7.243272018952247 33.60555360199003 0 0 0
261 7 0.1710781136507067 8.695324516045599 31.658492812895847 0 0 0
262 7 2.6572554061722875 8.706117268019426 31.534187040957594 0 0 0
266 7 1.5583472476680496 10.819681196322524 31.577101942021052 0 0 0
267 4 3.914221669441425 11.26225344433461 30.856103030918128 0 0 0
292 7 3.951889891065658 9.35708255593586 33.505699768786656 0 0 0
243 7 5.163604123532921 12.889081048896342 32.10793438593691 0 -1 0
244 7 7.621380163018211 12.924293555107717 31.722091407098688 0 -1 0
263 1 5.086879126184075 8.747905746321049 31.42252074777031 0 0 0
268 7 6.253906391165227 10.748465402961198 31.583697259127558 0 0 0
293 4 6.443368909175615 9.305058726241354 33.64757998239253 0 0 0
245 7 10.105539843213702 12.870971445727557 31.88131824613476 0 -1 0
265 6 10.09621711690286 8.667190041627135 31.551587620507828 0 0 0
269 7 8.767776797759792 10.78671836417829 31.754331728761294 0 0 0
270 7 11.42285053334508 10.891779228688174 31.624472117049844 0 0 0
296 3 11.069423389880937 11.818608284346013 33.34283779159984 -1 0 0
271 7 1.4766688432638846 0.8889312230675023 33.781853141210206 0 0 0
272 7 3.921651375391536 0.9448417970906731 33.93239963779361 0 0 0
276 7 0.17480993615481316 2.9796523328757334 33.740654307237925 0 0 0
277 7 2.6407561570388878 3.0672812003318404 33.80516072627368 0 0 0
301 7 0.19794742546447727 1.538759409792473 35.76215225365212 0 0 0
302 7 2.620252969220137 1.6568610857342219 35.86817877976833 0 0 0
306 4 1.417425961196801 3.8155107232211254 35.96509706406665 0 0 0
307 7 4.000933204655905 3.719120574527989 35.84169946855666 0 0 0
273 7 6.458236194771628 0.9593505209594685 33.915477916450996 0 0 0
278 1 5.2148380975619055 2.98358814244697 33.73620159189156 0 0 0
279 7 7.726843641534212 3.0264560454106695 33.7473097079697 0 0 0
303 7 5.249297813715353 1.6541550807529395 35.95791644455114 0 0 0
304 4 7.766490639190949 1.6063151292536981 35.94338333093611 0 0 0
308 7 6.532199008306343 3.6955638208518304 35.816863835152226 0 0 0
274 7 8.835374640570366 0.8868631047245695 33.85192874484611 0 0 0
275 4 11.440272991518643 0.7849267141732932 33.72384394500129 0 0 0
280 7 10.201093810685709 2.9811701494672693 33.720758638906474 0 0 0
305 7 10.232016413662352 1.5475295832750386 35.73570884429832 0 0 0
309 7 9.02475765115317 3.656661667077802 35.80259579753476 0 0 0
310 4 11.599729327240274 3.92587187755907 35.864304820550444 0 0 0
281 7 1.3143757103705176 5.169010657190147 33.86941411984134 0 0 0
282 4 3.841429292580859 5.122235659418853 33.77117040686279 0 0 0
287 7 2.6239428229912636 7.272571135954625 33.74864063579967 0 0 0
312 7 2.7270334180500932 5.773052109098109 35.785581126908 0 0 0
316 7 1.2047501326667225 7.580456662206565 35.79270386056174 0 0 0
317 7 3.9214823784180197 8.048289239631835 35.735404527028535 0 0 0
283 7 6.374545685287331 5.087053375823459 33.679446374652144 0 0 0
288 7 5.176273676008836 7.256144176916595 33.67055612639435 0 0 0
289 7 7.624494089546916 7.172989105646727 33.72008277436681 0 0 0
313 7 5.2638234870938 5.907099403177239 35.72182799505118 0 0 0
314 7 7.720854189423628 5.81455445641424 35.75568143704365 0 0 0
318 4 6.546572514782996 8.11093108516773 35.80756800936046 0 0 0
311 2 12.355579130843635 5.986444506617892 35.3292943378234 -1 0 0
315 7 10.134953643272603 5.788766778100469 35.58943589282713 0 0 0
319 7 8.952406653196734 7.966014291451497 35.8235323461881 0 0 0
320 7 11.341983446059748 7.9174129075650175 35.602408570018966 0 0 0
350 7 11.672470260866694 6.2599991169262985 37.31319301056674 0 0 0
355 3 10.422070711983757 7.894420614668095 37.28068342762556 0 0 0
291 7 1.4618584543400126 9.41241038918624 33.7315789648195 0 0 0
297 6 3.019695444381099 11.56078534800079 33.67340937262331 0 0 0
321 6 0.20805786460703962 10.046091491559626 35.91196873991159 0 0 0
322 7 2.694286296896781 10.183387807525957 35.76110599774749 0 0 0
326 7 0.502398661793995 11.639525481689292 33.68493061954943 0 0 0
327 6 3.915630297345106 12.491515502670426 36.106054661359785 0 0 0
356 4 1.398144759462431 12.345976146364903 35.851394671546835 0 0 0
298 2 5.195946333438902 12.268722041382846 34.20758525711272 0 0 0
299 7 6.987406798368214 11.563691948747953 33.68278143629136 0 0 0
323 6 5.225783257729996 10.223948825642047 35.575542853575044 0 0 0
324 7 7.904255700772943 10.3420762939864 35.71073099023359 0 0 0
328 7 6.46178572956228 12.501873196710374 35.919917739778704 0 0 0
294 7 8.760752055349478 9.273288841580053 33.6964688853959 0 0 0
295 6 11.26168400930706 9.68376498267004 33.769526625700266 0 0 0
300 7 9.37221349387716 11.532522921087255 34.16663583580816 0 0 0
325 7 10.25025595557344 9.84126474746662 37.033816936946636 0 0 0
329 3 9.519533332753669 11.393835329261496 36.197245338813666 0 0 0
330 4 11.254367135863584 12.0537685973301 35.57790629341304 0 0 0
335 5 9.90903295625384 12.89112292257216 37.39607849848178 0 -1 0
332 7 2.4806853376108142 0.09006983960331194 38.038634468655935 0 0 0
336 7 1.3303623768905155 2.1728828197804075 37.839516628313476 0 0 0
337 7 3.8726000949878077 2.1834122848635276 37.873821601547725 0 0 0
341 7 0.21528501348335324 4.240988169987203 38.078186785895085 0 0 0
342 7 2.711005800455648 4.280488195168696 37.93040697658964 0 0 0
333 7 5.20306386230969 0.1439964619972043 38.121331522728 0 0 0
334 7 7.638373780331995 0.04355213162576748 38.014856305839906 0 0 0
338 7 6.496696174134511 2.2479688363501125 37.95983045966005 0 0 0
361 8 7.820589324968318 3.018127751503069 38.74447897099571 0 0 0
339 7 8.987584315383376 2.163906986969704 37.903370569255124 0 0 0
340 7 11.368082410908425 2.1863705443815586 37.731431659541656 0 0 0
346 7 1.5092277776505294 6.395209595380431 38.00630347255702 0 0 0
347 6 3.95474203460906 6.46484644032578 37.76730946810982 0 0 0
343 7 5.293812976596958 4.4345626538701355 37.842293434478684 0 0 0
344 7 7.821537021549294 4.460535649358728 37.88680202639214 0 0 0
348 6 6.647406273756983 6.679483802518836 37.828599021347344 0 0 0
345 4 10.231636002065962 4.334659189628624 37.82474287744213 0 0 0
349 7 9.228600439502916 6.61434618670602 37.8655874637706 0 0 0
351 7 12.23518121174256 8.549508716720272 37.84658815785296 -1 0 0
352 6 2.4780878199198426 8.650511458478976 37.68793030136811 0 0 0
357 7 3.833951099257604 10.799202882425442 37.95187408507689 0 0 0
360 7 1.3816589238227812 10.893073213415569 37.894766143912136 1 0 0
353 7 5.1072030688132095 8.692115717422945 37.829888751608685 0 0 0
354 7 7.954445544636015 8.9451264356555 37.817687589578185 0 0 0
358 6 6.409055231953743 10.832778626513626 37.78797782883023 0 0 0
331 7 12.391770984194475 12.876179896128427 37.628800611586705 -1 -1 0
359 2 8.589220937219382 11.161422559931985 37.419863738659444 0 0 0

Velocities

1 0 0 0
2 0 0 0
3 0 0 0
9 0 0 0
5 0 0 0
6 0 0 0
10 0 0 0
16 0 0 0
20 0 0 0
26 0 0 0
27 0 0 0
23 0 0 0
28 0 0 0
29 0 0 0
24 0 0 0
25 0 0 0
30 0 0 0
7 0 0 0
31 0 0 0
32 0 0 0
36 0 0 0
37 0 0 0
56 0 0 0
8 0 0 0
33 0 0 0
34 0 0 0
38 0 0 0
4 0 0 0
35 0 0 0
39 0 0 0
40 0 0 0
11 0 0 0
12 0 0 0
17 0 0 0
42 0 0 0
47 0 0 0
13 0 0 0
18 0 0 0
19 0 0 0
43 0 0 0
44 0 0 0
48 0 0 0
14 0 0 0
15 0 0 0
41 0 0 0
45 0 0 0
49 0 0 0
50 0 0 0
85 0 0 0
21 0 0 0
22 0 0 0
46 0 0 0
52 0 0 0
57 0 0 0
87 0 0 0
53 0 0 0
54 0 0 0
58 0 0 0
51 0 0 0
55 0 0 0
59 0 0 0
60 0 0 0
66 0 0 0
67 0 0 0
91 0 0 0
92 0 0 0
96 0 0 0
97 0 0 0
63 0 0 0
64 0 0 0
68 0 0 0
74 0 0 0
93 0 0 0
98 0 0 0
99 0 0 0
65 0 0 0
69 0 0 0
70 0 0 0
75 0 0 0
94 0 0 0
95 0 0 0
100 0 0 0
72 0 0 0
76 0 0 0
77 0 0 0
82 0 0 0
101 0 0 0
102 0 0 0
107 0 0 0
73 0 0 0
78 0 0 0
103 0 0 0
108 0 0 0
109 0 0 0
71 0 0 0
79 0 0 0
80 0 0 0
81 0 0 0
104 0 0 0
105 0 0 0
106 0 0 0
110 0 0 0
61 0 0 0
62 0 0 0
86 0 0 0
111 0 0 0
112 0 0 0
116 0 0 0
117 0 0 0
83 0 0 0
84 0 0 0
88 0 0 0
113 0 0 0
118 0 0 0
119 0 0 0
89 0 0 0
90 0 0 0
114 0 0 0
115 0 0 0
120 0 0 0
121 0 0 0
122 0 0 0
126 0 0 0
127 0 0 0
156 0 0 0
157 0 0 0
162 0 0 0
123 0 0 0
124 0 0 0
128 0 0 0
153 0 0 0
158 0 0 0
163 0 0 0
164 0 0 0
125 0 0 0
129 0 0 0
130 0 0 0
155 0 0 0
159 0 0 0
160 0 0 0
165 0 0 0
131 0 0 0
132 0 0 0
136 0 0 0
137 0 0 0
161 0 0 0
166 0 0 0
167 0 0 0
171 0 0 0
172 0 0 0
133 0 0 0
134 0 0 0
138 0 0 0
168 0 0 0
173 0 0 0
135 0 0 0
139 0 0 0
140 0 0 0
169 0 0 0
170 0 0 0
175 0 0 0
141 0 0 0
142 0 0 0
146 0 0 0
147 0 0 0
151 0 0 0
152 0 0 0
176 0 0 0
177 0 0 0
143 0 0 0
144 0 0 0
148 0 0 0
154 0 0 0
178 0 0 0
145 0 0 0
149 0 0 0
150 0 0 0
174 0 0 0
179 0 0 0
180 0 0 0
181 0 0 0
182 0 0 0
186 0 0 0
187 0 0 0
211 0 0 0
212 0 0 0
216 0 0 0
217 0 0 0
183 0 0 0
188 0 0 0
189 0 0 0
213 0 0 0
214 0 0 0
218 0 0 0
184 0 0 0
185 0 0 0
190 0 0 0
215 0 0 0
219 0 0 0
220 0 0 0
191 0 0 0
192 0 0 0
196 0 0 0
197 0 0 0
221 0 0 0
222 0 0 0
226 0 0 0
227 0 0 0
193 0 0 0
198 0 0 0
199 0 0 0
223 0 0 0
224 0 0 0
228 0 0 0
194 0 0 0
195 0 0 0
200 0 0 0
225 0 0 0
229 0 0 0
230 0 0 0
201 0 0 0
202 0 0 0
206 0 0 0
207 0 0 0
231 0 0 0
232 0 0 0
236 0 0 0
203 0 0 0
208 0 0 0
209 0 0 0
233 0 0 0
234 0 0 0
238 0 0 0
204 0 0 0
205 0 0 0
210 0 0 0
235 0 0 0
239 0 0 0
240 0 0 0
237 0 0 0
241 0 0 0
242 0 0 0
246 0 0 0
247 0 0 0
251 0 0 0
252 0 0 0
248 0 0 0
253 0 0 0
254 0 0 0
249 0 0 0
250 0 0 0
255 0 0 0
256 0 0 0
257 0 0 0
286 0 0 0
258 0 0 0
264 0 0 0
259 0 0 0
260 0 0 0
284 0 0 0
285 0 0 0
290 0 0 0
261 0 0 0
262 0 0 0
266 0 0 0
267 0 0 0
292 0 0 0
243 0 0 0
244 0 0 0
263 0 0 0
268 0 0 0
293 0 0 0
245 0 0 0
265 0 0 0
269 0 0 0
270 0 0 0
296 0 0 0
271 0 0 0
272 0 0 0
276 0 0 0
277 0 0 0
301 0 0 0
302 0 0 0
306 0 0 0
307 0 0 0
273 0 0 0
278 0 0 0
279 0 0 0
303 0 0 0
304 0 0 0
308 0 0 0
274 0 0 0
275 0 0 0
280 0 0 0
305 0 0 0
309 0 0 0
310 0 0 0
281 0 0 0
282 0 0 0
287 0 0 0
312 0 0 0
316 0 0 0
317 0 0 0
283 0 0 0
288 0 0 0
289 0 0 0
313 0 0 0
314 0 0 0
318 0 0 0
311 0 0 0
315 0 0 0
319 0 0 0
320 0 0 0
350 0 0 0
355 0 0 0
291 0 0 0
297 0 0 0
321 0 0 0
322 0 0 0
326 0 0 0
327 0 0 0
356 0 0 0
298 0 0 0
299 0 0 0
323 0 0 0
324 0 0 0
328 0 0 0
294 0 0 0
295 0 0 0
300 0 0 0
325 0 0 0
329 0 0 0
330 0 0 0
335 0 0 0
332 0 0 0
336 0 0 0
337 0 0 0
341 0 0 0
342 0 0 0
333 0 0 0
334 0 0 0
338 0 0 0
361 0 0 0
339 0 0 0
340 0 0 0
346 0 0 0
347 0 0 0
343 0 0 0
344 0 0 0
348 0 0 0
345 0 0 0
349 0 0 0
351 0 0 0
352 0 0 0
357 0 0 0
360 0 0 0
353 0 0 0
354 0 0 0
358 0 0 0
331 0 0 0
359 0 0 0
