LAMMPS data file via write_data, version 11 Feb 2026, timestep = 200, units = metal

361 atoms
8 atom types

0 12.447907776 xlo xhi
0 12.9362452296 ylo yhi
0 52.3600831054 zlo zhi

Masses

1 26.9815
2 10.811
3 12.011
4 51.9961
5 55.845
6 95.95999999999999
7 58.6934
8 1.008

Atoms # atomic/kk

1 7 1.1447475034 1.4042530815 14.1767669076 0 0 0
2 7 3.6084602259 1.0698845996 14.6704381247 0 0 0
3 5 6.0765506298 0.9467816033 14.9127945674 0 0 0
9 7 7.3904254576 3.1552415677 14.921343358 0 0 0
5 7 11.0497419237 1.2529911546 14.6024861837 0 0 0
6 7 12.371824795299998 3.4559595715 14.8227813157 -1 0 0
10 7 9.9130540797 3.3904065996 14.7812471609 0 0 0
16 4 0.4694173902 7.8125304368 14.7997570607 0 0 0
20 7 10.4454755951 7.6697182118 14.1848688757 0 0 0
26 7 0.1281197666 12.2044764222 14.9105894271 0 0 0
27 7 2.482376412 11.8082341077 14.4640395444 0 0 0
23 7 6.9215809143 9.0056325864 14.7794199109 0 0 0
28 7 4.9597127568 11.7869866321 14.6074736033 0 0 0
29 6 7.487468691 11.492489151 14.9214469503 0 0 0
24 7 9.211267288 9.7383043985 14.542324574 0 0 0
25 7 11.7628351674 9.8745411843 14.7910184475 0 0 0
30 7 10.0617556164 11.945152431 14.7619795889 0 0 0
7 7 2.4276438825 3.274586701 14.9921379853 0 0 0
31 6 0.1320668178 1.5666912763 16.54569988 0 0 0
32 7 2.6047881521 1.6851371804 16.9156842324 0 0 0
36 7 1.2195215325 3.8560608354 17.0299024962 0 0 0
37 7 3.7103479774 3.8371572501 17.0572271382 0 0 0
56 2 1.9139638832 0.320698286899999 15.6094045829 0 1 0
8 7 4.9287232821 3.1271355871 15.0109940309 0 0 0
33 7 4.9854693445 1.6648399647 16.9552168616 0 0 0
34 7 7.410113639 1.7690174525 16.9802513671 0 0 0
38 5 6.1786870847 3.8598965293 16.9892925392 0 0 0
4 6 8.6405916037 0.9966073374 15.0011028893 0 0 0
35 7 9.9854439602 1.6623584179 16.9441720819 0 0 0
39 7 8.7306918901 3.8627101762 16.8623801969 0 0 0
40 7 11.1905275305 3.8067890199 17.0006893521 0 0 0
11 7 1.2348702966 5.4950064056 15.0806985502 0 0 0
12 7 3.723333195 5.3162088046 15.091556138 0 0 0
17 7 2.6528824888 7.4951525199 15.1538371669 0 0 0
42 7 2.4538170063 6.1274901805 17.1415379148 0 0 0
47 7 3.8866203033 8.1976953877 17.0635533141 0 0 0
13 7 6.1787690715 5.3054540189 15.034535629 0 0 0
18 7 5.0798141029 7.4787706901 15.0688046453 0 0 0
19 2 7.0597951203 7.0189274967 15.3897174295 0 0 0
43 7 4.9526824561 5.9628190941 17.0949149841 0 0 0
44 7 7.4770692341 5.9405064365 17.0881545432 0 0 0
48 7 6.3467693742 8.0549577382 17.0498728177 0 0 0
14 7 8.7041968087 5.6586120419 14.9658205562 0 0 0
15 6 11.1806031706 5.6044565055 15.1850152514 0 0 0
41 7 12.442168210099998 5.9982391836 17.2267436521 -1 0 0
45 7 9.923455112 6.0385351278 17.2532666192 0 0 0
49 7 8.7166078523 7.9219477302 16.0697967416 0 0 0
50 7 11.1854260308 7.9909608595 16.4539207548 0 0 0
85 6 9.7874825474 8.473382021 18.5408467256 0 0 0
21 2 1.1654244367 10.4783622607 15.2130316912 0 0 0
22 7 2.969847795 9.8650340587 15.6453950804 0 0 0
46 7 0.7946061559 9.3672820405 16.8749701293 0 0 0
52 7 1.3503573598 11.8646523864 16.9891542204 0 0 0
57 7 3.753873893 12.4366743176 16.6098759546 0 0 0
87 1 3.6650451701 10.7156807278 18.2659007397 0 0 0
53 7 5.3358928559 10.1219872041 16.3275402765 0 0 0
54 7 7.7336051436 10.0538114804 16.9470367537 0 0 0
58 6 6.3195663174 12.3667352783 16.9550847684 0 0 0
51 3 11.519673145099999 9.370279149 17.6624171524 -1 0 0
55 7 10.1852587848 10.2759719364 16.6816821896 0 0 0
59 7 8.8367077706 12.3810361477 16.9622360876 0 0 0
60 7 11.2428990064 12.4670428062 16.882988677 0 0 0
66 6 1.393007034 2.1659191631 19.0534804658 0 0 0
67 5 3.8310712323 2.169749835 19.077551421 0 0 0
91 4 1.3610097719 0.7490016766 21.3001474804 0 0 0
92 7 3.7532698079 0.7243006354 21.0553737996 0 0 0
96 7 0.082079932 2.7970216106 21.1874527472 0 0 0
97 7 2.5927240934 2.8497939446 21.1992924965 0 0 0
63 5 4.9567742477 0.0529982254 18.9618634931 0 0 0
64 7 7.4416746235 0.0821708056 19.1014191477 0 0 0
68 7 6.1949360288 2.1588642027 19.0801897325 0 0 0
74 6 7.5018096017 4.2853629911 19.0547359126 0 0 0
93 7 6.2598414465 0.7194660822 21.17367312 0 0 0
98 7 5.0257186556 2.8737258399 21.1536837203 0 0 0
99 5 7.4793105556 2.8150634673 21.1692986238 0 0 0
65 7 10.0018085899 0.0802466939 19.0961651875 0 0 0
69 7 8.7385472152 2.1539822136 18.9954608723 0 0 0
70 7 11.2870638013 2.2382207273 18.9541707741 0 0 0
75 5 9.908720947 4.3054275401 19.0335874063 0 0 0
94 7 8.7140507513 0.7135233683 21.2362014867 0 0 0
95 7 11.3045523296 0.6704651065 21.199536471 0 0 0
100 6 10.0309211856 2.7845552589 21.0550342549 0 0 0
72 7 2.4838430183 4.388962084 19.1070457725 0 0 0
76 7 1.200144222 6.4346976141 19.2600213636 0 0 0
77 7 3.7839563224 6.5073099035 19.1651823211 0 0 0
82 6 2.3588605673 8.4890673053 18.9154467805 0 0 0
101 7 1.204403147 4.986371594 21.2593935642 0 0 0
102 6 3.7298053141 5.0424743752 21.2297752978 0 0 0
107 7 2.4685484599 7.1728356576 21.2326094282 0 0 0
73 7 4.9759755061 4.316411451 19.087212733 0 0 0
78 7 6.1965388899 6.5190956683 19.1399785413 0 0 0
103 7 6.2751972116 5.0470676015 21.1760724515 0 0 0
108 7 5.0116983743 7.22861409 21.2268755354 0 0 0
109 7 7.4193353481 7.2485706051 21.2651304498 0 0 0
71 1 12.383629132 4.3782094725 19.1862342201 -1 0 0
79 7 8.6255974932 6.472044202 19.3232968982 0 0 0
80 7 11.1135754549 6.420590323 19.3581641471 0 0 0
81 4 12.342695017999999 8.4729562787 19.2006565517 -1 0 0
104 7 8.7408050898 5.0231569879 21.2437432022 0 0 0
105 3 10.084374064475844 4.372348731001809 22.288100987483585 0 0 0
106 7 12.435294388199999 7.0968971559 21.3158557077 -1 0 0
110 7 9.8903603607 7.1660305315 21.3021949042 0 0 0
61 6 0.0477387397 12.935022616100001 18.9949290075 0 -1 0
62 7 2.587482576 12.8543346047 19.0383469717 0 -1 0
86 7 1.2816847716 10.6903307998 19.1614661098 0 0 0
111 7 1.1796694452 9.2896516501 21.1960342799 0 0 0
112 6 3.7016357908 9.3557762036 21.1431867319 0 0 0
116 1 0.0369839214 11.486698451 21.2977096144 0 0 0
117 7 2.4704264091 11.5284142583 21.1452899236 0 0 0
83 7 4.9462384898 8.7330200409 19.0834474924 0 0 0
84 7 7.3974678157 8.6397297376 19.085743402 0 0 0
88 7 6.1625171869 10.8013148416 18.9301045672 0 0 0
113 7 6.2139769728 9.4092095126 21.0353192467 0 0 0
118 7 4.9639845145 11.5407295129 21.0425881559 0 0 0
119 4 7.3995383715 11.5362046003 21.0747824702 0 0 0
89 6 8.731338748 10.8500854071 19.0384744744 0 0 0
90 4 11.272219843 10.8209844576 18.9386324767 0 0 0
114 7 8.6997099562 9.3160354633 20.9928929717 0 0 0
115 6 11.109001975 9.2519683408 21.1755872983 0 0 0
120 7 9.9858618188 11.5164614705 21.1821863062 0 0 0
121 7 0.0778003435538535 1.3733730043060177 23.31323815234261 0 0 0
122 7 2.5691864698697087 1.3846568433011222 23.333969567230305 0 0 0
126 6 1.3488654916030238 3.5677622835342806 23.26871179137292 0 0 0
127 7 3.8442365134765875 3.5710256750643925 23.365242543265406 0 0 0
156 1 1.473662979232891 2.11141578160148 25.51803523349476 0 0 0
157 7 3.960045405299512 2.1173648002612206 25.449814848016512 0 0 0
162 7 2.5922241438790987 4.242968663280254 25.430240814168872 0 0 0
123 7 4.985640272395658 1.409659986147119 23.166817467775704 0 0 0
124 7 7.387004435146789 1.4815621303246045 23.490027728883287 0 0 0
128 7 6.296681575589847 3.6451450915399355 23.18686522545395 0 0 0
153 7 5.190163576373433 0.05213877500931026 25.300078779847052 0 0 0
158 2 5.769278754380068 2.437908927222194 24.63250521054301 0 0 0
163 7 5.111401809095592 4.223793141112075 25.42469254933189 0 0 0
164 5 7.470576636597224 4.042765558284915 25.36269073776348 0 0 0
125 7 10.036377268881546 1.408155429473113 23.358057972240655 0 0 0
129 7 8.74427974755479 3.526417595211268 23.35010273210167 0 0 0
130 4 11.36056044211299 3.596633112283183 23.40448585583671 0 0 0
155 4 10.111602372620963 0.04328329052690277 25.562382406598314 0 0 0
159 7 8.861691128950577 2.079160951120133 25.450746747544265 0 0 0
160 7 11.393639333854516 2.134470956350576 25.422800977440353 0 0 0
165 7 10.058421244147551 4.197528849967371 25.41251898705135 0 0 0
131 7 0.06410320272257426 5.750756583430848 23.40610006801034 0 0 0
132 7 2.5356406500631596 5.778564121789076 23.363520249111247 0 0 0
136 7 1.2960654177498627 7.8925700582038845 23.30859914526697 0 0 0
137 7 3.7695477214355626 7.959755128911338 23.28223920078548 0 0 0
161 4 0.10189724816800763 4.319095657613011 25.469590561831353 0 0 0
166 7 1.3306784846425987 6.393567957603946 25.432639971273122 0 0 0
167 7 3.800642805426701 6.416476114015804 25.44657594882031 0 0 0
171 6 0.1035072022900976 8.593365038820258 25.434394125376436 0 0 0
172 7 2.615805412140193 8.587425206219983 25.380586724271417 0 0 0
133 6 5.057771329681067 5.837513970749727 23.391165803300503 0 0 0
134 7 7.552020832546072 5.7572016429595685 23.318291870847137 0 0 0
138 7 6.302701276813759 7.975081628970942 23.34564913961427 0 0 0
168 7 6.357615124644248 6.372945158643369 25.437104167859324 0 0 0
173 7 5.097173009121799 8.531764295468324 25.33764253241451 0 0 0
135 7 10.057180284134299 5.804290167278667 23.390730581603677 0 0 0
139 4 8.686336682305472 7.921376306277967 23.247803819065215 0 0 0
140 4 11.27529890498356 7.86885007690652 23.321512806045344 0 0 0
169 7 8.768485295254544 6.311206951877838 25.38579956607327 0 0 0
170 7 11.282599782509248 6.38708430496645 25.45050531041062 0 0 0
175 6 9.879544602056756 8.546875257624201 25.525929227935016 0 0 0
141 7 0.012392848143645172 10.046137580954133 23.348233246721346 0 0 0
142 7 2.488639488339441 10.084110442433929 23.25973143696903 0 0 0
146 7 1.2944736453175754 12.212957626294898 23.35541258075878 0 0 0
147 7 3.7984290528192792 12.221682299821746 23.18521779669509 0 0 0
151 4 0.08481389636638836 12.853290123794292 25.4204123993519 0 -1 0
152 7 2.6477376442712255 12.92200310425006 25.379670490640653 0 -1 0
176 7 1.3351018928306675 10.777649466597031 25.43749869831402 0 0 0
177 6 3.872497477647989 10.794627598510933 25.280207297943914 0 0 0
143 7 5.046670088349911 10.083038204110144 23.186404799477636 0 0 0
144 7 7.496448159580132 10.067789610164807 22.924396598510565 0 0 0
148 4 6.203896859473787 12.24843078039249 23.191220484045598 0 0 0
154 7 7.592061107775286 12.92154486519754 25.480654092895026 0 -1 0
178 6 6.60896628991506 10.520380555804152 25.226947885037237 0 0 0
145 7 9.98752884457997 10.053161657849321 23.319278832703258 0 0 0
149 6 8.699296252705366 12.250991618010916 23.33478313444442 0 0 0
150 7 11.238817567947248 12.19639518380992 23.410332053781186 0 0 0
174 3 8.405406237572391 9.487953973057538 24.42786953944646 0 0 0
179 5 8.989969696205804 10.90169527966277 25.587110553600805 0 0 0
180 5 11.328254881059195 10.845832694293621 25.51127014136968 0 0 0
181 7 1.3847027445968811 0.6435414444796372 27.502897323923968 0 0 0
182 7 3.8708418534745284 0.6806564711258862 27.445911055059028 0 0 0
186 7 0.16456423308621274 2.83517436970899 27.495379994624916 0 0 0
187 7 2.653631012158649 2.828330513932859 27.57385063503776 0 0 0
211 7 0.20436276067432108 1.4224205537489265 29.593559766458657 0 0 0
212 7 2.70990113245995 1.3333137789422511 29.59547239496081 0 0 0
216 7 1.403015733375739 3.5302799006180536 29.5914561842983 0 0 0
217 4 3.8169109653122875 3.5450826877817514 29.60842255166195 0 0 0
183 7 6.3028397586147396 0.6922520876011414 27.583692934244848 0 0 0
188 7 5.076254242738374 2.8506019224425434 27.586206106778647 0 0 0
189 7 7.587122118301025 2.7700374561071914 27.469422994478517 0 0 0
213 5 5.1319071718938885 1.4032990210864482 29.616746491712277 0 0 0
214 7 7.606964549484821 1.3318807097718623 29.606924114863325 0 0 0
218 7 6.357229798126821 3.5092901334332565 29.55599192674019 0 0 0
184 7 8.878159162881108 0.6977659982100899 27.575970362115523 0 0 0
185 4 11.377056803235284 0.7008039131886881 27.546473325395866 0 0 0
190 7 10.137978173675942 2.809712937235615 27.493838681594305 0 0 0
215 7 10.118372144285164 1.382390191807402 29.638246399714397 0 0 0
219 7 8.832142630623933 3.488853389185822 29.533966858727307 0 0 0
220 7 11.362715049216218 3.5371984270667287 29.523687506139797 0 0 0
191 7 1.3840121693216112 4.983306856544292 27.474501995298183 0 0 0
192 7 3.8262904243837497 4.965179419332961 27.486525819993766 0 0 0
196 7 0.1313156001783596 7.136280750596691 27.503794933768145 0 0 0
197 7 2.573145567840487 7.170961052146339 27.480403611734154 0 0 0
221 7 0.11360747634294127 5.704550889952187 29.57346273332405 0 0 0
222 7 2.582478981180504 5.702806112741967 29.550894600337205 0 0 0
226 7 1.3605824268606863 7.88375552632467 29.558606268353792 0 0 0
227 7 3.8555153965259437 7.890961714999492 29.47540944092238 0 0 0
193 7 6.362944688649106 4.95099604953046 27.419069994419647 0 0 0
198 7 5.095561091739751 7.149977083323241 27.417851860745383 0 0 0
199 7 7.61358853778146 7.165771179396421 27.453999021861332 0 0 0
223 6 5.145506953117744 5.692007050823992 29.493709285723032 0 0 0
224 7 7.63692474840946 5.712299413887342 29.58413634214082 0 0 0
228 7 6.3852944085531576 7.8875285137414295 29.499658937083556 0 0 0
194 6 8.841145886429615 4.974325111033477 27.495406158175577 0 0 0
195 7 11.354223928850235 4.972133907601912 27.51081293539386 0 0 0
200 7 10.117763169727723 7.136298540720688 27.543933652080657 0 0 0
225 7 10.094999792469324 5.719321462593461 29.605789039252482 0 0 0
229 7 8.839005307056155 7.860396879845555 29.529100191518413 0 0 0
230 7 11.364439853334494 7.910595241010736 29.5289255090097 0 0 0
201 5 1.3748398875378625 9.305433908439305 27.523899011724406 0 0 0
202 7 3.866145499355319 9.29955147046166 27.382947731031436 0 0 0
206 4 0.18129279965525102 11.457025649318998 27.532913109895006 0 0 0
207 7 2.605469285233109 11.436439425265695 27.44676759425221 0 0 0
231 7 0.1604352987938948 10.059637999937719 29.578280180693138 0 0 0
232 7 2.6323769224889335 10.009008385932617 29.438735512258102 0 0 0
236 7 1.465191522992154 12.162184369999189 29.562985118721826 0 0 0
203 7 6.367523894905693 9.263831755891143 27.396419034413473 0 0 0
208 7 5.13140385275693 11.478365098844767 27.330273074820006 0 0 0
209 6 7.575896466336958 11.503659299181516 27.647551733475712 0 0 0
233 7 5.142226541172235 10.032215648544787 29.33461614109221 0 0 0
234 7 7.59439095176207 10.062562363338337 29.666457972357033 0 0 0
238 7 6.208645604078071 12.2144735295415 29.693632457629306 0 0 0
204 7 8.832981868588769 9.347254043958909 27.627706619025954 0 0 0
205 7 11.340378210276834 9.396127091127855 27.553851840639773 0 0 0
210 7 10.14438503954217 11.533402925384172 27.592326806189885 0 0 0
235 7 10.079997034785372 10.159470529001675 29.607707394968877 0 0 0
239 4 8.872172459452026 12.234494603813523 29.74259215380265 0 0 0
240 7 11.389045755518342 12.246592728196038 29.570951312597046 0 0 0
237 3 4.0403868605168105 0.2824231155164471 30.588870231251782 0 1 0
241 7 0.19665193642024073 0.08452321229148756 31.639376083933612 0 0 0
242 7 2.5657657080902125 0.12049752496622086 31.75866950728047 0 0 0
246 4 1.3387592394695456 2.2231804610715664 31.66593144488576 0 0 0
247 7 3.8782602662774677 2.1274676546989304 31.660460813307754 0 0 0
251 7 0.13887146492469904 4.308647179268379 31.651621744065565 0 0 0
252 7 2.6233069631911374 4.297486057469863 31.66943254081239 0 0 0
248 7 6.403216541318889 2.1265310101231183 31.674284149099716 0 0 0
253 7 5.103551016152887 4.285780102746822 31.632558727394375 0 0 0
254 7 7.612987865496395 4.290658105288084 31.598269985556048 0 0 0
249 7 8.844981989637933 2.087439946461896 31.690539552878377 0 0 0
250 7 11.377186790478758 2.124030412925559 31.66157323637681 0 0 0
255 1 10.098543424012076 4.207315089407628 31.50292043200032 0 0 0
256 7 1.3216544023103662 6.486469031242064 31.632920736638223 0 0 0
257 6 3.7820946240059725 6.4797040285690155 31.655656489215357 0 0 0
286 7 0.09226338189355655 7.268619506369757 33.61805746968539 0 0 0
258 7 6.343491087955302 6.470497073095836 31.623391907508918 0 0 0
264 7 7.580078560542239 8.558193504483596 31.6266820203815 0 0 0
259 4 8.811521214638356 6.444680323178633 31.62467879382402 0 0 0
260 7 11.308486703318286 6.476719489445549 31.592113909228754 0 0 0
284 5 8.873463748742015 5.104614700411487 33.58027748765507 0 0 0
285 4 11.343686697682056 5.1497337113540596 33.63645878237088 0 0 0
290 7 10.07234245969625 7.2379608782723714 33.59068337816249 0 0 0
261 7 0.17222441705714492 8.698731036585427 31.65720183325663 0 0 0
262 7 2.6625860840966786 8.706458179788932 31.54184555943305 0 0 0
266 7 1.5629388392385193 10.818741464128488 31.579406505785776 0 0 0
267 4 3.9209858888882416 11.263709597460824 30.87157888639593 0 0 0
292 7 3.956458083416365 9.365193096285083 33.52063613858566 0 0 0
243 7 5.166571272112429 12.88130428282436 32.14278688162754 0 -1 0
244 7 7.622397261208397 12.920660290722502 31.73440366523478 0 -1 0
263 1 5.088749182505614 8.740927048130398 31.437274410905765 0 0 0
268 7 6.253995665225809 10.741066443615889 31.58324762342664 0 0 0
293 4 6.440925364838125 9.299237642698204 33.67887828783018 0 0 0
245 7 10.105112421506037 12.871781943677872 31.8837878262237 0 -1 0
265 6 10.096415599298034 8.668006897534777 31.5452206566846 0 0 0
269 7 8.762189938015451 10.779956527028878 31.74773507333293 0 0 0
270 7 11.42102293811498 10.895006434646808 31.626483195668676 0 0 0
296 3 11.056833563211459 11.826701831101456 33.347095097191946 -1 0 0
271 7 1.4731857891401576 0.889392155063003 33.785539634969275 0 0 0
272 7 3.918941812826385 0.9448508839850102 33.95396974805975 0 0 0
276 7 0.17243248688712418 2.98292898548155 33.738301043301014 0 0 0
277 7 2.638241682177717 3.0613429947092805 33.80462406790023 0 0 0
301 7 0.1971952544298656 1.5508565922321023 35.766756734715564 0 0 0
302 7 2.6113453506523094 1.6492990599436321 35.87883906160806 0 0 0
306 4 1.4075437984054562 3.8165777961395317 35.95769465001146 0 0 0
307 7 3.9892965380553407 3.700330490802334 35.83830116271173 0 0 0
273 7 6.479220662435155 0.9537692285720151 33.951387429901104 0 0 0
278 1 5.218775263367009 2.9734381753004278 33.7463752487948 0 0 0
279 7 7.726570482170941 3.0263366810726486 33.74434621110374 0 0 0
303 7 5.259285715238724 1.6259917596311162 35.96941881159327 0 0 0
304 4 7.798729214214032 1.5821873516593146 35.97087419114735 0 0 0
308 7 6.529705315816752 3.672937605575357 35.8170082739024 0 0 0
274 7 8.8557995220571 0.9025484544095419 33.85609755207542 0 0 0
275 4 11.449657428474563 0.796729487516329 33.72281424071301 0 0 0
280 7 10.200614588843012 3.0025209353293514 33.697548274275675 0 0 0
305 7 10.249790351935394 1.6030420044424512 35.71104903377637 0 0 0
309 7 9.014176257067325 3.663456691919376 35.79920274419106 0 0 0
310 4 11.591349168274794 3.943338308952069 35.853578621758274 0 0 0
281 7 1.3169245211418266 5.166686462412685 33.84961748821852 0 0 0
282 4 3.8371341852299308 5.111713295266132 33.76175349990164 0 0 0
287 7 2.62480594938844 7.271981635737965 33.736266915139105 0 0 0
312 7 2.7110732315131107 5.768327314779943 35.77127173160634 0 0 0
316 7 1.2107137593835542 7.599793731529562 35.7853615642535 0 0 0
317 7 3.900583722408871 8.0452650222176 35.726593287545896 0 0 0
283 7 6.369163627602163 5.077991073276859 33.67157964219777 0 0 0
288 7 5.16765712184185 7.246868562249682 33.66149842487878 0 0 0
289 7 7.620041778343838 7.1645288753185286 33.71273163055149 0 0 0
313 7 5.239434797428445 5.88130247709248 35.705584849145104 0 0 0
314 7 7.701243161512708 5.800476275950262 35.73830079916491 0 0 0
318 4 6.501006719319544 8.067530804380436 35.78191664606561 0 0 0
311 2 12.382427861219021 5.984729070968631 35.32587050000345 -1 0 0
315 7 10.113457988795414 5.79531357468966 35.579477658468726 0 0 0
319 7 8.920938286731596 7.959530573261948 35.82629117912506 0 0 0
320 7 11.341537971439754 7.905550429802908 35.570830983526704 0 0 0
350 7 11.671314322370328 6.275513681330015 37.29509574260576 0 0 0
355 3 10.416419108949102 7.903806306633462 37.249581119615584 0 0 0
291 7 1.4623301857641742 9.414189260808724 33.73418958750475 0 0 0
297 6 3.021797797944641 11.564635871689255 33.69273373629889 0 0 0
321 6 0.19862722829259485 10.057113106958333 35.90729602382337 0 0 0
322 7 2.6940474530885306 10.183088500385907 35.77481075524393 0 0 0
326 7 0.49983918683450146 11.639627113087899 33.67255270534462 0 0 0
327 6 3.914024205228584 12.480530829504806 36.13823132558032 0 0 0
356 4 1.3918791135498607 12.34611551412578 35.84382886763607 0 0 0
298 2 5.197891436308255 12.291953673020844 34.264942807858 0 0 0
299 7 6.949058650712162 11.549797455776782 33.68195426252956 0 0 0
323 6 5.224152068453409 10.222769405234178 35.61646030269506 0 0 0
324 7 7.906538733359138 10.266838685570963 35.7333834351904 0 0 0
328 7 6.517287781780134 12.478876847681311 35.96571710465353 0 0 0
294 7 8.759833969039356 9.261080692324429 33.694940512374586 0 0 0
295 6 11.253854705101336 9.687974874371196 33.76890061856493 0 0 0
300 7 9.33482557882939 11.520928003084984 34.13459104213156 0 0 0
325 7 10.218345057386655 9.832237340872762 36.86186443759247 0 0 0
329 3 9.473524045706055 11.489174610404781 36.164529103008036 0 0 0
330 4 11.226843696496763 12.039159232532967 35.53721200810643 0 0 0
335 5 9.855269704888276 0.049479571297419866 37.34865811197721 0 0 0
332 7 2.4459675732745114 0.10078400131719176 38.03745556140116 0 0 0
336 7 1.3127973254392442 2.185906827189001 37.84343818622472 0 0 0
337 7 3.860592670738895 2.194407991099492 37.87762829517334 0 0 0
341 7 0.20218356767275103 4.2591751950097265 38.06822748590234 0 0 0
342 7 2.694565830718374 4.284587203497515 37.92558128123644 0 0 0
333 7 5.1589214112109865 0.1581803876046925 38.165378114255425 0 0 0
334 7 7.588098842831371 0.20226565091834203 38.19401909495546 0 0 0
338 7 6.4673066950484674 2.3023811571812955 37.94509640298728 0 0 0
339 7 8.97008980756929 2.241118436189904 37.96242187516478 0 0 0
340 7 11.353328777890258 2.210690270242606 37.72966705313914 0 0 0
361 8 7.726823646871334 1.7147415974262032 38.97159076756765 0 0 0
346 7 1.5012797736090084 6.403427809928809 37.99761983438784 0 0 0
347 6 3.9424226866612577 6.466378919506565 37.74821541752126 0 0 0
343 7 5.271719279643404 4.426997002434856 37.84449378966769 0 0 0
344 7 7.812413872427809 4.453647147300716 37.84140604528787 0 0 0
348 6 6.628105913073695 6.638595064469397 37.81695969345371 0 0 0
345 4 10.216909793651661 4.3518577071105335 37.79882688533911 0 0 0
349 7 9.231824623365567 6.616245966529691 37.860626643368235 0 0 0
351 7 12.20843555855844 8.569636733013208 37.82782884592227 -1 0 0
352 6 2.4686922167083845 8.658048273579027 37.699872554239455 0 0 0
357 7 3.8166460553452315 10.792888917521797 37.99268772251457 0 0 0
360 7 1.3643225419110978 10.899981956929482 37.89570415073292 1 0 0
353 7 5.092397987800363 8.67911253899036 37.82294809722575 0 0 0
354 7 7.805958613240624 8.856714454169156 37.82198109316006 0 0 0
358 6 6.38379699295538 10.854296820489841 37.8688686346655 0 0 0
331 7 12.346180892793676 12.871460842694031 37.59572138971031 -1 -1 0
359 2 8.24148017851895 11.685722398476592 37.05499368795737 0 0 0

Velocities

1 0 0 0
2 0 0 0
3 0 0 0
9 0 0 0
5 0 0 0
6 0 0 0
10 0 0 0
16 0 0 0
20 0 0 0
26 0 0 0
27 0 0 0
23 0 0 0
28 0 0 0
29 0 0 0
24 0 0 0
25 0 0 0
30 0 0 0
7 0 0 0
31 0 0 0
32 0 0 0
36 0 0 0
37 0 0 0
56 0 0 0
8 0 0 0
33 0 0 0
34 0 0 0
38 0 0 0
4 0 0 0
35 0 0 0
39 0 0 0
40 0 0 0
11 0 0 0
12 0 0 0
17 0 0 0
42 0 0 0
47 0 0 0
13 0 0 0
18 0 0 0
19 0 0 0
43 0 0 0
44 0 0 0
48 0 0 0
14 0 0 0
15 0 0 0
41 0 0 0
45 0 0 0
49 0 0 0
50 0 0 0
85 0 0 0
21 0 0 0
22 0 0 0
46 0 0 0
52 0 0 0
57 0 0 0
87 0 0 0
53 0 0 0
54 0 0 0
58 0 0 0
51 0 0 0
55 0 0 0
59 0 0 0
60 0 0 0
66 0 0 0
67 0 0 0
91 0 0 0
92 0 0 0
96 0 0 0
97 0 0 0
63 0 0 0
64 0 0 0
68 0 0 0
74 0 0 0
93 0 0 0
98 0 0 0
99 0 0 0
65 0 0 0
69 0 0 0
70 0 0 0
75 0 0 0
94 0 0 0
95 0 0 0
100 0 0 0
72 0 0 0
76 0 0 0
77 0 0 0
82 0 0 0
101 0 0 0
102 0 0 0
107 0 0 0
73 0 0 0
78 0 0 0
103 0 0 0
108 0 0 0
109 0 0 0
71 0 0 0
79 0 0 0
80 0 0 0
81 0 0 0
104 0 0 0
105 0 0 0
106 0 0 0
110 0 0 0
61 0 0 0
62 0 0 0
86 0 0 0
111 0 0 0
112 0 0 0
116 0 0 0
117 0 0 0
83 0 0 0
84 0 0 0
88 0 0 0
113 0 0 0
118 0 0 0
119 0 0 0
89 0 0 0
90 0 0 0
114 0 0 0
115 0 0 0
120 0 0 0
121 0 0 0
122 0 0 0
126 0 0 0
127 0 0 0
156 0 0 0
157 0 0 0
162 0 0 0
123 0 0 0
124 0 0 0
128 0 0 0
153 0 0 0
158 0 0 0
163 0 0 0
164 0 0 0
125 0 0 0
129 0 0 0
130 0 0 0
155 0 0 0
159 0 0 0
160 0 0 0
165 0 0 0
131 0 0 0
132 0 0 0
136 0 0 0
137 0 0 0
161 0 0 0
166 0 0 0
167 0 0 0
171 0 0 0
172 0 0 0
133 0 0 0
134 0 0 0
138 0 0 0
168 0 0 0
173 0 0 0
135 0 0 0
139 0 0 0
140 0 0 0
169 0 0 0
170 0 0 0
175 0 0 0
141 0 0 0
142 0 0 0
146 0 0 0
147 0 0 0
151 0 0 0
152 0 0 0
176 0 0 0
177 0 0 0
143 0 0 0
144 0 0 0
148 0 0 0
154 0 0 0
178 0 0 0
145 0 0 0
149 0 0 0
150 0 0 0
174 0 0 0
179 0 0 0
180 0 0 0
181 0 0 0
182 0 0 0
186 0 0 0
187 0 0 0
211 0 0 0
212 0 0 0
216 0 0 0
217 0 0 0
183 0 0 0
188 0 0 0
189 0 0 0
213 0 0 0
214 0 0 0
218 0 0 0
184 0 0 0
185 0 0 0
190 0 0 0
215 0 0 0
219 0 0 0
220 0 0 0
191 0 0 0
192 0 0 0
196 0 0 0
197 0 0 0
221 0 0 0
222 0 0 0
226 0 0 0
227 0 0 0
193 0 0 0
198 0 0 0
199 0 0 0
223 0 0 0
224 0 0 0
228 0 0 0
194 0 0 0
195 0 0 0
200 0 0 0
225 0 0 0
229 0 0 0
230 0 0 0
201 0 0 0
202 0 0 0
206 0 0 0
207 0 0 0
231 0 0 0
232 0 0 0
236 0 0 0
203 0 0 0
208 0 0 0
209 0 0 0
233 0 0 0
234 0 0 0
238 0 0 0
204 0 0 0
205 0 0 0
210 0 0 0
235 0 0 0
239 0 0 0
240 0 0 0
237 0 0 0
241 0 0 0
242 0 0 0
246 0 0 0
247 0 0 0
251 0 0 0
252 0 0 0
248 0 0 0
253 0 0 0
254 0 0 0
249 0 0 0
250 0 0 0
255 0 0 0
256 0 0 0
257 0 0 0
286 0 0 0
258 0 0 0
264 0 0 0
259 0 0 0
260 0 0 0
284 0 0 0
285 0 0 0
290 0 0 0
261 0 0 0
262 0 0 0
266 0 0 0
267 0 0 0
292 0 0 0
243 0 0 0
244 0 0 0
263 0 0 0
268 0 0 0
293 0 0 0
245 0 0 0
265 0 0 0
269 0 0 0
270 0 0 0
296 0 0 0
271 0 0 0
272 0 0 0
276 0 0 0
277 0 0 0
301 0 0 0
302 0 0 0
306 0 0 0
307 0 0 0
273 0 0 0
278 0 0 0
279 0 0 0
303 0 0 0
304 0 0 0
308 0 0 0
274 0 0 0
275 0 0 0
280 0 0 0
305 0 0 0
309 0 0 0
310 0 0 0
281 0 0 0
282 0 0 0
287 0 0 0
312 0 0 0
316 0 0 0
317 0 0 0
283 0 0 0
288 0 0 0
289 0 0 0
313 0 0 0
314 0 0 0
318 0 0 0
311 0 0 0
315 0 0 0
319 0 0 0
320 0 0 0
350 0 0 0
355 0 0 0
291 0 0 0
297 0 0 0
321 0 0 0
322 0 0 0
326 0 0 0
327 0 0 0
356 0 0 0
298 0 0 0
299 0 0 0
323 0 0 0
324 0 0 0
328 0 0 0
294 0 0 0
295 0 0 0
300 0 0 0
325 0 0 0
329 0 0 0
330 0 0 0
335 0 0 0
332 0 0 0
336 0 0 0
337 0 0 0
341 0 0 0
342 0 0 0
333 0 0 0
334 0 0 0
338 0 0 0
339 0 0 0
340 0 0 0
361 0 0 0
346 0 0 0
347 0 0 0
343 0 0 0
344 0 0 0
348 0 0 0
345 0 0 0
349 0 0 0
351 0 0 0
352 0 0 0
357 0 0 0
360 0 0 0
353 0 0 0
354 0 0 0
358 0 0 0
331 0 0 0
359 0 0 0
