LAMMPS data file via write_data, version 11 Feb 2026, timestep = 142, units = metal

362 atoms
8 atom types

0 12.447907776 xlo xhi
0 12.9362452296 ylo yhi
0 52.3600831054 zlo zhi

Masses

1 26.9815
2 10.811
3 12.011
4 51.9961
5 55.845
6 95.95999999999999
7 58.6934
8 1.008

Atoms # atomic/kk

1 7 1.1452375093 1.4081816753 14.1715776782 0 0 0
2 7 3.6089097657 1.073862554 14.6652943824 0 0 0
3 5 6.0769479465 0.9507443644 14.9077299879 0 0 0
9 7 7.3908140875 3.1592534805 14.9161871246 0 0 0
5 7 11.0501948888 1.2569423315 14.5972711515 0 0 0
6 7 12.372304413799998 3.459934108 14.8175807564 -1 0 0
10 7 9.9135025222 3.394383111 14.7760659883 0 0 0
16 4 0.4698534946 7.8164615842 14.7946335627 0 0 0
20 7 10.4458795465 7.6737377857 14.1797824813 0 0 0
26 7 0.1286170593 12.2084278019 14.9054832291 0 0 0
27 7 2.4828469888 11.8121990101 14.4589561174 0 0 0
23 7 6.9220445131 9.0095696103 14.7742898804 0 0 0
28 7 4.9601335305 11.7909383487 14.6023392105 0 0 0
29 6 7.487887891 11.4964938545 14.9163051734 0 0 0
24 7 9.2116966834 9.7423003437 14.5372715576 0 0 0
25 7 11.7633225316 9.8785141476 14.7859852738 0 0 0
30 7 10.0622011806 11.9491374349 14.7568174032 0 0 0
7 7 2.4280890684 3.2785091221 14.9871351501 0 0 0
31 6 0.1325491046 1.570695125 16.5404617164 0 0 0
32 7 2.6052564624 1.6890788438 16.9106052047 0 0 0
36 7 1.21999407 3.8600092313 17.02489575 0 0 0
37 7 3.7107836214 3.8411094703 17.0522747284 0 0 0
56 2 1.9144254162 0.32466715759999865 15.6043022962 0 1 0
8 7 4.9291306734 3.1310940181 15.005986706 0 0 0
33 7 4.985916084 1.6687916385 16.9502161687 0 0 0
34 7 7.410514285 1.7729985434 16.9750499128 0 0 0
38 5 6.179073683 3.8638848352 16.9842048048 0 0 0
4 6 8.6410130071 1.0006166771 14.9958720054 0 0 0
35 7 9.9859062871 1.6663784502 16.9388971287 0 0 0
39 7 8.7311129104 3.8667082354 16.8571756202 0 0 0
40 7 11.1910013477 3.8107948278 16.995449938 0 0 0
11 7 1.2353448193 5.4989273917 15.0756837965 0 0 0
12 7 3.7237717027 5.3201395941 15.0866077199 0 0 0
17 7 2.6532803164 7.4990359896 15.1489580276 0 0 0
42 7 2.4543060815 6.1314225979 17.136623832 0 0 0
47 7 3.8869723618 8.2018285121 17.0587106739 0 0 0
13 7 6.1791284758 5.3095038527 15.029482199 0 0 0
18 7 5.0801483875 7.482901801 15.0638998818 0 0 0
19 2 7.0601749036 7.022954324 15.3846762742 0 0 0
43 7 4.9530701425 5.9668463901 17.0899442249 0 0 0
44 7 7.4774504043 5.944479979 17.0830300733 0 0 0
48 7 6.3471713745 8.058965168 17.0448946349 0 0 0
14 7 8.704614859 5.6626390614 14.9606938541 0 0 0
15 6 11.1810722058 5.6084405068 15.1798058941 0 0 0
41 7 12.4426452722 6.0021932094 17.2216015828 -1 0 0
45 7 9.9238885249 6.0425526821 17.2479924157 0 0 0
49 7 8.7170243464 7.9259422846 16.06475499 0 0 0
50 7 11.1858946411 7.9949513975 16.4488247897 0 0 0
85 6 9.7880581286 8.4774207921 18.5358726152 0 0 0
21 2 1.1659369815 10.4822894765 15.2079366178 0 0 0
22 7 2.9704183181 9.8688386095 15.6399519778 0 0 0
46 7 0.7952459702 9.3711287804 16.8698937275 0 0 0
52 7 1.3509084922 11.8685204636 16.9840390666 0 0 0
57 7 3.7543714309 12.4407145198 16.6047432946 0 0 0
87 1 3.6654287714 10.7194436479 18.2604058042 0 0 0
53 7 5.3363614175 10.1259200336 16.3223055733 0 0 0
54 7 7.7340497918 10.0578054993 16.941879451 0 0 0
58 6 6.3199854909 12.3706584932 16.9499980705 0 0 0
51 3 11.5202415059 9.3742715867 17.6572668311 -1 0 0
55 7 10.1857379845 10.2799452375 16.6765887255 0 0 0
59 7 8.8371548363 12.3850420716 16.9570005231 0 0 0
60 7 11.2433550924 12.4710585971 16.877796329 0 0 0
61 6 0.0482973112 0.0027501334 18.9896734432 0 0 0
66 6 1.3935967846 2.1698300538 19.0484074406 0 0 0
67 5 3.8315856212 2.1735777347 19.0726074352 0 0 0
91 4 1.3616318555 0.7528925751 21.2949775445 0 0 0
92 7 3.7538310088 0.7281117184 21.0504989856 0 0 0
96 7 0.0827163361 2.8009774109 21.1822389507 0 0 0
97 7 2.5933167317 2.8536582139 21.194350001 0 0 0
63 5 4.9572612583 0.0568419493 18.9569252837 0 0 0
64 7 7.4421412182 0.0861635244 19.0962431577 0 0 0
68 7 6.1954044794 2.1627780189 19.0751443905 0 0 0
74 6 7.5022232938 4.2893403368 19.0495670978 0 0 0
93 7 6.2603937867 0.7233692064 21.1687453393 0 0 0
98 7 5.0262365115 2.8775675108 21.1487501455 0 0 0
99 5 7.4798071844 2.8191099682 21.164009826 0 0 0
65 7 10.0023243962 0.0842880376 19.0908297615 0 0 0
69 7 8.7390158279 2.157992283 18.9901217764 0 0 0
70 7 11.2876401397 2.2421944126 18.9488333934 0 0 0
75 5 9.9091926161 4.3094453373 19.0282227094 0 0 0
94 7 8.7145872236 0.7176297871 21.2307780456 0 0 0
95 7 11.3050942433 0.6745411183 21.1941420435 0 0 0
100 6 10.031480763 2.7886541921 21.0495492708 0 0 0
72 7 2.484360732 4.392863338 19.1021670632 0 0 0
76 7 1.2006426683 6.4386016406 19.2549809846 0 0 0
77 7 3.7844350118 6.5111968479 19.1603604235 0 0 0
82 6 2.3593854846 8.4929988543 18.9108099375 0 0 0
101 7 1.2049351736 4.9903075884 21.2544120022 0 0 0
102 6 3.7303490397 5.0463382659 21.2250209463 0 0 0
107 7 2.4690580776 7.1766713019 21.2278001133 0 0 0
73 7 4.9764262384 4.3203206392 19.0822680903 0 0 0
78 7 6.1969544005 6.5231180932 19.1349576464 0 0 0
103 7 6.2756351686 5.0511026941 21.1709997602 0 0 0
108 7 5.0121925303 7.2325149738 21.2221675289 0 0 0
109 7 7.4197899365 7.2526887586 21.2599218068 0 0 0
71 1 12.3841350154 4.3821219311 19.1811610153 -1 0 0
79 7 8.6259724191 6.4760760647 19.3178932256 0 0 0
80 7 11.1140979622 6.4244904326 19.3528194481 0 0 0
81 4 12.3432055863 8.4769215989 19.1955303243 -1 0 0
104 7 8.7412587571 5.0273264556 21.2383339032 0 0 0
105 3 10.08471071954293 4.376019430306356 22.283244696940354 0 0 0
106 7 12.4357580801 7.1008556461 21.3106524283 -1 0 0
110 7 9.8908171927 7.1703173104 21.296472763 0 0 0
62 7 2.588037161 12.8581215116 19.0333870515 0 -1 0
86 7 1.2821763811 10.6942611792 19.1564597909 0 0 0
111 7 1.1801629329 9.2935920609 21.1911113273 0 0 0
112 6 3.7021471728 9.3596146842 21.1386065793 0 0 0
116 1 0.0374937072 11.4907730202 21.2925744389 0 0 0
117 7 2.470962999 11.5322285104 21.1404056807 0 0 0
83 7 4.9466402569 8.7369774273 19.0786672968 0 0 0
84 7 7.3979366125 8.6438164702 19.080690776 0 0 0
88 7 6.1629219647 10.805267131 18.9250665518 0 0 0
113 7 6.214404089 9.4132042076 21.0303751018 0 0 0
118 7 4.9644999437 11.5446085264 21.037819712 0 0 0
119 4 7.4000293779 11.5402408879 21.0695873677 0 0 0
89 6 8.7318279094 10.8541397876 19.0332344379 0 0 0
90 4 11.2727407102 10.8250136581 18.9334376976 0 0 0
114 7 8.70012327 9.3202947109 20.9878232752 0 0 0
115 6 11.1095089146 9.2561616428 21.1703622598 0 0 0
120 7 9.9863421964 11.5206311862 21.1768822162 0 0 0
121 7 0.07789011651892577 1.3776055234046618 23.308423029843166 0 0 0
122 7 2.56927876541631 1.3893264283883 23.32830742234292 0 0 0
126 6 1.3489007771331296 3.5721813485565956 23.264459809332926 0 0 0
127 7 3.844462711767722 3.5757526713601946 23.360515066662835 0 0 0
156 1 1.4735593377180545 2.1159378262500046 25.513924276971398 0 0 0
157 7 3.9598749899073247 2.122125375289678 25.442922711767043 0 0 0
162 7 2.5925172139129944 4.247996443024456 25.426737394662528 0 0 0
123 7 4.986266566211729 1.4143674366657017 23.161230602888356 0 0 0
124 7 7.387742439468156 1.485761930254521 23.485014965256852 0 0 0
128 7 6.297300952861638 3.6495378840126196 23.182084285725285 0 0 0
153 7 5.190637876692663 0.05661448268124658 25.29204268318416 0 0 0
158 2 5.76940867284893 2.4428910789431533 24.627479819152406 0 0 0
163 7 5.111678098130143 4.228989239962432 25.42027162706489 0 0 0
164 5 7.4707783932485965 4.0467136308686955 25.358817946457947 0 0 0
125 7 10.03690640035031 1.4121024964162336 23.353292787284364 0 0 0
129 7 8.745027146135206 3.5307157830359603 23.346095421409647 0 0 0
130 4 11.360582243219643 3.6008318197497684 23.400915837545007 0 0 0
155 4 10.1128298326036 0.04622406095843199 25.556738776879353 0 0 0
159 7 8.862934945669604 2.0830438942312806 25.446413846646365 0 0 0
160 7 11.394499194629049 2.1385675365383148 25.41974416597895 0 0 0
165 7 10.059065551547661 4.200908492791992 25.411008082890916 0 0 0
131 7 0.0642497859285021 5.75472532233418 23.402538058566314 0 0 0
132 7 2.5358755336174843 5.782711617241504 23.359125339240947 0 0 0
136 7 1.2960944034283912 7.896247624986591 23.30340428706685 0 0 0
137 7 3.7697801144471987 7.963834910717996 23.277159909845402 0 0 0
161 4 0.10236119204662952 4.32342062714919 25.46795760663493 0 0 0
166 7 1.3307325513945105 6.3974165401737215 25.429071758847826 0 0 0
167 7 3.80099352400205 6.421043976714817 25.441881364452467 0 0 0
171 6 0.10202677039910994 8.595972968863439 25.428587919309724 0 0 0
172 7 2.6152741834816875 8.59108331430558 25.37464857483024 0 0 0
133 6 5.058217207215262 5.841931115348045 23.38639525868158 0 0 0
134 7 7.552449695450058 5.761154054361559 23.313547328211502 0 0 0
138 7 6.303269984774868 7.979346003818893 23.34017937401949 0 0 0
168 7 6.358151736570134 6.377835838021772 25.43229336166222 0 0 0
173 7 5.097172639052876 8.536254414702803 25.33144306907923 0 0 0
135 7 10.057335921710346 5.807695064162454 23.38666949716487 0 0 0
139 4 8.686862330147564 7.924536501789773 23.243019974625103 0 0 0
140 4 11.27473103239789 7.87216907066095 23.316695936468783 0 0 0
169 7 8.76863490611447 6.312949872908386 25.382501506602097 0 0 0
170 7 11.282120426091225 6.38976313381519 25.44785951379327 0 0 0
175 6 9.877563830394616 8.548767482137125 25.52312523304595 0 0 0
141 7 0.012434748157773347 10.049558450509272 23.34252100658915 0 0 0
142 7 2.488518395512131 10.087970966527575 23.253680259034624 0 0 0
146 7 1.2947745824704258 12.217057033051315 23.34933603194585 0 0 0
147 7 3.7989045071749445 12.226196507258217 23.179221363616705 0 0 0
151 4 0.08492539387085003 12.856865429414569 25.41411027857373 0 -1 0
152 7 2.6472511944467976 12.926157419399956 25.372559617993442 0 -1 0
176 7 1.3345073152267575 10.780833647791585 25.430302597058734 0 0 0
177 6 3.8718284204260636 10.798503499689833 25.272807067609584 0 0 0
143 7 5.0472596884516365 10.087258450127091 23.180468688466515 0 0 0
144 7 7.497606362196884 10.071481718246298 22.918974467377257 0 0 0
148 4 6.204918686780548 12.252536233973002 23.184701102219957 0 0 0
154 7 7.5933273913771675 12.924820273605034 25.474057201999646 0 -1 0
178 6 6.609401143303752 10.524637589005835 25.219773107982938 0 0 0
145 7 9.987872070178073 10.056176488240101 23.314818536185633 0 0 0
149 6 8.700206401921195 12.254702216393282 23.328934592404494 0 0 0
150 7 11.239237636229317 12.199863751081343 23.404590899819656 0 0 0
174 3 8.405662249161761 9.490725882019841 24.422912666612316 0 0 0
179 5 8.990457644672333 10.904346502626543 25.582063218951284 0 0 0
180 5 11.328160927181738 10.848613515190081 25.505539811162706 0 0 0
181 7 1.383833335841512 0.6478521389751252 27.495949276105897 0 0 0
182 7 3.8707335730038013 0.6848063999517784 27.43585893614088 0 0 0
186 7 0.16556462451508525 2.839912167342447 27.494669742284003 0 0 0
187 7 2.6548410293196425 2.835072741621006 27.567872051433508 0 0 0
211 7 0.20497551044217038 1.4273673319796958 29.5925955077121 0 0 0
212 7 2.7078053829717414 1.3426032041531542 29.581459641440567 0 0 0
216 7 1.4058760789441442 3.537361294812874 29.590392140684962 0 0 0
217 4 3.819799748213036 3.5551290689414032 29.601935681273574 0 0 0
183 7 6.304005997929966 0.6972426149649342 27.572830296203385 0 0 0
188 7 5.077576025546927 2.855806085908036 27.57837895122421 0 0 0
189 7 7.589244125446362 2.775490042958517 27.464830157090095 0 0 0
213 5 5.130361185150474 1.4089181022434374 29.603810021756924 0 0 0
214 7 7.6072267555662965 1.3379298444836123 29.595656756021903 0 0 0
218 7 6.358137095235183 3.519108738027177 29.547589992328433 0 0 0
184 7 8.880017063305859 0.7013872659225335 27.56955947070145 0 0 0
185 4 11.377973072351105 0.7045936866429191 27.541543237719697 0 0 0
190 7 10.139574364412399 2.813989854752755 27.492799152085198 0 0 0
215 7 10.119729096120128 1.3863907369191832 29.6354053971972 0 0 0
219 7 8.83401315603151 3.4944895237896128 29.533186639029523 0 0 0
220 7 11.364494714858814 3.54102767396592 29.526664862218023 0 0 0
191 7 1.385638059920535 4.988648132239822 27.47375940475662 0 0 0
192 7 3.8281465881556778 4.972100524529339 27.48385192882474 0 0 0
196 7 0.13089930633070299 7.1393690013415885 27.500435221904137 0 0 0
197 7 2.573596923304944 7.175471172092156 27.476248419354317 0 0 0
221 7 0.11517531908226322 5.708997097055046 29.57449337748995 0 0 0
222 7 2.585957874520616 5.7112731323068475 29.552431519064527 0 0 0
226 7 1.35952571739587 7.886341256073827 29.553518995027407 0 0 0
227 7 3.855868905405128 7.896800506594951 29.469329094084006 0 0 0
193 7 6.363964317018915 4.9574375752207525 27.4154450316733 0 0 0
198 7 5.096691510000244 7.155569050101178 27.412699174858336 0 0 0
199 7 7.615732800281872 7.170558360921341 27.449402299142584 0 0 0
223 6 5.147308811286084 5.702911341013326 29.49227041341784 0 0 0
224 7 7.638386798623626 5.720428404992104 29.58292389576561 0 0 0
228 7 6.388601754177109 7.895263288722068 29.492949674570916 0 0 0
194 6 8.842166804969885 4.978726186522065 27.49507600239821 0 0 0
195 7 11.355226902930587 4.975869023609394 27.51143825897163 0 0 0
200 7 10.11831153818972 7.1390384992353155 27.542836538300687 0 0 0
225 7 10.0957801484608 5.721778717912313 29.609558118776665 0 0 0
229 7 8.840835487763062 7.864531699001631 29.528133699061698 0 0 0
230 7 11.363860810660858 7.912886497055101 29.527609318543586 0 0 0
201 5 1.3733128696072097 9.307806356790017 27.515217745608084 0 0 0
202 7 3.866603727517347 9.303718358799255 27.3756437254266 0 0 0
206 4 0.18154286072757006 11.459751837762003 27.52608150867638 0 0 0
207 7 2.6051169657749944 11.440220923793708 27.4380940055168 0 0 0
231 7 0.1600048733473011 10.061850303221954 29.570384556008996 0 0 0
232 7 2.628279910042815 10.010195100593377 29.426856656725597 0 0 0
236 7 1.466749260626139 12.167012080522154 29.555518957426685 0 0 0
203 7 6.369133019230193 9.267836520435914 27.388319433113384 0 0 0
208 7 5.132320094049925 11.482940079253146 27.320270473841347 0 0 0
209 6 7.57651193968116 11.506953531822882 27.64060345376617 0 0 0
233 7 5.144492916091039 10.037875994366694 29.32364509546031 0 0 0
234 7 7.595610430165119 10.070901162093563 29.66548861243023 0 0 0
238 7 6.206678674093861 12.219013381811374 29.681921977694312 0 0 0
204 7 8.833101233704943 9.350571609484792 27.62568180260916 0 0 0
205 7 11.339535762444374 9.39824064337943 27.548887805309395 0 0 0
210 7 10.14550751458089 11.536202926164066 27.586836391468466 0 0 0
235 7 10.080045461557209 10.162032089473222 29.603872582303847 0 0 0
239 4 8.872813967945005 12.237648028356242 29.733542127015568 0 0 0
240 7 11.39083356734794 12.25024123485144 29.564860928401345 0 0 0
237 3 4.029860951036539 0.2752490385875507 30.552780419545332 0 1 0
241 7 0.19491077321328054 0.08687821932560762 31.639669220950566 0 0 0
242 7 2.56501242765638 0.12972118158426985 31.73926177713701 0 0 0
246 4 1.3409797688304608 2.230810208306468 31.662611796142958 0 0 0
247 7 3.8755829397210486 2.142429563708405 31.64512098396454 0 0 0
252 7 2.6282484944522304 4.311117614358831 31.667574781884582 0 0 0
248 7 6.400528194063413 2.1397844740828273 31.65272297518935 0 0 0
253 7 5.106488803652552 4.301674423972352 31.628543211111737 0 0 0
254 7 7.616025789618396 4.3007741990645725 31.59323837192027 0 0 0
249 7 8.84530450710433 2.091381037440678 31.685553164120098 0 0 0
250 7 11.378594197493658 2.125235138170869 31.666448546471674 0 0 0
255 1 10.10067998887072 4.205928195207248 31.510500059605874 0 0 0
251 7 0.14292025610558137 4.3139943678733585 31.65376167351988 0 0 0
256 7 1.3248177139688488 6.493267370408073 31.635846255501924 0 0 0
257 6 3.7864097554042715 6.4941343767991615 31.662211458016145 0 0 0
286 7 0.0910973226565735 7.2705035756095775 33.62248259942384 0 0 0
258 7 6.346158146232862 6.485618225664607 31.62336075800715 0 0 0
264 7 7.583988051335857 8.567739180251639 31.623364930254386 0 0 0
259 4 8.815155439174182 6.449049975031404 31.630557655214584 0 0 0
260 7 11.309553506939789 6.478708426627306 31.596178554573854 0 0 0
284 5 8.88219101837838 5.105224612611589 33.584835190116166 0 0 0
285 4 11.344126808048408 5.143815561056276 33.63894947189102 0 0 0
290 7 10.07760506792107 7.246125673957158 33.59717675089333 0 0 0
261 7 0.17279313278001107 8.699089321931593 31.652963341452335 0 0 0
262 7 2.6615521635815593 8.71383235995405 31.532022598531743 0 0 0
266 7 1.5580558003487472 10.824226594972338 31.57107546745497 0 0 0
267 4 3.9141322197545603 11.263472353988368 30.853676018118147 0 0 0
292 7 3.957420746190106 9.365053022775774 33.508573901241256 0 0 0
243 7 5.16299804584402 12.893432975505151 32.09770826654265 0 -1 0
244 7 7.620626125352674 12.926833711133261 31.713214511027044 0 -1 0
263 1 5.089211351601105 8.752488759500135 31.421384747776795 0 0 0
268 7 6.256216799730824 10.752885332936964 31.584028776132293 0 0 0
293 4 6.442114083140346 9.312024673372353 33.65024153959293 0 0 0
245 7 10.106014585642907 12.87453217347181 31.869672250899555 0 -1 0
265 6 10.096934543026245 8.671013154147754 31.545676435112725 0 0 0
269 7 8.770473882339399 10.79206077454995 31.75066729400303 0 0 0
270 7 11.423473187998793 10.894918762292763 31.616654289900726 0 0 0
296 3 11.069876873117163 11.818178424521498 33.3335531851291 -1 0 0
271 7 1.4690594321293093 0.8909948412292413 33.77296693202919 0 0 0
272 7 3.915963713770463 0.9461767897671057 33.91818522599572 0 0 0
276 7 0.1708243115328328 2.9797657915303883 33.73430840549492 0 0 0
277 7 2.6377359778296223 3.069445895423254 33.79087665682232 0 0 0
301 7 0.18132094643712057 1.5382107854164466 35.753931511390114 0 0 0
302 7 2.607174494469179 1.6573752456902593 35.85238568064598 0 0 0
306 4 1.405891680679917 3.823833231428692 35.94603647638685 0 0 0
307 7 3.9837251094021493 3.7234385528679583 35.83092886796477 0 0 0
273 7 6.45402511095263 0.963245758034693 33.901886228613144 0 0 0
278 1 5.2120998163610714 2.992455124083832 33.732252781398714 0 0 0
279 7 7.722129307557718 3.0314106420194555 33.730584906324864 0 0 0
303 7 5.236795393432999 1.6605270465632693 35.929612952464176 0 0 0
304 4 7.743519077260496 1.6330527180268593 35.91702370657406 0 0 0
308 7 6.525451565229938 3.7074236703103205 35.7990921362709 0 0 0
274 7 8.829632745213127 0.8885676545391294 33.83762254100894 0 0 0
275 4 11.42781001148609 0.7802120923240814 33.72492683365488 0 0 0
280 7 10.199693399520903 2.980713181458113 33.720444810800075 0 0 0
305 7 10.209819464358194 1.535949544397804 35.740146856331684 0 0 0
309 7 9.01489404946314 3.655704400652346 35.78514182754604 0 0 0
310 4 11.597380821797223 3.939861899087378 35.85313699513471 0 0 0
281 7 1.3210350568611209 5.173562112836263 33.85867694388152 0 0 0
282 4 3.8371974211868407 5.1324023872140065 33.77025804152358 0 0 0
287 7 2.6325323971270413 7.280765149579033 33.74745229846352 0 0 0
312 7 2.721476430873995 5.789210111483468 35.79413418965113 0 0 0
316 7 1.2181869769839078 7.605140758126139 35.78475861035864 0 0 0
317 7 3.9367632650410678 8.038627047364933 35.74226973818646 0 0 0
283 7 6.377861107828877 5.092816163842767 33.669104143441395 0 0 0
288 7 5.18069321717699 7.262260213293907 33.669607373268555 0 0 0
289 7 7.626304693710989 7.177508736061231 33.71671000873455 0 0 0
313 7 5.258778712677879 5.899397845694402 35.72100470573985 0 0 0
314 7 7.715838980611865 5.817705332043467 35.75012745960066 0 0 0
318 4 6.546767849571392 8.095717599601203 35.80988175607145 0 0 0
311 2 12.376844543984623 5.9943070159325 35.32522022458929 -1 0 0
315 7 10.124746372358898 5.792665842490355 35.58314571007874 0 0 0
319 7 8.95007634505077 7.9649958676611945 35.814120670621236 0 0 0
320 7 11.34731312865454 7.91480121065981 35.5891577621131 0 0 0
350 7 11.669817113867708 6.266860511736634 37.30319932859041 0 0 0
355 3 10.43770515028949 7.883896462302393 37.272161243378925 0 0 0
291 7 1.4639595782291017 9.415985801112953 33.72392841223537 0 0 0
297 6 3.018233810708768 11.565301446763169 33.67088188718968 0 0 0
321 6 0.2117411819046876 10.046497893784148 35.901843818006284 0 0 0
322 7 2.700679356207279 10.179993050000055 35.75635735755754 0 0 0
326 7 0.502300250305222 11.640445600862092 33.67709325071371 0 0 0
327 6 3.912591127922822 12.498767797573139 36.100778902482396 0 0 0
356 4 1.393901474554368 12.34725318383574 35.84581744698335 0 0 0
298 2 5.19938532582347 12.27654728858393 34.209367651933995 0 0 0
299 7 6.991758763880891 11.571386461660065 33.685830035206294 0 0 0
323 6 5.231946549891122 10.233831816138967 35.58139245532149 0 0 0
324 7 7.901787934864781 10.340294979123339 35.704134157383116 0 0 0
328 7 6.464495518335084 12.516093902053626 35.926317189759615 0 0 0
294 7 8.761219781750615 9.279834387933043 33.69063296045208 0 0 0
295 6 11.260774164700312 9.686833495831703 33.762209889284 0 0 0
300 7 9.38018373237109 11.536327455230563 34.1725850278166 0 0 0
325 7 10.244391962646967 9.826913665579909 37.021754826742786 0 0 0
329 3 9.526899156010847 11.39552220433092 36.1929113417312 0 0 0
330 4 11.266449794145238 12.061097868704845 35.58501508980393 0 0 0
335 5 9.897378857453399 12.85502987376943 37.44305283281355 0 -1 0
332 7 2.4797191746078986 0.09367068334697125 38.03229348123857 0 0 0
336 7 1.3334066013657375 2.1823155776934833 37.82749099931974 0 0 0
337 7 3.8669915728401283 2.1874342860704847 37.85841387885964 0 0 0
341 7 0.2103146267576565 4.253480256635014 38.06689273530779 0 0 0
342 7 2.705599354451267 4.29033430400344 37.906995697061696 0 0 0
333 7 5.203097029262434 0.1563209092025962 38.1160035370132 0 0 0
334 7 7.641108828436242 0.07618867126542435 38.06804669474119 0 0 0
338 7 6.506767929931309 2.2488895033853593 37.891217430195674 0 0 0
339 7 8.995135645326549 2.1606781900998993 37.89852243971869 0 0 0
340 7 11.374938024089614 2.204640987593245 37.720231926217096 0 0 0
362 8 9.073045496730817 0.7247333904527379 38.837541930544255 0 0 0
346 7 1.5058941618211157 6.421015779405699 37.98202134542638 0 0 0
347 6 3.9752285238480747 6.45717994501139 37.794398945304316 0 0 0
343 7 5.29276364083245 4.3465576986037275 37.85193757443323 0 0 0
344 7 7.827501567526053 4.428379827018301 37.83959406235655 0 0 0
348 6 6.634344763253698 6.657485415574174 37.84282143427296 0 0 0
361 8 5.363935061098414 5.711210011156526 38.94291253280921 0 0 0
345 4 10.208921659323588 4.335887722669691 37.799354554491295 0 0 0
349 7 9.217764249157874 6.617930226950931 37.846244598504384 0 0 0
351 7 12.244601330009004 8.555663379272398 37.83583650670328 -1 0 0
352 6 2.4968601967966615 8.655140255775475 37.685874534130875 0 0 0
357 7 3.8396046799571977 10.807929206853025 37.94897001537545 0 0 0
360 7 1.3832925899065471 10.893579044029455 37.88196173971531 1 0 0
353 7 5.129352467388754 8.703416193802704 37.81953495474142 0 0 0
354 7 7.946461893923191 8.934972877274724 37.801362511272394 0 0 0
358 6 6.424100255859904 10.852436561679646 37.80496975592567 0 0 0
331 7 12.398102127092933 12.894568594066005 37.63369635146269 -1 -1 0
359 2 8.586225494000164 11.135540375077717 37.405878037723426 0 0 0

Velocities

1 0 0 0
2 0 0 0
3 0 0 0
9 0 0 0
5 0 0 0
6 0 0 0
10 0 0 0
16 0 0 0
20 0 0 0
26 0 0 0
27 0 0 0
23 0 0 0
28 0 0 0
29 0 0 0
24 0 0 0
25 0 0 0
30 0 0 0
7 0 0 0
31 0 0 0
32 0 0 0
36 0 0 0
37 0 0 0
56 0 0 0
8 0 0 0
33 0 0 0
34 0 0 0
38 0 0 0
4 0 0 0
35 0 0 0
39 0 0 0
40 0 0 0
11 0 0 0
12 0 0 0
17 0 0 0
42 0 0 0
47 0 0 0
13 0 0 0
18 0 0 0
19 0 0 0
43 0 0 0
44 0 0 0
48 0 0 0
14 0 0 0
15 0 0 0
41 0 0 0
45 0 0 0
49 0 0 0
50 0 0 0
85 0 0 0
21 0 0 0
22 0 0 0
46 0 0 0
52 0 0 0
57 0 0 0
87 0 0 0
53 0 0 0
54 0 0 0
58 0 0 0
51 0 0 0
55 0 0 0
59 0 0 0
60 0 0 0
61 0 0 0
66 0 0 0
67 0 0 0
91 0 0 0
92 0 0 0
96 0 0 0
97 0 0 0
63 0 0 0
64 0 0 0
68 0 0 0
74 0 0 0
93 0 0 0
98 0 0 0
99 0 0 0
65 0 0 0
69 0 0 0
70 0 0 0
75 0 0 0
94 0 0 0
95 0 0 0
100 0 0 0
72 0 0 0
76 0 0 0
77 0 0 0
82 0 0 0
101 0 0 0
102 0 0 0
107 0 0 0
73 0 0 0
78 0 0 0
103 0 0 0
108 0 0 0
109 0 0 0
71 0 0 0
79 0 0 0
80 0 0 0
81 0 0 0
104 0 0 0
105 0 0 0
106 0 0 0
110 0 0 0
62 0 0 0
86 0 0 0
111 0 0 0
112 0 0 0
116 0 0 0
117 0 0 0
83 0 0 0
84 0 0 0
88 0 0 0
113 0 0 0
118 0 0 0
119 0 0 0
89 0 0 0
90 0 0 0
114 0 0 0
115 0 0 0
120 0 0 0
121 0 0 0
122 0 0 0
126 0 0 0
127 0 0 0
156 0 0 0
157 0 0 0
162 0 0 0
123 0 0 0
124 0 0 0
128 0 0 0
153 0 0 0
158 0 0 0
163 0 0 0
164 0 0 0
125 0 0 0
129 0 0 0
130 0 0 0
155 0 0 0
159 0 0 0
160 0 0 0
165 0 0 0
131 0 0 0
132 0 0 0
136 0 0 0
137 0 0 0
161 0 0 0
166 0 0 0
167 0 0 0
171 0 0 0
172 0 0 0
133 0 0 0
134 0 0 0
138 0 0 0
168 0 0 0
173 0 0 0
135 0 0 0
139 0 0 0
140 0 0 0
169 0 0 0
170 0 0 0
175 0 0 0
141 0 0 0
142 0 0 0
146 0 0 0
147 0 0 0
151 0 0 0
152 0 0 0
176 0 0 0
177 0 0 0
143 0 0 0
144 0 0 0
148 0 0 0
154 0 0 0
178 0 0 0
145 0 0 0
149 0 0 0
150 0 0 0
174 0 0 0
179 0 0 0
180 0 0 0
181 0 0 0
182 0 0 0
186 0 0 0
187 0 0 0
211 0 0 0
212 0 0 0
216 0 0 0
217 0 0 0
183 0 0 0
188 0 0 0
189 0 0 0
213 0 0 0
214 0 0 0
218 0 0 0
184 0 0 0
185 0 0 0
190 0 0 0
215 0 0 0
219 0 0 0
220 0 0 0
191 0 0 0
192 0 0 0
196 0 0 0
197 0 0 0
221 0 0 0
222 0 0 0
226 0 0 0
227 0 0 0
193 0 0 0
198 0 0 0
199 0 0 0
223 0 0 0
224 0 0 0
228 0 0 0
194 0 0 0
195 0 0 0
200 0 0 0
225 0 0 0
229 0 0 0
230 0 0 0
201 0 0 0
202 0 0 0
206 0 0 0
207 0 0 0
231 0 0 0
232 0 0 0
236 0 0 0
203 0 0 0
208 0 0 0
209 0 0 0
233 0 0 0
234 0 0 0
238 0 0 0
204 0 0 0
205 0 0 0
210 0 0 0
235 0 0 0
239 0 0 0
240 0 0 0
237 0 0 0
241 0 0 0
242 0 0 0
246 0 0 0
247 0 0 0
252 0 0 0
248 0 0 0
253 0 0 0
254 0 0 0
249 0 0 0
250 0 0 0
255 0 0 0
251 0 0 0
256 0 0 0
257 0 0 0
286 0 0 0
258 0 0 0
264 0 0 0
259 0 0 0
260 0 0 0
284 0 0 0
285 0 0 0
290 0 0 0
261 0 0 0
262 0 0 0
266 0 0 0
267 0 0 0
292 0 0 0
243 0 0 0
244 0 0 0
263 0 0 0
268 0 0 0
293 0 0 0
245 0 0 0
265 0 0 0
269 0 0 0
270 0 0 0
296 0 0 0
271 0 0 0
272 0 0 0
276 0 0 0
277 0 0 0
301 0 0 0
302 0 0 0
306 0 0 0
307 0 0 0
273 0 0 0
278 0 0 0
279 0 0 0
303 0 0 0
304 0 0 0
308 0 0 0
274 0 0 0
275 0 0 0
280 0 0 0
305 0 0 0
309 0 0 0
310 0 0 0
281 0 0 0
282 0 0 0
287 0 0 0
312 0 0 0
316 0 0 0
317 0 0 0
283 0 0 0
288 0 0 0
289 0 0 0
313 0 0 0
314 0 0 0
318 0 0 0
311 0 0 0
315 0 0 0
319 0 0 0
320 0 0 0
350 0 0 0
355 0 0 0
291 0 0 0
297 0 0 0
321 0 0 0
322 0 0 0
326 0 0 0
327 0 0 0
356 0 0 0
298 0 0 0
299 0 0 0
323 0 0 0
324 0 0 0
328 0 0 0
294 0 0 0
295 0 0 0
300 0 0 0
325 0 0 0
329 0 0 0
330 0 0 0
335 0 0 0
332 0 0 0
336 0 0 0
337 0 0 0
341 0 0 0
342 0 0 0
333 0 0 0
334 0 0 0
338 0 0 0
339 0 0 0
340 0 0 0
362 0 0 0
346 0 0 0
347 0 0 0
343 0 0 0
344 0 0 0
348 0 0 0
361 0 0 0
345 0 0 0
349 0 0 0
351 0 0 0
352 0 0 0
357 0 0 0
360 0 0 0
353 0 0 0
354 0 0 0
358 0 0 0
331 0 0 0
359 0 0 0
