LAMMPS data file via write_data, version 11 Feb 2026, timestep = 148, units = metal

362 atoms
8 atom types

0 12.447907776 xlo xhi
0 12.9362452296 ylo yhi
0 52.3600831054 zlo zhi

Masses

1 26.9815
2 10.811
3 12.011
4 51.9961
5 55.845
6 95.95999999999999
7 58.6934
8 1.008

Atoms # atomic/kk

1 7 1.1454887647 1.4119103196 14.1727134823 0 0 0
2 7 3.6091798862 1.0775950399 14.6663881768 0 0 0
3 5 6.0772850531 0.954497258 14.908653887 0 0 0
9 7 7.3911650039 3.162946519 14.9172264638 0 0 0
5 7 11.0504923559 1.2606576958 14.598406425 0 0 0
6 7 12.3725660878 3.463623031 14.8187348856 -1 0 0
10 7 9.9138053275 3.3980768202 14.7771477152 0 0 0
16 4 0.4701376227 7.820166877 14.7956783455 0 0 0
20 7 10.446209215 7.6773853607 14.1808203286 0 0 0
26 7 0.1288663036 12.2121391051 14.9065503328 0 0 0
27 7 2.4831127889 11.815928569 14.4599737125 0 0 0
23 7 6.9223598339 9.0132799281 14.7752783775 0 0 0
28 7 4.9604433454 11.7947072893 14.6033267484 0 0 0
29 6 7.4882084661 11.5001811281 14.9172801882 0 0 0
24 7 9.2120310339 9.7459848435 14.5383087074 0 0 0
25 7 11.7635949967 9.8821998282 14.786977583 0 0 0
30 7 10.0625190034 11.9528272794 14.7579148329 0 0 0
7 7 2.4283629065 3.2822450627 14.9881346894 0 0 0
31 6 0.1328031287 1.5743575848 16.5416308897 0 0 0
32 7 2.6055093131 1.6927909964 16.9116860087 0 0 0
36 7 1.2202560891 3.8636882475 17.0259254174 0 0 0
37 7 3.7110784212 3.8448338925 17.0531784654 0 0 0
56 2 1.914705669 0.32836720239999906 15.6053723877 0 1 0
8 7 4.9294553752 3.1348423061 15.0068982697 0 0 0
33 7 4.9862005742 1.67252633 16.9510996016 0 0 0
34 7 7.4108517445 1.7767126087 16.9761183371 0 0 0
38 5 6.1794154888 3.8675942272 16.9851841422 0 0 0
4 6 8.6413267943 1.0042858327 14.9969790163 0 0 0
35 7 9.9861892678 1.6700282838 16.9400599926 0 0 0
39 7 8.7314378433 3.8703950509 16.8582664891 0 0 0
40 7 11.1912731091 3.8144464499 16.9966305862 0 0 0
11 7 1.2355940608 5.5026431298 15.0767186508 0 0 0
12 7 3.7240530163 5.3238748181 15.0875103273 0 0 0
17 7 2.6535920405 7.5027748451 15.1497942055 0 0 0
42 7 2.4545341247 6.1351681199 17.1375401145 0 0 0
47 7 3.887313657 8.205412347 17.059486297 0 0 0
13 7 6.1794836242 5.3131655815 15.0304414802 0 0 0
18 7 5.0805180546 7.4864993095 15.0647231601 0 0 0
19 2 7.0605303707 7.0266184404 15.385622426 0 0 0
43 7 4.9533942811 5.9705257778 17.0908342653 0 0 0
44 7 7.4777944783 5.9481975345 17.0840538523 0 0 0
48 7 6.3474873574 8.062655935 17.0457573992 0 0 0
14 7 8.7049321287 5.6662899182 14.9617322912 0 0 0
15 6 11.1813378817 5.612124041 15.1809815429 0 0 0
41 7 12.442892639199998 6.0058690444 17.2227572666 -1 0 0
45 7 9.9241882319 6.0462121458 17.2492146194 0 0 0
49 7 8.7173557277 7.9296122675 16.0657435651 0 0 0
50 7 11.1861950752 7.998616419 16.4498688817 0 0 0
85 6 9.7882876899 8.4810320373 18.5368136299 0 0 0
21 2 1.1661812644 10.4860239746 15.2089673103 0 0 0
22 7 2.9706173798 9.8726452768 15.6411650762 0 0 0
46 7 0.795414954 9.3748925792 16.8709079261 0 0 0
52 7 1.3511135545 11.8722759487 16.9851012455 0 0 0
57 7 3.7546244599 12.4443607337 16.6057727813 0 0 0
87 1 3.665729271 10.7232420717 18.2616407096 0 0 0
53 7 5.3366454137 10.1296584158 16.3233309466 0 0 0
54 7 7.7343649026 10.0615025715 16.9428639453 0 0 0
58 6 6.3203117768 12.3744197155 16.9509109783 0 0 0
51 3 11.5204929953 9.3779108621 17.6583861976 -1 0 0
55 7 10.1860634909 10.2836276937 16.6776516331 0 0 0
59 7 8.8374627373 12.3887068049 16.9581011774 0 0 0
60 7 11.2436560404 12.4747099952 16.8789518155 0 0 0
61 6 0.0485164334 0.0063735538 18.9909010428 0 0 0
66 6 1.3937868998 2.1735075333 19.0495514763 0 0 0
67 5 3.8318307737 2.1774089647 19.073494443 0 0 0
91 4 1.3617531422 0.7566149023 21.2961667613 0 0 0
92 7 3.7539852971 0.7319595843 21.0512741759 0 0 0
96 7 0.0828491417 2.8046390237 21.1835039588 0 0 0
97 7 2.5934658034 2.8574404178 21.1953671164 0 0 0
63 5 4.957520038 0.0606560815 18.9577108038 0 0 0
64 7 7.4424202569 0.0898428093 19.0972319865 0 0 0
68 7 6.1956863184 2.1665541982 19.0760401558 0 0 0
74 6 7.5025658392 4.2930488092 19.0506011985 0 0 0
93 7 6.260566516 0.7271507652 21.1694380599 0 0 0
98 7 5.0264664892 2.8814125382 21.1495579901 0 0 0
99 5 7.4800701229 2.8227539453 21.1651173647 0 0 0
65 7 10.0025726809 0.0879005866 19.0920525763 0 0 0
69 7 8.7393044619 2.1616497846 18.9913278452 0 0 0
70 7 11.2878592715 2.2458345733 18.9500729362 0 0 0
94 7 8.7148037681 0.7211924515 21.2320027073 0 0 0
95 7 11.3053180847 0.678084637 21.1954767436 0 0 0
100 6 10.0317133433 2.7922061032 21.0509099319 0 0 0
72 7 2.4845898017 4.3965760651 19.1030476938 0 0 0
76 7 1.2008790266 6.4422873601 19.256068769 0 0 0
77 7 3.784702203 6.5149421218 19.161150493 0 0 0
82 6 2.3595915143 8.496655588 18.9114509164 0 0 0
101 7 1.2051488201 4.9939772703 21.2554937471 0 0 0
102 6 3.7305436427 5.0501339338 21.2257439367 0 0 0
107 7 2.4692736667 7.1804618195 21.2286489863 0 0 0
73 7 4.9767258102 4.3240944737 19.083129246 0 0 0
78 7 6.1972840932 6.5267860971 19.1358692558 0 0 0
103 7 6.2759618479 5.0547685341 21.1719339889 0 0 0
108 7 5.0124393069 7.2362995053 21.2227761916 0 0 0
109 7 7.4200857774 7.256279911 21.2610126297 0 0 0
71 1 12.384381269299999 4.3858072042 19.1822707577 -1 0 0
75 5 9.909486263 4.3130637524 19.0294843997 0 0 0
79 7 8.6263389279 6.4797195525 19.3192167185 0 0 0
80 7 11.1143243567 6.4282026878 19.3541503896 0 0 0
81 4 12.3434377247 8.4805640427 19.1966659005 -1 0 0
104 7 8.7416108042 5.0308018458 21.2396183528 0 0 0
105 3 10.085017950267144 4.3795676348964685 22.28460742595051 0 0 0
106 7 12.4360138025 7.1044785977 21.3119334107 -1 0 0
110 7 9.8910938037 7.1736872078 21.2981339562 0 0 0
62 7 2.588251935 12.8619142834 19.0342742082 0 -1 0
86 7 1.2824485691 10.6979241478 19.1574392561 0 0 0
111 7 1.1803968843 9.297246223 21.1920510117 0 0 0
112 6 3.7023652841 9.3634289463 21.1390806223 0 0 0
116 1 0.037739456 11.4942994481 21.2937056893 0 0 0
117 7 2.4711494649 11.5360476797 21.1412532948 0 0 0
83 7 4.9469767378 8.7406771511 19.0793504621 0 0 0
84 7 7.3982270593 8.6474070803 19.0815809353 0 0 0
88 7 6.1632427861 10.8089778804 18.925915656 0 0 0
113 7 6.2147244044 9.4168985357 21.0311556163 0 0 0
118 7 4.964692632 11.5483935687 21.0384035582 0 0 0
119 4 7.4002762741 11.5438757954 21.0705972545 0 0 0
89 6 8.7320837203 10.8577564258 19.0343149764 0 0 0
90 4 11.272982912 10.8286089096 18.9346029402 0 0 0
114 7 8.7004877829 9.3236936667 20.9887083209 0 0 0
115 6 11.1097657727 9.2595762715 21.1715958888 0 0 0
120 7 9.9866369332 11.5240848583 21.1780515316 0 0 0
121 7 0.07813520384919062 1.3812162431116932 23.309752124403982 0 0 0
122 7 2.5695630080915075 1.3931174942027 23.329130541803657 0 0 0
126 6 1.3490676073488594 3.5758746360836047 23.265396172190194 0 0 0
127 7 3.844639683863285 3.579622929460075 23.36092575415904 0 0 0
156 1 1.4735556891008157 2.1196402805706454 25.514673812554328 0 0 0
157 7 3.95982583978616 2.126204019850445 25.443196795295677 0 0 0
162 7 2.5927015292208115 4.251883790506116 25.427010531436903 0 0 0
123 7 4.986647779632783 1.4183165756315863 23.161871721299217 0 0 0
124 7 7.38806841316971 1.4892894601789026 23.486851463511602 0 0 0
128 7 6.297582393055549 3.6530319050661197 23.183042506954344 0 0 0
153 7 5.191536637551263 0.06131617554683483 25.2928245256459 0 0 0
158 2 5.77002961479817 2.446109482063714 24.62876776287093 0 0 0
163 7 5.1120367225334205 4.232990885300953 25.420251595014307 0 0 0
164 5 7.471133744892207 4.049593094685784 25.359639354807115 0 0 0
125 7 10.037185535817086 1.4154804727032744 23.35466897141176 0 0 0
129 7 8.745371573746858 3.534073933548196 23.347364203672306 0 0 0
130 4 11.360784058580684 3.604281049697083 23.40233476639397 0 0 0
155 4 10.11347373897873 0.049541704180966144 25.55873715804145 0 0 0
159 7 8.863801825395985 2.086315687311344 25.448058119837214 0 0 0
160 7 11.394857733864393 2.141991847016004 25.42131639170946 0 0 0
165 7 10.059452385114941 4.204278961518352 25.41248575145584 0 0 0
131 7 0.06443334738217085 5.758338684934617 23.403642364261316 0 0 0
132 7 2.5360605323506236 5.786550630852285 23.359736505259185 0 0 0
136 7 1.2963305423231555 7.900050040166258 23.304445665547778 0 0 0
137 7 3.770037028830893 7.967727085756474 23.277723502541736 0 0 0
161 4 0.10258447593776995 4.327072634876039 25.468979379149275 0 0 0
166 7 1.3310429946013804 6.401323237404208 25.429748946097956 0 0 0
167 7 3.8013644145832397 6.425248067223591 25.441966334784208 0 0 0
171 6 0.10240657620643209 8.599810488650787 25.429919076211707 0 0 0
172 7 2.6157154146478048 8.59527370389019 25.375351406607553 0 0 0
133 6 5.058509590237418 5.845706995994058 23.38674496778569 0 0 0
134 7 7.552850621621418 5.764684355715406 23.314534208530524 0 0 0
138 7 6.303445016803657 7.983059396597724 23.34061903148411 0 0 0
168 7 6.3586388448620745 6.382044127283203 25.432410016619883 0 0 0
173 7 5.097700373427704 8.540702206900896 25.331762342663932 0 0 0
135 7 10.057615055250348 5.811166370573254 23.388108036930745 0 0 0
139 4 8.687109541803586 7.928274057411992 23.24452118407995 0 0 0
140 4 11.274961473334837 7.875788335179957 23.31815236365204 0 0 0
169 7 8.76898922021219 6.316216433792698 25.383897790395 0 0 0
170 7 11.282470038509262 6.393439806457624 25.4491421858032 0 0 0
175 6 9.87762715169238 8.552299967849697 25.52462669319024 0 0 0
141 7 0.012790991730837226 10.05323335509379 23.34374129003861 0 0 0
142 7 2.4889100725628306 10.091842616663378 23.25450249978041 0 0 0
146 7 1.2951036555298134 12.220787928668065 23.35045233703015 0 0 0
147 7 3.799303280592157 12.23017633421187 23.179922175745318 0 0 0
151 4 0.0852340950646404 12.860443475448117 25.415527993441856 0 -1 0
152 7 2.6476405786522146 12.93018897840887 25.373497186603696 0 -1 0
176 7 1.3349547027105206 10.784710658094067 25.431509685829706 0 0 0
177 6 3.872366258766849 10.802900650292985 25.273496283542613 0 0 0
143 7 5.047597327860644 10.091153434307968 23.18109747146298 0 0 0
144 7 7.497984235147162 10.074972512213863 22.919927796715324 0 0 0
148 4 6.205366613143031 12.256334870257804 23.18530229395965 0 0 0
154 7 7.59420743912267 12.928535533038794 25.476194367426086 0 -1 0
178 6 6.6097887735784875 10.529301106631289 25.22058643926682 0 0 0
145 7 9.988313264271746 10.059821444317967 23.316200311385963 0 0 0
149 6 8.700526853962714 12.258131714134397 23.33060435493051 0 0 0
150 7 11.239604322265002 12.20343146435484 23.406072832393523 0 0 0
174 3 8.406184535086048 9.495022980846912 24.424151607374856 0 0 0
179 5 8.990831363667986 10.907769395233489 25.58430948499568 0 0 0
180 5 11.328461043090163 10.852157364880918 25.507228499969166 0 0 0
181 7 1.3840769264910935 0.6518714075195009 27.497333490124017 0 0 0
182 7 3.871322141604671 0.6890069057282185 27.43644713585225 0 0 0
186 7 0.16598657545575848 2.8434932194713154 27.496009150237853 0 0 0
187 7 2.6550893864881187 2.8388292623902434 27.567901038055695 0 0 0
211 7 0.20498147247705412 1.4317691952422995 29.59543052043878 0 0 0
212 7 2.708078686010464 1.3459575190944817 29.58201062183682 0 0 0
216 7 1.4063845826160344 3.540984214036079 29.591052192215702 0 0 0
217 4 3.8197026393160427 3.558574749059346 29.600221365723943 0 0 0
183 7 6.304982904441984 0.701121427188307 27.574725765817707 0 0 0
188 7 5.0782818209005285 2.859438654106235 27.577597884597942 0 0 0
189 7 7.5903719160350915 2.7788357564970774 27.465767131629697 0 0 0
213 5 5.1303794618776 1.412077625665067 29.604436525999837 0 0 0
214 7 7.608625446155396 1.3412470385407755 29.59792147682229 0 0 0
218 7 6.358676140949125 3.5222944875377533 29.546191871246776 0 0 0
184 7 8.881125873347756 0.7048065044191739 27.572345644599537 0 0 0
185 4 11.378496545849384 0.708343819860179 27.543976306068306 0 0 0
190 7 10.140153601780217 2.817385728628999 27.494659480008792 0 0 0
215 7 10.120320721890053 1.3901601752932984 29.639625243455537 0 0 0
219 7 8.834424350943669 3.4974943581602678 29.535013296306637 0 0 0
220 7 11.365093369972993 3.5445601652152807 29.52792494483825 0 0 0
191 7 1.3859599397603601 4.992356776182747 27.474125327850402 0 0 0
192 7 3.8286142497009115 4.975939043978628 27.483221981780837 0 0 0
196 7 0.13140970207116554 7.143163082494458 27.501468038652195 0 0 0
197 7 2.5741407586416645 7.179503742144403 27.476339752335953 0 0 0
221 7 0.11560104758514633 5.7129548145884845 29.57519132174531 0 0 0
222 7 2.586276763467125 5.714795680864935 29.551802388603427 0 0 0
226 7 1.3602947729473625 7.890450773493849 29.553882587031822 0 0 0
227 7 3.8568106364689365 7.901161382649224 29.468596568658434 0 0 0
193 7 6.364910836608472 4.961209825132866 27.414935902765603 0 0 0
198 7 5.097469397399492 7.160005834675632 27.41221175656954 0 0 0
199 7 7.616539764058835 7.174385581714099 27.45020985416837 0 0 0
223 6 5.148107092090863 5.707146129273538 29.490380715474572 0 0 0
224 7 7.639226460967789 5.72368789829868 29.58362928095299 0 0 0
228 7 6.389733151414927 7.899422896400662 29.493299397503698 0 0 0
194 6 8.842985352135788 4.982160807693391 27.496589071318777 0 0 0
195 7 11.35574286053248 4.979406421684989 27.512571034122733 0 0 0
200 7 10.118963008394635 7.142661579573812 27.544311481687778 0 0 0
225 7 10.0965842994263 5.725554652341599 29.610916938834986 0 0 0
229 7 8.84172812793855 7.868273623652874 29.529725025264245 0 0 0
230 7 11.364584708787039 7.916492606614728 29.529385078655068 0 0 0
201 5 1.37401139817866 9.312011426933843 27.516520823717116 0 0 0
202 7 3.867246071464128 9.308275021655312 27.376079913549813 0 0 0
206 4 0.18189540343504024 11.463585542644374 27.52756016379946 0 0 0
207 7 2.605627002751515 11.4446815019603 27.439099059450324 0 0 0
231 7 0.16056773108332056 10.06585718910929 29.572342295362947 0 0 0
232 7 2.629418132434031 10.015226811918838 29.4279267769865 0 0 0
236 7 1.4661918618726228 12.171240835522553 29.55707329199997 0 0 0
203 7 6.3698751273903795 9.272169332919574 27.389071379037834 0 0 0
208 7 5.133061621141471 11.487479530768141 27.320958242728153 0 0 0
209 6 7.577206500587768 11.510763227228585 27.642890988835127 0 0 0
233 7 5.14503558939394 10.04295273834672 29.324388162262586 0 0 0
234 7 7.5966954070247645 10.074309696418222 29.667235634195546 0 0 0
238 7 6.208278260596785 12.22339357193554 29.683872699211342 0 0 0
204 7 8.833953748441308 9.354391891460498 27.627504931453863 0 0 0
205 7 11.34020766577006 9.401884662898548 27.550580890792116 0 0 0
210 7 10.146105556769111 11.539704514338112 27.589137154632024 0 0 0
235 7 10.08094490821336 10.16552630316848 29.60628935138279 0 0 0
239 4 8.874292306560674 12.24085171719196 29.737397880348848 0 0 0
240 7 11.391174729154702 12.254212449815805 29.567026060002004 0 0 0
237 3 4.029888445981154 0.27978579035530415 30.55613204197874 0 1 0
241 7 0.19417519541064657 0.09227874530065243 31.641891467221843 0 0 0
242 7 2.5636502109304513 0.13423816310824743 31.740625983208638 0 0 0
246 4 1.340071770935846 2.2358200880174537 31.66583820338536 0 0 0
247 7 3.8750824157594232 2.1455087198658513 31.644239903235977 0 0 0
248 7 6.401913849028619 2.142489784719002 31.65193147918768 0 0 0
253 7 5.106972625759935 4.303978532588448 31.623345191331047 0 0 0
254 7 7.615685217725181 4.303197003156317 31.593945481433344 0 0 0
249 7 8.846307273981383 2.0954090729636543 31.691399446327367 0 0 0
250 7 11.377769643125422 2.1307235230250146 31.67180102208207 0 0 0
255 1 10.101624373937158 4.209159705212981 31.51079485254714 0 0 0
251 7 0.14308484196960816 4.318400756453884 31.653670847559493 0 0 0
252 7 2.6282350784698183 4.314370301115876 31.668129773008662 0 0 0
256 7 1.3245625569199029 6.497376508670129 31.636236541933513 0 0 0
257 6 3.7872234448286757 6.497000332993477 31.65999208117212 0 0 0
286 7 0.08745343097185951 7.275086383508454 33.62512329922468 0 0 0
258 7 6.347033782891639 6.488302081709378 31.62130305617144 0 0 0
264 7 7.584857849439635 8.571793819253816 31.6258397170599 0 0 0
259 4 8.815257482677854 6.453236913779059 31.631387833125657 0 0 0
260 7 11.30984282441045 6.482191199790832 31.598195950533416 0 0 0
284 5 8.881068833811176 5.110353818911483 33.577758337034794 0 0 0
285 4 11.343384475914226 5.146369064907334 33.64339195350059 0 0 0
290 7 10.07763481946092 7.250183115293207 33.59929829529909 0 0 0
261 7 0.17353501040516572 8.70312030124007 31.654190894269114 0 0 0
262 7 2.6621531641642733 8.716973893135298 31.531195957377317 0 0 0
266 7 1.5586722771641932 10.827948111460813 31.57209439602761 0 0 0
267 4 3.915052609306059 11.267069027808725 30.85770058748821 0 0 0
292 7 3.9591073791391236 9.37502724224361 33.502412639277026 0 0 0
243 7 5.163626653408943 12.898172192208445 32.10105131053665 0 -1 0
244 7 7.622495994262205 12.930430654674371 31.716759580700767 0 -1 0
263 1 5.091202642864182 8.756189009529455 31.42084898198464 0 0 0
268 7 6.256543483231847 10.756676966526543 31.58391681933078 0 0 0
293 4 6.446226335417925 9.314203901101141 33.65468633647162 0 0 0
245 7 10.106036006782766 12.878844450736807 31.876075076243943 0 -1 0
265 6 10.097847917253958 8.674432673324317 31.548085766726306 0 0 0
269 7 8.769974037140972 10.793470388575033 31.754147998985367 0 0 0
270 7 11.423956507603165 10.90020828718123 31.61900811458401 0 0 0
296 3 11.071865597253234 11.825430815250112 33.338061114583724 -1 0 0
271 7 1.4712208197427117 0.8984857880315964 33.77694528487781 0 0 0
272 7 3.917312609484862 0.9536975418411928 33.92155098436668 0 0 0
276 7 0.17477832401409618 2.9866115645775952 33.73470202433003 0 0 0
277 7 2.640144286566955 3.0770275075418914 33.79649514342096 0 0 0
301 7 0.18674266764721623 1.5567526475380824 35.75831143052079 0 0 0
302 7 2.6133010188698664 1.667693342056462 35.857712108733125 0 0 0
306 4 1.4086533745614989 3.837046354942474 35.95537122242089 0 0 0
307 7 3.9946138599793812 3.7287410172583177 35.831562128509326 0 0 0
273 7 6.459752703208181 0.9673512914843366 33.903191233162545 0 0 0
278 1 5.215273367217823 2.9934402266973237 33.724912865020194 0 0 0
279 7 7.72334399242502 3.037111957340101 33.73580930392443 0 0 0
303 7 5.2447567470790135 1.6598039978004695 35.93196775946092 0 0 0
304 4 7.745234680683395 1.6366798885705656 35.92440141303673 0 0 0
308 7 6.521230171550013 3.70830747102004 35.80202063708994 0 0 0
274 7 8.836715385663933 0.8982649237505762 33.84794769540235 0 0 0
275 4 11.43134518339012 0.7888156227088879 33.72919597741252 0 0 0
280 7 10.202200369105059 2.9937347397034495 33.73081254486508 0 0 0
305 7 10.218500257345923 1.5540902485174581 35.74336315733922 0 0 0
309 7 9.011005373466434 3.6629200156587998 35.79905216819546 0 0 0
310 4 11.58424501758224 3.9423475612697434 35.86987820215629 0 0 0
281 7 1.319789161742811 5.17740270066507 33.856335383794914 0 0 0
282 4 3.843723853505068 5.132538881256614 33.76555853011643 0 0 0
287 7 2.627927651953207 7.285151490141129 33.74084036845105 0 0 0
312 7 2.7248259139645583 5.7874219329813394 35.77984846032146 0 0 0
316 7 1.2080685278577186 7.597399202231663 35.78629586797473 0 0 0
317 7 3.926626485584471 8.064328385779524 35.72649512354049 0 0 0
283 7 6.372152971030661 5.0952654009032585 33.66592033754358 0 0 0
288 7 5.1787535814028285 7.2683347439405805 33.66232365039116 0 0 0
289 7 7.625820740014037 7.182073126073724 33.71637941524966 0 0 0
313 7 5.255476364841024 5.917226351210798 35.711274573490286 0 0 0
314 7 7.706231776809512 5.8136424501188735 35.74011378924358 0 0 0
318 4 6.544857040648817 8.113465056257114 35.80893955739228 0 0 0
311 2 12.373097973181672 5.992982033924432 35.323976256167896 -1 0 0
315 7 10.125348027791066 5.7990008065657355 35.58075424874555 0 0 0
319 7 8.946744197191949 7.950400640488241 35.841571888247735 0 0 0
320 7 11.341129726536616 7.926958273853693 35.59467941333268 0 0 0
350 7 11.674873379941852 6.265156003588423 37.29732534046499 0 0 0
355 3 10.427149111811952 7.907842314268693 37.27785115116751 0 0 0
291 7 1.4660858302317006 9.421634996745373 33.72438172554367 0 0 0
297 6 3.019868694461523 11.573381577301223 33.67196933899999 0 0 0
321 6 0.21356259857296578 10.055221179411921 35.898077394522545 0 0 0
322 7 2.6996834802345764 10.198914029929936 35.75653586355564 0 0 0
326 7 0.5052795530608922 11.64697618815837 33.6775152237823 0 0 0
327 6 3.915011992730329 12.505407583978538 36.10450834132596 0 0 0
356 4 1.39451695440577 12.360286505813722 35.84682938133055 0 0 0
298 2 5.199938969213757 12.286731270299162 34.21294208458467 0 0 0
299 7 6.987045494311366 11.57333988003171 33.68488477583225 0 0 0
323 6 5.23440399190277 10.242927597294784 35.58163727653909 0 0 0
324 7 7.903860543534363 10.340237634473588 35.70310166817801 0 0 0
328 7 6.474599228304655 12.516128970902626 35.929370958930974 0 0 0
294 7 8.766355550010243 9.27761677508337 33.69868175255896 0 0 0
295 6 11.262519653999293 9.691860791029427 33.76268070043129 0 0 0
300 7 9.376990499040051 11.539812279050524 34.1657124777193 0 0 0
325 7 10.242771575949424 9.849128067276288 37.01379016863194 0 0 0
329 3 9.520916623935063 11.416272598009277 36.18587875073101 0 0 0
330 4 11.264287135136541 12.064919508748387 35.579226841278114 0 0 0
332 7 2.4840561112253607 0.10011371041046721 38.03517494706417 0 0 0
336 7 1.341469954685684 2.1885813645059717 37.83357750980203 0 0 0
337 7 3.879001018435572 2.1954910703748642 37.86078604272782 0 0 0
341 7 0.22503311223183647 4.252368919230878 38.07761610986719 0 0 0
342 7 2.720096510378342 4.29524949370743 37.91756153732372 0 0 0
333 7 5.205219705650936 0.163304064933098 38.115542612034126 0 0 0
334 7 7.634637611042172 0.09020622232258022 38.07574783049515 0 0 0
338 7 6.507934319640738 2.280893747418438 37.892442611576854 0 0 0
339 7 8.995053879541043 2.1679136003841815 37.91088681676438 0 0 0
340 7 11.378254088621084 2.202880241352258 37.72671140654391 0 0 0
362 8 9.069510124112572 0.7316377161244475 38.84086072892254 0 0 0
346 7 1.513867288854709 6.410206663106162 37.99334257879667 0 0 0
347 6 3.9601747782279486 6.480882518039714 37.76064368447183 0 0 0
343 7 5.308758007022637 4.440392977623379 37.830937661622336 0 0 0
344 7 7.826342982044988 4.425487921828702 37.88761569363043 0 0 0
348 6 6.650854636801399 6.67828246950644 37.81703100170502 0 0 0
345 4 10.23617579412091 4.327620016552198 37.809550669045834 0 0 0
349 7 9.257119472600206 6.649276655047888 37.94028431728898 0 0 0
351 7 12.240102222377555 8.565763178745248 37.835611845570185 -1 0 0
361 8 8.760054103376266 5.40581522719083 38.91394431662285 0 0 0
352 6 2.4807817305851563 8.665368986684795 37.6807518668089 0 0 0
357 7 3.836011898277909 10.809985324033873 37.95086561000228 0 0 0
360 7 1.3780481576363532 10.907246918372374 37.88418223006229 1 0 0
353 7 5.119264168044683 8.702417733201372 37.81747907010645 0 0 0
354 7 7.9607154512163385 8.947343039366555 37.81434773285763 0 0 0
358 6 6.419689925366281 10.852721095872598 37.804659752041054 0 0 0
331 7 12.397029113436705 12.901126897260639 37.63084300077766 -1 -1 0
335 5 9.896406350688956 12.874205402668276 37.437311870502676 0 -1 0
359 2 8.565190916777858 11.17873619696376 37.38724802453194 0 0 0

Velocities

1 0 0 0
2 0 0 0
3 0 0 0
9 0 0 0
5 0 0 0
6 0 0 0
10 0 0 0
16 0 0 0
20 0 0 0
26 0 0 0
27 0 0 0
23 0 0 0
28 0 0 0
29 0 0 0
24 0 0 0
25 0 0 0
30 0 0 0
7 0 0 0
31 0 0 0
32 0 0 0
36 0 0 0
37 0 0 0
56 0 0 0
8 0 0 0
33 0 0 0
34 0 0 0
38 0 0 0
4 0 0 0
35 0 0 0
39 0 0 0
40 0 0 0
11 0 0 0
12 0 0 0
17 0 0 0
42 0 0 0
47 0 0 0
13 0 0 0
18 0 0 0
19 0 0 0
43 0 0 0
44 0 0 0
48 0 0 0
14 0 0 0
15 0 0 0
41 0 0 0
45 0 0 0
49 0 0 0
50 0 0 0
85 0 0 0
21 0 0 0
22 0 0 0
46 0 0 0
52 0 0 0
57 0 0 0
87 0 0 0
53 0 0 0
54 0 0 0
58 0 0 0
51 0 0 0
55 0 0 0
59 0 0 0
60 0 0 0
61 0 0 0
66 0 0 0
67 0 0 0
91 0 0 0
92 0 0 0
96 0 0 0
97 0 0 0
63 0 0 0
64 0 0 0
68 0 0 0
74 0 0 0
93 0 0 0
98 0 0 0
99 0 0 0
65 0 0 0
69 0 0 0
70 0 0 0
94 0 0 0
95 0 0 0
100 0 0 0
72 0 0 0
76 0 0 0
77 0 0 0
82 0 0 0
101 0 0 0
102 0 0 0
107 0 0 0
73 0 0 0
78 0 0 0
103 0 0 0
108 0 0 0
109 0 0 0
71 0 0 0
75 0 0 0
79 0 0 0
80 0 0 0
81 0 0 0
104 0 0 0
105 0 0 0
106 0 0 0
110 0 0 0
62 0 0 0
86 0 0 0
111 0 0 0
112 0 0 0
116 0 0 0
117 0 0 0
83 0 0 0
84 0 0 0
88 0 0 0
113 0 0 0
118 0 0 0
119 0 0 0
89 0 0 0
90 0 0 0
114 0 0 0
115 0 0 0
120 0 0 0
121 0 0 0
122 0 0 0
126 0 0 0
127 0 0 0
156 0 0 0
157 0 0 0
162 0 0 0
123 0 0 0
124 0 0 0
128 0 0 0
153 0 0 0
158 0 0 0
163 0 0 0
164 0 0 0
125 0 0 0
129 0 0 0
130 0 0 0
155 0 0 0
159 0 0 0
160 0 0 0
165 0 0 0
131 0 0 0
132 0 0 0
136 0 0 0
137 0 0 0
161 0 0 0
166 0 0 0
167 0 0 0
171 0 0 0
172 0 0 0
133 0 0 0
134 0 0 0
138 0 0 0
168 0 0 0
173 0 0 0
135 0 0 0
139 0 0 0
140 0 0 0
169 0 0 0
170 0 0 0
175 0 0 0
141 0 0 0
142 0 0 0
146 0 0 0
147 0 0 0
151 0 0 0
152 0 0 0
176 0 0 0
177 0 0 0
143 0 0 0
144 0 0 0
148 0 0 0
154 0 0 0
178 0 0 0
145 0 0 0
149 0 0 0
150 0 0 0
174 0 0 0
179 0 0 0
180 0 0 0
181 0 0 0
182 0 0 0
186 0 0 0
187 0 0 0
211 0 0 0
212 0 0 0
216 0 0 0
217 0 0 0
183 0 0 0
188 0 0 0
189 0 0 0
213 0 0 0
214 0 0 0
218 0 0 0
184 0 0 0
185 0 0 0
190 0 0 0
215 0 0 0
219 0 0 0
220 0 0 0
191 0 0 0
192 0 0 0
196 0 0 0
197 0 0 0
221 0 0 0
222 0 0 0
226 0 0 0
227 0 0 0
193 0 0 0
198 0 0 0
199 0 0 0
223 0 0 0
224 0 0 0
228 0 0 0
194 0 0 0
195 0 0 0
200 0 0 0
225 0 0 0
229 0 0 0
230 0 0 0
201 0 0 0
202 0 0 0
206 0 0 0
207 0 0 0
231 0 0 0
232 0 0 0
236 0 0 0
203 0 0 0
208 0 0 0
209 0 0 0
233 0 0 0
234 0 0 0
238 0 0 0
204 0 0 0
205 0 0 0
210 0 0 0
235 0 0 0
239 0 0 0
240 0 0 0
237 0 0 0
241 0 0 0
242 0 0 0
246 0 0 0
247 0 0 0
248 0 0 0
253 0 0 0
254 0 0 0
249 0 0 0
250 0 0 0
255 0 0 0
251 0 0 0
252 0 0 0
256 0 0 0
257 0 0 0
286 0 0 0
258 0 0 0
264 0 0 0
259 0 0 0
260 0 0 0
284 0 0 0
285 0 0 0
290 0 0 0
261 0 0 0
262 0 0 0
266 0 0 0
267 0 0 0
292 0 0 0
243 0 0 0
244 0 0 0
263 0 0 0
268 0 0 0
293 0 0 0
245 0 0 0
265 0 0 0
269 0 0 0
270 0 0 0
296 0 0 0
271 0 0 0
272 0 0 0
276 0 0 0
277 0 0 0
301 0 0 0
302 0 0 0
306 0 0 0
307 0 0 0
273 0 0 0
278 0 0 0
279 0 0 0
303 0 0 0
304 0 0 0
308 0 0 0
274 0 0 0
275 0 0 0
280 0 0 0
305 0 0 0
309 0 0 0
310 0 0 0
281 0 0 0
282 0 0 0
287 0 0 0
312 0 0 0
316 0 0 0
317 0 0 0
283 0 0 0
288 0 0 0
289 0 0 0
313 0 0 0
314 0 0 0
318 0 0 0
311 0 0 0
315 0 0 0
319 0 0 0
320 0 0 0
350 0 0 0
355 0 0 0
291 0 0 0
297 0 0 0
321 0 0 0
322 0 0 0
326 0 0 0
327 0 0 0
356 0 0 0
298 0 0 0
299 0 0 0
323 0 0 0
324 0 0 0
328 0 0 0
294 0 0 0
295 0 0 0
300 0 0 0
325 0 0 0
329 0 0 0
330 0 0 0
332 0 0 0
336 0 0 0
337 0 0 0
341 0 0 0
342 0 0 0
333 0 0 0
334 0 0 0
338 0 0 0
339 0 0 0
340 0 0 0
362 0 0 0
346 0 0 0
347 0 0 0
343 0 0 0
344 0 0 0
348 0 0 0
345 0 0 0
349 0 0 0
351 0 0 0
361 0 0 0
352 0 0 0
357 0 0 0
360 0 0 0
353 0 0 0
354 0 0 0
358 0 0 0
331 0 0 0
335 0 0 0
359 0 0 0
