LAMMPS (11 Feb 2026 - Development - patch_11Feb2026-99-gb75dfcc930-modified)
KOKKOS mode with Kokkos version 5.0.2 is enabled
  using double precision
  using view layout = legacy
  will use up to 1 GPU(s) per node
  using 1 OpenMP thread(s) per MPI task
package kokkos
package kokkos newton on neigh half
# ═══════════════════════════════════════════════════
# LAMMPS Minimization — top_mo
# Notebook 05 | H2 at Top-Mo
# ═══════════════════════════════════════════════════

units          metal
atom_style     atomic
newton         on
boundary       p p f

read_data      structures/notebook05-adsorption-energy/7/ads_top_mo.lammps
Reading data file ...
  orthogonal box = (0 0 0) to (12.447908 12.936245 52.360083)
  1 by 1 by 1 MPI processor grid
  reading atoms ...
  362 atoms
  read_data CPU = 0.011 seconds

pair_style     mliap unified /projects/westgroup/akinyemi.az/mace_lammps/models/mace-mp-0b2-medium.model-mliap_lammps.pt 0
pair_coeff     * * Al B C Cr Fe Mo Ni H

neighbor       2.0 bin
neigh_modify   every 1 delay 0 check yes

thermo         50
thermo_style   custom step pe fmax fnorm press

minimize       0  1e-06  10000  100000

CITE-CITE-CITE-CITE-CITE-CITE-CITE-CITE-CITE-CITE-CITE-CITE-CITE

Your simulation uses code contributions which should be cited:

- KOKKOS package: https://doi.org/10.1145/3731599.3767498

@inproceedings{Johansson25,
 author = {A. Johansson and E. Weinberg and C. Trott and M. McCarthy and S. Moore},
 title = {{LAMMPS-KOKKOS}: {P}erformance Portable Molecular Dynamics Across Exascale Architectures},
 year = 2025,
 booktitle = {Proceedings of the SC '25 Workshops of the International Conference for High Performance Computing,
  Networking, Storage and Analysis},
 pages = {1217–1232},
}

CITE-CITE-CITE-CITE-CITE-CITE-CITE-CITE-CITE-CITE-CITE-CITE-CITE

Neighbor list info ...
  update: every = 1 steps, delay = 0 steps, check = yes
  max neighbors/atom: 2000, page size: 100000
  master list distance cutoff = 7
  ghost atom cutoff = 7
  binsize = 7, bins = 2 2 8
  1 neighbor lists, perpetual/occasional/extra = 1 0 0
  (1) pair mliap/kk, perpetual
      attributes: full, newton on, kokkos_device
      pair build: full/bin/kk/device
      stencil: full/bin/3d
      bin: kk/device
WARNING: Fix MINIMIZE/kk not compatible with sending data in Kokkos communication (src/KOKKOS/comm_kokkos.cpp:842)
WARNING: Fix with atom-based arrays not compatible with sending data in Kokkos communication, switching to legacy exchange/border communication (src/KOKKOS/comm_kokkos.cpp:849)
WARNING: Fix MINIMIZE/kk not (yet) compatible with Kokkos sorting on device (src/KOKKOS/atom_kokkos.cpp:219)
WARNING: Fix with atom-based arrays not (yet) compatible with Kokkos sorting on device, switching to legacy host sorting (src/KOKKOS/atom_kokkos.cpp:225)
Per MPI rank memory allocation (min/avg/max) = 61.22 | 61.22 | 61.22 Mbytes
   Step         PotEng          Fmax          Fnorm          Press     
         0  -2375.3526      2.5008217      17.529494      17760.581    
        50  -2397.8337      0.11855552     0.35388479     8612.1993    
       100  -2398.0981      0.027895218    0.11237804     8267.2768    
       150  -2398.1048      0.0028341731   0.012192936    8343.2002    
       200  -2398.1049      0.00012786214  0.0004962924   8358.6373    
       250  -2398.1049      5.8940436e-06  3.5509896e-05  8359.5897    
       300  -2398.1049      2.6385014e-07  1.3221412e-06  8359.6334    
       310  -2398.1049      1.9057221e-07  9.4323787e-07  8359.634     
Loop time of 21.528 on 1 procs for 310 steps with 362 atoms

98.6% CPU use with 1 MPI tasks x 1 OpenMP threads

Minimization stats:
  Stopping criterion = force tolerance
  Energy initial, next-to-last, final = 
     -2375.35259855989  -2398.10486297793  -2398.10486297793
  Force two-norm initial, final = 17.529494 9.4323787e-07
  Force max component initial, final = 2.5008217 1.9057221e-07
  Final line search alpha, max atom move = 1 1.9057221e-07
  Iterations, force evaluations = 310 604

MPI task timing breakdown:
Section |  min time  |  avg time  |  max time  |%varavg| %total
---------------------------------------------------------------
Pair    | 21.427     | 21.427     | 21.427     |   0.0 | 99.53
Neigh   | 0.0021041  | 0.0021041  | 0.0021041  |   0.0 |  0.01
Comm    | 0.01924    | 0.01924    | 0.01924    |   0.0 |  0.09
Output  | 0.00098525 | 0.00098525 | 0.00098525 |   0.0 |  0.00
Modify  | 0          | 0          | 0          |   0.0 |  0.00
Other   |            | 0.07916    |            |       |  0.37

Nlocal:            362 ave         362 max         362 min
Histogram: 1 0 0 0 0 0 0 0 0 0
Nghost:           1223 ave        1223 max        1223 min
Histogram: 1 0 0 0 0 0 0 0 0 0
Neighs:              0 ave           0 max           0 min
Histogram: 1 0 0 0 0 0 0 0 0 0
FullNghs:        43100 ave       43100 max       43100 min
Histogram: 1 0 0 0 0 0 0 0 0 0

Total # of neighbors = 43100
Ave neighs/atom = 119.06077
Neighbor list builds = 3
Dangerous builds = 0

variable  pe_final  equal  pe
variable  fmax_f    equal  fmax
variable  natoms    equal  atoms

print "ENERGY_RESULTS_START"
ENERGY_RESULTS_START
print "  job_name         : top_mo"
  job_name         : top_mo
print "  pe_final_eV      : ${pe_final}"
  pe_final_eV      : -2398.10486297793
print "  fmax_eV_per_Ang  : ${fmax_f}"
  fmax_eV_per_Ang  : 1.90572207457371e-07
print "  natoms           : ${natoms}"
  natoms           : 362
print "ENERGY_RESULTS_END"
ENERGY_RESULTS_END

write_data     structures/notebook05-adsorption-energy/7/ads_top_mo_relaxed.lammps
System init for write_data ...
print "Written: structures/notebook05-adsorption-energy/7/ads_top_mo_relaxed.lammps"
Written: structures/notebook05-adsorption-energy/7/ads_top_mo_relaxed.lammps
Total wall time: 0:00:45
