LAMMPS (11 Feb 2026 - Development - patch_11Feb2026-99-gb75dfcc930-modified)
KOKKOS mode with Kokkos version 5.0.2 is enabled
  using double precision
  using view layout = legacy
  will use up to 1 GPU(s) per node
  using 1 OpenMP thread(s) per MPI task
Reading data file ...
  orthogonal box = (0 0 0) to (12.447908 12.936245 52.360083)
  1 by 1 by 1 MPI processor grid
  reading atoms ...
  362 atoms
  read_data CPU = 0.023 seconds
/home/akinyemi.az/miniforge3/envs/mace-lammps/lib/python3.11/site-packages/e3nn/o3/_wigner.py:10: FutureWarning: You are using `torch.load` with `weights_only=False` (the current default value), which uses the default pickle module implicitly. It is possible to construct malicious pickle data which will execute arbitrary code during unpickling (See https://github.com/pytorch/pytorch/blob/main/SECURITY.md#untrusted-models for more details). In a future release, the default value for `weights_only` will be flipped to `True`. This limits the functions that could be executed during unpickling. Arbitrary objects will no longer be allowed to be loaded via this mode unless they are explicitly allowlisted by the user via `torch.serialization.add_safe_globals`. We recommend you start setting `weights_only=True` for any use case where you don't have full control of the loaded file. Please open an issue on GitHub for any issues related to this experimental feature.
  _Jd, _W3j_flat, _W3j_indices = torch.load(os.path.join(os.path.dirname(__file__), 'constants.pt'))

CITE-CITE-CITE-CITE-CITE-CITE-CITE-CITE-CITE-CITE-CITE-CITE-CITE

Your simulation uses code contributions which should be cited:
- KOKKOS package: https://doi.org/10.1145/3731599.3767498
The log file lists these citations in BibTeX format.

CITE-CITE-CITE-CITE-CITE-CITE-CITE-CITE-CITE-CITE-CITE-CITE-CITE

Neighbor list info ...
  update: every = 1 steps, delay = 0 steps, check = yes
  max neighbors/atom: 2000, page size: 100000
  master list distance cutoff = 7
  ghost atom cutoff = 7
  binsize = 7, bins = 2 2 8
  1 neighbor lists, perpetual/occasional/extra = 1 0 0
  (1) pair mliap/kk, perpetual
      attributes: full, newton on, kokkos_device
      pair build: full/bin/kk/device
      stencil: full/bin/3d
      bin: kk/device
Setting up cg/kk style minimization ...
  Unit style    : metal
  Current step  : 0
WARNING: Fix MINIMIZE/kk not compatible with sending data in Kokkos communication (src/KOKKOS/comm_kokkos.cpp:842)
WARNING: Fix with atom-based arrays not compatible with sending data in Kokkos communication, switching to legacy exchange/border communication (src/KOKKOS/comm_kokkos.cpp:849)
WARNING: Fix MINIMIZE/kk not (yet) compatible with Kokkos sorting on device (src/KOKKOS/atom_kokkos.cpp:219)
WARNING: Fix with atom-based arrays not (yet) compatible with Kokkos sorting on device, switching to legacy host sorting (src/KOKKOS/atom_kokkos.cpp:225)
Per MPI rank memory allocation (min/avg/max) = 61.23 | 61.23 | 61.23 Mbytes
   Step         PotEng          Fmax          Fnorm          Press     
         0  -2375.1616      2.5008217      17.545398      17833.448    
        50  -2397.1355      0.35281893     0.71839205     10107.081    
       100  -2397.2594      0.047831615    0.10121996     9510.187     
       150  -2397.7358      0.50660404     1.1428152      9145.6082    
       200  -2397.8619      0.018813327    0.083259542    8962.3731    
       250  -2397.8775      0.018015708    0.031116843    9077.0449    
       300  -2397.8777      0.0013713516   0.0024488331   9075.4621    
       350  -2397.8777      0.00010739194  0.00019655466  9076.3944    
       400  -2397.8777      2.8727433e-06  5.3427557e-06  9076.2952    
       421  -2397.8777      1.6647723e-07  9.6488072e-07  9076.2913    
Loop time of 28.0562 on 1 procs for 421 steps with 362 atoms

98.8% CPU use with 1 MPI tasks x 1 OpenMP threads

Minimization stats:
  Stopping criterion = force tolerance
  Energy initial, next-to-last, final = 
     -2375.16162821202  -2397.87765625587  -2397.87765625587
  Force two-norm initial, final = 17.545398 9.6488072e-07
  Force max component initial, final = 2.5008217 1.6647723e-07
  Final line search alpha, max atom move = 1 1.6647723e-07
  Iterations, force evaluations = 421 825

MPI task timing breakdown:
Section |  min time  |  avg time  |  max time  |%varavg| %total
---------------------------------------------------------------
Pair    | 27.922     | 27.922     | 27.922     |   0.0 | 99.52
Neigh   | 0.0024127  | 0.0024127  | 0.0024127  |   0.0 |  0.01
Comm    | 0.026093   | 0.026093   | 0.026093   |   0.0 |  0.09
Output  | 0.00079995 | 0.00079995 | 0.00079995 |   0.0 |  0.00
Modify  | 0          | 0          | 0          |   0.0 |  0.00
Other   |            | 0.1053     |            |       |  0.38

Nlocal:            362 ave         362 max         362 min
Histogram: 1 0 0 0 0 0 0 0 0 0
Nghost:           1217 ave        1217 max        1217 min
Histogram: 1 0 0 0 0 0 0 0 0 0
Neighs:              0 ave           0 max           0 min
Histogram: 1 0 0 0 0 0 0 0 0 0
FullNghs:        43030 ave       43030 max       43030 min
Histogram: 1 0 0 0 0 0 0 0 0 0

Total # of neighbors = 43030
Ave neighs/atom = 118.8674
Neighbor list builds = 4
Dangerous builds = 0
ENERGY_RESULTS_START
  job_name         : clean_slab
  pe_final_eV      : -2397.87765625587
  fmax_eV_per_Ang  : 1.66477230858358e-07
  natoms           : 362
ENERGY_RESULTS_END
System init for write_data ...
Written: structures/notebook05-adsorption-energy/7/clean_slab_reminimized.lammps
Total wall time: 0:00:52
/home/akinyemi.az/miniforge3/envs/mace-lammps/lib/python3.11/tempfile.py:934: ResourceWarning: Implicitly cleaning up <TemporaryDirectory '/tmp/tmp7korovf8'>
  _warnings.warn(warn_message, ResourceWarning)
Job clean_slab finished: Fri May 15 06:31:03 PM EDT 2026
