LAMMPS (11 Feb 2026 - Development - patch_11Feb2026-99-gb75dfcc930-modified)
/home/akinyemi.az/miniforge3/envs/mace-lammps/lib/python3.11/site-packages/e3nn/o3/_wigner.py:10: FutureWarning: You are using `torch.load` with `weights_only=False` (the current default value), which uses the default pickle module implicitly. It is possible to construct malicious pickle data which will execute arbitrary code during unpickling (See https://github.com/pytorch/pytorch/blob/main/SECURITY.md#untrusted-models for more details). In a future release, the default value for `weights_only` will be flipped to `True`. This limits the functions that could be executed during unpickling. Arbitrary objects will no longer be allowed to be loaded via this mode unless they are explicitly allowlisted by the user via `torch.serialization.add_safe_globals`. We recommend you start setting `weights_only=True` for any use case where you don't have full control of the loaded file. Please open an issue on GitHub for any issues related to this experimental feature.
  _Jd, _W3j_flat, _W3j_indices = torch.load(os.path.join(os.path.dirname(__file__), 'constants.pt'))
/home/akinyemi.az/miniforge3/envs/mace-lammps/lib/python3.11/tempfile.py:934: ResourceWarning: Implicitly cleaning up <TemporaryDirectory '/tmp/tmprgsyyebu'>
  _warnings.warn(warn_message, ResourceWarning)
KOKKOS mode with Kokkos version 5.0.2 is enabled
  using double precision
  using view layout = legacy
  will use up to 1 GPU(s) per node
  using 1 OpenMP thread(s) per MPI task
Reading data file ...
  orthogonal box = (0 0 0) to (12.447908 12.936245 52.360083)
  1 by 1 by 1 MPI processor grid
  reading atoms ...
  362 atoms
  read_data CPU = 0.009 seconds

CITE-CITE-CITE-CITE-CITE-CITE-CITE-CITE-CITE-CITE-CITE-CITE-CITE

Your simulation uses code contributions which should be cited:
- KOKKOS package: https://doi.org/10.1145/3731599.3767498
The log file lists these citations in BibTeX format.

CITE-CITE-CITE-CITE-CITE-CITE-CITE-CITE-CITE-CITE-CITE-CITE-CITE

Neighbor list info ...
  update: every = 1 steps, delay = 0 steps, check = yes
  max neighbors/atom: 2000, page size: 100000
  master list distance cutoff = 7
  ghost atom cutoff = 7
  binsize = 7, bins = 2 2 8
  1 neighbor lists, perpetual/occasional/extra = 1 0 0
  (1) pair mliap/kk, perpetual
      attributes: full, newton on, kokkos_device
      pair build: full/bin/kk/device
      stencil: full/bin/3d
      bin: kk/device
Setting up cg/kk style minimization ...
  Unit style    : metal
  Current step  : 0
WARNING: Fix MINIMIZE/kk not compatible with sending data in Kokkos communication (src/KOKKOS/comm_kokkos.cpp:842)
WARNING: Fix with atom-based arrays not compatible with sending data in Kokkos communication, switching to legacy exchange/border communication (src/KOKKOS/comm_kokkos.cpp:849)
WARNING: Fix MINIMIZE/kk not (yet) compatible with Kokkos sorting on device (src/KOKKOS/atom_kokkos.cpp:219)
WARNING: Fix with atom-based arrays not (yet) compatible with Kokkos sorting on device, switching to legacy host sorting (src/KOKKOS/atom_kokkos.cpp:225)
Per MPI rank memory allocation (min/avg/max) = 61.24 | 61.24 | 61.24 Mbytes
   Step         PotEng          Fmax          Fnorm          Press     
         0  -2375.0661      2.5008217      17.559631      17903.58     
        50  -2397.8959      0.39516565     0.68608004     8440.0244    
       100  -2398.1891      0.052724492    0.1060732      8260.2086    
       150  -2398.1952      0.0075387632   0.011752778    8388.7794    
       200  -2398.1954      0.0035439131   0.0070424056   8390.19      
       250  -2398.1954      0.00043079401  0.00088480547  8397.4363    
       300  -2398.1954      6.5425076e-05  0.00025238761  8397.9995    
       350  -2398.1954      1.9342452e-05  7.0678835e-05  8398.259     
       400  -2398.1954      5.7257125e-06  1.4169239e-05  8398.235     
       450  -2398.1954      2.6808106e-06  5.8052034e-06  8398.235     
       486  -2398.1954      2.6972742e-07  9.7794825e-07  8398.2358    
Loop time of 29.6768 on 1 procs for 486 steps with 362 atoms

98.9% CPU use with 1 MPI tasks x 1 OpenMP threads

Minimization stats:
  Stopping criterion = force tolerance
  Energy initial, next-to-last, final = 
     -2375.06605816834  -2398.19537413707  -2398.19537413707
  Force two-norm initial, final = 17.559631 9.7794825e-07
  Force max component initial, final = 2.5008217 2.6972742e-07
  Final line search alpha, max atom move = 1 2.6972742e-07
  Iterations, force evaluations = 486 958

MPI task timing breakdown:
Section |  min time  |  avg time  |  max time  |%varavg| %total
---------------------------------------------------------------
Pair    | 29.551     | 29.551     | 29.551     |   0.0 | 99.58
Neigh   | 0.0018227  | 0.0018227  | 0.0018227  |   0.0 |  0.01
Comm    | 0.023746   | 0.023746   | 0.023746   |   0.0 |  0.08
Output  | 0.00052102 | 0.00052102 | 0.00052102 |   0.0 |  0.00
Modify  | 0          | 0          | 0          |   0.0 |  0.00
Other   |            | 0.0998     |            |       |  0.34

Nlocal:            362 ave         362 max         362 min
Histogram: 1 0 0 0 0 0 0 0 0 0
Nghost:           1221 ave        1221 max        1221 min
Histogram: 1 0 0 0 0 0 0 0 0 0
Neighs:              0 ave           0 max           0 min
Histogram: 1 0 0 0 0 0 0 0 0 0
FullNghs:        43040 ave       43040 max       43040 min
Histogram: 1 0 0 0 0 0 0 0 0 0

Total # of neighbors = 43040
Ave neighs/atom = 118.89503
Neighbor list builds = 3
Dangerous builds = 0
ENERGY_RESULTS_START
  job_name         : fcc_hollow
  pe_final_eV      : -2398.19537413707
  fmax_eV_per_Ang  : 2.69727422220773e-07
  natoms           : 362
ENERGY_RESULTS_END
System init for write_data ...
Written: structures/notebook05-adsorption-energy/7/ads_fcc_hollow_relaxed.lammps
Total wall time: 0:00:47
Job fcc_hollow finished: Fri May 15 06:43:04 PM EDT 2026
