LAMMPS data file via write_data, version 11 Feb 2026, timestep = 144, units = metal

361 atoms
8 atom types

0 12.447907776 xlo xhi
0 12.9362452296 ylo yhi
0 52.3600831054 zlo zhi

Masses

1 26.9815
2 10.811
3 12.011
4 51.9961
5 55.845
6 95.95999999999999
7 58.6934
8 1.008

Atoms # atomic/kk

1 7 1.4580843455 0.7218047426 14.4942469487 0 0 0
7 7 2.5810873504 2.9163185478 14.9540018111 0 0 0
9 7 7.5162372984 2.9480672327 14.6301383058 0 0 0
5 7 11.442487969 0.565521243 14.7166000995 0 0 0
10 7 10.3736943941 2.7250202089 14.5780872379 0 0 0
16 7 0.1528335489 7.1416033142 14.8053871159 0 0 0
19 4 7.4417425344 7.0981711949 14.8288933029 0 0 0
14 7 8.7247883397 5.1052200877 14.4237174226 0 0 0
20 6 10.0470278793 7.1624870573 14.8746462642 0 0 0
21 6 1.4681915289 9.2757287977 14.6793173639 0 0 0
22 7 4.0399058405 9.7493356002 14.4379223301 0 0 0
26 7 0.1415996947 11.4124560371 14.5760744436 0 0 0
27 7 2.5890307333 11.5815481856 14.8325602687 0 0 0
24 7 8.7325308155 9.3568274457 14.7678792927 0 0 0
25 7 11.3276666774 9.2973896931 14.6705848131 0 0 0
30 7 9.9991735481 11.491911204 14.7325785343 0 0 0
2 7 3.8303917227 0.7715487251 15.0367793516 0 0 0
6 7 0.2299802519 2.4910955249 15.4624405654 0 0 0
31 2 0.1535393273 1.8800832244 17.4727968173 0 0 0
32 4 2.2503917409 1.4135934921 16.9009573897 0 0 0
36 6 1.5027995547 3.8226107385 17.1647885311 0 0 0
37 7 3.9390496774 3.628871917 17.0340725448 0 0 0
3 7 6.4800002202 0.9037117612 15.4847973826 0 0 0
8 7 4.983545983 2.8856463247 14.987117194 0 0 0
33 7 4.7635672587 1.3810066196 17.1414609516 0 0 0
34 3 7.8352031167 1.977476997 16.2533344252 0 0 0
38 7 6.4759042382 3.2039509965 16.9362312433 0 0 0
4 7 8.9883030003 0.8662837048 15.2637712517 0 0 0
35 7 10.7191413115 1.4634840767 16.8763098024 0 0 0
39 6 9.1038289731 3.6580178294 16.4211269874 0 0 0
40 7 11.4455094665 3.7209848861 17.1321982742 0 0 0
61 7 12.364113499999998 0.1765818471 18.6387730145 -1 0 0
69 6 8.5990939556 1.9383338943 18.2682958958 0 0 0
11 4 1.115690251 4.9622760047 14.9991697645 0 0 0
12 6 3.615944974 5.1956614091 15.1086762031 0 0 0
17 3 1.9717823355 6.7779779928 15.3647204089 0 0 0
18 7 3.5888290397 7.8178195664 15.7014687646 0 0 0
41 4 0.0295068604 5.9073534175 17.030498658 0 0 0
42 4 2.6059979117 6.033844536 17.1891633236 0 0 0
46 7 1.2477756632 7.9962991947 16.8668757371 0 0 0
13 7 6.1597066987 5.0785734363 14.9616627762 0 0 0
43 7 5.0378927664 5.7633166886 17.0694141355 0 0 0
44 7 7.4928195585 5.5962461107 16.9448469858 0 0 0
47 2 4.1987870758 7.6257883635 17.629777601 0 0 0
48 7 6.0419531386 7.8518542478 16.772354068 0 0 0
15 7 11.1753134785 4.9460353561 15.0484478726 0 0 0
45 7 10.0436739351 5.842849508 17.0229684757 0 0 0
49 6 8.553008074 7.8374201388 16.9396795513 0 0 0
50 7 11.1971999246 8.0676061186 16.8863490941 0 0 0
51 4 0.0551594906 10.1280941894 16.6521411517 0 0 0
52 7 2.6279137209 10.0124892653 16.6865809629 0 0 0
56 4 1.0810949614 12.4694911099 16.5902336683 0 0 0
57 7 3.5499221933 12.2145179185 17.0808533872 0 0 0
86 6 1.3543752637 10.8709131843 18.6231860901 0 0 0
23 4 6.4235836651 9.4448692829 15.025960383 0 0 0
28 4 5.0513945487 11.6980556371 15.2273341425 0 0 0
29 7 7.5185972735 11.5766435839 15.177280401 0 0 0
53 4 4.9308733663 9.9462949773 16.9293926682 0 0 0
54 7 7.4139783683 10.0861112012 17.1134368495 0 0 0
58 7 6.1015787603 12.2031115651 17.2471549318 0 0 0
55 1 9.838759763 10.1926237331 16.8283188598 0 0 0
59 7 8.6089090926 12.393367537 17.2278525486 0 0 0
60 7 11.15442563 12.125298562 16.7122780891 0 0 0
62 7 2.3790327821 0.0988386625 19.0653832876 0 0 0
66 7 1.2089874223 2.2353539219 19.189803258 0 0 0
67 7 3.621873364 2.2532742365 19.0972960512 0 0 0
91 2 1.3074755559 1.4631112624 21.8767676995 0 0 0
92 7 3.3582482511 0.8062790968 21.2809444705 0 0 0
96 7 0.0066427607 2.9340214348 21.2194528305 0 0 0
97 7 2.4394148309 3.016250782 21.2649769713 0 0 0
63 7 4.8153189315 0.0667902558 19.2646222075 0 0 0
64 7 7.4289491661 0.0350462781 19.3176860371 0 0 0
68 7 6.1458601317 2.1153872393 19.1306054306 0 0 0
74 6 7.5137000814 4.2375922495 19.09217419 0 0 0
93 7 6.1612056887 0.773864616 21.2629207857 0 0 0
98 6 4.9034663253 2.8953124215 21.1696370362 0 0 0
99 7 7.4211762343 2.9060591589 21.2278926775 0 0 0
65 7 9.9919592115 0.0716383023 19.192852582 0 0 0
70 7 11.2109924984 2.2558063883 19.0907464104 0 0 0
94 7 8.7098460847 0.8003219944 21.2194640854 0 0 0
95 7 11.2639179629 0.8505261627 21.1819930582 0 0 0
100 6 9.9010957483 2.9295181172 21.0862074335 0 0 0
71 7 0.0558312531 4.4453727369 19.1899797843 0 0 0
72 7 2.5457012245 4.4583302913 19.3010663151 0 0 0
76 7 1.2469538697 6.5705046749 19.1417689347 0 0 0
77 7 3.8568327252 6.4607995798 19.2421683362 0 0 0
82 7 2.6406311237 8.5797687414 18.849273229 0 0 0
101 4 1.2454975675 5.119445747 21.2327598379 0 0 0
102 5 3.7410510612 5.1471962234 21.3559344723 0 0 0
107 4 2.521842483 7.1606422175 21.1286326284 0 0 0
73 7 5.0184470953 4.3301972737 19.0947638182 0 0 0
78 7 6.3339644581 6.4715427865 19.0447222124 0 0 0
83 7 5.092154407 8.6033445579 19.124619345 0 0 0
103 7 6.2032856995 5.0943479284 21.1723341129 0 0 0
108 7 5.0499613165 7.2338247215 21.2341316315 0 0 0
109 7 7.4633369589 7.2639111578 21.2048217526 0 0 0
75 7 9.9674141872 4.3249958816 19.0040542444 0 0 0
79 7 8.7663528702 6.4579377917 19.0843091746 0 0 0
80 7 11.2032602603 6.5386359905 19.0576782702 0 0 0
104 5 8.6496441751 5.0788997906 21.1841586788 0 0 0
105 7 11.1731648365 5.1072457379 21.1306087734 0 0 0
106 7 12.430611621599999 7.244678774 21.1293300088 -1 0 0
110 7 9.9132011996 7.2659786164 21.0890218098 0 0 0
81 7 0.0242902955 8.7158662345 18.9024508672 0 0 0
87 7 3.7860336052 10.7941564919 19.0414584368 0 0 0
111 6 1.338345165 9.3505081046 20.9830973114 0 0 0
112 7 3.828879524 9.3892028993 21.0863278527 0 0 0
116 1 0.1238326353 11.852780888 20.8176197904 0 0 0
117 7 2.5298217871 11.507972692 21.0529389433 0 0 0
84 7 7.5250396201 8.6461502638 19.152152831 0 0 0
88 6 6.2467873601 10.8121678148 19.251123833 0 0 0
113 4 6.2806556138 9.3646290549 21.3444865887 0 0 0
118 7 4.9712463175 11.5717464334 21.2619475706 0 0 0
119 7 7.5260981607 11.5268817124 21.2923368935 0 0 0
85 7 9.9530917007 8.7538384312 18.9269461878 0 0 0
89 4 8.8004551024 10.9017442746 19.2185604003 0 0 0
90 7 11.2614004336 10.8859604295 18.9021879728 0 0 0
114 4 8.6762564574 9.4007329687 21.1652081493 0 0 0
115 6 11.136918577 9.4441875401 21.0305085561 0 0 0
120 7 10.0181119662 11.6461381791 21.2779922796 0 0 0
122 7 2.514623796964359 1.6079534838926401 23.451923787194954 0 0 0
126 7 1.2015583200918387 3.694216067683603 23.283425014787095 0 0 0
127 7 3.712272632218274 3.7152789941130613 23.333218331752455 0 0 0
152 7 2.5333165218852116 0.10717967707751065 25.37319078054556 0 0 0
156 7 1.2060453425267197 2.295196811588986 25.398176205520958 0 0 0
157 7 3.7248557605858124 2.3047700862368936 25.49373375441489 0 0 0
123 7 4.954256866091395 1.5617432322967821 23.321205434824712 0 0 0
124 7 7.459347260778383 1.5407886171612448 23.328696749278205 0 0 0
128 7 6.225503349777232 3.6979331621980673 23.24294895134312 0 0 0
153 7 4.967102807602297 0.16887748586066775 25.36591285178467 0 0 0
154 7 7.5108094388758 0.15312772658346488 25.393484313547557 0 0 0
158 4 6.2142769479196 2.313956239422451 25.313859428434544 0 0 0
121 7 12.38220128372693 1.5634014805194654 23.29058658188605 -1 0 0
125 7 9.938325219956424 1.5313175495440527 23.266631995988366 0 0 0
129 4 8.664831444492535 3.625148245072187 23.298863949044122 0 0 0
130 7 11.158592255414785 3.666763954191131 23.226924595876678 0 0 0
151 7 12.42579856416128 0.19484582999382286 25.270330542600764 -1 0 0
159 7 8.670696147954603 2.2818652457797746 25.363495777009053 0 0 0
160 7 11.13578989285212 2.3052654994535327 25.324895592692194 0 0 0
131 7 0.0019294677795806965 5.879148869218241 23.208105188445316 0 0 0
132 7 2.461415231311546 5.837569141444949 23.286073008425955 0 0 0
136 7 1.2253508402104731 8.025154242752706 23.167665579253264 0 0 0
137 6 3.7090303726024447 8.039243985266147 23.23087726064505 0 0 0
162 7 2.473407019227494 4.425110955122355 25.397394749035346 0 0 0
166 7 1.2177691707761706 6.641501114140816 25.290777818486728 0 0 0
167 7 3.7033832026091846 6.576465421213814 25.33264583036646 0 0 0
133 5 4.9503072458595465 5.852881529481661 23.280233946526693 0 0 0
134 7 7.401554162843022 5.843899793471685 23.243099323529467 0 0 0
138 4 6.254517498124565 8.032466775249821 23.308864624497495 0 0 0
163 7 4.973636643839688 4.398084078959179 25.3067072007107 0 0 0
164 7 7.45338214687137 4.401429910662974 25.309487067013755 0 0 0
168 7 6.167723156250431 6.5822696771931355 25.31452677745739 0 0 0
135 6 9.961588719065004 5.843999277528343 23.195454107680266 0 0 0
139 7 8.693583660560755 8.024740519644014 23.22867087330092 0 0 0
140 7 11.180551823580238 8.056846027309476 23.210069782699954 0 0 0
161 6 12.387729493517526 4.492312577600639 25.312440321268717 -1 0 0
165 7 9.903783186794893 4.432564597361569 25.347090203457995 0 0 0
169 1 8.658306613810645 6.583755795141058 25.427801861625426 0 0 0
170 7 11.144202446091487 6.632611086698796 25.381709165937124 0 0 0
142 7 2.4731784501633385 10.24353354022672 23.161788264722418 0 0 0
146 7 1.2539050287655176 12.536652477847785 22.878658830873373 0 0 0
147 7 3.715623347609708 12.345420932838085 23.296095807826724 0 0 0
172 7 2.471509894362342 8.754102650750111 25.306168077889986 0 0 0
176 1 1.3292696174972394 10.888153926444113 25.329763166165968 0 0 0
177 7 3.7261053574415963 10.86579331368171 25.300498378158757 0 0 0
143 7 4.9891973613402705 10.182072573564497 23.26866575356607 0 0 0
144 7 7.521764356874227 10.174875271187693 23.30488478355841 0 0 0
148 7 6.229292339282532 12.360314697268768 23.302989939557207 0 0 0
173 7 4.966818032872448 8.728944140953681 25.39176125249003 0 0 0
174 7 7.455368876186194 8.729167544037516 25.337368105532487 0 0 0
178 6 6.238971603578666 10.911147622834712 25.347915944175817 0 0 0
141 7 12.443803860771677 10.251821490362662 23.05175732123986 -1 0 0
145 5 9.960810920658675 10.125861137034859 23.2578446302033 0 0 0
149 1 8.769231312081088 12.380459747090555 23.348060072632173 0 0 0
150 3 12.42937827100337 11.820124495979242 23.990263699384396 0 0 0
171 7 12.41654962001591 8.80183710890728 25.239531167261195 -1 0 0
175 7 9.945443322138807 8.782735660818508 25.310556708953417 0 0 0
179 7 8.765636154684486 10.933685231571443 25.34641764454734 0 0 0
180 4 11.156666388098929 10.946264705243408 25.140259959309216 0 0 0
181 7 1.2206578276927738 0.7828807852281374 27.36012782807938 0 0 0
182 7 3.667955883110048 0.8614859216075524 27.526353582197842 0 0 0
187 6 2.2873439660058277 2.961502938874151 27.623463951915816 0 0 0
211 7 0.1389958092405858 1.7246851114439767 29.27723558311535 0 0 0
212 7 2.478714168448051 1.4237721983434326 29.867928210513586 0 0 0
216 7 0.8884735949610265 4.157542195414315 29.494667416372298 0 0 0
217 7 3.625067166071259 3.7106634339223055 29.640476887467287 0 0 0
183 6 6.248935293884951 0.8852089172974412 27.45584581806982 0 0 0
188 7 4.951910841697718 3.0054018673535947 27.53391526105412 0 0 0
189 7 7.467714894540799 3.0193324303026277 27.460336929881386 0 0 0
213 7 4.937533279968783 1.4304753038980516 29.593778765952447 0 0 0
214 7 7.557600185389033 1.3918907388950068 29.600083305726184 0 0 0
218 4 6.217227620650548 3.3606571260527724 29.694459099583906 0 0 0
184 7 8.741786686703884 0.8241722848691052 27.451670744653395 0 0 0
185 7 11.172552140745378 0.9236773972398409 27.388931356004846 0 0 0
186 7 12.297249989460697 3.1205512442866397 27.359384864980804 -1 0 0
190 7 9.87882016792484 3.025168429207257 27.41614723931705 0 0 0
215 7 9.950964819941968 1.507544691648975 29.467949942598864 0 0 0
219 7 8.605250709809296 3.6401188880917124 29.584317095971844 0 0 0
220 7 11.000127838279116 3.6494971177311406 29.518134436415977 0 0 0
191 7 1.1823307367523748 5.253263986322009 27.37417191723728 0 0 0
192 6 3.709088377924482 5.212853949862608 27.485548503351815 0 0 0
197 7 2.444429022817515 7.340092774424114 27.39056598487225 0 0 0
221 2 0.263247261562776 6.166363341290411 29.044211171019008 0 0 0
222 4 2.3705022856600886 5.8910664722151775 29.535933218912085 0 0 0
226 7 1.1854672902645829 7.977107382812356 29.459447936619256 0 0 0
227 7 3.665544402792854 7.912852299786452 29.506243263714723 0 0 0
193 7 6.229603021405151 5.145377114506197 27.288947151626218 0 0 0
198 5 4.952231162930096 7.324463922102949 27.44604122488015 0 0 0
199 7 7.422679734590256 7.2289229010183345 27.445804270344702 0 0 0
223 3 5.161262449534702 4.618636527764278 28.802254484660843 0 0 0
224 6 7.077400601766115 5.678012709396862 29.557194439307633 0 0 0
228 7 6.108984529104873 7.951596293781189 29.664184465951724 0 0 0
194 7 8.721074838480225 5.13308215503653 27.506460064503003 0 0 0
195 7 11.235989163788505 5.297628146443024 27.715958692791485 0 0 0
196 7 12.426076762709348 7.385234697164289 27.344445526463524 -1 0 0
200 7 9.916715110880673 7.33299586436585 27.477868473810446 0 0 0
225 7 9.718188545825702 5.787885457227133 29.61167663036119 0 0 0
229 5 8.569999451496095 7.848561792284525 29.461789078920262 0 0 0
230 7 11.254515322605998 7.651369729515169 29.478921025277597 0 0 0
201 7 1.1735733103860333 9.460571693419311 27.36863982428539 0 0 0
202 7 3.672974132203633 9.396907103629868 27.46153497659285 0 0 0
207 7 2.3906323346481133 11.575180338697272 27.412046279762464 0 0 0
232 7 2.3882717844725385 10.104665590433795 29.468469700462105 0 0 0
236 7 1.2480208400688142 12.306499710452206 29.433075500157184 0 0 0
237 7 3.6668127448886754 12.23140070049903 29.564234541621513 0 0 0
203 6 6.272347220211882 9.40787526497096 27.640686985093765 0 0 0
208 6 4.816542905468049 11.59042830429336 27.445727089953916 0 0 0
209 7 7.538612638649456 11.598498702116979 27.54637963935145 0 0 0
233 7 4.908729816836919 10.077895916618969 29.626460579097 0 0 0
234 7 7.62366312584861 10.087798306578833 29.856081763737738 0 0 0
238 6 6.255309128539644 12.205406311045127 29.67081732619076 0 0 0
155 3 11.060099853503353 12.409819259516377 26.33236731560039 0 -1 0
204 7 8.697941529821923 9.391738442449821 27.36285079678512 0 0 0
205 4 11.22073501867682 9.373392625245955 27.278020937284506 0 0 0
206 7 12.389175828462868 11.554506832407842 27.39065641501751 -1 0 0
210 7 9.93899122433793 11.524815836487877 27.454466739499818 0 0 0
231 7 12.325482901577535 10.08255542059121 29.3859507078503 -1 0 0
235 7 9.985896446368397 9.86055837556913 29.282504502127416 0 0 0
239 7 8.959445872746294 12.166682977025312 29.63361932887946 0 0 0
240 7 11.362337949613663 12.418435525822668 29.50891093510676 0 0 0
241 6 0.4215535616988645 0.6849508151359652 31.559878528469678 0 0 0
247 1 3.75131423875151 2.21961366036317 31.757188736661483 0 0 0
251 3 1.1498342078619945 2.4665297284431738 32.51854178899549 0 0 0
252 7 2.1389886633766797 4.0702274457924545 31.646200085100084 0 0 0
243 7 4.684104933005076 0.00028338185651264686 31.695814487090097 0 0 0
248 7 6.244439746024596 1.994154884833933 31.69140521488539 0 0 0
254 7 7.346692444574445 4.281270863147179 31.698164850151294 0 0 0
245 7 10.303185365455356 0.4907996578876263 31.635605800686672 0 0 0
246 7 12.20368508957919 3.3071901832619583 31.530575318239354 -1 0 0
249 7 8.674972223564893 2.2668081904155635 31.74044114340928 0 0 0
250 3 11.31432207598055 1.8602011715606088 30.6869353463599 0 0 0
256 7 0.8393061866324715 6.299161818349177 31.290160311363618 0 0 0
257 7 3.454168789630041 6.469347627896962 31.549369010058857 0 0 0
281 5 1.1020385674622077 5.145369387792054 33.609773319872694 0 0 0
282 6 3.628590915476108 5.072450238526463 33.64465791879684 0 0 0
287 7 2.2981310998580744 7.2863424930694585 33.57500285902227 0 0 0
253 7 4.921805321163574 4.362142261409282 31.586770249218446 0 0 0
258 7 5.9608809169941495 6.50120153804206 31.7074462114741 0 0 0
263 4 4.711415786665686 8.578388409480684 31.6514936191015 0 0 0
264 7 7.188866816330115 8.62014645673291 31.726139274200637 0 0 0
255 7 9.883213009441901 4.384198312528709 31.6429006425783 0 0 0
259 7 8.438930915526901 6.502521694736503 31.609165600737178 0 0 0
260 7 10.901894945119148 6.601591710155907 31.629280947731637 0 0 0
285 7 11.112751203017092 5.144176693272159 33.644719505976546 0 0 0
286 7 12.323723432085801 7.292390103837981 33.51313048351844 -1 0 0
290 7 9.787769660593515 7.256798113649842 33.629585638691495 0 0 0
242 2 2.417058415491493 12.482916432324792 31.152896707180687 0 -1 0
262 7 2.2067874308850524 8.672054535242166 31.583829530355885 0 0 0
266 7 0.953648840742738 10.910391950496404 31.413789466750718 0 0 0
267 7 3.5585708629833563 10.75974684824113 31.550152558133682 0 0 0
297 6 2.2573956962410837 11.642530724815678 33.41590498405851 0 0 0
244 6 7.808816005294179 12.746843707506445 31.757335666268368 0 -1 0
268 7 6.080618502703478 10.775663344286814 31.773708317123862 0 0 0
269 2 8.240081821489694 10.436067574831872 31.971413802176478 0 0 0
261 5 12.173423995864908 8.741551841417483 31.494150086834214 -1 0 0
265 7 9.573443728165127 8.777305908373375 31.497886658570348 0 0 0
270 6 10.682410676302844 10.985019987198626 31.3646956298659 0 0 0
295 7 11.003087245133282 9.446546642058877 33.48427033124729 0 0 0
296 7 12.134789668360373 11.768843239686385 33.267726323046624 -1 0 0
300 7 9.677835050050373 11.647251434065533 33.56459262247047 0 0 0
271 7 1.1635242215021937 0.8605245341291995 33.89345033437921 0 0 0
272 7 3.617520446314303 0.8178074747475 33.831705437996135 0 0 0
277 4 2.368573722192557 2.9649355939648654 33.935416148286095 0 0 0
302 7 2.4148939214376766 1.5900433547534836 35.97373107660046 0 0 0
306 7 1.1618287282823707 3.713211935125307 35.89540456402361 0 0 0
307 7 3.6559669313558842 3.7299885388807246 35.89386091681728 0 0 0
273 7 6.161046537042935 0.6567623830624781 33.75999019927183 0 0 0
278 7 4.937507016156207 2.9203443345632993 33.71569833154699 0 0 0
279 7 7.3760682892132445 2.9081356321417586 33.80398894451999 0 0 0
303 6 4.898676952336011 1.5467729120232918 35.849957387353435 0 0 0
304 7 7.372413336977378 1.511628225558451 35.8757638596209 0 0 0
308 7 6.125346375151427 3.707143533139145 35.8481502557323 0 0 0
274 4 8.657692636678041 0.9360232230810686 33.824524420061636 0 0 0
275 7 11.067008302528716 0.8333915894407065 33.91196983835844 0 0 0
276 7 12.32376092815244 3.0250389956748336 33.889166792873674 -1 0 0
280 7 9.884647817518436 2.980603798320295 33.8165375367984 0 0 0
301 6 12.341584652283647 1.4967987572384094 35.92534050390408 -1 0 0
305 4 9.818121255925986 1.5342386525596632 35.963734748193524 0 0 0
309 7 8.608254762315337 3.655598891130713 35.814125941078125 0 0 0
310 7 11.072446930622837 3.692650855476311 35.897251795304946 0 0 0
312 4 2.298825460012516 5.843423142444353 35.69386897120059 0 0 0
316 7 1.1268170285181844 7.917413189324341 35.608356133022106 0 0 0
317 7 3.576622766456948 7.983249095734524 35.73124609010136 0 0 0
283 7 6.141106823179501 5.093011333277616 33.74773466978648 0 0 0
288 7 4.815996684155136 7.290342447250573 33.73698290341 0 0 0
289 7 7.298281379204385 7.255626351493434 33.7325399007826 0 0 0
313 7 4.827954777497692 5.854126251663686 35.81983707961704 0 0 0
314 7 7.372667432643903 5.842475259317324 35.74131465230553 0 0 0
318 7 6.101445285921258 7.981317196342185 35.8021256232721 0 0 0
284 7 8.629625708595421 5.067132932503557 33.69529834392337 0 0 0
311 7 12.362839917776602 5.79949600522743 35.662590982289636 -1 0 0
315 7 9.819237060220427 5.80781934884266 35.7153210763232 0 0 0
319 7 8.623229140282165 7.9784045204603995 35.756150699034706 0 0 0
320 7 11.09958390293935 7.885467512274644 35.581383606042664 0 0 0
291 5 0.9280714366260597 9.561996348315203 33.79000859914702 0 0 0
292 7 3.527102821020727 9.426502365881872 33.676299999003795 0 0 0
322 7 2.336830033444554 10.075804202614373 35.767442538957106 0 0 0
326 7 0.8652033017305069 11.987373340274365 35.67012450807536 0 0 0
327 1 3.3776547899870955 12.244446891120766 35.804945495305184 0 0 0
293 5 6.0447183042765635 9.387634408474012 33.787824955471514 0 0 0
298 7 4.781571488647495 11.50090048654441 33.79433388328132 0 0 0
299 4 7.29200698582504 11.423332606121898 33.78882388012172 0 0 0
323 4 4.887218942279958 10.080799872185935 35.79574929836835 0 0 0
324 7 7.341155692744309 10.073147664138663 35.803157381959835 0 0 0
328 7 6.059937444451057 12.225053482888269 35.80664118886683 0 0 0
294 7 8.535734465413585 9.373325673535158 33.67808802395462 0 0 0
321 2 11.808656340685243 10.681317159150584 34.85188996430441 -1 0 0
325 7 9.905663938597401 10.093295644139742 35.63935537332184 0 0 0
329 7 8.545366726239168 12.308444433909875 35.77123269694658 0 0 0
330 7 10.95060063636251 12.21831414412828 35.934801611297544 0 0 0
351 6 12.314113272126168 9.694446698475192 36.72180888976503 -1 0 0
332 7 2.4637789200534193 0.2275463254294288 38.07632134954117 0 0 0
336 7 1.1555883191817486 2.3221043064656186 38.001591518850844 0 0 0
337 7 3.6534120326006603 2.3978749967996156 38.060639107658425 0 0 0
361 8 3.6444883272055804 3.9569841613802077 39.01435089264343 0 0 0
333 6 4.926835844485802 0.10129577405047836 37.897838225420756 0 0 0
334 7 7.396155445712509 0.10287795646298638 37.906593945475024 0 0 0
338 7 6.164968278059594 2.357394875363804 37.96673059719648 0 0 0
331 6 12.333750170000746 0.08495098268226409 37.95485990213433 -1 0 0
335 7 9.837613330599078 0.17044589560994586 38.01920312841038 0 0 0
339 7 8.604427435250306 2.333449051751946 37.9071319692531 0 0 0
340 7 11.074640477139493 2.375226943744411 38.01868907627167 0 0 0
342 5 2.3906754473885976 4.590668649844669 37.799276796915265 0 0 0
346 7 1.107583216094063 6.647319481225754 37.68677585490406 0 0 0
347 4 3.62517739748471 6.663659437880053 37.764695091282995 0 0 0
343 7 4.844632921733614 4.51776799122605 37.93112978019967 0 0 0
344 5 7.366368426423458 4.50243572905125 37.77755128769199 0 0 0
348 5 6.153422466942167 6.58218975727423 37.73299733877347 0 0 0
341 7 12.379883247681935 4.48688731194443 37.855084460444495 -1 0 0
345 7 9.800990472289083 4.502245668081391 37.83913875877226 0 0 0
349 7 8.634386091658417 6.588261616001336 37.76123881847817 0 0 0
350 7 11.121418840613549 6.566912570022113 37.63447062332407 0 0 0
352 7 2.2748114829848256 8.702598116362985 37.73402459541734 0 0 0
356 7 1.3549445051934292 11.037339390424146 38.07737476254651 0 0 0
357 7 3.672699796104701 10.850416848771133 37.8031883394021 0 0 0
353 7 4.887067731544038 8.709558080137827 37.819876448986456 0 0 0
354 7 7.45372426243707 8.68207369424341 37.881784657750586 0 0 0
358 7 6.16281104926424 10.830131249013016 37.85300582083225 0 0 0
355 7 10.01804132747273 8.711754681656526 37.690610019675 0 0 0
359 6 8.687042417123566 10.865226252226009 37.76176024542332 0 0 0
360 7 11.056685215377904 10.92782270407018 38.419288282185214 0 0 0

Velocities

1 0 0 0
7 0 0 0
9 0 0 0
5 0 0 0
10 0 0 0
16 0 0 0
19 0 0 0
14 0 0 0
20 0 0 0
21 0 0 0
22 0 0 0
26 0 0 0
27 0 0 0
24 0 0 0
25 0 0 0
30 0 0 0
2 0 0 0
6 0 0 0
31 0 0 0
32 0 0 0
36 0 0 0
37 0 0 0
3 0 0 0
8 0 0 0
33 0 0 0
34 0 0 0
38 0 0 0
4 0 0 0
35 0 0 0
39 0 0 0
40 0 0 0
61 0 0 0
69 0 0 0
11 0 0 0
12 0 0 0
17 0 0 0
18 0 0 0
41 0 0 0
42 0 0 0
46 0 0 0
13 0 0 0
43 0 0 0
44 0 0 0
47 0 0 0
48 0 0 0
15 0 0 0
45 0 0 0
49 0 0 0
50 0 0 0
51 0 0 0
52 0 0 0
56 0 0 0
57 0 0 0
86 0 0 0
23 0 0 0
28 0 0 0
29 0 0 0
53 0 0 0
54 0 0 0
58 0 0 0
55 0 0 0
59 0 0 0
60 0 0 0
62 0 0 0
66 0 0 0
67 0 0 0
91 0 0 0
92 0 0 0
96 0 0 0
97 0 0 0
63 0 0 0
64 0 0 0
68 0 0 0
74 0 0 0
93 0 0 0
98 0 0 0
99 0 0 0
65 0 0 0
70 0 0 0
94 0 0 0
95 0 0 0
100 0 0 0
71 0 0 0
72 0 0 0
76 0 0 0
77 0 0 0
82 0 0 0
101 0 0 0
102 0 0 0
107 0 0 0
73 0 0 0
78 0 0 0
83 0 0 0
103 0 0 0
108 0 0 0
109 0 0 0
75 0 0 0
79 0 0 0
80 0 0 0
104 0 0 0
105 0 0 0
106 0 0 0
110 0 0 0
81 0 0 0
87 0 0 0
111 0 0 0
112 0 0 0
116 0 0 0
117 0 0 0
84 0 0 0
88 0 0 0
113 0 0 0
118 0 0 0
119 0 0 0
85 0 0 0
89 0 0 0
90 0 0 0
114 0 0 0
115 0 0 0
120 0 0 0
122 0 0 0
126 0 0 0
127 0 0 0
152 0 0 0
156 0 0 0
157 0 0 0
123 0 0 0
124 0 0 0
128 0 0 0
153 0 0 0
154 0 0 0
158 0 0 0
121 0 0 0
125 0 0 0
129 0 0 0
130 0 0 0
151 0 0 0
159 0 0 0
160 0 0 0
131 0 0 0
132 0 0 0
136 0 0 0
137 0 0 0
162 0 0 0
166 0 0 0
167 0 0 0
133 0 0 0
134 0 0 0
138 0 0 0
163 0 0 0
164 0 0 0
168 0 0 0
135 0 0 0
139 0 0 0
140 0 0 0
161 0 0 0
165 0 0 0
169 0 0 0
170 0 0 0
142 0 0 0
146 0 0 0
147 0 0 0
172 0 0 0
176 0 0 0
177 0 0 0
143 0 0 0
144 0 0 0
148 0 0 0
173 0 0 0
174 0 0 0
178 0 0 0
141 0 0 0
145 0 0 0
149 0 0 0
150 0 0 0
171 0 0 0
175 0 0 0
179 0 0 0
180 0 0 0
181 0 0 0
182 0 0 0
187 0 0 0
211 0 0 0
212 0 0 0
216 0 0 0
217 0 0 0
183 0 0 0
188 0 0 0
189 0 0 0
213 0 0 0
214 0 0 0
218 0 0 0
184 0 0 0
185 0 0 0
186 0 0 0
190 0 0 0
215 0 0 0
219 0 0 0
220 0 0 0
191 0 0 0
192 0 0 0
197 0 0 0
221 0 0 0
222 0 0 0
226 0 0 0
227 0 0 0
193 0 0 0
198 0 0 0
199 0 0 0
223 0 0 0
224 0 0 0
228 0 0 0
194 0 0 0
195 0 0 0
196 0 0 0
200 0 0 0
225 0 0 0
229 0 0 0
230 0 0 0
201 0 0 0
202 0 0 0
207 0 0 0
232 0 0 0
236 0 0 0
237 0 0 0
203 0 0 0
208 0 0 0
209 0 0 0
233 0 0 0
234 0 0 0
238 0 0 0
155 0 0 0
204 0 0 0
205 0 0 0
206 0 0 0
210 0 0 0
231 0 0 0
235 0 0 0
239 0 0 0
240 0 0 0
241 0 0 0
247 0 0 0
251 0 0 0
252 0 0 0
243 0 0 0
248 0 0 0
254 0 0 0
245 0 0 0
246 0 0 0
249 0 0 0
250 0 0 0
256 0 0 0
257 0 0 0
281 0 0 0
282 0 0 0
287 0 0 0
253 0 0 0
258 0 0 0
263 0 0 0
264 0 0 0
255 0 0 0
259 0 0 0
260 0 0 0
285 0 0 0
286 0 0 0
290 0 0 0
242 0 0 0
262 0 0 0
266 0 0 0
267 0 0 0
297 0 0 0
244 0 0 0
268 0 0 0
269 0 0 0
261 0 0 0
265 0 0 0
270 0 0 0
295 0 0 0
296 0 0 0
300 0 0 0
271 0 0 0
272 0 0 0
277 0 0 0
302 0 0 0
306 0 0 0
307 0 0 0
273 0 0 0
278 0 0 0
279 0 0 0
303 0 0 0
304 0 0 0
308 0 0 0
274 0 0 0
275 0 0 0
276 0 0 0
280 0 0 0
301 0 0 0
305 0 0 0
309 0 0 0
310 0 0 0
312 0 0 0
316 0 0 0
317 0 0 0
283 0 0 0
288 0 0 0
289 0 0 0
313 0 0 0
314 0 0 0
318 0 0 0
284 0 0 0
311 0 0 0
315 0 0 0
319 0 0 0
320 0 0 0
291 0 0 0
292 0 0 0
322 0 0 0
326 0 0 0
327 0 0 0
293 0 0 0
298 0 0 0
299 0 0 0
323 0 0 0
324 0 0 0
328 0 0 0
294 0 0 0
321 0 0 0
325 0 0 0
329 0 0 0
330 0 0 0
351 0 0 0
332 0 0 0
336 0 0 0
337 0 0 0
361 0 0 0
333 0 0 0
334 0 0 0
338 0 0 0
331 0 0 0
335 0 0 0
339 0 0 0
340 0 0 0
342 0 0 0
346 0 0 0
347 0 0 0
343 0 0 0
344 0 0 0
348 0 0 0
341 0 0 0
345 0 0 0
349 0 0 0
350 0 0 0
352 0 0 0
356 0 0 0
357 0 0 0
353 0 0 0
354 0 0 0
358 0 0 0
355 0 0 0
359 0 0 0
360 0 0 0
