LAMMPS data file via write_data, version 11 Feb 2026, timestep = 145, units = metal

361 atoms
8 atom types

0 12.447907776 xlo xhi
0 12.9362452296 ylo yhi
0 52.3600831054 zlo zhi

Masses

1 26.9815
2 10.811
3 12.011
4 51.9961
5 55.845
6 95.95999999999999
7 58.6934
8 1.008

Atoms # atomic/kk

1 7 1.4580843455 0.7218047426 14.4942469487 0 0 0
7 7 2.5810873504 2.9163185478 14.9540018111 0 0 0
9 7 7.5162372984 2.9480672327 14.6301383058 0 0 0
5 7 11.442487969 0.565521243 14.7166000995 0 0 0
10 7 10.3736943941 2.7250202089 14.5780872379 0 0 0
16 7 0.1528335489 7.1416033142 14.8053871159 0 0 0
19 4 7.4417425344 7.0981711949 14.8288933029 0 0 0
14 7 8.7247883397 5.1052200877 14.4237174226 0 0 0
20 6 10.0470278793 7.1624870573 14.8746462642 0 0 0
21 6 1.4681915289 9.2757287977 14.6793173639 0 0 0
22 7 4.0399058405 9.7493356002 14.4379223301 0 0 0
26 7 0.1415996947 11.4124560371 14.5760744436 0 0 0
27 7 2.5890307333 11.5815481856 14.8325602687 0 0 0
24 7 8.7325308155 9.3568274457 14.7678792927 0 0 0
25 7 11.3276666774 9.2973896931 14.6705848131 0 0 0
30 7 9.9991735481 11.491911204 14.7325785343 0 0 0
2 7 3.8303917227 0.7715487251 15.0367793516 0 0 0
6 7 0.2299802519 2.4910955249 15.4624405654 0 0 0
31 2 0.1535393273 1.8800832244 17.4727968173 0 0 0
32 4 2.2503917409 1.4135934921 16.9009573897 0 0 0
36 6 1.5027995547 3.8226107385 17.1647885311 0 0 0
37 7 3.9390496774 3.628871917 17.0340725448 0 0 0
3 7 6.4800002202 0.9037117612 15.4847973826 0 0 0
8 7 4.983545983 2.8856463247 14.987117194 0 0 0
33 7 4.7635672587 1.3810066196 17.1414609516 0 0 0
34 3 7.8352031167 1.977476997 16.2533344252 0 0 0
38 7 6.4759042382 3.2039509965 16.9362312433 0 0 0
4 7 8.9883030003 0.8662837048 15.2637712517 0 0 0
35 7 10.7191413115 1.4634840767 16.8763098024 0 0 0
39 6 9.1038289731 3.6580178294 16.4211269874 0 0 0
40 7 11.4455094665 3.7209848861 17.1321982742 0 0 0
61 7 12.364113499999998 0.1765818471 18.6387730145 -1 0 0
69 6 8.5990939556 1.9383338943 18.2682958958 0 0 0
11 4 1.115690251 4.9622760047 14.9991697645 0 0 0
12 6 3.615944974 5.1956614091 15.1086762031 0 0 0
17 3 1.9717823355 6.7779779928 15.3647204089 0 0 0
18 7 3.5888290397 7.8178195664 15.7014687646 0 0 0
41 4 0.0295068604 5.9073534175 17.030498658 0 0 0
42 4 2.6059979117 6.033844536 17.1891633236 0 0 0
46 7 1.2477756632 7.9962991947 16.8668757371 0 0 0
13 7 6.1597066987 5.0785734363 14.9616627762 0 0 0
43 7 5.0378927664 5.7633166886 17.0694141355 0 0 0
44 7 7.4928195585 5.5962461107 16.9448469858 0 0 0
47 2 4.1987870758 7.6257883635 17.629777601 0 0 0
48 7 6.0419531386 7.8518542478 16.772354068 0 0 0
15 7 11.1753134785 4.9460353561 15.0484478726 0 0 0
45 7 10.0436739351 5.842849508 17.0229684757 0 0 0
49 6 8.553008074 7.8374201388 16.9396795513 0 0 0
50 7 11.1971999246 8.0676061186 16.8863490941 0 0 0
51 4 0.0551594906 10.1280941894 16.6521411517 0 0 0
52 7 2.6279137209 10.0124892653 16.6865809629 0 0 0
56 4 1.0810949614 12.4694911099 16.5902336683 0 0 0
57 7 3.5499221933 12.2145179185 17.0808533872 0 0 0
86 6 1.3543752637 10.8709131843 18.6231860901 0 0 0
23 4 6.4235836651 9.4448692829 15.025960383 0 0 0
28 4 5.0513945487 11.6980556371 15.2273341425 0 0 0
29 7 7.5185972735 11.5766435839 15.177280401 0 0 0
53 4 4.9308733663 9.9462949773 16.9293926682 0 0 0
54 7 7.4139783683 10.0861112012 17.1134368495 0 0 0
58 7 6.1015787603 12.2031115651 17.2471549318 0 0 0
55 1 9.838759763 10.1926237331 16.8283188598 0 0 0
59 7 8.6089090926 12.393367537 17.2278525486 0 0 0
60 7 11.15442563 12.125298562 16.7122780891 0 0 0
62 7 2.3790327821 0.0988386625 19.0653832876 0 0 0
66 7 1.2089874223 2.2353539219 19.189803258 0 0 0
67 7 3.621873364 2.2532742365 19.0972960512 0 0 0
91 2 1.3074755559 1.4631112624 21.8767676995 0 0 0
92 7 3.3582482511 0.8062790968 21.2809444705 0 0 0
96 7 0.0066427607 2.9340214348 21.2194528305 0 0 0
97 7 2.4394148309 3.016250782 21.2649769713 0 0 0
63 7 4.8153189315 0.0667902558 19.2646222075 0 0 0
64 7 7.4289491661 0.0350462781 19.3176860371 0 0 0
68 7 6.1458601317 2.1153872393 19.1306054306 0 0 0
74 6 7.5137000814 4.2375922495 19.09217419 0 0 0
93 7 6.1612056887 0.773864616 21.2629207857 0 0 0
98 6 4.9034663253 2.8953124215 21.1696370362 0 0 0
99 7 7.4211762343 2.9060591589 21.2278926775 0 0 0
65 7 9.9919592115 0.0716383023 19.192852582 0 0 0
70 7 11.2109924984 2.2558063883 19.0907464104 0 0 0
94 7 8.7098460847 0.8003219944 21.2194640854 0 0 0
95 7 11.2639179629 0.8505261627 21.1819930582 0 0 0
100 6 9.9010957483 2.9295181172 21.0862074335 0 0 0
71 7 0.0558312531 4.4453727369 19.1899797843 0 0 0
72 7 2.5457012245 4.4583302913 19.3010663151 0 0 0
76 7 1.2469538697 6.5705046749 19.1417689347 0 0 0
77 7 3.8568327252 6.4607995798 19.2421683362 0 0 0
82 7 2.6406311237 8.5797687414 18.849273229 0 0 0
101 4 1.2454975675 5.119445747 21.2327598379 0 0 0
102 5 3.7410510612 5.1471962234 21.3559344723 0 0 0
107 4 2.521842483 7.1606422175 21.1286326284 0 0 0
73 7 5.0184470953 4.3301972737 19.0947638182 0 0 0
78 7 6.3339644581 6.4715427865 19.0447222124 0 0 0
83 7 5.092154407 8.6033445579 19.124619345 0 0 0
103 7 6.2032856995 5.0943479284 21.1723341129 0 0 0
108 7 5.0499613165 7.2338247215 21.2341316315 0 0 0
109 7 7.4633369589 7.2639111578 21.2048217526 0 0 0
75 7 9.9674141872 4.3249958816 19.0040542444 0 0 0
79 7 8.7663528702 6.4579377917 19.0843091746 0 0 0
80 7 11.2032602603 6.5386359905 19.0576782702 0 0 0
104 5 8.6496441751 5.0788997906 21.1841586788 0 0 0
105 7 11.1731648365 5.1072457379 21.1306087734 0 0 0
106 7 12.430611621599999 7.244678774 21.1293300088 -1 0 0
110 7 9.9132011996 7.2659786164 21.0890218098 0 0 0
81 7 0.0242902955 8.7158662345 18.9024508672 0 0 0
87 7 3.7860336052 10.7941564919 19.0414584368 0 0 0
111 6 1.338345165 9.3505081046 20.9830973114 0 0 0
112 7 3.828879524 9.3892028993 21.0863278527 0 0 0
116 1 0.1238326353 11.852780888 20.8176197904 0 0 0
117 7 2.5298217871 11.507972692 21.0529389433 0 0 0
84 7 7.5250396201 8.6461502638 19.152152831 0 0 0
88 6 6.2467873601 10.8121678148 19.251123833 0 0 0
113 4 6.2806556138 9.3646290549 21.3444865887 0 0 0
118 7 4.9712463175 11.5717464334 21.2619475706 0 0 0
119 7 7.5260981607 11.5268817124 21.2923368935 0 0 0
85 7 9.9530917007 8.7538384312 18.9269461878 0 0 0
89 4 8.8004551024 10.9017442746 19.2185604003 0 0 0
90 7 11.2614004336 10.8859604295 18.9021879728 0 0 0
114 4 8.6762564574 9.4007329687 21.1652081493 0 0 0
115 6 11.136918577 9.4441875401 21.0305085561 0 0 0
120 7 10.0181119662 11.6461381791 21.2779922796 0 0 0
122 7 2.514669532763868 1.6080088734129143 23.451674044410264 0 0 0
126 7 1.201473719455008 3.6942927189185344 23.28326110022937 0 0 0
127 7 3.7123420589131646 3.7153616376154193 23.33307075556586 0 0 0
152 7 2.533156356668739 0.1070683139963717 25.372572383761277 0 0 0
156 7 1.2056734977132604 2.2950345282795417 25.397510402689832 0 0 0
157 7 3.7247949156175713 2.3048416393000966 25.49315702497576 0 0 0
123 7 4.954361108776523 1.561787648770957 23.32112217109317 0 0 0
124 7 7.459440834192099 1.5408100852193631 23.32874279262829 0 0 0
128 7 6.225584082170436 3.69797456275026 23.24299275272735 0 0 0
153 7 4.967190938509466 0.16895147403261243 25.36573510769257 0 0 0
154 7 7.510985968916728 0.15310021437297003 25.393410634588413 0 0 0
158 4 6.2143482667677095 2.314008308932437 25.313849000700415 0 0 0
121 7 12.382091211438155 1.563340387718097 23.290484215182186 -1 0 0
125 7 9.938262287455299 1.5313139815235042 23.266662564581562 0 0 0
129 4 8.664855026487336 3.6251902826855438 23.299104508133073 0 0 0
130 7 11.158535332515198 3.6667600322084333 23.226956273130064 0 0 0
151 7 12.425103274868164 0.19462975580050307 25.270253858324985 -1 0 0
159 7 8.670607202823076 2.281888228578709 25.363849734813844 0 0 0
160 7 11.135513109653013 2.305225614317433 25.32487262578881 0 0 0
131 7 0.0018831512913798317 5.8792454970122305 23.20810196234144 0 0 0
132 7 2.4613718269748786 5.837657535214994 23.28599799937306 0 0 0
136 7 1.2253173544576097 8.025204424062732 23.167714047723326 0 0 0
137 6 3.7089610718914154 8.03931580928566 23.230826061920986 0 0 0
162 7 2.4733446513174235 4.425163780176403 25.396899414447446 0 0 0
166 7 1.2177157349172436 6.641643838877303 25.290833603088007 0 0 0
167 7 3.7033033253163694 6.5766027249800585 25.33255296674881 0 0 0
133 5 4.95033453032712 5.852974050321622 23.280280865345897 0 0 0
134 7 7.401565376978377 5.843893518552871 23.243231979811924 0 0 0
138 4 6.254502529761455 8.032423721439248 23.308868463127283 0 0 0
163 7 4.973723607552992 4.398188248046576 25.306645029435675 0 0 0
164 7 7.453456007106496 4.401495526207435 25.309828175137664 0 0 0
168 7 6.167742811255172 6.582279439685864 25.314731433471557 0 0 0
135 6 9.961585449790919 5.843976724898442 23.195738391414682 0 0 0
139 7 8.693574954281038 8.02463948740212 23.228691593614 0 0 0
140 7 11.180532259529166 8.056781206799968 23.21028080060923 0 0 0
161 6 12.387690090191853 4.492417322837303 25.31229227813092 -1 0 0
165 7 9.903818460612808 4.432475999538878 25.347618994920715 0 0 0
169 1 8.658490335617437 6.583642405507764 25.42843952701885 0 0 0
170 7 11.144259846307602 6.632493817740994 25.382421584424787 0 0 0
142 7 2.4731703715050743 10.243572176087548 23.161803072084776 0 0 0
146 7 1.2538713850057526 12.536591673734915 22.878787248837845 0 0 0
147 7 3.7157316662134243 12.34542563227871 23.295950484125726 0 0 0
172 7 2.471499159207848 8.754168679534493 25.306290054558225 0 0 0
176 1 1.329190341773309 10.888057217405247 25.329733337846076 0 0 0
177 7 3.72620669688125 10.86582658759035 25.30039981201089 0 0 0
143 7 4.989223746440661 10.182072196684532 23.268575598202577 0 0 0
144 7 7.52185196478536 10.1748405939961 23.304876119809165 0 0 0
148 7 6.229380461579713 12.360352182863597 23.30289920492087 0 0 0
173 7 4.9667946882131995 8.72895383446548 25.391636422133686 0 0 0
174 7 7.455404447244813 8.729045535637212 25.33726698329568 0 0 0
178 6 6.239066851342709 10.911186127793892 25.347672373067773 0 0 0
141 7 12.443801020226283 10.251693931889134 23.051790720326515 -1 0 0
145 5 9.960805768324798 10.125706095304338 23.25783828803153 0 0 0
149 1 8.769346752459128 12.380360496422217 23.348062628512785 0 0 0
150 3 12.429234897694958 11.81995396473979 23.990258079542315 0 0 0
171 7 12.416592887188315 8.80165103157545 25.239807206791433 -1 0 0
175 7 9.945373787016425 8.782420823649366 25.31074232363895 0 0 0
179 7 8.76584808609544 10.933612561915146 25.34659637741112 0 0 0
180 4 11.156626342081818 10.945809871768594 25.140293985834255 0 0 0
181 7 1.2206643674194282 0.7825849639871444 27.359225327424536 0 0 0
182 7 3.668065826838286 0.8614525656411474 27.525329252623205 0 0 0
187 6 2.286965986634264 2.961320133388716 27.622186955467193 0 0 0
211 7 0.13833524085860638 1.724559251607785 29.27563541229111 0 0 0
212 7 2.4784302100441735 1.4237744029569483 29.864056972766168 0 0 0
216 7 0.8880600276015573 4.157124899529671 29.493305703042314 0 0 0
217 7 3.624169507825698 3.710243565670592 29.63884445084154 0 0 0
183 6 6.249200534261166 0.8852566377475086 27.455750424235504 0 0 0
188 7 4.9519866164363116 3.0054461361130986 27.53327212018628 0 0 0
189 7 7.467842260083639 3.019393240346247 27.46094306808074 0 0 0
213 7 4.937776428000939 1.4303451341630566 29.59285943984589 0 0 0
214 7 7.557648537718068 1.3915790548421443 29.60105575280339 0 0 0
218 4 6.216867767418985 3.3605838069535943 29.69437035992562 0 0 0
184 7 8.741697271034042 0.8239813502333414 27.452034587828965 0 0 0
185 7 11.17214171201704 0.9231262594303529 27.38881222646238 0 0 0
186 7 12.296670144279746 3.1206997455672507 27.358751109172566 -1 0 0
190 7 9.878689384770121 3.0249380211032095 27.41696143947092 0 0 0
215 7 9.950701792543601 1.5061602488919128 29.4685775869298 0 0 0
219 7 8.604932802991222 3.6396816576616664 29.58595100921218 0 0 0
220 7 10.999611685413125 3.6478178258381226 29.519621974561435 0 0 0
191 7 1.1824678597637475 5.253400021512474 27.373626790670535 0 0 0
192 6 3.709065892576324 5.212874892764403 27.48505521883235 0 0 0
197 7 2.44437852726641 7.3402432502775365 27.390808089223675 0 0 0
221 2 0.26421339173067093 6.166226843162601 29.044641506593077 0 0 0
222 4 2.370711899340915 5.891089603412066 29.535740615619723 0 0 0
226 7 1.1857470804561585 7.977828091052104 29.460392128937897 0 0 0
227 7 3.665211109692518 7.913545136646415 29.50628289350888 0 0 0
193 7 6.229684977650166 5.145388441117784 27.289297621704897 0 0 0
198 5 4.952029938005715 7.324468543580009 27.446140888331723 0 0 0
199 7 7.422658309818078 7.228743850348655 27.44607704042424 0 0 0
223 3 5.160810742979586 4.61863637378185 28.80229408683207 0 0 0
224 6 7.0770599665423255 5.677846514214281 29.557911197572974 0 0 0
228 7 6.108436170173422 7.951731588444947 29.66328869325608 0 0 0
194 7 8.72138479906829 5.133020320711586 27.507557247952832 0 0 0
195 7 11.236482431348962 5.2974327642495265 27.718237386321448 0 0 0
196 7 12.426085270333086 7.385278870933294 27.345270442852183 -1 0 0
200 7 9.917093365655449 7.3327820551879945 27.47915153437907 0 0 0
225 7 9.718107539847237 5.786737752711595 29.613520927983206 0 0 0
229 5 8.569651893568835 7.847258873936344 29.4624256731707 0 0 0
230 7 11.255145936991235 7.648799189173393 29.481166131329612 0 0 0
201 7 1.1735729585708232 9.46058671598051 27.369127449178325 0 0 0
202 7 3.6729300554896014 9.397119114607095 27.461627366875987 0 0 0
207 7 2.390838246658887 11.574975353626844 27.411522619270272 0 0 0
232 7 2.388320300442615 10.104999985352077 29.469324763590873 0 0 0
236 7 1.2476307803596298 12.305879055780384 29.431503798791386 0 0 0
237 7 3.6671488203025384 12.231625950808274 29.56381587909017 0 0 0
203 6 6.272197581039603 9.40784075172852 27.63997734814699 0 0 0
208 6 4.816756813215311 11.590608856131423 27.44555889351937 0 0 0
209 7 7.538807664265194 11.598268076514419 27.545957477560084 0 0 0
233 7 4.908834242687277 10.078381211428963 29.626305658027427 0 0 0
234 7 7.623432996316 10.087096227956843 29.85441969577571 0 0 0
238 6 6.256274297051984 12.20531577723999 29.67050919317694 0 0 0
155 3 11.05954911020225 12.409091684168951 26.332485788882614 0 -1 0
204 7 8.697880147161078 9.391244390833949 27.363059961816454 0 0 0
205 4 11.220682099809501 9.373114290950195 27.278059950114105 0 0 0
206 7 12.388987914263867 11.554163549895334 27.39065164313419 -1 0 0
210 7 9.939002768310031 11.524229505732704 27.45543726284634 0 0 0
231 7 12.324688768951134 10.081800461171369 29.386041495263388 -1 0 0
235 7 9.985783612072343 9.858350124616786 29.282870014396963 0 0 0
239 7 8.959232448336866 12.165962577350385 29.634725295642845 0 0 0
240 7 11.3621203809729 12.417327465243844 29.50970520855083 0 0 0
241 6 0.42177799720290937 0.6855810959564949 31.55617746067078 0 0 0
247 1 3.7512737192703707 2.220662149733332 31.753649569414975 0 0 0
251 3 1.1493776737701 2.4658469555136096 32.51907925318767 0 0 0
252 7 2.138236073385254 4.070317427707098 31.64490112959405 0 0 0
243 7 4.687138920291284 0.0005179548483684143 31.69433182509397 0 0 0
248 7 6.244628721801057 1.9949058698676412 31.691450032303706 0 0 0
254 7 7.345708629700698 4.280737767496212 31.699154973181166 0 0 0
245 7 10.305386864180962 0.4925690698803872 31.637069339868738 0 0 0
246 7 12.204759800586523 3.3091014559510405 31.531368182547478 -1 0 0
249 7 8.67536540940127 2.266553933577906 31.741718563059187 0 0 0
250 3 11.31430185171854 1.8632835468093034 30.68644649908043 0 0 0
256 7 0.8366538943099643 6.299064065672638 31.288113722396446 0 0 0
257 7 3.4507216123417987 6.473138508270818 31.550241612983484 0 0 0
281 5 1.1002220623165941 5.145914244162165 33.608202546113645 0 0 0
282 6 3.6255239174428775 5.0747191984334545 33.641443384280876 0 0 0
287 7 2.2955940377428976 7.286633090669025 33.582149854766726 0 0 0
253 7 4.920152551063142 4.365024287874413 31.583943517689583 0 0 0
258 7 5.959601900310259 6.502546558805219 31.70644032575547 0 0 0
263 4 4.711231786661156 8.580173202982609 31.650812549298717 0 0 0
264 7 7.189141821520471 8.619953376828523 31.724612112190027 0 0 0
255 7 9.883696692130705 4.383487912798918 31.64570662749777 0 0 0
259 7 8.438458722364205 6.501380924700185 31.61005935077855 0 0 0
260 7 10.900998007726837 6.59998364168483 31.632916590740074 0 0 0
285 7 11.111055797848717 5.144436500610873 33.65284840229693 0 0 0
286 7 12.321278739001041 7.292117775729122 33.51556356748099 -1 0 0
290 7 9.786024962741147 7.256321816619427 33.632254822948205 0 0 0
242 2 2.4156430633917805 12.480965366869166 31.15050866818345 0 -1 0
262 7 2.2048532168837256 8.672545432045283 31.586752406649907 0 0 0
266 7 0.9520069359487622 10.910208879331126 31.412735401598262 0 0 0
267 7 3.5587625461056054 10.76087815898576 31.550394929429718 0 0 0
297 6 2.254168095165842 11.643371469447255 33.41398909175233 0 0 0
244 6 7.810816156631957 12.747506822722526 31.75947437700712 0 -1 0
268 7 6.0831213720357065 10.7760727502052 31.77283227711979 0 0 0
269 2 8.239997204733749 10.436629806732368 31.971405650054745 0 0 0
261 5 12.171435188408115 8.741443430099515 31.495555052694893 -1 0 0
265 7 9.573306422267502 8.775719744504832 31.498795504371706 0 0 0
270 6 10.678360364894823 10.98490586661938 31.365565393514522 0 0 0
295 7 11.000751422340809 9.446273731029894 33.48665650011617 0 0 0
296 7 12.132147227989876 11.770180490923101 33.26493695212162 -1 0 0
300 7 9.676654017010994 11.648475457218693 33.56753954816386 0 0 0
271 7 1.157524348220743 0.8606050615229662 33.88911304542939 0 0 0
272 7 3.6133221311321218 0.8164716770061159 33.82044574121708 0 0 0
277 4 2.3683886552869433 2.9648422301416213 33.9359547026575 0 0 0
302 7 2.4100510250240834 1.5762921638761367 35.96014896688196 0 0 0
306 7 1.16093195522336 3.7099044807321846 35.895722999743576 0 0 0
307 7 3.653128906013547 3.73467815487567 35.895691785873524 0 0 0
273 7 6.159262053981151 0.6548355065246554 33.75835069799281 0 0 0
278 7 4.932823623700622 2.923834055170691 33.71240804291948 0 0 0
279 7 7.374436839019565 2.906207832769477 33.805347350519185 0 0 0
303 6 4.89635079343051 1.5437457030840127 35.84014410694959 0 0 0
304 7 7.368346582413322 1.5126355384910426 35.88724978636665 0 0 0
308 7 6.123517043100116 3.7092365936404694 35.84372966058038 0 0 0
274 4 8.653353618449156 0.9366718913285943 33.83032048564357 0 0 0
275 7 11.06279252008825 0.8323027979412626 33.91652306833267 0 0 0
276 7 12.321860599893933 3.0246121092162874 33.889923812686945 -1 0 0
280 7 9.8819351241559 2.9796831962347947 33.81813617282084 0 0 0
301 6 12.338362587177988 1.4974331885051533 35.927480129745454 -1 0 0
305 4 9.815859982404314 1.5354080447350136 35.965682596620255 0 0 0
309 7 8.6020034894284 3.6541856813356866 35.818589313345676 0 0 0
310 7 11.067373653747836 3.6930693740749243 35.89576089259471 0 0 0
312 4 2.2968158339129356 5.846389867493022 35.7045320823518 0 0 0
316 7 1.1214059709242639 7.922609659887872 35.610590167325526 0 0 0
317 7 3.574672163105063 7.986832735143849 35.730743506117086 0 0 0
283 7 6.138325162153665 5.094187444373075 33.7469363962572 0 0 0
288 7 4.814866767498668 7.291878093547801 33.73651227893987 0 0 0
289 7 7.298042958590769 7.2555011598646875 33.73106327132058 0 0 0
313 7 4.830568830208609 5.854327527772575 35.81138904200641 0 0 0
314 7 7.370019749017365 5.842756334132046 35.73927098375007 0 0 0
318 7 6.103299093595224 7.981994664711478 35.798113306473326 0 0 0
284 7 8.628170734001197 5.06579213860395 33.69641141491529 0 0 0
311 7 12.36816223300126 5.798697802922762 35.67270702503582 -1 0 0
315 7 9.813399117600552 5.806727271096833 35.720528820332135 0 0 0
319 7 8.62241647707731 7.980991832931169 35.75659644137402 0 0 0
320 7 11.096966351417437 7.884028306153027 35.58452913956156 0 0 0
291 5 0.9248009884464228 9.562791392675859 33.78886802938071 0 0 0
292 7 3.524775836783549 9.42730357487209 33.67558415006839 0 0 0
322 7 2.3311523013434123 10.07852623016596 35.76599542161547 0 0 0
326 7 0.8616787704484332 11.990727340987618 35.670570239588606 0 0 0
327 1 3.381715261144736 12.240486890507594 35.798306284026154 0 0 0
293 5 6.043801330714288 9.386728078886161 33.7850751300723 0 0 0
298 7 4.781359461512452 11.500169091593015 33.791574335742546 0 0 0
299 4 7.29070322782568 11.42420001844368 33.7916818489717 0 0 0
323 4 4.88848956939825 10.078044669502564 35.79287999479403 0 0 0
324 7 7.339419334253781 10.07496496361826 35.80418924144172 0 0 0
328 7 6.0526598496508806 12.225266609441919 35.812593641141305 0 0 0
294 7 8.533850225659409 9.373732764683153 33.67764436195308 0 0 0
321 2 11.803830604013346 10.686122721455268 34.85116312887198 -1 0 0
325 7 9.901677275928096 10.09524264030185 35.64044728249957 0 0 0
329 7 8.541266496243267 12.310516173602414 35.77476743420721 0 0 0
330 7 10.947703416157793 12.218458803897514 35.942776159896894 0 0 0
351 6 12.308098176597253 9.69937734856967 36.72115648583622 -1 0 0
332 7 2.456417560440119 0.22905566269774447 38.062693151446766 0 0 0
336 7 1.1642445455835573 2.3389291190743426 37.99859384520374 0 0 0
337 7 3.6354300823198256 2.383687557933242 37.99685011016875 0 0 0
333 6 4.922362574906839 0.10096745137676166 37.911434462694686 0 0 0
334 7 7.390030956268931 0.10837306956695322 37.90978216044118 0 0 0
338 7 6.16550385726615 2.364802734950526 37.99828011514819 0 0 0
361 8 4.918732871148032 3.0202172932977427 38.87654825010176 0 0 0
331 6 12.330784328075547 0.0894588260171686 37.95857790908752 -1 0 0
335 7 9.833438583975559 0.17257294052417096 38.02020431441982 0 0 0
339 7 8.599702927176466 2.3325238206013728 37.91181403664122 0 0 0
340 7 11.071716786843721 2.376929348813706 38.01767741669532 0 0 0
342 5 2.3757361370246968 4.595478265206227 37.76991592300876 0 0 0
346 7 1.108748875973784 6.652871232838418 37.69615338247684 0 0 0
347 4 3.634250357607667 6.642465561559213 37.75613973743141 0 0 0
343 7 4.848342940471621 4.508999268052872 37.9374332026567 0 0 0
344 5 7.366333181618134 4.506178210273216 37.77911198305815 0 0 0
348 5 6.1426948883573775 6.58054405018694 37.72541868499798 0 0 0
341 7 12.371940979166213 4.4939507403730845 37.85630176477362 -1 0 0
345 7 9.799332613987193 4.503077205196851 37.83886818938055 0 0 0
349 7 8.62682215214618 6.591951862229665 37.76064064558673 0 0 0
350 7 11.112189973772628 6.572680895238087 37.63968008237814 0 0 0
352 7 2.2761214254220508 8.703067847301453 37.73370766721863 0 0 0
356 7 1.3523040716962882 11.036707875473406 38.077724388922306 0 0 0
357 7 3.6719671752667176 10.84636928431503 37.79784589591979 0 0 0
353 7 4.8787729102386175 8.701762919680952 37.81766167110668 0 0 0
354 7 7.4471803789550926 8.681619154931026 37.88062542891221 0 0 0
358 7 6.157496716357541 10.82902480536499 37.85374596587004 0 0 0
355 7 10.012652782129518 8.71680520755022 37.69238246481568 0 0 0
359 6 8.680260837948659 10.868452020150608 37.764090684895194 0 0 0
360 7 11.051589961953246 10.93154867458403 38.42005717353668 0 0 0

Velocities

1 0 0 0
7 0 0 0
9 0 0 0
5 0 0 0
10 0 0 0
16 0 0 0
19 0 0 0
14 0 0 0
20 0 0 0
21 0 0 0
22 0 0 0
26 0 0 0
27 0 0 0
24 0 0 0
25 0 0 0
30 0 0 0
2 0 0 0
6 0 0 0
31 0 0 0
32 0 0 0
36 0 0 0
37 0 0 0
3 0 0 0
8 0 0 0
33 0 0 0
34 0 0 0
38 0 0 0
4 0 0 0
35 0 0 0
39 0 0 0
40 0 0 0
61 0 0 0
69 0 0 0
11 0 0 0
12 0 0 0
17 0 0 0
18 0 0 0
41 0 0 0
42 0 0 0
46 0 0 0
13 0 0 0
43 0 0 0
44 0 0 0
47 0 0 0
48 0 0 0
15 0 0 0
45 0 0 0
49 0 0 0
50 0 0 0
51 0 0 0
52 0 0 0
56 0 0 0
57 0 0 0
86 0 0 0
23 0 0 0
28 0 0 0
29 0 0 0
53 0 0 0
54 0 0 0
58 0 0 0
55 0 0 0
59 0 0 0
60 0 0 0
62 0 0 0
66 0 0 0
67 0 0 0
91 0 0 0
92 0 0 0
96 0 0 0
97 0 0 0
63 0 0 0
64 0 0 0
68 0 0 0
74 0 0 0
93 0 0 0
98 0 0 0
99 0 0 0
65 0 0 0
70 0 0 0
94 0 0 0
95 0 0 0
100 0 0 0
71 0 0 0
72 0 0 0
76 0 0 0
77 0 0 0
82 0 0 0
101 0 0 0
102 0 0 0
107 0 0 0
73 0 0 0
78 0 0 0
83 0 0 0
103 0 0 0
108 0 0 0
109 0 0 0
75 0 0 0
79 0 0 0
80 0 0 0
104 0 0 0
105 0 0 0
106 0 0 0
110 0 0 0
81 0 0 0
87 0 0 0
111 0 0 0
112 0 0 0
116 0 0 0
117 0 0 0
84 0 0 0
88 0 0 0
113 0 0 0
118 0 0 0
119 0 0 0
85 0 0 0
89 0 0 0
90 0 0 0
114 0 0 0
115 0 0 0
120 0 0 0
122 0 0 0
126 0 0 0
127 0 0 0
152 0 0 0
156 0 0 0
157 0 0 0
123 0 0 0
124 0 0 0
128 0 0 0
153 0 0 0
154 0 0 0
158 0 0 0
121 0 0 0
125 0 0 0
129 0 0 0
130 0 0 0
151 0 0 0
159 0 0 0
160 0 0 0
131 0 0 0
132 0 0 0
136 0 0 0
137 0 0 0
162 0 0 0
166 0 0 0
167 0 0 0
133 0 0 0
134 0 0 0
138 0 0 0
163 0 0 0
164 0 0 0
168 0 0 0
135 0 0 0
139 0 0 0
140 0 0 0
161 0 0 0
165 0 0 0
169 0 0 0
170 0 0 0
142 0 0 0
146 0 0 0
147 0 0 0
172 0 0 0
176 0 0 0
177 0 0 0
143 0 0 0
144 0 0 0
148 0 0 0
173 0 0 0
174 0 0 0
178 0 0 0
141 0 0 0
145 0 0 0
149 0 0 0
150 0 0 0
171 0 0 0
175 0 0 0
179 0 0 0
180 0 0 0
181 0 0 0
182 0 0 0
187 0 0 0
211 0 0 0
212 0 0 0
216 0 0 0
217 0 0 0
183 0 0 0
188 0 0 0
189 0 0 0
213 0 0 0
214 0 0 0
218 0 0 0
184 0 0 0
185 0 0 0
186 0 0 0
190 0 0 0
215 0 0 0
219 0 0 0
220 0 0 0
191 0 0 0
192 0 0 0
197 0 0 0
221 0 0 0
222 0 0 0
226 0 0 0
227 0 0 0
193 0 0 0
198 0 0 0
199 0 0 0
223 0 0 0
224 0 0 0
228 0 0 0
194 0 0 0
195 0 0 0
196 0 0 0
200 0 0 0
225 0 0 0
229 0 0 0
230 0 0 0
201 0 0 0
202 0 0 0
207 0 0 0
232 0 0 0
236 0 0 0
237 0 0 0
203 0 0 0
208 0 0 0
209 0 0 0
233 0 0 0
234 0 0 0
238 0 0 0
155 0 0 0
204 0 0 0
205 0 0 0
206 0 0 0
210 0 0 0
231 0 0 0
235 0 0 0
239 0 0 0
240 0 0 0
241 0 0 0
247 0 0 0
251 0 0 0
252 0 0 0
243 0 0 0
248 0 0 0
254 0 0 0
245 0 0 0
246 0 0 0
249 0 0 0
250 0 0 0
256 0 0 0
257 0 0 0
281 0 0 0
282 0 0 0
287 0 0 0
253 0 0 0
258 0 0 0
263 0 0 0
264 0 0 0
255 0 0 0
259 0 0 0
260 0 0 0
285 0 0 0
286 0 0 0
290 0 0 0
242 0 0 0
262 0 0 0
266 0 0 0
267 0 0 0
297 0 0 0
244 0 0 0
268 0 0 0
269 0 0 0
261 0 0 0
265 0 0 0
270 0 0 0
295 0 0 0
296 0 0 0
300 0 0 0
271 0 0 0
272 0 0 0
277 0 0 0
302 0 0 0
306 0 0 0
307 0 0 0
273 0 0 0
278 0 0 0
279 0 0 0
303 0 0 0
304 0 0 0
308 0 0 0
274 0 0 0
275 0 0 0
276 0 0 0
280 0 0 0
301 0 0 0
305 0 0 0
309 0 0 0
310 0 0 0
312 0 0 0
316 0 0 0
317 0 0 0
283 0 0 0
288 0 0 0
289 0 0 0
313 0 0 0
314 0 0 0
318 0 0 0
284 0 0 0
311 0 0 0
315 0 0 0
319 0 0 0
320 0 0 0
291 0 0 0
292 0 0 0
322 0 0 0
326 0 0 0
327 0 0 0
293 0 0 0
298 0 0 0
299 0 0 0
323 0 0 0
324 0 0 0
328 0 0 0
294 0 0 0
321 0 0 0
325 0 0 0
329 0 0 0
330 0 0 0
351 0 0 0
332 0 0 0
336 0 0 0
337 0 0 0
333 0 0 0
334 0 0 0
338 0 0 0
361 0 0 0
331 0 0 0
335 0 0 0
339 0 0 0
340 0 0 0
342 0 0 0
346 0 0 0
347 0 0 0
343 0 0 0
344 0 0 0
348 0 0 0
341 0 0 0
345 0 0 0
349 0 0 0
350 0 0 0
352 0 0 0
356 0 0 0
357 0 0 0
353 0 0 0
354 0 0 0
358 0 0 0
355 0 0 0
359 0 0 0
360 0 0 0
