# NEB FS: 2H* at top_mo + top_fe — Notebook 06

362 atoms
8 atom types

0.0 12.4479077760 xlo xhi
0.0 12.9362452296 ylo yhi
0.0 52.3600831054 zlo zhi

Masses

1 26.9815 # Al
2 10.811 # B
3 12.011 # C
4 51.9961 # Cr
5 55.845 # Fe
6 95.96 # Mo
7 58.6934 # Ni
8 1.008 # H

Atoms # atomic

1 7 1.4207332045 0.6328433137 14.6455638438
2 7 3.8680244897 0.7171939606 15.0212618667
3 7 6.4748536672 0.8998037922 15.4387399939
4 7 8.9744917843 0.8936417917 15.2898595178
5 7 11.3702004290 0.5948253299 14.6289837625
6 7 0.1117406572 2.6025673013 15.3596161535
7 7 2.5433177093 2.8624055542 15.0349683362
8 7 4.9608647481 2.8769163098 14.9897597603
9 7 7.4784833451 2.9644403170 14.6155406985
10 7 10.2797110633 2.7578547278 14.4612105289
11 4 1.1183800760 4.8959325097 15.2164289150
12 6 3.6352024564 5.1312230911 15.0991645600
13 7 6.1622790016 5.0838912950 14.9495728917
14 7 8.7292117057 5.1081258833 14.3852297491
15 7 11.1858434476 4.9419527233 15.0263262899
16 7 0.1882997017 7.1029367169 14.8590593728
17 3 1.9868289604 6.7216457267 15.4269753215
18 7 3.6092230841 7.6910018044 15.7722683113
19 4 7.4532699190 7.1009958915 14.8169750881
20 6 10.0722525263 7.1469940145 14.8631715099
21 6 1.5590363345 9.2116598998 14.7284375595
22 7 4.1671832820 9.6121715129 14.5223690664
23 4 6.5442608877 9.4444255647 15.0588319251
24 7 8.8185826996 9.3413054704 14.7193825082
25 7 11.3932644015 9.2546624697 14.6616745288
26 7 0.2248110833 11.3383548103 14.5558892033
27 7 2.7457318088 11.4770056429 14.7109458889
28 4 5.1867812060 11.6531607246 15.1812066798
29 7 7.6336084161 11.5810830454 15.1985865212
30 7 10.0481397016 11.4586842947 14.6631796050
31 2 0.1461847229 0.8407460759 16.3074842240
32 4 2.2711440724 1.2758143874 16.9002128249
33 7 4.7858363032 1.3740589242 17.1261856685
34 3 7.7954712912 1.9944814690 16.2488667921
35 7 10.7472607985 1.4894142200 16.8442025067
36 6 1.4190548923 3.4920451884 17.3313143286
37 7 3.8776787835 3.5881295505 17.0545220365
38 7 6.4636182313 3.2135296371 16.9313288405
39 6 9.1073350070 3.6474863605 16.3835426162
40 7 11.4178374303 3.7777323948 17.1249230813
41 4 0.0417065314 5.8638303096 17.0947433899
42 4 2.5540366021 5.8158118415 17.2176787513
43 7 5.0168537919 5.7226571586 17.0734934750
44 7 7.4897624159 5.5957635834 16.9344784610
45 7 10.0309476126 5.8331856521 17.0086516194
46 7 1.3253309410 7.9307982868 16.9336328070
47 2 4.2246025435 7.5762821219 17.6784808781
48 7 6.0567909470 7.8090199711 16.7708093418
49 6 8.5756311627 7.8362377485 16.9142985369
50 7 11.2404784342 7.9979697089 16.8881121312
51 4 0.1098096621 10.0184914698 16.6559695033
52 7 2.7364820436 9.9344718394 16.7286900744
53 4 5.0489956168 9.9246541848 16.9635075160
54 7 7.5173098378 10.1033692358 17.1382879748
55 1 9.9176024527 10.1837691573 16.7911968519
56 4 1.3522095073 12.0644758264 16.5848300159
57 7 3.7492205868 12.1385766366 17.0400235812
58 7 6.2425324080 12.2164688002 17.2291765034
59 7 8.7755004789 12.3905592615 17.2501480015
60 7 11.3197711662 12.1088543700 16.5741384841
61 7 0.0571433964 0.2200002557 18.3979816916
62 7 2.4488373329 -0.0117382023 18.9838189896
63 7 4.8708145949 0.0546744358 19.2473093941
64 7 7.5049319468 0.0350887458 19.3137190719
65 7 10.1094897401 0.1158504178 19.2125785044
66 7 1.2197673804 2.0294499954 19.5217072607
67 7 3.5870091389 2.2003298171 19.0740497016
68 7 6.1665841766 2.1006595815 19.1178871498
69 6 8.6284170893 1.9365860331 18.2479885550
70 7 11.2585813849 2.2709198051 19.0692283187
71 7 0.0475325050 4.3936810620 19.2218786059
72 7 2.5309415641 4.3873339064 19.3447535376
73 7 5.0059031650 4.2962786705 19.0880206247
74 6 7.5052897446 4.2370416646 19.0791673201
75 7 9.9562583772 4.3216783737 18.9931071439
76 7 1.2567500088 6.5238227112 19.1722142730
77 7 3.8442867011 6.4096335372 19.2570711965
78 7 6.3227227681 6.4651007294 19.0406437246
79 7 8.7590654071 6.4603758974 19.0744902241
80 7 11.1914367921 6.5156996544 19.0671374418
81 7 0.0213204080 8.6589062092 18.9296772757
82 7 2.6695770999 8.5301168846 18.9288429508
83 7 5.1146922332 8.5927574275 19.1498332890
84 7 7.5503328061 8.6479060264 19.1498334262
85 7 9.9754023536 8.7648729729 18.8951366650
86 6 1.3916675694 10.7416462120 18.6947332318
87 7 3.8410009288 10.7645823844 19.0543012623
88 6 6.3010968866 10.8208217789 19.2519259030
89 4 8.8807895520 10.9123749433 19.2447472687
90 7 11.3140382616 10.9124045021 18.8206179118
91 2 1.2053403695 1.4366528419 21.7210764075
92 7 3.2663317359 0.8144003641 21.2152735388
93 7 6.1919433928 0.7749374592 21.2504322052
94 7 8.7458948933 0.8202042130 21.2163852558
95 7 11.3929227384 0.9136638513 21.1975529685
96 7 -0.0176722066 3.0551991288 21.2988596874
97 7 2.4416304043 3.0575953151 21.3558785116
98 6 4.8892259652 2.8729978843 21.1450787146
99 7 7.4228300442 2.9153943225 21.2211156086
100 6 9.9221275825 2.9331818402 21.0382996023
101 4 1.2506489061 5.1637572280 21.2641086717
102 5 3.7526116388 5.1446019042 21.3765832334
103 7 6.1986326190 5.0905618311 21.1593084365
104 5 8.6493117037 5.0820079239 21.1756488901
105 7 11.1475186195 5.1489082803 21.1442061504
106 7 -0.0265852928 7.2666519061 21.1367875651
107 4 2.5312816076 7.1663416430 21.1533162156
108 7 5.0502235040 7.2317855587 21.2458911095
109 7 7.4621768168 7.2715389609 21.1979234869
110 7 9.9063569029 7.3043283427 21.0790635503
111 6 1.3278673528 9.3589173334 21.0309391877
112 7 3.8337991704 9.3861824002 21.1086436278
113 4 6.2875039303 9.3757376440 21.3493031068
114 4 8.6869608846 9.4244618287 21.1612691760
115 6 11.1394160371 9.5022440891 20.9924895921
116 1 0.1611113082 11.9398780083 20.6928087561
117 7 2.5493560610 11.4926834191 21.0572912575
118 7 4.9914546099 11.5766638158 21.2551613020
119 7 7.5579689503 11.5443328949 21.3008173096
120 7 10.0738777506 11.7115588228 21.2972315491
121 7 -0.0409166003 1.6207591764 23.3074346641
122 7 2.4569272644 1.6124616795 23.3947867358
123 7 4.9264779715 1.5623161361 23.2941406923
124 7 7.4542936979 1.5542274685 23.3198173241
125 7 9.9554327957 1.5524940189 23.2496975622
126 7 1.1944026377 3.7510240735 23.3390732387
127 7 3.7104389934 3.7237068025 23.3585239662
128 7 6.2086072524 3.7013292701 23.2268647612
129 4 8.6598897091 3.6392638492 23.2784234546
130 7 11.1293790538 3.7050235873 23.2555080644
131 7 -0.0146690517 5.9109774343 23.2248641400
132 7 2.4635581065 5.8548169198 23.3066796714
133 5 4.9464263428 5.8672211207 23.2949665959
134 7 7.3881821316 5.8534651067 23.2346029234
135 6 9.9406017258 5.8826472644 23.1961722987
136 7 1.2207716562 8.0334284510 23.1906311094
137 6 3.7068848027 8.0568093757 23.2510106245
138 4 6.2467553805 8.0493595484 23.3108522059
139 7 8.6747775732 8.0485617571 23.2275397662
140 7 11.1646166112 8.0903231890 23.1911295278
141 7 -0.0241029705 10.2584927454 23.0591146036
142 7 2.4591863326 10.2595094121 23.1791231202
143 7 4.9824188549 10.2018482789 23.2722172665
144 7 7.5132423073 10.1964596373 23.3099388027
145 5 9.9488687511 10.1539112181 23.2455235840
146 7 1.2019866661 12.5345928130 22.8389433342
147 7 3.6912470706 12.3670548645 23.2693822528
148 7 6.2201418297 12.3766105289 23.2977830415
149 1 8.7681689476 12.4078702325 23.3588863482
150 3 12.4120875204 11.8279356143 23.9888867154
151 7 -0.0408525835 0.2114980131 25.2591458762
152 7 2.5144015595 0.1268894714 25.3496532342
153 7 4.9503316489 0.1820329036 25.3551512871
154 7 7.4960824983 0.1718779503 25.3885760778
155 3 11.0482767258 -0.5102453692 26.3307107005
156 7 1.1978299749 2.3121498794 25.4008452662
157 7 3.7039118892 2.3117283282 25.4692634346
158 4 6.1951535244 2.3234480355 25.2982400707
159 7 8.6617412226 2.2983338946 25.3471960015
160 7 11.1221916557 2.3252399564 25.3290216723
161 6 -0.0799925412 4.5139548667 25.3348610447
162 7 2.4676980649 4.4430336031 25.4206756321
163 7 4.9646829284 4.4119752982 25.3154064711
164 7 7.4377215040 4.4149116306 25.2957632042
165 7 9.8825499966 4.4575239571 25.3475271388
166 7 1.2085292676 6.6548978785 25.3061258061
167 7 3.6969820951 6.5947467354 25.3505910238
168 7 6.1585518015 6.6006372460 25.3168800541
169 1 8.6418437560 6.6025886391 25.4322681032
170 7 11.1289828126 6.6561079281 25.3811995951
171 7 -0.0452771758 8.8164461471 25.2449254294
172 7 2.4616345005 8.7716995816 25.3199809133
173 7 4.9574464398 8.7503048243 25.4015652932
174 7 7.4430968770 8.7486686745 25.3419282068
175 7 9.9308579444 8.8018889578 25.3062460696
176 1 1.3143567339 10.9055940068 25.3284835966
177 7 3.7141517617 10.8878009010 25.2976264741
178 6 6.2284863375 10.9301627635 25.3496473819
179 7 8.7558739888 10.9533475291 25.3483315357
180 4 11.1422878003 10.9599740226 25.1421839520
181 7 1.2077447471 0.7965459593 27.3531531701
182 7 3.6536607131 0.8763869249 27.5117821451
183 6 6.2341774318 0.9029468020 27.4481129037
184 7 8.7290642495 0.8424812362 27.4424826064
185 7 11.1601778921 0.9400331470 27.3847227037
186 7 -0.1600103732 3.1344964172 27.3668162196
187 6 2.2783076525 2.9749262967 27.6233767649
188 7 4.9350206852 3.0221587862 27.5236027532
189 7 7.4556131981 3.0336965819 27.4457043125
190 7 9.8670778920 3.0437910963 27.4104867424
191 7 1.1717778298 5.2705447895 27.3897168727
192 6 3.6992756586 5.2358642613 27.5017044925
193 7 6.2207002251 5.1604345027 27.2893976050
194 7 8.7077731547 5.1501031342 27.5080550199
195 7 11.2229233883 5.3149201336 27.7239930234
196 7 -0.0346564450 7.4012563026 27.3518261769
197 7 2.4321189727 7.3584088407 27.4023055884
198 5 4.9446000703 7.3440769796 27.4548859879
199 7 7.4116589804 7.2467636220 27.4520467380
200 7 9.9045177583 7.3497456436 27.4803653869
201 7 1.1618048507 9.4777195863 27.3727740403
202 7 3.6622233403 9.4156871066 27.4676252518
203 6 6.2642894450 9.4278136537 27.6484483223
204 7 8.6884699419 9.4096241217 27.3638425928
205 4 11.2070803084 9.3881632558 27.2814290830
206 7 -0.0704524118 11.5687910503 27.3860830039
207 7 2.3796225932 11.5935229764 27.4058670963
208 6 4.8060671702 11.6073018824 27.4453109367
209 7 7.5294244120 11.6178124587 27.5442401485
210 7 9.9279410349 11.5430465894 27.4566794133
211 7 0.1258279623 1.7324612657 29.2753186611
212 7 2.4639565040 1.4357225063 29.8680775281
213 7 4.9232773618 1.4440628401 29.5847903306
214 7 7.5455624040 1.4044562835 29.5928183124
215 7 9.9372927289 1.5221291106 29.4580969624
216 7 0.8780251791 4.1649516603 29.4992707543
217 7 3.6142031848 3.7220121886 29.6399626546
218 4 6.2081240821 3.3714656875 29.6882590108
219 7 8.5927016639 3.6534785412 29.5783850085
220 7 10.9872612261 3.6623788669 29.5187658601
221 2 0.2488473257 6.1800569343 29.0553434885
222 4 2.3555339985 5.9031919002 29.5489657318
223 3 5.1536154367 4.6339103127 28.8065896149
224 6 7.0637650846 5.6936687905 29.5609681398
225 7 9.7034501165 5.8028640888 29.6158118138
226 7 1.1726594017 7.9909086501 29.4676139972
227 7 3.6548735957 7.9260494448 29.5120014898
228 7 6.1005324603 7.9702016688 29.6705050919
229 5 8.5605445797 7.8661087550 29.4677392393
230 7 11.2402752308 7.6662715326 29.4850664055
231 7 -0.1341719876 10.0939366173 29.3863711642
232 7 2.3758269518 10.1206368096 29.4716065793
233 7 4.8940776595 10.0933939451 29.6294361039
234 7 7.6139649766 10.1034597894 29.8631805322
235 7 9.9734628954 9.8783291121 29.2871179074
236 7 1.2336215292 12.3175970521 29.4292618082
237 7 3.6528852906 12.2473464709 29.5622596995
238 6 6.2437452352 12.2179184424 29.6660791230
239 7 8.9462865229 12.1813114567 29.6382001484
240 7 11.3468602335 12.4289054227 29.5028216163
241 6 0.4011841916 0.6898034121 31.5567464778
242 2 2.3985499662 -0.4455878309 31.1500933892
243 7 4.6840024669 0.0151850763 31.6889214866
244 6 7.7844929506 -0.1711794592 31.7574950926
245 7 10.2794553352 0.4977250279 31.6209774854
246 7 -0.2578386044 3.3107825995 31.5285460685
247 1 3.7420572799 2.2355079408 31.7509448793
248 7 6.2319870173 2.0123098900 31.6876052487
249 7 8.6623103638 2.2808687050 31.7369447850
250 3 11.2974964148 1.8688948921 30.6818233220
251 3 1.1363508984 2.4704342058 32.5169324155
252 7 2.1232947405 4.0805665525 31.6474452778
253 7 4.9130431291 4.3802028671 31.5816879515
254 7 7.3378634712 4.2956665935 31.6961861150
255 7 9.8722442756 4.3988000532 31.6430845664
256 7 0.8256317615 6.3145023106 31.2995793613
257 7 3.4417800978 6.4864061558 31.5571759865
258 7 5.9509543542 6.5192192143 31.7104349781
259 7 8.4281672008 6.5192093180 31.6145488300
260 7 10.8885338401 6.6167800604 31.6367013317
261 5 -0.2871815451 8.7532338461 31.5022757790
262 7 2.1984204958 8.6859667647 31.5881353206
263 4 4.7012521082 8.5946638566 31.6538864352
264 7 7.1815437310 8.6366952674 31.7343968834
265 7 9.5631157328 8.7966154492 31.5074532000
266 7 0.9352170153 10.9238676542 31.4174987399
267 7 3.5459348818 10.7791386381 31.5522220038
268 7 6.0694893137 10.7876424495 31.7731238829
269 2 8.2368038313 10.4548043040 31.9881717282
270 6 10.6870306868 10.9968945929 31.3659382514
271 7 1.1461355855 0.8687552657 33.8833334451
272 7 3.6035211086 0.8280409336 33.8144598911
273 7 6.1452867941 0.6721330988 33.7605807050
274 4 8.6418976927 0.9492688080 33.8260272378
275 7 11.0533047337 0.8598410403 33.8844738067
276 7 -0.1361005788 3.0422300459 33.8854366208
277 4 2.3562124738 2.9732318551 33.9339076017
278 7 4.9209776146 2.9357216850 33.7147723955
279 7 7.3633187141 2.9204795995 33.8034521660
280 7 9.8675557509 2.9987778759 33.8131992097
281 5 1.0910635536 5.1610031753 33.6161588390
282 6 3.6147642305 5.0827200739 33.6416650181
283 7 6.1301175617 5.1040603364 33.7454249166
284 7 8.6175870861 5.0834493879 33.6968175337
285 7 11.0994145830 5.1575763836 33.6510435419
286 7 -0.1398717043 7.3022252579 33.5251901098
287 7 2.2842719804 7.2998167244 33.5871900992
288 7 4.8035122024 7.3046935586 33.7390607860
289 7 7.2881457978 7.2697119133 33.7391822764
290 7 9.7784089915 7.2735786316 33.6403772802
291 5 0.9228522909 9.5559360630 33.7747322561
292 7 3.5167642700 9.4401534421 33.6759617765
293 5 6.0332422138 9.3995572169 33.7911619132
294 7 8.5271108414 9.3856146937 33.6929055024
295 7 10.9929805892 9.4649944779 33.4970558862
296 7 -0.3296263248 11.7766717926 33.2885420758
297 6 2.2384240635 11.6510225019 33.4168650470
298 7 4.7690234240 11.5136499601 33.7882561319
299 4 7.2736089231 11.4337298344 33.7900944303
300 7 9.6506382187 11.6596573806 33.5449800637
301 6 -0.1262365853 1.5137672603 35.9118392359
302 7 2.3894766460 1.5853727819 35.9438134726
303 6 4.8759883150 1.5594667576 35.8408925018
304 7 7.3519771905 1.5228242862 35.8851434536
305 4 9.7968675149 1.5474633221 35.9459566037
306 7 1.1446690129 3.7245174914 35.8924716968
307 7 3.6348735502 3.7410755157 35.9060435377
308 7 6.1037603287 3.7173652093 35.8493268613
309 7 8.5865313810 3.6702823265 35.8170594353
310 7 11.0503078179 3.7085063567 35.8910573090
311 7 -0.0963801396 5.8142442098 35.6756628178
312 4 2.2865231081 5.8556890787 35.7066688022
313 7 4.8155039637 5.8649938502 35.8016381689
314 7 7.3627878778 5.8548968226 35.7434437028
315 7 9.8074478748 5.8259913773 35.7187423609
316 7 1.1082842629 7.9334353200 35.6209641336
317 7 3.5621810197 7.9984212741 35.7366008292
318 7 6.0893371805 7.9901906475 35.8072569629
319 7 8.6153491879 7.9953832897 35.7686112605
320 7 11.0922140488 7.9113835493 35.5964635413
321 2 -0.6095547644 10.6736874070 34.8687148712
322 7 2.3176845614 10.0848221852 35.7614027102
323 4 4.8772202548 10.0902984187 35.7919503044
324 7 7.3292492152 10.0835492881 35.8057246578
325 7 9.9061133460 10.1163209742 35.6587188580
326 7 0.8788860258 12.0131807479 35.7068999584
327 1 3.3786017792 12.2527347708 35.7856269834
328 7 6.0487930057 12.2366921757 35.8044604685
329 7 8.5355606960 12.3173024536 35.7736875578
330 7 10.9508680221 12.2465848727 35.8680127365
331 6 -0.1452373789 0.0858237324 37.9404283857
332 7 2.4249876458 0.2131591369 38.0307142409
333 6 4.8967333993 0.1023570718 37.8878730811
334 7 7.3719454955 0.1062246964 37.9150848788
335 7 9.8215892940 0.1730330857 37.9854538473
336 7 1.1474851855 2.3377490136 37.9851881731
337 7 3.6222521381 2.3809845966 37.9891253546
338 7 6.1216709316 2.3588051059 37.9761481046
339 7 8.5827328788 2.3351079486 37.9049196718
340 7 11.0533348345 2.3729611983 38.0044689445
341 7 -0.0953492626 4.4924314736 37.8597068918
342 5 2.3533165653 4.6009946518 37.7749332708
343 7 4.8285405977 4.5371753553 37.9038415090
344 5 7.3398575322 4.5068982403 37.7871920692
345 7 9.7786348476 4.5056334654 37.8396433899
346 7 1.0940723414 6.6582661812 37.7030177955
347 4 3.6150959717 6.6526307241 37.7566607922
348 5 6.1253220698 6.5882226746 37.7342609086
349 7 8.6098887130 6.5939863535 37.7671329307
350 7 11.0966812881 6.5790216239 37.6428364690
351 6 -0.1345480823 9.7192186967 36.7557082319
352 7 2.2540280439 8.7181648206 37.7387140731
353 7 4.8499858081 8.7170833121 37.8189631245
354 7 7.4237779600 8.6870467716 37.8877793180
355 7 10.0009357374 8.7285968926 37.7016514478
356 7 1.3016538109 11.0357959286 38.2013810978
357 7 3.6194327000 10.8598860733 37.7946232935
358 7 6.1274364593 10.8333776407 37.8479495395
359 6 8.6545671388 10.8688800123 37.7701654919
360 7 11.0197697061 10.9398801867 38.4464571417
361 8 12.3483351753 0.2341176948 39.9464571417
362 8 2.3012125411 4.7894222624 39.9464571417
