LAMMPS data file via write_data, version 11 Feb 2026, timestep = 137, units = metal

362 atoms
8 atom types

0 12.447907776 xlo xhi
0 12.9362452296 ylo yhi
0 52.3600831054 zlo zhi

Masses

1 26.9815
2 10.811
3 12.011
4 51.9961
5 55.845
6 95.95999999999999
7 58.6934
8 1.008

Atoms # atomic/kk

1 7 1.1137113031 0.8213056377 14.6458442544 0 0 0
2 7 3.5521467993 0.7369833292 14.8745272759 0 0 0
3 5 6.0128484835 0.8661002607 14.9410273606 0 0 0
9 7 7.2838490898 3.061485717 14.8964308127 0 0 0
4 6 8.6338279095 0.9701610672 14.9495025372 0 0 0
5 7 11.0217092745 1.2520186303 14.4653209196 0 0 0
6 7 12.2639913093 3.4770388474 14.6467423155 -1 0 0
10 7 9.8060835872 3.3786149654 14.7263539351 0 0 0
16 4 0.2139193522 7.6728894562 14.6155204607 0 0 0
14 7 8.5725153511 5.6382438032 14.8971888336 0 0 0
20 7 10.22617336 7.6570207772 13.9929623834 0 0 0
22 7 3.6153938959 9.5118272928 14.9226525987 0 0 0
23 7 6.5830708033 9.0861380619 14.8549518434 0 0 0
28 7 4.815824606 11.6095683554 14.8226355783 0 0 0
29 6 7.3722206234 11.4983227586 14.9207476072 0 0 0
24 7 9.050267351 9.6672434403 14.6595074518 0 0 0
25 7 11.9433998717 9.8784548083 14.7147805643 0 0 0
30 7 9.9219178274 11.8565293517 14.5823374761 0 0 0
7 7 2.2244278673 2.9702781815 15.1108540678 0 0 0
32 7 2.3057735265 1.2533933958 16.93475001 0 0 0
36 7 1.1352675494 3.9681480296 17.066800341 0 0 0
37 7 3.5682797031 3.6456713851 17.0971915677 0 0 0
8 7 4.7779833266 2.9844932416 15.0244944963 0 0 0
33 7 4.8273182743 1.5350531227 16.986551739 0 0 0
34 7 7.3550776725 1.7107978943 16.9500837575 0 0 0
38 5 6.0741467629 3.7413718214 16.9740739685 0 0 0
31 6 12.3913000935 1.8883392073 16.4894812447 -1 0 0
35 7 9.9190937242 1.7128950373 16.9082174088 0 0 0
39 7 8.6334205619 3.8636350755 16.8179895682 0 0 0
40 7 11.0697873134 3.9524196695 16.9685655977 0 0 0
11 7 1.1325159023 5.4321519621 15.0298648606 0 0 0
12 7 3.5505664693 5.1458182768 15.1256363525 0 0 0
17 7 2.4264587984 7.5047093361 15.095063866 0 0 0
42 7 2.3709022815 6.0749554728 17.1158740735 0 0 0
46 7 0.8166128193 8.4131626729 16.8638252625 0 0 0
47 7 3.8140361054 8.0091511251 17.0307430596 0 0 0
13 7 6.0443871312 5.1854642162 15.0121872704 0 0 0
18 7 4.8936291095 7.3016176803 14.9806898798 0 0 0
19 2 6.8414713252 6.9747072356 15.3200005465 0 0 0
43 7 4.8527088278 5.8105449035 17.0809632393 0 0 0
44 7 7.340924499 5.8800224159 17.0270952222 0 0 0
48 7 6.2238050879 7.9923564856 17.0217814927 0 0 0
15 6 11.0457942592 5.6383565695 15.0891852747 0 0 0
41 7 12.3145471385 6.1094617649 17.1318770918 -1 0 0
45 7 9.8059114772 6.1104944937 17.1833292361 0 0 0
49 7 8.468429199 7.8578113362 16.0258690791 0 0 0
50 7 10.9043843251 8.1163238005 16.2182311104 0 0 0
85 6 9.8291561263 8.5173936977 18.4534573388 0 0 0
21 2 1.5469184204 9.4727356587 15.2141180887 0 0 0
26 7 0.3129936142 10.8021185085 16.8329366666 0 0 0
27 7 2.0307224553 11.476675607 15.1548148102 0 0 0
52 7 2.6125130949 10.0807166029 17.0469460252 0 0 0
56 2 0.9256786272 12.7047536866 16.3582462584 0 0 0
57 7 3.7020280411 12.2256452092 16.9334370809 0 0 0
61 6 0.103773691 12.914119814800001 18.5798943425 0 -1 0
53 7 5.126658067 10.1104152289 16.7830658184 0 0 0
54 7 7.692477589 10.043801355 16.9252811036 0 0 0
58 6 6.2929857705 12.3385525054 17.0159377302 0 0 0
51 3 11.6191907962 9.3703530782 17.5028465653 -1 0 0
55 7 10.2421186304 10.4082028541 16.649672521 0 0 0
59 7 8.8413922637 12.3709071028 16.8941788773 0 0 0
60 7 11.2973371544 12.6226231243 16.35432226 0 0 0
62 7 2.5615108705 0.0362035485 19.1477003657 0 0 0
66 6 1.352087127 2.2318342886 19.0708844716 0 0 0
67 5 3.7965060942 2.1845093372 19.1089571573 0 0 0
91 4 1.3634017621 0.7873689837 21.2571913451 0 0 0
92 7 3.794226599 0.7431598758 21.13750191 0 0 0
96 7 0.0818398676 2.8665460279 21.1814724359 0 0 0
97 7 2.6037366438 2.8644328228 21.2140599314 0 0 0
63 5 5.0130565391 0.1201396407 19.0682040289 0 0 0
64 7 7.495596467 0.110342631 19.0969961689 0 0 0
68 7 6.1911625703 2.1775697989 19.0541381069 0 0 0
73 7 4.9399859645 4.3115639679 19.0808444754 0 0 0
93 7 6.3216186889 0.7422133371 21.2114280549 0 0 0
98 7 5.0464890634 2.8788030133 21.156730555 0 0 0
99 5 7.5012216635 2.8458062181 21.1465756361 0 0 0
65 7 10.0801304272 0.1065487012 18.9684922367 0 0 0
69 7 8.7310725904 2.1890169043 18.9669963216 0 0 0
70 7 11.2903690738 2.2927407527 18.9119995363 0 0 0
94 7 8.7774111105 0.7555452584 21.1819060725 0 0 0
95 7 11.3628525944 0.72641687 21.0350745594 0 0 0
100 6 10.0447145789 2.84337011 21.0236745032 0 0 0
72 7 2.4484207282 4.4231072112 19.1209610471 0 0 0
76 7 1.1658922912 6.4993750047 19.1944079097 0 0 0
77 7 3.7588813697 6.5005138756 19.148711873 0 0 0
82 6 2.4331532856 8.5389225502 19.0281898596 0 0 0
101 7 1.2086380863 5.0327229131 21.2367972996 0 0 0
102 6 3.7381526169 5.0487020448 21.2310031514 0 0 0
107 7 2.4725111755 7.1733214789 21.2418807198 0 0 0
74 6 7.4689868564 4.3181435819 19.0304476252 0 0 0
78 7 6.170237902 6.5260528853 19.1093418597 0 0 0
103 7 6.2784224384 5.0594655358 21.1607485873 0 0 0
108 7 5.0193298877 7.223494662 21.211762887 0 0 0
109 7 7.4265222286 7.2679630961 21.2436962817 0 0 0
71 1 12.3279373157 4.4568231342 19.2000615889 -1 0 0
75 5 9.8611454395 4.3669905211 19.0145125389 0 0 0
79 7 8.6133213718 6.5195132388 19.2895962404 0 0 0
80 7 11.0925524574 6.5122969559 19.2872885435 0 0 0
81 4 12.370095144799999 8.5852753597 19.1918567346 -1 0 0
104 7 8.738862596 5.0638699973 21.2200043903 0 0 0
105 3 10.088817959383952 4.425481878214849 22.26687235955608 0 0 0
106 7 12.4419420687 7.1393087647 21.2777067176 -1 0 0
110 7 9.9017253633 7.1962155046 21.2754141709 0 0 0
86 7 1.3040220759 10.7594812152 19.1743642987 0 0 0
87 1 3.8459563645 10.8825534785 19.0135215432 0 0 0
111 7 1.2012857292 9.336353981 21.2204115458 0 0 0
112 6 3.7478709283 9.3413661583 21.2427124677 0 0 0
116 1 0.0586565897 11.5508848377 21.180266888 0 0 0
117 7 2.5220044427 11.5419976838 21.179037409 0 0 0
83 7 4.9686274228 8.7306012115 19.0370989362 0 0 0
84 7 7.422654832 8.6409959432 19.0150946314 0 0 0
88 7 6.2751154536 10.8242885579 19.0255608085 0 0 0
113 7 6.2407203807 9.3993290099 21.0379728141 0 0 0
118 7 5.041532521 11.5618649392 21.1472156713 0 0 0
119 4 7.4722747108 11.5781127873 21.0806437026 0 0 0
89 6 8.7829335956 10.8728354539 18.983455907 0 0 0
90 4 11.2852334195 10.8109661311 18.8951444514 0 0 0
114 7 8.7071889781 9.345956294 20.9379700304 0 0 0
115 6 11.1203198917 9.2930847331 21.1713688049 0 0 0
120 7 10.0191413517 11.5604237039 21.1262723599 0 0 0
121 7 0.08345629002396497 1.4109623542758791 23.26098188465725 0 0 0
122 7 2.571916351638203 1.4076502829025583 23.32139720386757 0 0 0
126 6 1.3549667341177938 3.6073629731647565 23.265019404283724 0 0 0
127 7 3.8561755535599125 3.5919231562165 23.370269940835836 0 0 0
152 7 2.6565992565713064 0.013501560878820016 25.378926496285228 0 0 0
156 1 1.4889518852808168 2.1431673969565246 25.505746167439746 0 0 0
157 7 3.977557880477648 2.140625683006015 25.448082977653065 0 0 0
162 7 2.6064726225669603 4.2707694991112195 25.432745929726085 0 0 0
123 7 5.012883488571826 1.4334043623479895 23.204354277193136 0 0 0
124 7 7.418247433808829 1.5247856440759928 23.482560271868508 0 0 0
128 7 6.31074008618847 3.6704804942472893 23.175031758833846 0 0 0
153 7 5.202116025024822 0.06690961367112029 25.334606361433785 0 0 0
154 7 7.613697931365165 0.01415489678245751 25.461106123831243 0 0 0
158 2 5.802499656454424 2.486303709180359 24.64734256153603 0 0 0
163 7 5.122747679780558 4.253989510812258 25.427537037012133 0 0 0
164 5 7.4823606442884305 4.067366263001361 25.348463898633696 0 0 0
125 7 10.066993775807788 1.4495249585577157 23.304838688778673 0 0 0
129 7 8.762376307618666 3.5670688800950705 23.33329542258464 0 0 0
130 4 11.36528783707169 3.646289528190886 23.386991910252362 0 0 0
155 4 10.137908418727788 0.07718710687571612 25.521487255590678 0 0 0
159 7 8.891544711395138 2.1106585895928043 25.426779425971056 0 0 0
160 7 11.415384237826432 2.1724926041151167 25.395660780203553 0 0 0
165 7 10.072456031516223 4.23497877519227 25.401914974084914 0 0 0
131 7 0.07870391645967138 5.797251123263714 23.389655810283614 0 0 0
132 7 2.5518775146341692 5.799367350199605 23.369326549167138 0 0 0
136 7 1.3161405458080158 7.925099038870039 23.299627299009547 0 0 0
137 7 3.791963814997057 7.966728734786427 23.32576952981323 0 0 0
161 4 0.11802509592824494 4.3560603464118515 25.45821407057574 0 0 0
166 7 1.346094555738433 6.42656626503205 25.42844594547317 0 0 0
167 7 3.8176177146065604 6.4385410730633135 25.45364988313775 0 0 0
172 7 2.6310725287700447 8.612621592280155 25.39975199314269 0 0 0
133 6 5.076078287758122 5.853298534136079 23.389192834131197 0 0 0
134 7 7.565895102534461 5.789616163549435 23.30569479700548 0 0 0
138 7 6.319802223776685 7.998448692390178 23.343773118521767 0 0 0
168 7 6.372784954987699 6.396469014851723 25.435099926861334 0 0 0
173 7 5.120575369936365 8.55396847308887 25.358241351721254 0 0 0
135 7 10.070756385923323 5.850291955741947 23.37720564251145 0 0 0
139 4 8.706341089392934 7.958233127214924 23.214854924402896 0 0 0
140 4 11.295330831954415 7.91125393038825 23.297776143686725 0 0 0
169 7 8.781366976728767 6.345939875143813 25.375208861593926 0 0 0
170 7 11.298773094517527 6.422357885230379 25.438157709393323 0 0 0
175 6 9.901848960044877 8.578665309361565 25.50313592431611 0 0 0
141 7 0.02847282010070376 10.095699102196944 23.33142240411727 0 0 0
142 7 2.510258652242583 10.109877839870405 23.302684186008687 0 0 0
146 7 1.307932196016897 12.244306024126791 23.317637094262977 0 0 0
147 7 3.8221275108753217 12.243617039238009 23.23436251787959 0 0 0
151 4 0.10162899228454253 12.8888029275309 25.374350536620092 0 -1 0
171 6 0.12098556088421533 8.631430709068534 25.41365222471254 0 0 0
176 7 1.3517235886267278 10.814694523442506 25.4351480834084 0 0 0
177 6 3.8932225034725016 10.816901850759951 25.319269665675826 0 0 0
143 7 5.081651417990039 10.112387445007656 23.238456317638697 0 0 0
144 7 7.516966823574442 10.099783992959043 22.907589728909908 0 0 0
148 4 6.23740451756954 12.283604960032418 23.26532494584173 0 0 0
178 6 6.6516513807730115 10.525780570289411 25.24227809860464 0 0 0
145 7 10.00378409876145 10.10009151815898 23.302219147858228 0 0 0
149 6 8.728756144799481 12.300529289275783 23.29332103379396 0 0 0
150 7 11.265881463530235 12.239007173382815 23.3362330594631 0 0 0
174 3 8.426108239280191 9.514288098946801 24.408665210930902 0 0 0
179 5 9.019524487547105 10.940131964204063 25.55986437184899 0 0 0
180 5 11.351548214259127 10.887903144354052 25.48340559632234 0 0 0
181 7 1.393815032914997 0.6722885621711261 27.488248832186148 0 0 0
182 7 3.8827980333663374 0.706248754788221 27.448231462518194 0 0 0
186 7 0.17914469799228563 2.869834423215046 27.482812937662764 0 0 0
187 7 2.667073275497437 2.8564198279905835 27.567502292907662 0 0 0
211 7 0.21469640931777698 1.455126232238156 29.580758229270078 0 0 0
212 7 2.714824166203158 1.36654788602694 29.582750450068172 0 0 0
216 7 1.4178188439068087 3.5621775176887933 29.587885649343356 0 0 0
217 4 3.831673743366537 3.575182755714034 29.602707388789234 0 0 0
183 7 6.32200404093397 0.7215496549179351 27.5716115433209 0 0 0
188 7 5.091974889177622 2.876189029999512 27.578807361480916 0 0 0
189 7 7.607766976022274 2.7999960296384767 27.45250171121679 0 0 0
213 5 5.1440006825042355 1.426903889358852 29.60249866195315 0 0 0
214 7 7.625987217040976 1.3625783429884284 29.586068531472304 0 0 0
218 7 6.372834075233258 3.538912552194795 29.54413267040464 0 0 0
184 7 8.902051827405497 0.73014182201549 27.552534815635344 0 0 0
185 4 11.394340266952849 0.7338718465236101 27.520306423115983 0 0 0
190 7 10.156843453611732 2.8450429963782433 27.47882231190054 0 0 0
215 7 10.134268589391484 1.4155240995887395 29.621459859832765 0 0 0
219 7 8.848221944947191 3.5225080427765385 29.523200508738075 0 0 0
220 7 11.377373814576403 3.5716750282724865 29.51511932109042 0 0 0
191 7 1.3987467755405711 5.0159184744295455 27.474450599394583 0 0 0
192 7 3.8411809294897803 4.991798779364746 27.492857288027132 0 0 0
196 7 0.14437252627064528 7.171469978785604 27.491501039221127 0 0 0
197 7 2.5879485817851298 7.195294334861093 27.487009574891086 0 0 0
221 7 0.12823235855916737 5.737037824466443 29.569346693584805 0 0 0
222 7 2.599579387726429 5.7324127324393555 29.56038584312908 0 0 0
226 7 1.3702428307801 7.909358086518082 29.555163116778687 0 0 0
227 7 3.8683677737312716 7.913174411570881 29.484869345183373 0 0 0
193 7 6.378890168376284 4.9779336391582465 27.419159776495516 0 0 0
198 7 5.111253184003551 7.172703740619391 27.42505339397358 0 0 0
199 7 7.623861998580366 7.19471727922071 27.449865196470114 0 0 0
223 6 5.161459108248594 5.721150179769706 29.500579521100356 0 0 0
224 7 7.652765880254968 5.745033753334406 29.581891948162333 0 0 0
228 7 6.3999930886631695 7.914519890090678 29.50376795984187 0 0 0
194 6 8.855694664240477 5.009061276444155 27.486874116841282 0 0 0
195 7 11.369275904964066 5.008575841928978 27.502189224336714 0 0 0
200 7 10.129673987231804 7.170822307000358 27.530073244658062 0 0 0
225 7 10.109573982882504 5.754091952693903 29.600381002973315 0 0 0
229 7 8.852451060680822 7.894190058851848 29.516854057297714 0 0 0
230 7 11.375752009644843 7.940848257086976 29.517008914942558 0 0 0
201 5 1.3852634392867977 9.33513684651732 27.51762773245584 0 0 0
202 7 3.8804954031674415 9.32004589500244 27.400928684750806 0 0 0
206 4 0.19459555077479979 11.490188013921445 27.519890158461056 0 0 0
207 7 2.6180761613776906 11.465289367569973 27.455497101801942 0 0 0
231 7 0.16985902824381913 10.087694033005452 29.563269296330436 0 0 0
232 7 2.637934103285116 10.028871261052606 29.4376551831335 0 0 0
236 7 1.4764916400755395 12.191651853054259 29.557105949531472 0 0 0
203 7 6.37972100968138 9.29230862746266 27.41195795263647 0 0 0
208 7 5.14958149312748 11.500819337801683 27.35707196057907 0 0 0
209 6 7.599261184368926 11.537504623146873 27.632122392532295 0 0 0
233 7 5.15405418604106 10.054246192134684 29.346207880187222 0 0 0
234 7 7.610181952422454 10.09420958171432 29.657337230158376 0 0 0
238 7 6.230746190592446 12.240677694802876 29.681125588815693 0 0 0
204 7 8.844748651297225 9.378292103048064 27.604867223154294 0 0 0
205 7 11.353808395733541 9.42910030390654 27.532938705359705 0 0 0
210 7 10.163760836672765 11.567159646702775 27.566950262555594 0 0 0
235 7 10.092212320945341 10.188016370123806 29.586613592694974 0 0 0
239 4 8.891236529172733 12.263774070456632 29.722613048136225 0 0 0
240 7 11.401359585598168 12.278336515767267 29.551770829903525 0 0 0
237 3 4.036811535837618 0.3090328555800279 30.56063898109653 0 1 0
241 7 0.2062843081714803 0.11272908891619908 31.627003233479442 0 0 0
242 7 2.5737245644979883 0.14925693710507956 31.744762340874445 0 0 0
246 4 1.3501850710071917 2.254292392366336 31.661942664748914 0 0 0
247 7 3.8889353386946137 2.1591440889019045 31.64211280073436 0 0 0
244 7 7.6377197124763185 0.016509246159293424 31.70629663086254 0 0 0
248 7 6.416591371191488 2.1609780669281258 31.64664455983964 0 0 0
249 7 8.860606036771348 2.120151694068172 31.677469461334542 0 0 0
250 7 11.390425959665126 2.1560299158084293 31.652423894274822 0 0 0
255 1 10.115435881189114 4.239053091907068 31.498902069414356 0 0 0
251 7 0.15581835361517757 4.341140857275833 31.648883521097883 0 0 0
252 7 2.641937666627889 4.329934318201281 31.669798094268586 0 0 0
256 7 1.3379981175949223 6.5168601416857905 31.63653399737726 0 0 0
257 6 3.7999301829941294 6.511918632569008 31.676521162438636 0 0 0
286 7 0.11041334010769385 7.293213570386935 33.628625284611 0 0 0
253 7 5.119091341734412 4.319251339176357 31.62804657232823 0 0 0
254 7 7.628434969243696 4.324873804955656 31.58999799967554 0 0 0
258 7 6.358359603102853 6.507756022343191 31.629517337409343 0 0 0
264 7 7.596726196016284 8.593731239338283 31.620394493706858 0 0 0
259 4 8.827198201626999 6.4790382291192055 31.625305312237195 0 0 0
260 7 11.324228209200013 6.506805288194253 31.593221097656805 0 0 0
284 5 8.892964225714076 5.135085285560521 33.56882649725663 0 0 0
285 4 11.362523207646538 5.171505797206832 33.64004724193068 0 0 0
290 7 10.09316897371551 7.275407933344888 33.590645564540765 0 0 0
261 7 0.18254434846086914 8.72311332905998 31.65192910422027 0 0 0
262 7 2.670917334444051 8.731397605681154 31.540533822048857 0 0 0
266 7 1.5685948491419541 10.844625341623642 31.568521024906065 0 0 0
267 4 3.923130284066583 11.292993014061517 30.853924837261598 0 0 0
292 7 3.9663465209044477 9.380873758658812 33.5179962820563 0 0 0
243 7 5.181536539652475 12.914757790551086 32.093810597489686 0 -1 0
263 1 5.100071475847225 8.772457952927436 31.43622196923771 0 0 0
268 7 6.26977974549602 10.77386090717566 31.579912161675253 0 0 0
293 4 6.463597968722582 9.336768233494142 33.652881124709765 0 0 0
245 7 10.118018771831453 12.902389274203685 31.860949667493127 0 -1 0
265 6 10.108056890328974 8.698005316685652 31.533630993583895 0 0 0
269 7 8.783157419852216 10.816490329181471 31.74131981673571 0 0 0
270 7 11.432621353964228 10.920921147331073 31.604688669362254 0 0 0
296 3 11.0800941306255 11.85100686014023 33.31926314983722 -1 0 0
271 7 1.4849342612199414 0.9165755235522376 33.772810619963636 0 0 0
272 7 3.9320801432688466 0.968494440642237 33.91288603370911 0 0 0
276 7 0.1875446088226831 3.0089713193994476 33.72887292224739 0 0 0
277 7 2.653316137835644 3.09205316662408 33.79482207226097 0 0 0
301 7 0.2007183957249827 1.5634874941031554 35.74805372110222 0 0 0
302 7 2.6259310152935784 1.6841819793638766 35.85297130881048 0 0 0
306 4 1.408489054789099 3.8484355497673217 35.94163392155335 0 0 0
307 7 3.999610168793576 3.743487676779311 35.832309683822345 0 0 0
273 7 6.470557213003164 0.9854110904694972 33.902656522763095 0 0 0
278 1 5.226058728132728 3.010078000832081 33.726379761219604 0 0 0
279 7 7.734044527576622 3.0564714921187988 33.72991783029078 0 0 0
303 7 5.253500605053188 1.6784183133573296 35.93928175299452 0 0 0
304 4 7.770340024781713 1.64390953009841 35.922241985169286 0 0 0
308 7 6.530915841028363 3.7241006560794303 35.80596751769233 0 0 0
274 7 8.847381955270803 0.9153467075723407 33.83505834542242 0 0 0
275 4 11.448870705889918 0.8168427027934332 33.70376102265822 0 0 0
280 7 10.213027332487 3.0201715841773855 33.70557500904918 0 0 0
305 7 10.236677431823892 1.59105218541721 35.71239011859695 0 0 0
309 7 9.017646506906349 3.6872484878021137 35.78241900400975 0 0 0
310 4 11.576761959770016 3.9459907096391476 35.86845904652805 0 0 0
281 7 1.3385658787157402 5.196178809554415 33.856000795838355 0 0 0
282 4 3.8567766821464815 5.150199810780633 33.781611956062484 0 0 0
287 7 2.645748713910543 7.302423645438648 33.76005465939564 0 0 0
312 7 2.7328777522820396 5.8028655534473375 35.80176236097039 0 0 0
316 7 1.2407943945704005 7.634427539952578 35.80475319414348 0 0 0
317 7 3.9366956136122213 8.055971298126508 35.75112116264112 0 0 0
283 7 6.382512633888357 5.113605783363597 33.66998729294143 0 0 0
288 7 5.196755448650658 7.284048478721582 33.68328577783793 0 0 0
289 7 7.640478193852938 7.2062959529444495 33.71440158350857 0 0 0
313 7 5.254995906133446 5.9249540629233 35.73726815119472 0 0 0
314 7 7.711918794460165 5.830898496845427 35.73146505848552 0 0 0
318 4 6.551989216962583 8.132179336330868 35.83079447926855 0 0 0
311 2 12.405171712974001 6.010595830120827 35.32491480385746 -1 0 0
315 7 10.135496416659741 5.819101672566647 35.57084542578891 0 0 0
319 7 8.961948899438404 7.970357755148479 35.83438030260567 0 0 0
320 7 11.364523047627875 7.943515671312713 35.585528456377496 0 0 0
350 7 11.683136899236619 6.281460578394974 37.2826878069909 0 0 0
355 3 10.445134222429207 7.9193712404787036 37.261139290705835 0 0 0
291 7 1.4758098661041636 9.439590573062766 33.72917535904215 0 0 0
297 6 3.025281594253859 11.581332612827127 33.680328181015874 0 0 0
321 6 0.21450367637733275 10.08298395201521 35.89652204270323 0 0 0
322 7 2.7003004810956153 10.176859285332426 35.76316169153955 0 0 0
326 7 0.5115966686108689 11.668456661456338 33.6670565912797 0 0 0
327 6 3.9210537392448037 12.518446544520927 36.08015380607632 0 0 0
356 4 1.4054656967123706 12.3658014868115 35.83501430554596 0 0 0
298 2 5.213470021019852 12.293395761044229 34.1927724443206 0 0 0
299 7 7.008477469856849 11.59442130360019 33.674544147369275 0 0 0
323 6 5.240965353867711 10.254887014323197 35.56794493673317 0 0 0
324 7 7.923911604109203 10.365459185337476 35.70401687012538 0 0 0
328 7 6.474690723565222 12.525954818931357 35.914158740884915 0 0 0
294 7 8.78056886786505 9.301437786976521 33.68890840734416 0 0 0
295 6 11.276490902140127 9.715426793573693 33.7539290601653 0 0 0
300 7 9.39011032386026 11.558942511908125 34.155320535834555 0 0 0
325 7 10.263661795075611 9.857930446535823 37.00548883329885 0 0 0
329 3 9.540600700114188 11.422980108340768 36.18267257762906 0 0 0
330 4 11.268470060423333 12.099968520182847 35.5583799498341 0 0 0
335 5 9.91751227392155 0.0010636827006873517 37.37028592697099 0 0 0
332 7 2.49009707187311 0.10499848366446911 38.020262986932266 0 0 0
336 7 1.3423251937199874 2.192208752274132 37.82432499361469 0 0 0
337 7 3.8787258633458817 2.202090503475405 37.86163852578463 0 0 0
341 7 0.21945663575162017 4.254648094286745 38.06438989216616 0 0 0
333 7 5.216580572003829 0.16855700452474429 38.1029996746355 0 0 0
334 7 7.660068187332649 0.0884630212025385 38.00370076818669 0 0 0
338 7 6.539585116780058 2.2773651944162476 37.89872413305973 0 0 0
339 7 9.000741655089556 2.2059239691054224 37.85767480054607 0 0 0
340 7 11.37330258011653 2.204111239311106 37.712939514488134 0 0 0
342 7 2.719673284938348 4.29970610792042 37.90400727151842 0 0 0
346 7 1.4988405442906774 6.4104007331324295 37.992003410825596 0 0 0
347 6 3.9604556713306343 6.480740118060216 37.82815318576376 0 0 0
361 8 3.9624879006836617 8.009908654647505 38.959753539186444 0 0 0
343 7 5.311520181944163 4.426919634204661 37.82057935313651 0 0 0
344 7 7.834536695391966 4.439640314410281 37.87705062988222 0 0 0
348 6 6.656029012376806 6.682774205335658 37.802654560422106 0 0 0
345 4 10.228827555169223 4.353264565995743 37.823955541191694 0 0 0
349 7 9.268751574875749 6.66238641128067 37.92011082036257 0 0 0
351 7 12.265331220101048 8.585977824570527 37.82486414192303 -1 0 0
362 8 8.960689696460932 5.308767667276743 38.846177740511706 0 0 0
352 6 2.5174504853168065 8.662777332326295 37.748046137082845 0 0 0
357 7 3.847225837763818 10.836935739991187 37.92152700081481 0 0 0
360 7 1.3940236317325856 10.902996031337599 37.873546424812254 1 0 0
353 7 5.151026356312095 8.740489426427233 37.87202748438427 0 0 0
354 7 7.964718699281128 8.961360412429942 37.81555715068461 0 0 0
358 6 6.436967097465723 10.87158815914115 37.78789932937563 0 0 0
331 7 12.400629529513129 12.900502819625153 37.61577332143658 -1 -1 0
359 2 8.610730609227494 11.205921570849679 37.40376962072504 0 0 0

Velocities

1 0 0 0
2 0 0 0
3 0 0 0
9 0 0 0
4 0 0 0
5 0 0 0
6 0 0 0
10 0 0 0
16 0 0 0
14 0 0 0
20 0 0 0
22 0 0 0
23 0 0 0
28 0 0 0
29 0 0 0
24 0 0 0
25 0 0 0
30 0 0 0
7 0 0 0
32 0 0 0
36 0 0 0
37 0 0 0
8 0 0 0
33 0 0 0
34 0 0 0
38 0 0 0
31 0 0 0
35 0 0 0
39 0 0 0
40 0 0 0
11 0 0 0
12 0 0 0
17 0 0 0
42 0 0 0
46 0 0 0
47 0 0 0
13 0 0 0
18 0 0 0
19 0 0 0
43 0 0 0
44 0 0 0
48 0 0 0
15 0 0 0
41 0 0 0
45 0 0 0
49 0 0 0
50 0 0 0
85 0 0 0
21 0 0 0
26 0 0 0
27 0 0 0
52 0 0 0
56 0 0 0
57 0 0 0
61 0 0 0
53 0 0 0
54 0 0 0
58 0 0 0
51 0 0 0
55 0 0 0
59 0 0 0
60 0 0 0
62 0 0 0
66 0 0 0
67 0 0 0
91 0 0 0
92 0 0 0
96 0 0 0
97 0 0 0
63 0 0 0
64 0 0 0
68 0 0 0
73 0 0 0
93 0 0 0
98 0 0 0
99 0 0 0
65 0 0 0
69 0 0 0
70 0 0 0
94 0 0 0
95 0 0 0
100 0 0 0
72 0 0 0
76 0 0 0
77 0 0 0
82 0 0 0
101 0 0 0
102 0 0 0
107 0 0 0
74 0 0 0
78 0 0 0
103 0 0 0
108 0 0 0
109 0 0 0
71 0 0 0
75 0 0 0
79 0 0 0
80 0 0 0
81 0 0 0
104 0 0 0
105 0 0 0
106 0 0 0
110 0 0 0
86 0 0 0
87 0 0 0
111 0 0 0
112 0 0 0
116 0 0 0
117 0 0 0
83 0 0 0
84 0 0 0
88 0 0 0
113 0 0 0
118 0 0 0
119 0 0 0
89 0 0 0
90 0 0 0
114 0 0 0
115 0 0 0
120 0 0 0
121 0 0 0
122 0 0 0
126 0 0 0
127 0 0 0
152 0 0 0
156 0 0 0
157 0 0 0
162 0 0 0
123 0 0 0
124 0 0 0
128 0 0 0
153 0 0 0
154 0 0 0
158 0 0 0
163 0 0 0
164 0 0 0
125 0 0 0
129 0 0 0
130 0 0 0
155 0 0 0
159 0 0 0
160 0 0 0
165 0 0 0
131 0 0 0
132 0 0 0
136 0 0 0
137 0 0 0
161 0 0 0
166 0 0 0
167 0 0 0
172 0 0 0
133 0 0 0
134 0 0 0
138 0 0 0
168 0 0 0
173 0 0 0
135 0 0 0
139 0 0 0
140 0 0 0
169 0 0 0
170 0 0 0
175 0 0 0
141 0 0 0
142 0 0 0
146 0 0 0
147 0 0 0
151 0 0 0
171 0 0 0
176 0 0 0
177 0 0 0
143 0 0 0
144 0 0 0
148 0 0 0
178 0 0 0
145 0 0 0
149 0 0 0
150 0 0 0
174 0 0 0
179 0 0 0
180 0 0 0
181 0 0 0
182 0 0 0
186 0 0 0
187 0 0 0
211 0 0 0
212 0 0 0
216 0 0 0
217 0 0 0
183 0 0 0
188 0 0 0
189 0 0 0
213 0 0 0
214 0 0 0
218 0 0 0
184 0 0 0
185 0 0 0
190 0 0 0
215 0 0 0
219 0 0 0
220 0 0 0
191 0 0 0
192 0 0 0
196 0 0 0
197 0 0 0
221 0 0 0
222 0 0 0
226 0 0 0
227 0 0 0
193 0 0 0
198 0 0 0
199 0 0 0
223 0 0 0
224 0 0 0
228 0 0 0
194 0 0 0
195 0 0 0
200 0 0 0
225 0 0 0
229 0 0 0
230 0 0 0
201 0 0 0
202 0 0 0
206 0 0 0
207 0 0 0
231 0 0 0
232 0 0 0
236 0 0 0
203 0 0 0
208 0 0 0
209 0 0 0
233 0 0 0
234 0 0 0
238 0 0 0
204 0 0 0
205 0 0 0
210 0 0 0
235 0 0 0
239 0 0 0
240 0 0 0
237 0 0 0
241 0 0 0
242 0 0 0
246 0 0 0
247 0 0 0
244 0 0 0
248 0 0 0
249 0 0 0
250 0 0 0
255 0 0 0
251 0 0 0
252 0 0 0
256 0 0 0
257 0 0 0
286 0 0 0
253 0 0 0
254 0 0 0
258 0 0 0
264 0 0 0
259 0 0 0
260 0 0 0
284 0 0 0
285 0 0 0
290 0 0 0
261 0 0 0
262 0 0 0
266 0 0 0
267 0 0 0
292 0 0 0
243 0 0 0
263 0 0 0
268 0 0 0
293 0 0 0
245 0 0 0
265 0 0 0
269 0 0 0
270 0 0 0
296 0 0 0
271 0 0 0
272 0 0 0
276 0 0 0
277 0 0 0
301 0 0 0
302 0 0 0
306 0 0 0
307 0 0 0
273 0 0 0
278 0 0 0
279 0 0 0
303 0 0 0
304 0 0 0
308 0 0 0
274 0 0 0
275 0 0 0
280 0 0 0
305 0 0 0
309 0 0 0
310 0 0 0
281 0 0 0
282 0 0 0
287 0 0 0
312 0 0 0
316 0 0 0
317 0 0 0
283 0 0 0
288 0 0 0
289 0 0 0
313 0 0 0
314 0 0 0
318 0 0 0
311 0 0 0
315 0 0 0
319 0 0 0
320 0 0 0
350 0 0 0
355 0 0 0
291 0 0 0
297 0 0 0
321 0 0 0
322 0 0 0
326 0 0 0
327 0 0 0
356 0 0 0
298 0 0 0
299 0 0 0
323 0 0 0
324 0 0 0
328 0 0 0
294 0 0 0
295 0 0 0
300 0 0 0
325 0 0 0
329 0 0 0
330 0 0 0
335 0 0 0
332 0 0 0
336 0 0 0
337 0 0 0
341 0 0 0
333 0 0 0
334 0 0 0
338 0 0 0
339 0 0 0
340 0 0 0
342 0 0 0
346 0 0 0
347 0 0 0
361 0 0 0
343 0 0 0
344 0 0 0
348 0 0 0
345 0 0 0
349 0 0 0
351 0 0 0
362 0 0 0
352 0 0 0
357 0 0 0
360 0 0 0
353 0 0 0
354 0 0 0
358 0 0 0
331 0 0 0
359 0 0 0
