LAMMPS data file via write_data, version 11 Feb 2026, timestep = 518, units = metal

362 atoms
8 atom types

0 12.447907776 xlo xhi
0 12.9362452296 ylo yhi
0 52.3600831054 zlo zhi

Masses

1 26.9815
2 10.811
3 12.011
4 51.9961
5 55.845
6 95.95999999999999
7 58.6934
8 1.008

Atoms # atomic/kk

1 7 1.4193839228889555 0.6382911942832504 14.64363857421899 0 0 0
2 7 3.866688603383298 0.722720587767555 15.019213863686929 0 0 0
6 7 0.11038862495482633 2.6080771353961425 15.357656160796646 0 0 0
7 7 2.541997896636381 2.867890679526141 15.032848074740441 0 0 0
31 2 0.1448891590946348 0.8462261625303641 16.305557066699734 0 0 0
32 4 2.269828292901382 1.2813646502284166 16.89819917849236 0 0 0
36 6 1.417727876018047 3.497670937351344 17.329147069885902 0 0 0
37 7 3.876373518367211 3.5936687663330042 17.052322571237095 0 0 0
3 7 6.473569556201547 0.9053501316909722 15.436661842270475 0 0 0
8 7 4.959590703340182 2.8824042981805795 14.987615562854353 0 0 0
9 7 7.477262965425667 2.9698899087097326 14.61353277100302 0 0 0
33 7 4.784559255983497 1.3796167789366565 17.12411765518939 0 0 0
34 3 7.794177333357288 1.9999406932444417 16.24696142621156 0 0 0
38 7 6.462333156997147 3.2190289974770128 16.929265251849934 0 0 0
4 7 8.973217235587306 0.899099151581101 15.288002762713123 0 0 0
5 7 11.368894913747678 0.6002524557283655 14.627124347196709 0 0 0
10 7 10.2783761401002 2.76326524643457 14.459178179349026 0 0 0
35 7 10.745988237901669 1.494782391040942 16.842386041484268 0 0 0
39 6 9.106056882606579 3.6528981968402565 16.381557161770964 0 0 0
40 7 11.416443393272983 3.783020039418794 17.123198486152575 0 0 0
11 4 1.1171964296747556 4.901504980465634 15.21418624323825 0 0 0
12 6 3.6339886405656845 5.136711567096063 15.096856213098718 0 0 0
16 7 0.18695060157569798 7.1083724796085175 14.857058155669533 0 0 0
17 3 1.9856470511254194 6.727333956170921 15.424548020399502 0 0 0
41 4 0.04030755808589999 5.8690995524401375 17.092678837714228 0 0 0
42 4 2.5527401982497717 5.821311134976488 17.21528593742648 0 0 0
46 7 1.3240574126579785 7.936146156361748 16.931645237349347 0 0 0
47 2 4.223179904010827 7.582033565153362 17.676143508643698 0 0 0
13 7 6.161076127973088 5.089331979600408 14.947401185511575 0 0 0
18 7 3.6080239271230865 7.696574386520624 15.769945615324534 0 0 0
19 4 7.452049280644475 7.106465273614203 14.814971155778704 0 0 0
43 7 5.015545532150076 5.728266057630186 17.07119320636986 0 0 0
44 7 7.4884733867532844 5.601224931341198 16.932373105724114 0 0 0
48 7 6.0555103064494995 7.814638855970067 16.768659524320842 0 0 0
14 7 8.72799792586648 5.113577944329284 14.383246367102545 0 0 0
15 7 11.184575694901282 4.947306429751183 15.024505978696167 0 0 0
20 6 10.070997747275246 7.152413323123203 14.861319042536156 0 0 0
45 7 10.02962800722557 5.8385579567009565 17.00678639333047 0 0 0
49 6 8.574367693289915 7.841692207178487 16.912366736905238 0 0 0
50 7 11.239234274084698 8.003355415927642 16.8862788805415 0 0 0
21 6 1.5578681842173425 9.216979404579245 14.726517137040684 0 0 0
22 7 4.165992022981686 9.61781419473163 14.520160795557157 0 0 0
26 7 0.223574048153656 11.343760483013167 14.554075342081537 0 0 0
27 7 2.7444211280410546 11.482460724564115 14.709125979279689 0 0 0
51 4 0.10860522013166739 10.023931662278732 16.654159735406843 0 0 0
52 7 2.735193747611917 9.939929224307141 16.72684290065465 0 0 0
56 4 1.3509496896750028 12.069985513214919 16.58299850023424 0 0 0
57 7 3.7479642911739184 12.144167509349781 17.037960868767737 0 0 0
23 4 6.5430629201495085 9.449995971745716 15.056693069691852 0 0 0
28 4 5.185545097759733 11.658786060089053 15.179130788123429 0 0 0
29 7 7.632397166527496 11.586641903887966 15.196608161023995 0 0 0
53 4 5.0477716914559645 9.93036987598007 16.961230679410033 0 0 0
54 7 7.51607245068418 10.108894886269079 17.136210709782148 0 0 0
58 7 6.241337896388168 12.222105740872516 17.22713414610335 0 0 0
24 7 8.817403062454586 9.346778184703966 14.717524410031574 0 0 0
25 7 11.39203552909003 9.260109736497368 14.659881899025645 0 0 0
30 7 10.046900567381533 11.464120635268646 14.661375261551152 0 0 0
55 1 9.916419836358736 10.189160467534728 16.78940813037668 0 0 0
59 7 8.774330284681266 12.396004788107218 17.248288018079727 0 0 0
60 7 11.318547671169283 12.11425472418576 16.572301714547073 0 0 0
61 7 0.05583441220702735 0.2254537728738181 18.396134769776744 0 0 0
62 7 2.4475645765888534 12.930115086261171 18.981847842547737 0 -1 0
66 7 1.2184374755388534 2.03514846964878 19.51950386811538 0 0 0
67 7 3.5857264919815113 2.2058788612766618 19.071955765065262 0 0 0
91 2 1.2039673628556973 1.4421437610749077 21.719537811491577 0 0 0
92 7 3.2651464468681413 0.8199599988990576 21.21335135998936 0 0 0
96 7 12.42891892694939 3.060347447673906 21.297216786806413 -1 0 0
97 7 2.4402642296293404 3.063034710930985 21.353710724575283 0 0 0
63 7 4.869575075848613 0.06032031659505469 19.24532361082791 0 0 0
64 7 7.503781827378828 0.04066313721634059 19.311883268232474 0 0 0
68 7 6.165381928720706 2.1061775151581132 19.115846654362446 0 0 0
93 7 6.19081671037898 0.7805547612508805 21.24857858583016 0 0 0
98 6 4.8879858976731905 2.878494957603422 21.14290361971771 0 0 0
99 7 7.421674223713392 2.920839947324495 21.21919713261333 0 0 0
65 7 10.108193106592212 0.12121546035656566 19.210885889554746 0 0 0
69 6 8.627229044578353 1.9420651025345832 18.24609919596221 0 0 0
70 7 11.257168126195923 2.276208003917551 19.067609875230698 0 0 0
94 7 8.74470557639069 0.8256410397606645 21.214837247872524 0 0 0
95 7 11.391310774489034 0.9190012586303358 21.19618874858567 0 0 0
100 6 9.920857286454817 2.9386281304455215 21.036758489493398 0 0 0
71 7 0.04623929355134768 4.398924155534934 19.22003299308722 0 0 0
72 7 2.5296838647511346 4.392844353865096 19.342514127491654 0 0 0
76 7 1.2554576867829508 6.529128924222635 19.16994147375484 0 0 0
77 7 3.842989713157093 6.415188577664864 19.25456190194012 0 0 0
101 4 1.2493521999723212 5.169047620792126 21.261969272891367 0 0 0
102 5 3.7512942136783547 5.150082652587872 21.373941600191788 0 0 0
106 7 12.420203698430907 7.271949694393221 21.134656102302905 -1 0 0
107 4 2.5299812512794713 7.171840780050517 21.150831213520565 0 0 0
73 7 5.004639091804157 4.3018048432303315 19.085748440595765 0 0 0
74 6 7.504031672564564 4.242529658558367 19.0771046288242 0 0 0
78 7 6.32146688815476 6.47065505048051 19.038313218587188 0 0 0
103 7 6.197364181404977 5.096028167939353 21.156996714648642 0 0 0
108 7 5.048899349366995 7.237330574897638 21.243242366312398 0 0 0
109 7 7.460906258955293 7.276984241715902 21.195554426735978 0 0 0
75 7 9.95498590255595 4.327034503172723 18.991385935283688 0 0 0
79 7 8.757832985057156 6.465840728069696 19.07250304982698 0 0 0
80 7 11.190215886261228 6.520996516864432 19.065230026557238 0 0 0
104 5 8.64809341779895 5.087447718824323 21.173549372475264 0 0 0
105 7 11.14639072199695 5.154150808999774 21.142470279750935 0 0 0
110 7 9.905213028438329 7.309567378037257 21.07719899948314 0 0 0
81 7 0.020123522951756175 8.66435019996021 18.92784869783694 0 0 0
82 7 2.66818011846684 8.535697110328343 18.926946805327773 0 0 0
86 6 1.3903865749463666 10.74720773861343 18.692938977868845 0 0 0
87 7 3.8397658097382434 10.77025808506823 19.052149880259652 0 0 0
111 6 1.3264864061316881 9.364612566936968 21.029253972905845 0 0 0
112 7 3.83254963081163 9.39187535902504 21.106357221493393 0 0 0
116 1 0.15986388171742344 11.945541429507445 20.691041079618177 0 0 0
117 7 2.548144471501612 11.49831008639753 21.055334168659357 0 0 0
83 7 5.113394970742126 8.598396495402271 19.147445752643463 0 0 0
84 7 7.549076640795637 8.65347859547147 19.147727458611918 0 0 0
88 6 6.299846073420397 10.826467421601427 19.249797885795047 0 0 0
113 4 6.28619326494474 9.381327954714873 21.34693417988681 0 0 0
118 7 4.990273062536303 11.58235710879179 21.253102275951413 0 0 0
119 7 7.556746243373513 11.549857160024269 21.29878954732864 0 0 0
85 7 9.974228307299473 8.77023875409552 18.893349353102167 0 0 0
89 4 8.879546026728097 10.91778872963951 19.242848364986738 0 0 0
90 7 11.312808750070381 10.917826711940661 18.81887589665161 0 0 0
114 4 8.68584143607456 9.429860516999241 21.15915713456946 0 0 0
115 6 11.138252710499904 9.507651142415979 20.990809717881596 0 0 0
120 7 10.0725779178658 11.716877229493438 21.295514477565195 0 0 0
122 7 2.455689885274522 1.6180537069279946 23.392831063889698 0 0 0
126 7 1.1930336899917002 3.756393742322034 23.33715709966317 0 0 0
127 7 3.709119715236146 3.729261121697221 23.355975338044114 0 0 0
151 7 12.406447859011685 0.21722250723129843 25.258508620278523 -1 0 0
152 7 2.5136287087418814 0.1327563745393367 25.34775022082579 0 0 0
156 7 1.1965854728313638 2.317883012644233 25.3991076367537 0 0 0
157 7 3.702651066095877 2.317580335241883 25.46707631729229 0 0 0
123 7 4.925352134893699 1.5680202864898138 23.292219799122623 0 0 0
124 7 7.453234562188299 1.5597536881972418 23.318477010184157 0 0 0
128 7 6.20746157068566 3.7067860886024016 23.22459549140526 0 0 0
153 7 4.949801715530172 0.18811620914288066 25.353426574370935 0 0 0
154 7 7.495534605590305 0.17740593275723085 25.387842469763424 0 0 0
158 4 6.194171660119561 2.32902442644657 25.2964154158598 0 0 0
121 7 12.405654710624855 1.625828923030792 23.306158991788635 -1 0 0
125 7 9.954196385185448 1.5578302466058673 23.24849583993531 0 0 0
129 4 8.65880413379818 3.6445445866709747 23.276809023604102 0 0 0
130 7 11.128204123120048 3.7099643923631644 23.254321350129285 0 0 0
159 7 8.660851061901399 2.303887469760112 25.346179804219734 0 0 0
160 7 11.12093595197278 2.3298749523201163 25.328885203709728 0 0 0
131 7 12.4320304731582 5.916142194603272 23.222876450697363 -1 0 0
132 7 2.4622941414826904 5.860293611296192 23.30407641958403 0 0 0
136 7 1.2195537481012357 8.038824167324888 23.188325874552614 0 0 0
137 6 3.705586049559009 8.062460959853594 23.248374106420307 0 0 0
162 7 2.466461440792339 4.448710359111275 25.418073901377944 0 0 0
166 7 1.207233960398191 6.660275462430244 25.30357375411592 0 0 0
167 7 3.6955681345822744 6.6004439982497995 25.347650038012045 0 0 0
133 5 4.945076614572105 5.872720470965875 23.29202480146585 0 0 0
134 7 7.386991081116928 5.858894410890557 23.232081176952953 0 0 0
138 4 6.24554628862616 8.054917691802983 23.30792793547217 0 0 0
163 7 4.963511121956443 4.417474380424574 25.312424345965887 0 0 0
164 7 7.436764749276011 4.420374102782434 25.293261792013727 0 0 0
168 7 6.157009661475637 6.606107202054983 25.313588917522505 0 0 0
135 6 9.93944480855947 5.887574350573651 23.194377107343566 0 0 0
139 7 8.673801488033183 8.05383599726986 23.2251098053703 0 0 0
140 7 11.163550340611513 8.095497318485119 23.188952649108444 0 0 0
161 6 12.36650859025001 4.519139539425028 25.333295787630714 -1 0 0
165 7 9.88161388057298 4.462326871618323 25.34663706343768 0 0 0
169 1 8.640719452909948 6.607881247212479 25.42968088552033 0 0 0
170 7 11.127805334427975 6.661200159692444 25.379245207663708 0 0 0
141 7 12.42244027794863 10.264404991109405 23.057680711147366 -1 0 0
142 7 2.457971631520978 10.265230655355854 23.177216756517865 0 0 0
146 7 1.2008747823242383 12.539994028939605 22.837301169224965 0 0 0
147 7 3.690290979884712 12.372784431410253 23.267451344505755 0 0 0
171 7 12.401614434870707 8.821809746756243 25.24224542338686 -1 0 0
172 7 2.4602988689205008 8.777503224491996 25.317532992448342 0 0 0
176 1 1.3132242129514662 10.911409362897926 25.32710280474998 0 0 0
177 7 3.7131599257604444 10.893736370919926 25.29542860552775 0 0 0
143 7 4.98131991256669 10.207524953480252 23.269955740449145 0 0 0
144 7 7.512267663571946 10.201873627297083 23.30752571408916 0 0 0
148 7 6.219097713683825 12.382340039360862 23.295890267299207 0 0 0
173 7 4.956225400600939 8.755987305623568 25.39861517463665 0 0 0
174 7 7.441825621802892 8.753924173537651 25.338710264230997 0 0 0
178 6 6.227672065212437 10.935817261209799 25.3473618981698 0 0 0
145 5 9.947954291944614 10.159404904441692 23.244049834645296 0 0 0
149 1 8.766824553982126 12.413291504811017 23.35719046262471 0 0 0
150 3 12.411044186560094 11.833879918122069 23.987747786074447 0 0 0
175 7 9.929916948629055 8.807296321986318 25.30376677124231 0 0 0
179 7 8.754534865835907 10.958691944246644 25.346432900864873 0 0 0
180 4 11.141403597028761 10.966200337022837 25.141531730539313 0 0 0
181 7 1.2075466138331599 0.8027002017699553 27.351606118164103 0 0 0
182 7 3.6534461908957865 0.8824195397056082 27.509758506309225 0 0 0
187 6 2.277209615611507 2.9812052293532605 27.62123465661514 0 0 0
211 7 0.1274827794194323 1.7397439975096514 29.27462817915941 0 0 0
212 7 2.4663941392056072 1.442488699409908 29.86744818705689 0 0 0
216 7 0.8761628932364945 4.17214652729747 29.497565860143492 0 0 0
217 7 3.6136869197220864 3.7283593209765167 29.637036544958164 0 0 0
183 6 6.234239282089347 0.9087496622373424 27.447337380312256 0 0 0
188 7 4.934241957836077 3.0276039618803257 27.5209998999347 0 0 0
189 7 7.454983778821712 3.039533575053849 27.44393656673598 0 0 0
213 7 4.922447198555044 1.44958355890117 29.583543539457985 0 0 0
214 7 7.546179197218085 1.4091190678734278 29.592329345366796 0 0 0
218 4 6.207297589726916 3.375510360456047 29.685614937325067 0 0 0
184 7 8.729261543274077 0.8483735112893651 27.442411318249306 0 0 0
185 7 11.15989202849538 0.944956806400846 27.387029960654896 0 0 0
186 7 12.286652443539598 3.1402827285554107 27.365840499681457 -1 0 0
190 7 9.866582034748074 3.0487871797509074 27.41145001458511 0 0 0
215 7 9.938307346844596 1.5247852992907454 29.46329418937501 0 0 0
219 7 8.591948799585971 3.6579361975595694 29.576768459341004 0 0 0
220 7 10.986508271625922 3.6646281052634913 29.5213525748805 0 0 0
191 7 1.1707745023772855 5.276275189809359 27.38705044153534 0 0 0
192 6 3.6985896199471235 5.241362265933247 27.498375167866346 0 0 0
196 7 12.411871030051593 7.406715710889034 27.34915372237355 -1 0 0
197 7 2.4308453147948246 7.364423157467531 27.39942636741005 0 0 0
221 2 0.24853302319855963 6.186515895796872 29.05314425520197 0 0 0
222 4 2.355051592776873 5.909875282084185 29.54454400429868 0 0 0
226 7 1.1706556518502462 7.997815974768606 29.46487825563037 0 0 0
227 7 3.6522627798532996 7.934288888846604 29.508990001615228 0 0 0
193 7 6.219462779378698 5.165882796527439 27.285866049143902 0 0 0
198 5 4.942562652766471 7.349994058973134 27.45156984755224 0 0 0
199 7 7.4096544340235315 7.251820993698789 27.447858948000114 0 0 0
223 3 5.153159365641389 4.638778157363737 28.803389654980347 0 0 0
224 6 7.061619236951347 5.698122682085624 29.55741183928135 0 0 0
228 7 6.097137671179551 7.974864531131808 29.665937483474842 0 0 0
194 7 8.706968849962553 5.155618012125389 27.505930552056455 0 0 0
195 7 11.222527991939712 5.3199601996499135 27.72601396139849 0 0 0
200 7 9.903327586140694 7.3551299538483965 27.477908287214877 0 0 0
225 7 9.701267323759057 5.806885596104597 29.614574145330923 0 0 0
229 5 8.556699258196792 7.869838543042594 29.462752813790104 0 0 0
230 7 11.238562155826957 7.670276710410292 29.482647909234963 0 0 0
201 7 1.1596852653291403 9.483818459244507 27.37079434542393 0 0 0
202 7 3.6609865487093223 9.422135461189104 27.464573447221454 0 0 0
207 7 2.378938230318446 11.599485195057348 27.403626852129598 0 0 0
232 7 2.3736000566412745 10.126181194561251 29.46768905677322 0 0 0
236 7 1.2348814071187837 12.326133464982886 29.428086532792538 0 0 0
237 7 3.652250259826712 12.251822691459585 29.558027871105264 0 0 0
203 6 6.262858891087743 9.433000589043163 27.644990444807494 0 0 0
208 6 4.806092388161695 11.613284039608287 27.442650475533796 0 0 0
209 7 7.527508719987112 11.623535183973933 27.544252977729116 0 0 0
233 7 4.89442172047078 10.100157683853752 29.62668153308407 0 0 0
234 7 7.612006846396871 10.110015672409702 29.8603344347683 0 0 0
238 6 6.241815884644298 12.225966330940294 29.66813071988859 0 0 0
155 3 11.048210394133262 12.43250211492272 26.33039489783117 0 -1 0
204 7 8.686723480343288 9.41507714925337 27.360266374495104 0 0 0
205 4 11.20633195514678 9.394016072506405 27.278243910878928 0 0 0
206 7 12.37657854470813 11.575942231376239 27.387008231988723 -1 0 0
210 7 9.92724357305115 11.548131942884954 27.454353832522532 0 0 0
231 7 12.310661081108222 10.102105840493216 29.385427342480632 -1 0 0
235 7 9.971865862390853 9.88075403338317 29.28270857661457 0 0 0
239 7 8.946894634495585 12.186980709396375 29.631738064264287 0 0 0
240 7 11.349284993997742 12.436098107452251 29.50785758258536 0 0 0
241 6 0.407306200085349 0.7046165657159743 31.555160169366214 0 0 0
247 1 3.740492634720808 2.2433075196658696 31.752524325719907 0 0 0
251 3 1.134304119314459 2.4833403760660784 32.52011653355883 0 0 0
252 7 2.1243212766602437 4.088289923574117 31.644357087451706 0 0 0
243 7 4.668327062190691 0.02138477877037873 31.688997742756634 0 0 0
248 7 6.231767114966337 2.0128441539908555 31.68441909594281 0 0 0
273 7 6.145257130051976 0.6775924460740924 33.757041065351586 0 0 0
278 7 4.921336967435343 2.94359363480729 33.71320469331601 0 0 0
245 7 10.292052109146736 0.5135288751558169 31.633753356807013 0 0 0
246 7 12.18944076663372 3.327774119012006 31.534474033202287 -1 0 0
249 7 8.662605927425819 2.2858106261320645 31.736683622468345 0 0 0
250 3 11.300952198951665 1.8846477583633783 30.682840361425573 0 0 0
256 7 0.8231443818750616 6.319055577402047 31.294484708878883 0 0 0
257 7 3.440051091338912 6.49516090732496 31.55145829567118 0 0 0
287 7 2.2833374467833867 7.3068086665906415 33.58217135294624 0 0 0
253 7 4.91220471548354 4.3853915416105185 31.577572850029945 0 0 0
254 7 7.33566141955121 4.299734614628496 31.69293911161456 0 0 0
258 7 5.947451621217993 6.524407209924942 31.705708224753913 0 0 0
263 4 4.6983767890197266 8.603175878321903 31.65088543982907 0 0 0
264 7 7.175383716338281 8.641909282524447 31.72903802371032 0 0 0
255 7 9.869354700795558 4.403541874010309 31.643884568351826 0 0 0
259 7 8.42438886951291 6.523380000867945 31.61089056487615 0 0 0
260 7 10.88700638452616 6.620436647493591 31.633301578955802 0 0 0
286 7 12.308761551083531 7.31148428176189 33.517515159767214 -1 0 0
290 7 9.773873112634806 7.277267843073329 33.63326540948027 0 0 0
242 2 2.404008371430638 12.504088745715668 31.150011036267752 0 -1 0
262 7 2.192005073020394 8.694344501429171 31.587652623073584 0 0 0
266 7 0.9387733963482354 10.932557730518713 31.411783769464385 0 0 0
267 7 3.5434332709249787 10.78201567225023 31.548657129763065 0 0 0
297 6 2.2410839006571677 11.664146668440237 33.41444225670761 0 0 0
244 6 7.797149767751841 12.766410658651324 31.75494040497784 0 -1 0
268 7 6.066339544000432 10.798163226543931 31.773355249768098 0 0 0
269 2 8.227518649828182 10.456631029237075 31.974326884544393 0 0 0
261 5 12.15845614179029 8.762370221061554 31.496713246818743 -1 0 0
265 7 9.56020935117009 8.797229616056455 31.499892882265833 0 0 0
270 6 10.667263430977195 11.00570654081222 31.365353729433114 0 0 0
295 7 10.989474761516737 9.467271276373117 33.487805194314184 0 0 0
296 7 12.119972002931537 11.789780814254216 33.26710222842251 -1 0 0
300 7 9.663360103594952 11.667489030455728 33.56522433201405 0 0 0
271 7 1.1423281623839139 0.8803507805764332 33.88816591172417 0 0 0
272 7 3.6008015807346503 0.8370985397194528 33.82109489837341 0 0 0
277 4 2.3547460111365246 2.98341662295788 33.93493397013023 0 0 0
301 6 12.325097474432587 1.5168233992424027 35.92753491203215 -1 0 0
302 7 2.39157887728412 1.5986231612663224 35.95257512999635 0 0 0
306 7 1.1461489282920245 3.733438250665439 35.89765873136158 0 0 0
307 7 3.637826341550901 3.752698226433848 35.896217506309924 0 0 0
279 7 7.363753201468255 2.927465977142976 33.79930516215611 0 0 0
303 6 4.878558703299645 1.5691077861410516 35.83893849351894 0 0 0
304 7 7.353132748321165 1.533839241472014 35.87948734466814 0 0 0
308 7 6.107471867735791 3.7261076806721696 35.84246422960648 0 0 0
274 4 8.641045703256507 0.9560197687559326 33.82505342201406 0 0 0
275 7 11.048591825258553 0.8527687207699286 33.91507633007031 0 0 0
276 7 12.308512402543837 3.045331751166629 33.89253805704009 -1 0 0
280 7 9.868595732896564 3.000538074656042 33.8192200003941 0 0 0
305 4 9.800202169192005 1.5548535472651948 35.96510661472796 0 0 0
309 7 8.587236277132478 3.676873889524773 35.81863053504785 0 0 0
310 7 11.053100914781789 3.713531243387097 35.89971884823012 0 0 0
281 5 1.089264229049581 5.165818324383764 33.61324666431672 0 0 0
282 6 3.614848107791647 5.091981437435906 33.63373674913988 0 0 0
312 4 2.2884079450608383 5.863325137842271 35.70019848608079 0 0 0
316 7 1.1105364857274138 7.940149789927894 35.61215071270269 0 0 0
317 7 3.5640646075449496 8.007187326986413 35.732497904105706 0 0 0
283 7 6.129644380122808 5.111930358807697 33.74063384200956 0 0 0
288 7 4.801875818923108 7.3146668733411175 33.73349470248076 0 0 0
289 7 7.284917235397693 7.275969254471132 33.73415865260125 0 0 0
313 7 4.816507610646487 5.875663002798476 35.79354163716775 0 0 0
314 7 7.360593709732817 5.861652702184608 35.741243122757695 0 0 0
318 7 6.088014503844555 7.9997419032912065 35.802945594631524 0 0 0
284 7 8.616641187296853 5.087243818459 33.69507260550609 0 0 0
285 7 11.099511748764671 5.163717841981383 33.6498067975323 0 0 0
311 7 12.3529745363487 5.819513525722917 35.67150889820448 -1 0 0
315 7 9.805191428187124 5.827480165063781 35.71685231369034 0 0 0
319 7 8.6099965602646 7.99875691669088 35.75879908060863 0 0 0
320 7 11.08522345917719 7.904746771100917 35.58617628903676 0 0 0
291 5 0.9139506009866518 9.581308903221725 33.78905198375086 0 0 0
292 7 3.5118086803180035 9.44961841085039 33.67531102411171 0 0 0
322 7 2.319850341384436 10.097577636517302 35.76744082065666 0 0 0
326 7 0.8553269978477578 12.014413442747268 35.67545117800623 0 0 0
327 1 3.36625089026389 12.263083589958017 35.80115338127281 0 0 0
293 5 6.030313827657557 9.40892562464417 33.78862742439757 0 0 0
298 7 4.767534010735506 11.522522549103565 33.7922256164823 0 0 0
299 4 7.278990896217941 11.44329672277331 33.78750102046023 0 0 0
323 4 4.874464717448402 10.102132673266725 35.79404677698432 0 0 0
324 7 7.327171849544726 10.092739390645209 35.80289684863928 0 0 0
328 7 6.048403028331751 12.245349416603098 35.80375597115091 0 0 0
294 7 8.52231841365356 9.393119122714873 33.680770998539174 0 0 0
321 2 11.797062592330082 10.705396177626046 34.85316739175795 -1 0 0
325 7 9.891666526447635 10.114670013453845 35.641099098969214 0 0 0
329 7 8.531996912174808 12.33006972665357 35.77247067127 0 0 0
330 7 10.938600507012051 12.238462244657473 35.94092467068679 0 0 0
351 6 12.297359965492483 9.718405513771216 36.72322284100631 -1 0 0
332 7 2.4467476666554715 0.25513336622563887 38.06625805702048 0 0 0
336 7 1.155535935583997 2.3638980650226227 37.99764018163469 0 0 0
337 7 3.632866617928813 2.4029168116817123 37.983277057223454 0 0 0
333 6 4.9105267551150975 0.1197643237067346 37.89130071760531 0 0 0
334 7 7.37970694564115 0.12339946645739248 37.9113636834342 0 0 0
338 7 6.129290831563416 2.3715085729258742 37.969985307874836 0 0 0
331 6 12.320473841924478 0.11422272258194649 37.961646625158735 -1 0 0
335 7 9.820826914566425 0.19247046347208596 38.018767069546584 0 0 0
339 7 8.579488139102319 2.352049198313144 37.910188659548936 0 0 0
340 7 11.056081258371503 2.3952095681859062 38.01935733734206 0 0 0
342 5 2.366662484462101 4.616477834115536 37.77478486464686 0 0 0
346 7 1.0980942283926367 6.667603506877922 37.69452720654809 0 0 0
347 4 3.621208159230103 6.668009454273566 37.75473512031445 0 0 0
343 7 4.838341117225426 4.548141607213938 37.88001725921837 0 0 0
344 5 7.340520322769251 4.520439270956389 37.792277329208154 0 0 0
348 5 6.12804615072031 6.603019423271124 37.73346452570983 0 0 0
341 7 12.357401665435866 4.512037938620607 37.86037807798171 -1 0 0
345 7 9.777688838663208 4.521140752630144 37.841593425048586 0 0 0
349 7 8.60970710250908 6.605524502952711 37.762575147029914 0 0 0
350 7 11.098065581760773 6.588008957730257 37.63860293823684 0 0 0
352 7 2.2606818662019257 8.723311959686958 37.73647669074591 0 0 0
356 7 1.3360174062672308 11.060170628658023 38.08393279762524 0 0 0
357 7 3.652504925629761 10.870781221137603 37.80163299413608 0 0 0
353 7 4.861805717041261 8.728542807442835 37.81911085180897 0 0 0
354 7 7.431051720051223 8.701621940316212 37.881711477722845 0 0 0
358 7 6.1442344489098994 10.84881088402863 37.8493400506785 0 0 0
355 7 9.998806052797503 8.733115086911253 37.69341149157278 0 0 0
359 6 8.669800980670672 10.884959136845827 37.76279235926663 0 0 0
360 7 11.039356606258753 10.952851298805895 38.41922665893281 0 0 0
361 8 4.997139302938989 3.090545895959699 41.947988216130305 0 0 0
362 8 4.969117591120836 3.844230849549272 41.86324264559362 0 0 0

Velocities

1 0 0 0
2 0 0 0
6 0 0 0
7 0 0 0
31 0 0 0
32 0 0 0
36 0 0 0
37 0 0 0
3 0 0 0
8 0 0 0
9 0 0 0
33 0 0 0
34 0 0 0
38 0 0 0
4 0 0 0
5 0 0 0
10 0 0 0
35 0 0 0
39 0 0 0
40 0 0 0
11 0 0 0
12 0 0 0
16 0 0 0
17 0 0 0
41 0 0 0
42 0 0 0
46 0 0 0
47 0 0 0
13 0 0 0
18 0 0 0
19 0 0 0
43 0 0 0
44 0 0 0
48 0 0 0
14 0 0 0
15 0 0 0
20 0 0 0
45 0 0 0
49 0 0 0
50 0 0 0
21 0 0 0
22 0 0 0
26 0 0 0
27 0 0 0
51 0 0 0
52 0 0 0
56 0 0 0
57 0 0 0
23 0 0 0
28 0 0 0
29 0 0 0
53 0 0 0
54 0 0 0
58 0 0 0
24 0 0 0
25 0 0 0
30 0 0 0
55 0 0 0
59 0 0 0
60 0 0 0
61 0 0 0
62 0 0 0
66 0 0 0
67 0 0 0
91 0 0 0
92 0 0 0
96 0 0 0
97 0 0 0
63 0 0 0
64 0 0 0
68 0 0 0
93 0 0 0
98 0 0 0
99 0 0 0
65 0 0 0
69 0 0 0
70 0 0 0
94 0 0 0
95 0 0 0
100 0 0 0
71 0 0 0
72 0 0 0
76 0 0 0
77 0 0 0
101 0 0 0
102 0 0 0
106 0 0 0
107 0 0 0
73 0 0 0
74 0 0 0
78 0 0 0
103 0 0 0
108 0 0 0
109 0 0 0
75 0 0 0
79 0 0 0
80 0 0 0
104 0 0 0
105 0 0 0
110 0 0 0
81 0 0 0
82 0 0 0
86 0 0 0
87 0 0 0
111 0 0 0
112 0 0 0
116 0 0 0
117 0 0 0
83 0 0 0
84 0 0 0
88 0 0 0
113 0 0 0
118 0 0 0
119 0 0 0
85 0 0 0
89 0 0 0
90 0 0 0
114 0 0 0
115 0 0 0
120 0 0 0
122 0 0 0
126 0 0 0
127 0 0 0
151 0 0 0
152 0 0 0
156 0 0 0
157 0 0 0
123 0 0 0
124 0 0 0
128 0 0 0
153 0 0 0
154 0 0 0
158 0 0 0
121 0 0 0
125 0 0 0
129 0 0 0
130 0 0 0
159 0 0 0
160 0 0 0
131 0 0 0
132 0 0 0
136 0 0 0
137 0 0 0
162 0 0 0
166 0 0 0
167 0 0 0
133 0 0 0
134 0 0 0
138 0 0 0
163 0 0 0
164 0 0 0
168 0 0 0
135 0 0 0
139 0 0 0
140 0 0 0
161 0 0 0
165 0 0 0
169 0 0 0
170 0 0 0
141 0 0 0
142 0 0 0
146 0 0 0
147 0 0 0
171 0 0 0
172 0 0 0
176 0 0 0
177 0 0 0
143 0 0 0
144 0 0 0
148 0 0 0
173 0 0 0
174 0 0 0
178 0 0 0
145 0 0 0
149 0 0 0
150 0 0 0
175 0 0 0
179 0 0 0
180 0 0 0
181 0 0 0
182 0 0 0
187 0 0 0
211 0 0 0
212 0 0 0
216 0 0 0
217 0 0 0
183 0 0 0
188 0 0 0
189 0 0 0
213 0 0 0
214 0 0 0
218 0 0 0
184 0 0 0
185 0 0 0
186 0 0 0
190 0 0 0
215 0 0 0
219 0 0 0
220 0 0 0
191 0 0 0
192 0 0 0
196 0 0 0
197 0 0 0
221 0 0 0
222 0 0 0
226 0 0 0
227 0 0 0
193 0 0 0
198 0 0 0
199 0 0 0
223 0 0 0
224 0 0 0
228 0 0 0
194 0 0 0
195 0 0 0
200 0 0 0
225 0 0 0
229 0 0 0
230 0 0 0
201 0 0 0
202 0 0 0
207 0 0 0
232 0 0 0
236 0 0 0
237 0 0 0
203 0 0 0
208 0 0 0
209 0 0 0
233 0 0 0
234 0 0 0
238 0 0 0
155 0 0 0
204 0 0 0
205 0 0 0
206 0 0 0
210 0 0 0
231 0 0 0
235 0 0 0
239 0 0 0
240 0 0 0
241 0 0 0
247 0 0 0
251 0 0 0
252 0 0 0
243 0 0 0
248 0 0 0
273 0 0 0
278 0 0 0
245 0 0 0
246 0 0 0
249 0 0 0
250 0 0 0
256 0 0 0
257 0 0 0
287 0 0 0
253 0 0 0
254 0 0 0
258 0 0 0
263 0 0 0
264 0 0 0
255 0 0 0
259 0 0 0
260 0 0 0
286 0 0 0
290 0 0 0
242 0 0 0
262 0 0 0
266 0 0 0
267 0 0 0
297 0 0 0
244 0 0 0
268 0 0 0
269 0 0 0
261 0 0 0
265 0 0 0
270 0 0 0
295 0 0 0
296 0 0 0
300 0 0 0
271 0 0 0
272 0 0 0
277 0 0 0
301 0 0 0
302 0 0 0
306 0 0 0
307 0 0 0
279 0 0 0
303 0 0 0
304 0 0 0
308 0 0 0
274 0 0 0
275 0 0 0
276 0 0 0
280 0 0 0
305 0 0 0
309 0 0 0
310 0 0 0
281 0 0 0
282 0 0 0
312 0 0 0
316 0 0 0
317 0 0 0
283 0 0 0
288 0 0 0
289 0 0 0
313 0 0 0
314 0 0 0
318 0 0 0
284 0 0 0
285 0 0 0
311 0 0 0
315 0 0 0
319 0 0 0
320 0 0 0
291 0 0 0
292 0 0 0
322 0 0 0
326 0 0 0
327 0 0 0
293 0 0 0
298 0 0 0
299 0 0 0
323 0 0 0
324 0 0 0
328 0 0 0
294 0 0 0
321 0 0 0
325 0 0 0
329 0 0 0
330 0 0 0
351 0 0 0
332 0 0 0
336 0 0 0
337 0 0 0
333 0 0 0
334 0 0 0
338 0 0 0
331 0 0 0
335 0 0 0
339 0 0 0
340 0 0 0
342 0 0 0
346 0 0 0
347 0 0 0
343 0 0 0
344 0 0 0
348 0 0 0
341 0 0 0
345 0 0 0
349 0 0 0
350 0 0 0
352 0 0 0
356 0 0 0
357 0 0 0
353 0 0 0
354 0 0 0
358 0 0 0
355 0 0 0
359 0 0 0
360 0 0 0
361 0 0 0
362 0 0 0
