LAMMPS data file via write_data, version 11 Feb 2026, timestep = 138, units = metal

362 atoms
8 atom types

0 12.447907776 xlo xhi
0 12.9362452296 ylo yhi
0 52.3600831054 zlo zhi

Masses

1 26.9815
2 10.811
3 12.011
4 51.9961
5 55.845
6 95.95999999999999
7 58.6934
8 1.008

Atoms # atomic/kk

1 7 1.1258466585 0.8238897812 14.6422938276 0 0 0
2 7 3.5643659884 0.7395322579 14.8707344081 0 0 0
3 5 6.025108482 0.868674738 14.9374995012 0 0 0
9 7 7.2960841274 3.0640627172 14.8928840014 0 0 0
4 6 8.6460647334 0.9727011669 14.9461359803 0 0 0
5 7 11.0338965836 1.2546061387 14.4617852771 0 0 0
6 7 12.276140525699999 3.479705423 14.6432066611 -1 0 0
10 7 9.8182658326 3.3811991561 14.7228078386 0 0 0
16 4 0.2259814519 7.6755482258 14.6122028552 0 0 0
14 7 8.5846403821 5.6408339332 14.8936750376 0 0 0
20 7 10.2382885855 7.6596590826 13.9895786276 0 0 0
22 7 3.6275672669 9.5145490974 14.9191976737 0 0 0
23 7 6.5953547399 9.0887663636 14.8515429278 0 0 0
28 7 4.8281525095 11.6121679587 14.8190861513 0 0 0
29 6 7.3844965689 11.5008861096 14.9174134271 0 0 0
24 7 9.0625840854 9.6698238411 14.6563310832 0 0 0
25 7 11.955569227 9.8811333051 14.711502925 0 0 0
30 7 9.9341535035 11.8590816825 14.5789921021 0 0 0
7 7 2.2366275412 2.9728554832 15.107019974 0 0 0
32 7 2.3179736881 1.2559057992 16.9309167949 0 0 0
36 7 1.1474574169 3.9708655556 17.0628370478 0 0 0
37 7 3.5804601598 3.6482723083 17.0933666219 0 0 0
8 7 4.7902088582 2.9871060268 15.0207457225 0 0 0
33 7 4.8395372481 1.5376847564 16.9828118622 0 0 0
34 7 7.3673113469 1.7134447529 16.9466095923 0 0 0
38 5 6.0863328811 3.7439962659 16.9704045537 0 0 0
31 6 12.4034430084 1.8909701279 16.4859238419 -1 0 0
35 7 9.9312454135 1.7155270943 16.9048412711 0 0 0
39 7 8.6456229872 3.8662562756 16.8144456376 0 0 0
40 7 11.0819410424 3.9550305269 16.965056305 0 0 0
11 7 1.1446469324 5.4348818376 15.0260694713 0 0 0
12 7 3.5626900949 5.1484805577 15.1219206343 0 0 0
17 7 2.4385770546 7.5074786302 15.0915466828 0 0 0
42 7 2.383026307 6.0776576292 17.1121693546 0 0 0
46 7 0.8286859941 8.4158989619 16.8604808114 0 0 0
47 7 3.8261955571 8.0118781577 17.0271996095 0 0 0
13 7 6.05655161 5.1880970737 15.0085441604 0 0 0
18 7 4.9057925003 7.3043180487 14.9771488543 0 0 0
19 2 6.8536186495 6.977322444 15.3165061377 0 0 0
43 7 4.8648420644 5.813203138 17.0772632937 0 0 0
44 7 7.3530650486 5.8825877453 17.0235615538 0 0 0
48 7 6.2359860304 7.9949701301 17.0183179437 0 0 0
15 6 11.0578650057 5.640977567 15.0857099726 0 0 0
41 7 12.326697432 6.1121527479 17.1282591442 -1 0 0
45 7 9.8180962713 6.113097881 17.1799470035 0 0 0
49 7 8.4805823599 7.8603568623 16.0225049768 0 0 0
50 7 10.9164802038 8.1190485303 16.2149166215 0 0 0
85 6 9.8413720948 8.5199856099 18.4502400156 0 0 0
21 2 1.5590526246 9.4753946373 15.2106705632 0 0 0
26 7 0.3250709551 10.8048357361 16.829685923 0 0 0
27 7 2.0427785984 11.4793243543 15.1513638937 0 0 0
52 7 2.6246336227 10.0834386148 17.0434612153 0 0 0
56 2 0.9376495606 12.7073769653 16.3547446491 0 0 0
57 7 3.7143440256 12.2282740215 16.9297674244 0 0 0
61 6 0.1157897204 12.9166925065 18.5765511058 0 -1 0
53 7 5.1389182954 10.1130770845 16.7795785273 0 0 0
54 7 7.7047226421 10.046412777 16.9219980073 0 0 0
58 6 6.305279419 12.3412079951 17.0125464704 0 0 0
51 3 11.631332556499999 9.3730274319 17.4996517185 -1 0 0
55 7 10.2543068487 10.4109151438 16.6465322716 0 0 0
59 7 8.8535717872 12.373568992 16.8909683908 0 0 0
60 7 11.3094244623 12.6253103691 16.3509139157 0 0 0
62 7 2.5736646259 0.0388543075 19.1439181185 0 0 0
66 6 1.3642494207 2.2344944668 19.0668712525 0 0 0
67 5 3.8086827999 2.1871528118 19.105059664 0 0 0
91 4 1.3755439329 0.790024294 21.253306303 0 0 0
92 7 3.8064369689 0.745857905 21.1336665129 0 0 0
96 7 0.0939459262 2.8690908483 21.1775742489 0 0 0
97 7 2.6158864852 2.8670949948 21.2098995492 0 0 0
63 5 5.0252028261 0.1227941709 19.0645022981 0 0 0
64 7 7.5077679081 0.1128785971 19.0938368095 0 0 0
68 7 6.2033384106 2.1801628394 19.0505078471 0 0 0
93 7 6.3337088693 0.7448682495 21.2078824526 0 0 0
98 7 5.0586466718 2.8815029423 21.1528906657 0 0 0
99 5 7.5133856754 2.8482187768 21.1431811117 0 0 0
65 7 10.0922092776 0.1090864113 18.9654187322 0 0 0
69 7 8.7432136098 2.1914622413 18.9636777837 0 0 0
70 7 11.3024681549 2.295283526 18.9085484184 0 0 0
94 7 8.7894094669 0.7578687308 21.1792249102 0 0 0
95 7 11.3749407028 0.7288366803 21.0318315824 0 0 0
100 6 10.0567896019 2.8455960262 21.0202929669 0 0 0
72 7 2.4605423122 4.4258259732 19.1170056027 0 0 0
76 7 1.1780168301 6.5021615521 19.1907840514 0 0 0
77 7 3.7710111135 6.503244874 19.1449010506 0 0 0
82 6 2.4453133351 8.5417008278 19.0246931511 0 0 0
101 7 1.2207539353 5.0354041389 21.2328311338 0 0 0
102 6 3.7502624146 5.0514131419 21.2269806199 0 0 0
106 7 0.0062088604 7.1420591461 21.2743147916 0 0 0
107 7 2.4846365166 7.1760998099 21.2382210242 0 0 0
73 7 4.9521603916 4.3142071081 19.0770368338 0 0 0
74 6 7.481201084 4.3206408963 19.0268684431 0 0 0
78 7 6.1824319863 6.5286180772 19.1057408001 0 0 0
103 7 6.2906548943 5.0619734735 21.1570669213 0 0 0
108 7 5.0314909174 7.2261626129 21.2078828844 0 0 0
109 7 7.4387948978 7.2704210269 21.2403010346 0 0 0
71 1 12.340172513099999 4.459446799 19.1961468083 -1 0 0
75 5 9.873323622 4.3694564698 19.0110814807 0 0 0
79 7 8.6255400165 6.5220273249 19.2862313998 0 0 0
80 7 11.1047447389 6.5148575118 19.2839343666 0 0 0
81 4 12.3822152269 8.5880181156 19.188710651 -1 0 0
104 7 8.751111802 5.0662506007 21.2164813896 0 0 0
105 3 10.101055451204896 4.427840665107993 22.263342464419058 0 0 0
110 7 9.9139017778 7.198695077 21.2721959597 0 0 0
86 7 1.3161877581 10.7622064303 19.171019448 0 0 0
87 1 3.8581632427 10.8852458026 19.0099092325 0 0 0
111 7 1.2134752876 9.3391291416 21.2171104299 0 0 0
112 6 3.7600854135 9.3441431032 21.2390959322 0 0 0
116 1 0.0708371451 11.5534654431 21.1771192258 0 0 0
117 7 2.5342404801 11.5447751173 21.1754992157 0 0 0
83 7 4.9808377868 8.7332858144 19.0335570843 0 0 0
84 7 7.4348603463 8.643529659 19.0117104416 0 0 0
88 7 6.2873403272 10.8269194883 19.0221870342 0 0 0
113 7 6.2530137818 9.4019100759 21.0345662247 0 0 0
118 7 5.0537678294 11.5645202769 21.1435680943 0 0 0
119 4 7.4844615931 11.580616948 21.0776114583 0 0 0
89 6 8.7950866138 10.8754011447 18.9803225004 0 0 0
90 4 11.2973558935 10.8135521432 18.8920940342 0 0 0
114 7 8.7193989602 9.3483986978 20.9346854699 0 0 0
115 6 11.1324548665 9.2956620624 21.1684680922 0 0 0
120 7 10.0312385576 11.5628781625 21.1234253441 0 0 0
121 7 0.09574236926203027 1.413536873453772 23.25733034393412 0 0 0
122 7 2.584173876261103 1.410266397706829 23.31753838123919 0 0 0
126 6 1.367232323252168 3.609928172946154 23.26106514547253 0 0 0
127 7 3.868364995583493 3.5945495534818677 23.36635552742133 0 0 0
152 7 2.6688923971219856 0.016161587004824077 25.375276103247852 0 0 0
156 1 1.5012142935398527 2.1457897081263377 25.501981048091128 0 0 0
157 7 3.9897554604880066 2.143292895559845 25.44434882952674 0 0 0
162 7 2.6187076237312525 4.273380163334744 25.4289413389869 0 0 0
123 7 5.025100569307351 1.4360552602321728 23.20063325839516 0 0 0
124 7 7.430458520909078 1.5272670825266068 23.47921460764109 0 0 0
128 7 6.322953585507757 3.672993002927947 23.171431682811463 0 0 0
153 7 5.214423916203429 0.06966970433405784 25.33100315113058 0 0 0
154 7 7.625942380699524 0.01674152489713836 25.457912887467014 0 0 0
158 2 5.814790796233717 2.488742621021382 24.643767241382132 0 0 0
163 7 5.134975557226894 4.256574107174016 25.423774715515165 0 0 0
164 5 7.494575108033855 4.069794916111561 25.34494543378839 0 0 0
125 7 10.079252405996906 1.452011674286054 23.301634982261895 0 0 0
129 7 8.77460289498534 3.5695406049204723 23.329855635222216 0 0 0
130 4 11.377596170330897 3.648747423371132 23.383436613068266 0 0 0
155 4 10.150210699338029 0.07971701565136816 25.51828938226473 0 0 0
159 7 8.90381343228176 2.1131696068440435 25.423400387189815 0 0 0
160 7 11.427686686152345 2.175003944956831 25.392156147068185 0 0 0
165 7 10.084753369061596 4.237462323513002 25.398418748216258 0 0 0
131 7 0.09095824951656484 5.799748994991629 23.386045369337197 0 0 0
132 7 2.5640880157248955 5.801958101637678 23.365521556104625 0 0 0
136 7 1.3283614479643615 7.927685863301349 23.296161227891016 0 0 0
137 7 3.804178783808051 7.9693342563281275 23.322078429846798 0 0 0
161 4 0.13031047928458991 4.358605466578896 25.45456757474947 0 0 0
166 7 1.3583629731453322 6.429162336666319 25.424800424304035 0 0 0
167 7 3.8298823219237077 6.441146481478782 25.449912736513237 0 0 0
172 7 2.64335828346844 8.615252447968842 25.396162044559496 0 0 0
133 6 5.088243093529989 5.855845720003624 23.385352730933555 0 0 0
134 7 7.578115447554977 5.792084907240457 23.302141372385872 0 0 0
138 7 6.33192521194023 8.000927821426872 23.340098209208254 0 0 0
168 7 6.38498271075147 6.399027631078214 25.43139081819207 0 0 0
173 7 5.132852761284375 8.556599363833662 25.354612590292152 0 0 0
135 7 10.083000368631106 5.852661240778601 23.37372051539226 0 0 0
139 4 8.718546490662595 7.960734837134928 23.211622076491313 0 0 0
140 4 11.307541887810096 7.913704056444225 23.294581537517022 0 0 0
169 7 8.793602325258243 6.3483652908102925 25.3716986445768 0 0 0
170 7 11.311047020094362 6.42486735875865 25.434662716267926 0 0 0
175 6 9.91400765277121 8.581115790305025 25.49989879975813 0 0 0
141 7 0.04074968092710672 10.09828534258015 23.32817048607828 0 0 0
142 7 2.522538424045814 10.11251767160332 23.299180145422337 0 0 0
146 7 1.3202336008041144 12.246939338469552 23.314140914635008 0 0 0
147 7 3.8344411688987026 12.24625418703348 23.230749942318965 0 0 0
151 4 0.11394113691481614 12.891380436107575 25.370902281810668 0 -1 0
171 6 0.13324835091693052 8.634020145231588 25.41028963489848 0 0 0
176 7 1.3640116577430301 10.81731149532706 25.431685206546828 0 0 0
177 6 3.9055204041235276 10.81957910022444 25.31570675589479 0 0 0
143 7 5.093906664574754 10.114980380920269 23.234895964148993 0 0 0
144 7 7.5292319909098255 10.102184536233235 22.90431439194162 0 0 0
148 4 6.249688542364778 12.286184082934435 23.2616820125395 0 0 0
178 6 6.663828151154365 10.528552062654246 25.23883007856052 0 0 0
145 7 10.016080570693132 10.10259622418057 23.29922892462413 0 0 0
149 6 8.741069427752395 12.302900229516425 23.290492053150995 0 0 0
150 7 11.278167541903008 12.241567341556454 23.33300067592612 0 0 0
174 3 8.438346225023993 9.516886774120048 24.405461872847052 0 0 0
179 5 9.031725356445492 10.94258543888005 25.55683438412818 0 0 0
180 5 11.363782526660671 10.89048120494164 25.480141536288194 0 0 0
181 7 1.4061243836708448 0.6748905764326076 27.484652497521306 0 0 0
182 7 3.8950825764410864 0.7089025779109894 27.444585288851645 0 0 0
186 7 0.19145872226530838 2.8723749789590585 27.479227479963562 0 0 0
187 7 2.6793510083895304 2.8590208988043915 27.563819238379377 0 0 0
211 7 0.2270340167429645 1.4576711227020485 29.5772509334161 0 0 0
212 7 2.7271495012686224 1.369110371253303 29.579163770131363 0 0 0
216 7 1.4301328291561788 3.5647277844157927 29.584285793328693 0 0 0
217 4 3.843976506825081 3.577750719935574 29.599052329202422 0 0 0
183 7 6.334270688504063 0.7241318976382357 27.5682241490992 0 0 0
188 7 5.1042700439616775 2.8787934040483134 27.57512953040769 0 0 0
189 7 7.620055549337719 2.802535579625992 27.449035335109528 0 0 0
213 5 5.156263856467435 1.4295335855975229 29.598947511373964 0 0 0
214 7 7.638267903234802 1.3651195099576827 29.582662523106862 0 0 0
218 7 6.385127503351363 3.5414784625333335 29.54054043668129 0 0 0
184 7 8.91432473493268 0.7326783707929622 27.54921030164561 0 0 0
185 4 11.40664506877443 0.7364220697695604 27.51690728388881 0 0 0
190 7 10.169145926966088 2.847549058846028 27.475340836281756 0 0 0
215 7 10.146581575926273 1.418052710323241 29.618034534351448 0 0 0
219 7 8.860532008476277 3.5250168616342137 29.51972279252393 0 0 0
220 7 11.38969565451278 3.574183275784304 29.511610282750773 0 0 0
191 7 1.4110455265868813 5.0184788277182655 27.47079104244046 0 0 0
192 7 3.8534607850994513 4.994384771247678 27.489142809795215 0 0 0
196 7 0.15667290171281642 7.173992485855658 27.488010773725232 0 0 0
197 7 2.600246499202772 7.197883690156155 27.48337416626734 0 0 0
221 7 0.14053659150932854 5.739562958172584 29.56581079690092 0 0 0
222 7 2.6118747424516915 5.734976727721999 29.556740656067067 0 0 0
226 7 1.38256142302018 7.91192181217658 29.551614958379563 0 0 0
227 7 3.8806752265663147 7.915751569612979 29.48125498414489 0 0 0
193 7 6.391174369595867 4.980520574397773 27.415486680328367 0 0 0
198 7 5.123538812590003 7.175283849660361 27.421397876032657 0 0 0
199 7 7.636186045536112 7.197265206590174 27.446269225455893 0 0 0
223 6 5.173739191281998 5.7237098208137995 29.496918801489883 0 0 0
224 7 7.665047804407092 5.747552133632799 29.578336441951812 0 0 0
228 7 6.412303689050123 7.91706607635737 29.500188349132003 0 0 0
194 6 8.867998041520675 5.011554179721938 27.483393181053653 0 0 0
195 7 11.381585401246157 5.011068847456919 27.498661184301685 0 0 0
200 7 10.141996534661727 7.173289559485061 27.526687401300954 0 0 0
225 7 10.121878207007384 5.756565620917411 29.596917858888578 0 0 0
229 7 8.864746747566448 7.896659264098123 29.513442216075312 0 0 0
230 7 11.388064390350937 7.943370272862081 29.51357920688914 0 0 0
201 5 1.3975725639384375 9.337731746863792 27.514137291371746 0 0 0
202 7 3.892804024235948 9.32266587412531 27.397340764006955 0 0 0
206 4 0.20689356903745096 11.492761762612082 27.516467051844092 0 0 0
207 7 2.630385967016885 11.467919844113377 27.45195885736725 0 0 0
231 7 0.1821806444952406 10.090250272707099 29.559829023354503 0 0 0
232 7 2.6502626318211364 10.031463066723452 29.434115204500447 0 0 0
236 7 1.488812246756105 12.19423178782736 29.55358717753843 0 0 0
203 7 6.39202163431453 9.29487468641066 27.408406420219823 0 0 0
208 7 5.161869745764784 11.503469476860484 27.353520655080235 0 0 0
209 6 7.611500713499462 11.540046833702547 27.6288880328646 0 0 0
233 7 5.166386887931183 10.056833319047572 29.342648056180465 0 0 0
234 7 7.622466016852417 10.096746196372253 29.65399888119822 0 0 0
238 7 6.242939346580838 12.24327470348273 29.67777090064769 0 0 0
204 7 8.857042160243587 9.380821558590256 27.601630888817827 0 0 0
205 7 11.3660823793881 9.431645765188648 27.52957898476013 0 0 0
210 7 10.176048766956734 11.569707805674696 27.56372529909804 0 0 0
235 7 10.104519028045768 10.190560153040888 29.583299160078532 0 0 0
239 4 8.903519465562235 12.266322755784472 29.7192923722791 0 0 0
240 7 11.413692823565148 12.280892913463367 29.548412149482328 0 0 0
237 3 4.049153775146922 0.31157052551121667 30.55708532844377 0 1 0
241 7 0.2186215114276038 0.11527726393199102 31.623539876766426 0 0 0
242 7 2.5860630285071373 0.15182849293020323 31.7412133108735 0 0 0
246 4 1.3625103953443045 2.256849567471281 31.65840962962881 0 0 0
247 7 3.9012315037231042 2.161722554011611 31.638547519984755 0 0 0
244 7 7.650010449348745 0.01904278610030832 31.702908329256047 0 0 0
248 7 6.428880747499059 2.163529744406761 31.643130519579934 0 0 0
249 7 8.87291549323606 2.122667453638124 31.67402069692129 0 0 0
250 7 11.402750421126848 2.1585466322924485 31.648948522298006 0 0 0
255 1 10.12776055024987 4.241546943777639 31.49543099851841 0 0 0
251 7 0.16813676813318887 4.343667357321166 31.645350045638583 0 0 0
252 7 2.6542487540871904 4.33248946938694 31.66618238130035 0 0 0
256 7 1.350300971612596 6.519407138235711 31.63296558618664 0 0 0
257 6 3.812228796434743 6.514465361911368 31.67288838352834 0 0 0
286 7 0.1227185949051244 7.295731916481004 33.62510973741477 0 0 0
253 7 5.131393407418056 4.321802321968346 31.624433289926387 0 0 0
254 7 7.64074136938024 4.327393172262829 31.586463805501065 0 0 0
258 7 6.370646640164073 6.510273660197165 31.625923890754997 0 0 0
264 7 7.609019579065711 8.596229908266578 31.616943940702726 0 0 0
259 4 8.839489526391931 6.481521013756315 31.621815046132827 0 0 0
260 7 11.33652912679905 6.509307778315375 31.58974063145854 0 0 0
284 5 8.90527029652618 5.137578474109431 33.56533362557174 0 0 0
285 4 11.37485396070114 5.174013146220843 33.636584007648686 0 0 0
290 7 10.10546007462219 7.277883325536248 33.58717699889538 0 0 0
261 7 0.19485963795546302 8.725647684933236 31.648440176032935 0 0 0
262 7 2.6832356018732506 8.733957960652255 31.53696970868729 0 0 0
266 7 1.5809168235525792 10.84719041005118 31.565021728646997 0 0 0
267 4 3.935459648334471 11.295533696038305 30.850424118075516 0 0 0
292 7 3.9786700736334546 9.383459717786348 33.51442514354704 0 0 0
243 7 5.193811285836679 12.917331456162687 32.09032522910809 0 -1 0
263 1 5.112387426791681 8.774993025043498 31.432643401602093 0 0 0
268 7 6.2820427081555135 10.776401649976314 31.57650907709444 0 0 0
293 4 6.475893979316085 9.339284772527078 33.649389054470035 0 0 0
245 7 10.130331936808082 12.904907602794921 31.857539744637894 0 -1 0
265 6 10.120358387179008 8.700501712445401 31.53022245241806 0 0 0
269 7 8.795445245216257 10.81900197267578 31.737956550563904 0 0 0
270 7 11.44494991607137 10.923452311704082 31.601287340508144 0 0 0
296 3 11.092381293961084 11.85353017505582 33.31586184197062 -1 0 0
271 7 1.4972326282591306 0.9191143422616055 33.769283978403394 0 0 0
272 7 3.9443684411599342 0.9710671914224878 33.90937204059588 0 0 0
276 7 0.19985916648039878 3.0115102047395412 33.72536376300996 0 0 0
277 7 2.6656188639222003 3.0946116125127383 33.79125106077544 0 0 0
301 7 0.2130160156349049 1.5660361635433901 35.74456064394075 0 0 0
302 7 2.638208930869298 1.686758182573954 35.84942858942737 0 0 0
306 4 1.4207463038283765 3.851033818465786 35.93808873585684 0 0 0
307 7 4.011900861107472 3.746039155322372 35.82874099396144 0 0 0
273 7 6.482853292371395 0.9879552632770316 33.899170555988334 0 0 0
278 1 5.238358767162094 3.0126243635570646 33.7228211952459 0 0 0
279 7 7.746348683691265 3.05899548958009 33.726411174831824 0 0 0
303 7 5.265785204561225 1.6809714084464338 35.93576380952897 0 0 0
304 4 7.78263287610093 1.6464345675983127 35.918761831833855 0 0 0
308 7 6.543206205372536 3.726628879865532 35.8024296858899 0 0 0
274 7 8.85968507527074 0.9178649581056287 33.83161774626401 0 0 0
275 4 11.46119681601116 0.8193730059855926 33.70030643899666 0 0 0
280 7 10.225341697338997 3.022678874067577 33.70211054529562 0 0 0
305 7 10.248980846237075 1.593565338812346 35.70893116061268 0 0 0
309 7 9.029933010999288 3.689753125116389 35.77893285446759 0 0 0
310 4 11.589039492277667 3.9484870043459455 35.864975321409666 0 0 0
281 7 1.3509001047060334 5.1987242053015486 33.852396097098094 0 0 0
282 4 3.869092655668547 5.152751412460992 33.777998654155176 0 0 0
287 7 2.6580709901012267 7.304979019368675 33.756455511610056 0 0 0
312 7 2.745193283718167 5.805415078721318 35.79815499311317 0 0 0
316 7 1.2531335508050319 7.636985283345137 35.80118983794282 0 0 0
317 7 3.9489962351287247 8.058525811313693 35.747549118357576 0 0 0
283 7 6.394812462525539 5.116130117101509 33.66641397416704 0 0 0
288 7 5.20904700386567 7.2865899152733205 33.679690211688246 0 0 0
289 7 7.652763031179483 7.208787317182867 33.710886581581704 0 0 0
313 7 5.267301065043934 5.927496206060944 35.73368153162952 0 0 0
314 7 7.724214925283512 5.833401635033894 35.727942598630314 0 0 0
318 4 6.564283726629271 8.134710317971058 35.827258166083396 0 0 0
311 2 12.417551166081212 6.013091499313276 35.32143211733314 -1 0 0
315 7 10.147790453989321 5.821590321509488 35.56736605398021 0 0 0
319 7 8.974246939002734 7.972844387037271 35.83092024672028 0 0 0
320 7 11.376844109679464 7.94598733001613 35.582034106348104 0 0 0
350 7 11.695416935670252 6.2839655733070545 37.27920660114674 0 0 0
355 3 10.457449053732189 7.921851726699544 37.257644418028 0 0 0
291 7 1.4881211141983446 9.442128411309845 33.72565807414544 0 0 0
297 6 3.037582997889897 11.583903770082467 33.67680360772326 0 0 0
321 6 0.2268132931596847 10.085489565825103 35.89303623176597 0 0 0
322 7 2.712601541434775 10.17942469615907 35.759632854696086 0 0 0
326 7 0.5238947532433066 11.67097617892976 33.66358338320513 0 0 0
327 6 3.933321089048377 12.521017987655208 36.076656947074596 0 0 0
356 4 1.4177453772627586 12.368347889835878 35.831516655919984 0 0 0
298 2 5.225745295054611 12.29596864867914 34.18929368917069 0 0 0
299 7 7.020745309891053 11.596947442820872 33.671127896939694 0 0 0
323 6 5.253259528056162 10.257448058125265 35.56443106600967 0 0 0
324 7 7.936194881300132 10.36798442070868 35.700563049853265 0 0 0
328 7 6.486957638904423 12.528507662600676 35.91069872989356 0 0 0
294 7 8.792865427339867 9.303912288994658 33.68549740131782 0 0 0
295 6 11.288776908837969 9.717932839299177 33.75048648229702 0 0 0
300 7 9.402385149582106 11.561444754693161 34.1518773299173 0 0 0
325 7 10.275956882007593 9.860405563292092 37.00198560326368 0 0 0
329 3 9.552902422674945 11.42548399883497 36.17922390205296 0 0 0
330 4 11.280765176812846 12.102472159411699 35.55491346797605 0 0 0
335 5 9.929802681139874 0.0035834488878148107 37.36681546863924 0 0 0
332 7 2.502379745549488 0.10754579178236513 38.016772713533875 0 0 0
336 7 1.3546290137775248 2.1947643931291076 37.82079643378715 0 0 0
337 7 3.8910113116076146 2.204630830821693 37.858097955054795 0 0 0
341 7 0.23175368965967774 4.2571809560999245 38.06089234851062 0 0 0
333 7 5.228862997072428 0.17109568946580678 38.099506847844154 0 0 0
334 7 7.672356928122028 0.09098619333260823 38.000229429563724 0 0 0
338 7 6.5518690419196774 2.2798945863952444 37.89521689020436 0 0 0
339 7 9.01303199915726 2.2084410693655943 37.854200424848344 0 0 0
340 7 11.38560290436168 2.2066360368624456 37.709472192701604 0 0 0
342 7 2.7319735002378924 4.302248469119449 37.90044392330059 0 0 0
346 7 1.511147564000818 6.412933238098628 37.98839105245201 0 0 0
347 6 3.9727620199408915 6.48327381435512 37.824558516455404 0 0 0
361 8 3.9747889989743856 8.01241592911746 38.95619648330121 0 0 0
343 7 5.323808598678004 4.429450923244822 37.81702234650533 0 0 0
344 7 7.846818101665692 4.44215904039398 37.873541158405715 0 0 0
348 6 6.6683242718862825 6.685300378579687 37.799107960910646 0 0 0
345 4 10.241108609384877 4.355776823874234 37.82047987125781 0 0 0
349 7 9.281045839533563 6.664898355466682 37.91664540959956 0 0 0
351 7 12.277648898469028 8.588479328371122 37.82136094646855 -1 0 0
362 8 8.972969691240833 5.311271316260506 38.84269265425882 0 0 0
352 6 2.5297598412055535 8.665321825460572 37.744502445119686 0 0 0
357 7 3.8595232190675186 10.839478954972726 37.918010212774234 0 0 0
360 7 1.4063245008876988 10.905538900585197 37.87004151130701 1 0 0
353 7 5.163319450035575 8.743023829191907 37.868483429346185 0 0 0
354 7 7.976988202071008 8.9638802102533 37.81207010549819 0 0 0
358 6 6.449253659832095 10.874121193917736 37.78441957271265 0 0 0
331 7 12.412929865182107 12.903048202128986 37.612286372656776 -1 -1 0
359 2 8.623029155631622 11.208426133825185 37.40031521449673 0 0 0

Velocities

1 0 0 0
2 0 0 0
3 0 0 0
9 0 0 0
4 0 0 0
5 0 0 0
6 0 0 0
10 0 0 0
16 0 0 0
14 0 0 0
20 0 0 0
22 0 0 0
23 0 0 0
28 0 0 0
29 0 0 0
24 0 0 0
25 0 0 0
30 0 0 0
7 0 0 0
32 0 0 0
36 0 0 0
37 0 0 0
8 0 0 0
33 0 0 0
34 0 0 0
38 0 0 0
31 0 0 0
35 0 0 0
39 0 0 0
40 0 0 0
11 0 0 0
12 0 0 0
17 0 0 0
42 0 0 0
46 0 0 0
47 0 0 0
13 0 0 0
18 0 0 0
19 0 0 0
43 0 0 0
44 0 0 0
48 0 0 0
15 0 0 0
41 0 0 0
45 0 0 0
49 0 0 0
50 0 0 0
85 0 0 0
21 0 0 0
26 0 0 0
27 0 0 0
52 0 0 0
56 0 0 0
57 0 0 0
61 0 0 0
53 0 0 0
54 0 0 0
58 0 0 0
51 0 0 0
55 0 0 0
59 0 0 0
60 0 0 0
62 0 0 0
66 0 0 0
67 0 0 0
91 0 0 0
92 0 0 0
96 0 0 0
97 0 0 0
63 0 0 0
64 0 0 0
68 0 0 0
93 0 0 0
98 0 0 0
99 0 0 0
65 0 0 0
69 0 0 0
70 0 0 0
94 0 0 0
95 0 0 0
100 0 0 0
72 0 0 0
76 0 0 0
77 0 0 0
82 0 0 0
101 0 0 0
102 0 0 0
106 0 0 0
107 0 0 0
73 0 0 0
74 0 0 0
78 0 0 0
103 0 0 0
108 0 0 0
109 0 0 0
71 0 0 0
75 0 0 0
79 0 0 0
80 0 0 0
81 0 0 0
104 0 0 0
105 0 0 0
110 0 0 0
86 0 0 0
87 0 0 0
111 0 0 0
112 0 0 0
116 0 0 0
117 0 0 0
83 0 0 0
84 0 0 0
88 0 0 0
113 0 0 0
118 0 0 0
119 0 0 0
89 0 0 0
90 0 0 0
114 0 0 0
115 0 0 0
120 0 0 0
121 0 0 0
122 0 0 0
126 0 0 0
127 0 0 0
152 0 0 0
156 0 0 0
157 0 0 0
162 0 0 0
123 0 0 0
124 0 0 0
128 0 0 0
153 0 0 0
154 0 0 0
158 0 0 0
163 0 0 0
164 0 0 0
125 0 0 0
129 0 0 0
130 0 0 0
155 0 0 0
159 0 0 0
160 0 0 0
165 0 0 0
131 0 0 0
132 0 0 0
136 0 0 0
137 0 0 0
161 0 0 0
166 0 0 0
167 0 0 0
172 0 0 0
133 0 0 0
134 0 0 0
138 0 0 0
168 0 0 0
173 0 0 0
135 0 0 0
139 0 0 0
140 0 0 0
169 0 0 0
170 0 0 0
175 0 0 0
141 0 0 0
142 0 0 0
146 0 0 0
147 0 0 0
151 0 0 0
171 0 0 0
176 0 0 0
177 0 0 0
143 0 0 0
144 0 0 0
148 0 0 0
178 0 0 0
145 0 0 0
149 0 0 0
150 0 0 0
174 0 0 0
179 0 0 0
180 0 0 0
181 0 0 0
182 0 0 0
186 0 0 0
187 0 0 0
211 0 0 0
212 0 0 0
216 0 0 0
217 0 0 0
183 0 0 0
188 0 0 0
189 0 0 0
213 0 0 0
214 0 0 0
218 0 0 0
184 0 0 0
185 0 0 0
190 0 0 0
215 0 0 0
219 0 0 0
220 0 0 0
191 0 0 0
192 0 0 0
196 0 0 0
197 0 0 0
221 0 0 0
222 0 0 0
226 0 0 0
227 0 0 0
193 0 0 0
198 0 0 0
199 0 0 0
223 0 0 0
224 0 0 0
228 0 0 0
194 0 0 0
195 0 0 0
200 0 0 0
225 0 0 0
229 0 0 0
230 0 0 0
201 0 0 0
202 0 0 0
206 0 0 0
207 0 0 0
231 0 0 0
232 0 0 0
236 0 0 0
203 0 0 0
208 0 0 0
209 0 0 0
233 0 0 0
234 0 0 0
238 0 0 0
204 0 0 0
205 0 0 0
210 0 0 0
235 0 0 0
239 0 0 0
240 0 0 0
237 0 0 0
241 0 0 0
242 0 0 0
246 0 0 0
247 0 0 0
244 0 0 0
248 0 0 0
249 0 0 0
250 0 0 0
255 0 0 0
251 0 0 0
252 0 0 0
256 0 0 0
257 0 0 0
286 0 0 0
253 0 0 0
254 0 0 0
258 0 0 0
264 0 0 0
259 0 0 0
260 0 0 0
284 0 0 0
285 0 0 0
290 0 0 0
261 0 0 0
262 0 0 0
266 0 0 0
267 0 0 0
292 0 0 0
243 0 0 0
263 0 0 0
268 0 0 0
293 0 0 0
245 0 0 0
265 0 0 0
269 0 0 0
270 0 0 0
296 0 0 0
271 0 0 0
272 0 0 0
276 0 0 0
277 0 0 0
301 0 0 0
302 0 0 0
306 0 0 0
307 0 0 0
273 0 0 0
278 0 0 0
279 0 0 0
303 0 0 0
304 0 0 0
308 0 0 0
274 0 0 0
275 0 0 0
280 0 0 0
305 0 0 0
309 0 0 0
310 0 0 0
281 0 0 0
282 0 0 0
287 0 0 0
312 0 0 0
316 0 0 0
317 0 0 0
283 0 0 0
288 0 0 0
289 0 0 0
313 0 0 0
314 0 0 0
318 0 0 0
311 0 0 0
315 0 0 0
319 0 0 0
320 0 0 0
350 0 0 0
355 0 0 0
291 0 0 0
297 0 0 0
321 0 0 0
322 0 0 0
326 0 0 0
327 0 0 0
356 0 0 0
298 0 0 0
299 0 0 0
323 0 0 0
324 0 0 0
328 0 0 0
294 0 0 0
295 0 0 0
300 0 0 0
325 0 0 0
329 0 0 0
330 0 0 0
335 0 0 0
332 0 0 0
336 0 0 0
337 0 0 0
341 0 0 0
333 0 0 0
334 0 0 0
338 0 0 0
339 0 0 0
340 0 0 0
342 0 0 0
346 0 0 0
347 0 0 0
361 0 0 0
343 0 0 0
344 0 0 0
348 0 0 0
345 0 0 0
349 0 0 0
351 0 0 0
362 0 0 0
352 0 0 0
357 0 0 0
360 0 0 0
353 0 0 0
354 0 0 0
358 0 0 0
331 0 0 0
359 0 0 0
