LAMMPS data file via write_data, version 11 Feb 2026, timestep = 145, units = metal

362 atoms
8 atom types

0 12.447907776 xlo xhi
0 12.9362452296 ylo yhi
0 52.3600831054 zlo zhi

Masses

1 26.9815
2 10.811
3 12.011
4 51.9961
5 55.845
6 95.95999999999999
7 58.6934
8 1.008

Atoms # atomic/kk

1 7 1.1452375093 1.4081816753 14.1715776782 0 0 0
2 7 3.6089097657 1.073862554 14.6652943824 0 0 0
3 5 6.0769479465 0.9507443644 14.9077299879 0 0 0
9 7 7.3908140875 3.1592534805 14.9161871246 0 0 0
5 7 11.0501948888 1.2569423315 14.5972711515 0 0 0
6 7 12.372304413799998 3.459934108 14.8175807564 -1 0 0
10 7 9.9135025222 3.394383111 14.7760659883 0 0 0
16 4 0.4698534946 7.8164615842 14.7946335627 0 0 0
20 7 10.4458795465 7.6737377857 14.1797824813 0 0 0
26 7 0.1286170593 12.2084278019 14.9054832291 0 0 0
27 7 2.4828469888 11.8121990101 14.4589561174 0 0 0
23 7 6.9220445131 9.0095696103 14.7742898804 0 0 0
28 7 4.9601335305 11.7909383487 14.6023392105 0 0 0
29 6 7.487887891 11.4964938545 14.9163051734 0 0 0
24 7 9.2116966834 9.7423003437 14.5372715576 0 0 0
25 7 11.7633225316 9.8785141476 14.7859852738 0 0 0
30 7 10.0622011806 11.9491374349 14.7568174032 0 0 0
7 7 2.4280890684 3.2785091221 14.9871351501 0 0 0
31 6 0.1325491046 1.570695125 16.5404617164 0 0 0
32 7 2.6052564624 1.6890788438 16.9106052047 0 0 0
36 7 1.21999407 3.8600092313 17.02489575 0 0 0
37 7 3.7107836214 3.8411094703 17.0522747284 0 0 0
56 2 1.9144254162 0.32466715759999865 15.6043022962 0 1 0
8 7 4.9291306734 3.1310940181 15.005986706 0 0 0
33 7 4.985916084 1.6687916385 16.9502161687 0 0 0
34 7 7.410514285 1.7729985434 16.9750499128 0 0 0
38 5 6.179073683 3.8638848352 16.9842048048 0 0 0
4 6 8.6410130071 1.0006166771 14.9958720054 0 0 0
35 7 9.9859062871 1.6663784502 16.9388971287 0 0 0
39 7 8.7311129104 3.8667082354 16.8571756202 0 0 0
40 7 11.1910013477 3.8107948278 16.995449938 0 0 0
11 7 1.2353448193 5.4989273917 15.0756837965 0 0 0
12 7 3.7237717027 5.3201395941 15.0866077199 0 0 0
17 7 2.6532803164 7.4990359896 15.1489580276 0 0 0
42 7 2.4543060815 6.1314225979 17.136623832 0 0 0
47 7 3.8869723618 8.2018285121 17.0587106739 0 0 0
13 7 6.1791284758 5.3095038527 15.029482199 0 0 0
18 7 5.0801483875 7.482901801 15.0638998818 0 0 0
19 2 7.0601749036 7.022954324 15.3846762742 0 0 0
43 7 4.9530701425 5.9668463901 17.0899442249 0 0 0
44 7 7.4774504043 5.944479979 17.0830300733 0 0 0
48 7 6.3471713745 8.058965168 17.0448946349 0 0 0
14 7 8.704614859 5.6626390614 14.9606938541 0 0 0
15 6 11.1810722058 5.6084405068 15.1798058941 0 0 0
41 7 12.4426452722 6.0021932094 17.2216015828 -1 0 0
45 7 9.9238885249 6.0425526821 17.2479924157 0 0 0
49 7 8.7170243464 7.9259422846 16.06475499 0 0 0
50 7 11.1858946411 7.9949513975 16.4488247897 0 0 0
85 6 9.7880581286 8.4774207921 18.5358726152 0 0 0
21 2 1.1659369815 10.4822894765 15.2079366178 0 0 0
22 7 2.9704183181 9.8688386095 15.6399519778 0 0 0
46 7 0.7952459702 9.3711287804 16.8698937275 0 0 0
52 7 1.3509084922 11.8685204636 16.9840390666 0 0 0
57 7 3.7543714309 12.4407145198 16.6047432946 0 0 0
87 1 3.6654287714 10.7194436479 18.2604058042 0 0 0
53 7 5.3363614175 10.1259200336 16.3223055733 0 0 0
54 7 7.7340497918 10.0578054993 16.941879451 0 0 0
58 6 6.3199854909 12.3706584932 16.9499980705 0 0 0
51 3 11.5202415059 9.3742715867 17.6572668311 -1 0 0
55 7 10.1857379845 10.2799452375 16.6765887255 0 0 0
59 7 8.8371548363 12.3850420716 16.9570005231 0 0 0
60 7 11.2433550924 12.4710585971 16.877796329 0 0 0
61 6 0.0482973112 0.0027501334 18.9896734432 0 0 0
66 6 1.3935967846 2.1698300538 19.0484074406 0 0 0
67 5 3.8315856212 2.1735777347 19.0726074352 0 0 0
91 4 1.3616318555 0.7528925751 21.2949775445 0 0 0
92 7 3.7538310088 0.7281117184 21.0504989856 0 0 0
96 7 0.0827163361 2.8009774109 21.1822389507 0 0 0
97 7 2.5933167317 2.8536582139 21.194350001 0 0 0
63 5 4.9572612583 0.0568419493 18.9569252837 0 0 0
64 7 7.4421412182 0.0861635244 19.0962431577 0 0 0
68 7 6.1954044794 2.1627780189 19.0751443905 0 0 0
74 6 7.5022232938 4.2893403368 19.0495670978 0 0 0
93 7 6.2603937867 0.7233692064 21.1687453393 0 0 0
98 7 5.0262365115 2.8775675108 21.1487501455 0 0 0
99 5 7.4798071844 2.8191099682 21.164009826 0 0 0
65 7 10.0023243962 0.0842880376 19.0908297615 0 0 0
69 7 8.7390158279 2.157992283 18.9901217764 0 0 0
70 7 11.2876401397 2.2421944126 18.9488333934 0 0 0
75 5 9.9091926161 4.3094453373 19.0282227094 0 0 0
94 7 8.7145872236 0.7176297871 21.2307780456 0 0 0
95 7 11.3050942433 0.6745411183 21.1941420435 0 0 0
100 6 10.031480763 2.7886541921 21.0495492708 0 0 0
72 7 2.484360732 4.392863338 19.1021670632 0 0 0
76 7 1.2006426683 6.4386016406 19.2549809846 0 0 0
77 7 3.7844350118 6.5111968479 19.1603604235 0 0 0
82 6 2.3593854846 8.4929988543 18.9108099375 0 0 0
101 7 1.2049351736 4.9903075884 21.2544120022 0 0 0
102 6 3.7303490397 5.0463382659 21.2250209463 0 0 0
107 7 2.4690580776 7.1766713019 21.2278001133 0 0 0
73 7 4.9764262384 4.3203206392 19.0822680903 0 0 0
78 7 6.1969544005 6.5231180932 19.1349576464 0 0 0
103 7 6.2756351686 5.0511026941 21.1709997602 0 0 0
108 7 5.0121925303 7.2325149738 21.2221675289 0 0 0
109 7 7.4197899365 7.2526887586 21.2599218068 0 0 0
71 1 12.3841350154 4.3821219311 19.1811610153 -1 0 0
79 7 8.6259724191 6.4760760647 19.3178932256 0 0 0
80 7 11.1140979622 6.4244904326 19.3528194481 0 0 0
81 4 12.3432055863 8.4769215989 19.1955303243 -1 0 0
104 7 8.7412587571 5.0273264556 21.2383339032 0 0 0
105 3 10.08472510536615 4.376013656101777 22.283202182931127 0 0 0
106 7 12.4357580801 7.1008556461 21.3106524283 -1 0 0
110 7 9.8908171927 7.1703173104 21.296472763 0 0 0
62 7 2.588037161 12.8581215116 19.0333870515 0 -1 0
86 7 1.2821763811 10.6942611792 19.1564597909 0 0 0
111 7 1.1801629329 9.2935920609 21.1911113273 0 0 0
112 6 3.7021471728 9.3596146842 21.1386065793 0 0 0
116 1 0.0374937072 11.4907730202 21.2925744389 0 0 0
117 7 2.470962999 11.5322285104 21.1404056807 0 0 0
83 7 4.9466402569 8.7369774273 19.0786672968 0 0 0
84 7 7.3979366125 8.6438164702 19.080690776 0 0 0
88 7 6.1629219647 10.805267131 18.9250665518 0 0 0
113 7 6.214404089 9.4132042076 21.0303751018 0 0 0
118 7 4.9644999437 11.5446085264 21.037819712 0 0 0
119 4 7.4000293779 11.5402408879 21.0695873677 0 0 0
89 6 8.7318279094 10.8541397876 19.0332344379 0 0 0
90 4 11.2727407102 10.8250136581 18.9334376976 0 0 0
114 7 8.70012327 9.3202947109 20.9878232752 0 0 0
115 6 11.1095089146 9.2561616428 21.1703622598 0 0 0
120 7 9.9863421964 11.5206311862 21.1768822162 0 0 0
121 7 0.07790352349616292 1.377672041619928 23.30841429120262 0 0 0
122 7 2.5692665821468625 1.389323708681329 23.328506943697686 0 0 0
126 6 1.3489365582286568 3.5721631792322017 23.264437079529667 0 0 0
127 7 3.8444567441140673 3.575701212182918 23.360473191667005 0 0 0
156 1 1.4736749859504306 2.116106870042471 25.514183983650916 0 0 0
157 7 3.9598933700190493 2.122247373931057 25.443231431108824 0 0 0
162 7 2.592631829817256 4.24804560271496 25.426619108345506 0 0 0
123 7 4.986242381733761 1.414385382812536 23.161316505768102 0 0 0
124 7 7.387705399415427 1.4857475815525214 23.485471527974124 0 0 0
128 7 6.297277188848864 3.6494418079809776 23.18201419578402 0 0 0
153 7 5.190732553721367 0.05697080202159351 25.292509149148938 0 0 0
158 2 5.769427113399292 2.442814490614014 24.627617730029222 0 0 0
163 7 5.111717403334495 4.2290367438836505 25.42006830024637 0 0 0
164 5 7.470749723799906 4.04638422463813 25.358567171664113 0 0 0
125 7 10.036906573895793 1.4121229233374308 23.353350132233196 0 0 0
129 7 8.745014349429276 3.5306274201252617 23.34597641028338 0 0 0
130 4 11.360631735155819 3.6008296586218997 23.400819500391975 0 0 0
155 4 10.112991113070127 0.046346438119605385 25.557147534216064 0 0 0
159 7 8.86316159457976 2.0829740610688425 25.446568201155277 0 0 0
160 7 11.394679689106072 2.13868620239912 25.41985924942761 0 0 0
165 7 10.059128012688594 4.200868348521317 25.410701215543913 0 0 0
131 7 0.06428066668093722 5.754697877465364 23.402362299082785 0 0 0
132 7 2.5359199187458006 5.782702196768372 23.35902451900157 0 0 0
136 7 1.2961617437626782 7.896272380232598 23.30325133853501 0 0 0
137 7 3.769817422324214 7.963826017612503 23.27708112835031 0 0 0
161 4 0.10252733365272584 4.323469685481933 25.467817412706072 0 0 0
166 7 1.3308733182700496 6.397462778207998 25.428793762311436 0 0 0
167 7 3.801133901200879 6.421084446278268 25.441686329335752 0 0 0
171 6 0.10218769578269728 8.596201476389433 25.42812375252975 0 0 0
172 7 2.615461969489834 8.59117749258084 25.374530754703468 0 0 0
133 6 5.058255285770158 5.8418617027613005 23.386255934747858 0 0 0
134 7 7.552494791805148 5.761134068682754 23.313400840141146 0 0 0
138 7 6.3032351246310725 7.9792924674126615 23.33993475951137 0 0 0
168 7 6.35830404195099 6.377842271927177 25.43197958788796 0 0 0
173 7 5.0973823300697925 8.536440097809546 25.33119008603047 0 0 0
135 7 10.05733426469108 5.8077488405359015 23.386473393148286 0 0 0
139 4 8.68679554498086 7.9247639958507365 23.243008897400752 0 0 0
140 4 11.274721926720456 7.872255695581262 23.316554031704825 0 0 0
169 7 8.768691717124678 6.3129716640633315 25.382259698584438 0 0 0
170 7 11.282220287923552 6.389859427276065 25.447399072117424 0 0 0
175 6 9.877525254387795 8.548903803411594 25.522872865135575 0 0 0
141 7 0.012468493712414062 10.049733476004057 23.342397824345973 0 0 0
142 7 2.488616257429988 10.088049805021495 23.25375761225662 0 0 0
146 7 1.294822346155671 12.217147680864636 23.349455113058593 0 0 0
147 7 3.7988947972311804 12.226290501553105 23.17937383097172 0 0 0
151 4 0.08508217151675501 12.857124418916166 25.414092563261068 0 -1 0
152 7 2.6473737620714894 12.926400108868599 25.37308392285941 0 -1 0
176 7 1.3346831290436258 10.781094617261544 25.430352994920458 0 0 0
177 6 3.8719767206171904 10.798791808114046 25.27307412417336 0 0 0
143 7 5.047236386535048 10.087314547052948 23.180579956305383 0 0 0
144 7 7.497449815970597 10.071553553041632 22.919051010218833 0 0 0
148 4 6.204853976605025 12.252639174179999 23.184975024162664 0 0 0
154 7 7.593459310206459 12.92490048660097 25.474834423586287 0 -1 0
178 6 6.609390339274402 10.525139994003837 25.220076924640747 0 0 0
145 7 9.987887268520907 10.056377437088805 23.314834997702548 0 0 0
149 6 8.700131024517866 12.254747375651684 23.32928818666079 0 0 0
150 7 11.239239665966464 12.200040912738785 23.404635841581598 0 0 0
174 3 8.40570376714199 9.491274456517552 24.4229489574462 0 0 0
179 5 8.990421772514424 10.904429493781103 25.58269312698388 0 0 0
180 5 11.328168601577122 10.848911337439512 25.505358947971953 0 0 0
181 7 1.3838119799307862 0.6482289342651151 27.496783335999957 0 0 0
182 7 3.8706713597362854 0.6852742551963177 27.43699120743614 0 0 0
186 7 0.16574461476796326 2.839782678321102 27.495138388573 0 0 0
187 7 2.654847267943892 2.8351611162373 27.56810948374876 0 0 0
211 7 0.20473019510485743 1.4274483277439014 29.594899683959678 0 0 0
212 7 2.707118554338337 1.3441504372892692 29.58308725762814 0 0 0
216 7 1.4063239357288913 3.5369310583356164 29.591374868277853 0 0 0
217 4 3.8198446827734784 3.5548482004804325 29.602439790331022 0 0 0
183 7 6.303728164233149 0.6973026772202578 27.57375628494569 0 0 0
188 7 5.077524864095926 2.85604814670715 27.578511889754807 0 0 0
189 7 7.589163050456756 2.7751171290056154 27.464687009869497 0 0 0
213 5 5.1306119915607775 1.4107467602128305 29.60502131995479 0 0 0
214 7 7.6074639349041515 1.3377007525011073 29.59649141720656 0 0 0
218 7 6.3587715269427605 3.5185211180501907 29.547599764305136 0 0 0
184 7 8.880018599863835 0.7013199701601658 27.570279044148922 0 0 0
185 4 11.37810191219658 0.7049681783709566 27.541955258396808 0 0 0
190 7 10.139498576526655 2.8138319822916165 27.492819223687096 0 0 0
215 7 10.119468588516037 1.3863080060583768 29.636338128363864 0 0 0
219 7 8.833613436992692 3.493857823012763 29.533073251726535 0 0 0
220 7 11.364497470067302 3.540342272366861 29.52633283026801 0 0 0
191 7 1.3858248537621276 4.9884716020155375 27.473615167993234 0 0 0
192 7 3.828202494585555 4.971950983580471 27.483730866884045 0 0 0
196 7 0.13105090658588645 7.139400211783309 27.49950573147112 0 0 0
197 7 2.573887547620552 7.175222713397353 27.47599068971255 0 0 0
221 7 0.11548443194066607 5.708800160151582 29.572601962384354 0 0 0
222 7 2.5863407971293557 5.710224650222046 29.55261729299707 0 0 0
226 7 1.3601140078239062 7.886555729630986 29.55185731488402 0 0 0
227 7 3.856539856444697 7.89660472751171 29.468635082075668 0 0 0
193 7 6.364157307316254 4.957190355488115 27.415018005282043 0 0 0
198 7 5.09700069547972 7.1556046666359565 27.412112137449384 0 0 0
199 7 7.615706059526988 7.170230644987751 27.44938399832012 0 0 0
223 6 5.147850521241076 5.7026450982082055 29.491219898507772 0 0 0
224 7 7.6388194804675775 5.719381484139076 29.582949507831934 0 0 0
228 7 6.388977871928258 7.895031975369082 29.49308008621332 0 0 0
194 6 8.842120399108783 4.978354891352892 27.494520020677456 0 0 0
195 7 11.355279152174315 4.975517270489522 27.51069929163514 0 0 0
200 7 10.118337783639124 7.138802216938293 27.542066967912557 0 0 0
225 7 10.096005391394714 5.720728181678498 29.60824102586048 0 0 0
229 7 8.841100136493656 7.8639268734659185 29.52745747727348 0 0 0
230 7 11.363933535717495 7.9128222639279535 29.526192132505813 0 0 0
201 5 1.3738011442741258 9.30814399249669 27.514519634449297 0 0 0
202 7 3.8669248877428513 9.303831070322914 27.37546710077411 0 0 0
206 4 0.18161827153391974 11.460299195126566 27.525711727973118 0 0 0
207 7 2.6053683294966032 11.440715279567454 27.438717034678117 0 0 0
231 7 0.16040171340536657 10.062090547997688 29.568429837420602 0 0 0
232 7 2.6292546877866143 10.010646274912366 29.426618177117806 0 0 0
236 7 1.4667076423393497 12.168002566795085 29.555955085161553 0 0 0
203 7 6.369240101130229 9.267923442201905 27.388320476690435 0 0 0
208 7 5.132217450712202 11.483379818998786 27.320889127824007 0 0 0
209 6 7.576459699070793 11.507087839528928 27.641878912586392 0 0 0
233 7 5.1451856936489255 10.038332864507657 29.323511991094733 0 0 0
234 7 7.595930955399484 10.071224418767379 29.666722929925186 0 0 0
238 7 6.206266579000532 12.219992199684024 29.682939562027027 0 0 0
204 7 8.832888295843269 9.350597001361582 27.625709200802127 0 0 0
205 7 11.3394626643576 9.398454344885485 27.548012207332427 0 0 0
210 7 10.145521791995447 11.536477116737293 27.587154379757834 0 0 0
235 7 10.07994409271214 10.16196847363255 29.603367607358408 0 0 0
239 4 8.872960144362336 12.237584691229646 29.735320831030656 0 0 0
240 7 11.391009767040025 12.250836484297002 29.56494964484168 0 0 0
237 3 4.029906924483938 0.283152592505183 30.5600411657704 0 1 0
241 7 0.19334115305599872 0.08695853692150858 31.64330892080022 0 0 0
242 7 2.561819865402232 0.1309215309816244 31.741721995869426 0 0 0
246 4 1.3385260019933836 2.230098405678805 31.666043395583706 0 0 0
247 7 3.8746116024466706 2.140235631783277 31.648847287081754 0 0 0
252 7 2.6286978350963053 4.3086725816883 31.671577489469787 0 0 0
248 7 6.400473088221952 2.1370612697869946 31.6545747559272 0 0 0
253 7 5.106975338782103 4.300100626849026 31.625609801989626 0 0 0
254 7 7.614440311750897 4.299288700190567 31.595057868530194 0 0 0
249 7 8.844399367580406 2.0904106358141292 31.687002232681767 0 0 0
250 7 11.376419022707404 2.124614334923081 31.668553207161644 0 0 0
255 1 10.099174528404063 4.2035832845746715 31.509280133057334 0 0 0
251 7 0.14230163687251363 4.313030259649132 31.650939415782204 0 0 0
256 7 1.3252047545582035 6.493141946184834 31.632140543874904 0 0 0
257 6 3.7879025726213684 6.493667343232391 31.660944619370195 0 0 0
286 7 0.08716161558034176 7.268906722970906 33.61881298228909 0 0 0
258 7 6.347298086633104 6.483574858966477 31.622810026939575 0 0 0
264 7 7.584571910890207 8.567229480985457 31.62242880468733 0 0 0
259 4 8.815713747504043 6.448004955942223 31.629531126419586 0 0 0
260 7 11.309157367176931 6.477701397387113 31.593537301521714 0 0 0
284 5 8.879337654428172 5.104758336341074 33.5819920846133 0 0 0
285 4 11.342796777934153 5.14092462041307 33.63546960117583 0 0 0
290 7 10.0776536813233 7.24550285361359 33.595012831340455 0 0 0
261 7 0.17288683731684282 8.698015829040141 31.649442196313338 0 0 0
262 7 2.6624656957512856 8.713536071090925 31.531115371849317 0 0 0
266 7 1.557767070433654 10.823918518566117 31.568398630893448 0 0 0
267 4 3.915057652764796 11.269661783229697 30.84874725076833 0 0 0
292 7 3.9583745653525253 9.35673217683052 33.51051276762683 0 0 0
243 7 5.1597879094538195 12.892593971277185 32.10828645041372 0 -1 0
244 7 7.618916077251707 12.927050964939165 31.714658311531913 0 -1 0
263 1 5.089536129415811 8.753805266331778 31.420961059354703 0 0 0
268 7 6.255605522997392 10.754596493235601 31.58465191987377 0 0 0
293 4 6.445031324805869 9.312207216561305 33.64811990832541 0 0 0
245 7 10.104962667199501 12.874623974692822 31.872346635433072 0 -1 0
265 6 10.09688200918388 8.67057143998308 31.544873435883197 0 0 0
269 7 8.770666008689425 10.79208643174306 31.752524723585015 0 0 0
270 7 11.424069675547013 10.894645728109374 31.614012136355402 0 0 0
296 3 11.076010054579946 11.816760948649815 33.330859119037015 -1 0 0
271 7 1.474029207080678 0.8898704444829474 33.78307259099658 0 0 0
272 7 3.914428056980134 0.946872268930321 33.93535271676029 0 0 0
276 7 0.16910381306358988 2.977396102584332 33.732590511569825 0 0 0
277 7 2.634256914361687 3.067388935696025 33.8023658809331 0 0 0
301 7 0.18246142341862018 1.5427110087788862 35.757205550486574 0 0 0
302 7 2.6154441214395208 1.6632720738883169 35.88170532720068 0 0 0
306 4 1.3845447272794045 3.8319941836083213 35.934037720995974 0 0 0
307 7 3.992368056279007 3.7229117071985485 35.82577228348031 0 0 0
273 7 6.4514034316344695 0.9645814516740379 33.91398134214339 0 0 0
278 1 5.209320548974556 2.9875712549469036 33.72153894730277 0 0 0
279 7 7.720532011565589 3.0297146085279287 33.73208386483205 0 0 0
303 7 5.236425693320318 1.6513701744439138 35.95154463393147 0 0 0
304 4 7.738412111478902 1.6339289927878282 35.93080959769644 0 0 0
308 7 6.520498502738865 3.6987207383598664 35.79440859189289 0 0 0
274 7 8.827367828070937 0.8896877063828472 33.83983354778987 0 0 0
275 4 11.428070240228294 0.7774926962651216 33.7289193060784 0 0 0
280 7 10.19747940265263 2.9794390983738004 33.72519276663405 0 0 0
305 7 10.208386970287467 1.5296539669062401 35.743640202539055 0 0 0
309 7 9.014340721709951 3.6493497445500296 35.78944426743122 0 0 0
310 4 11.58687684533788 3.9337742688179977 35.85234822066683 0 0 0
281 7 1.321542168850856 5.173911837139426 33.84691833784688 0 0 0
282 4 3.8411723103134885 5.12743376838813 33.76523516793867 0 0 0
287 7 2.6291141689845197 7.277361758991134 33.74251041576682 0 0 0
312 7 2.72211387493497 5.778775385154178 35.783414511703846 0 0 0
316 7 1.2098278046171793 7.592201138083183 35.78013105246599 0 0 0
317 7 3.9303249693968945 8.050039336664147 35.73332163051051 0 0 0
283 7 6.372310547367903 5.0906640016659805 33.67257320173544 0 0 0
288 7 5.181504099254828 7.256806359040768 33.66817322615015 0 0 0
289 7 7.627577042160394 7.1765057735857285 33.71527188330543 0 0 0
313 7 5.25994403745659 5.905480842249835 35.72669140596031 0 0 0
314 7 7.715908367210083 5.809137073751165 35.747653107535584 0 0 0
318 4 6.553778748222859 8.109992836569665 35.80752973570645 0 0 0
311 2 12.371882621290272 5.98746014005456 35.3202559193362 -1 0 0
315 7 10.125931743523804 5.790152125463101 35.57690219051154 0 0 0
319 7 8.954869711800061 7.962860241768621 35.81484805511042 0 0 0
320 7 11.344362691702042 7.915064417651174 35.58885634270268 0 0 0
350 7 11.668157596035561 6.26588940347005 37.3009395103701 0 0 0
355 3 10.430240682488611 7.886069152621105 37.27379190070262 0 0 0
291 7 1.4637411133443532 9.412779924175082 33.71834187963137 0 0 0
297 6 3.0245769807789618 11.559743044851826 33.661579976486294 0 0 0
321 6 0.2137181745833605 10.042328688961113 35.89905717562898 0 0 0
322 7 2.696326478031124 10.180112553266952 35.74674311920322 0 0 0
326 7 0.5066557397984311 11.63880706976541 33.678141066026264 0 0 0
327 6 3.905392810392768 12.485303565670717 36.09658588634761 0 0 0
356 4 1.3919990803193396 12.347594406475974 35.844635115554574 0 0 0
298 2 5.198886028503472 12.268149505914183 34.20662731898931 0 0 0
299 7 6.997309210977804 11.572454923591799 33.68562123745129 0 0 0
323 6 5.234943113363054 10.228601719536165 35.58405080387758 0 0 0
324 7 7.910567481319817 10.343641395805932 35.7040955365316 0 0 0
328 7 6.460969666405047 12.510052987385514 35.927781899411976 0 0 0
294 7 8.764073316538088 9.280464207831153 33.69191208143684 0 0 0
295 6 11.262610852895707 9.68598115355215 33.75922987509687 0 0 0
300 7 9.389240439587862 11.540896600661004 34.17457268696655 0 0 0
325 7 10.248159897885087 9.830360613194959 37.02754854469638 0 0 0
329 3 9.529095496019663 11.39720049116495 36.198449090114956 0 0 0
330 4 11.272977257572029 12.06041437668839 35.59365691068076 0 0 0
335 5 9.911928604977012 12.846407754412757 37.45173998298399 0 -1 0
332 7 2.486817322491774 0.1073341409147 38.032229953586956 0 0 0
336 7 1.331465019885013 2.1876389438983557 37.83529473540941 0 0 0
337 7 3.8800784582504835 2.199819546936428 37.92849660704004 0 0 0
341 7 0.20147331047595082 4.249300782233652 38.06546714300018 0 0 0
342 7 2.6867480887535997 4.294133433149971 37.89294128552626 0 0 0
333 7 5.213378298201959 0.13111733598738912 38.10938808226146 0 0 0
334 7 7.648365702694244 0.06782665819973448 38.06387296605665 0 0 0
338 7 6.49665843215545 2.2543942708420737 37.93242415670769 0 0 0
362 8 5.165948827956607 2.9577458026086627 38.7578343248104 0 0 0
339 7 8.993475877090964 2.1539455933323537 37.901426048066 0 0 0
340 7 11.371566311179754 2.2010030198274886 37.72277107690286 0 0 0
361 8 9.066078808245386 0.7165419711276216 38.84060536995077 0 0 0
346 7 1.503597261077325 6.40756678205749 37.99133879734629 0 0 0
347 6 3.9571392131929546 6.468898281573746 37.77159182064608 0 0 0
343 7 5.301476863698797 4.419202037453993 37.8589649938423 0 0 0
344 7 7.837800516082308 4.423387824417062 37.83985379000494 0 0 0
348 6 6.651580222716025 6.658979316296936 37.82487630290755 0 0 0
345 4 10.208100295402785 4.333528110930886 37.80305254290885 0 0 0
349 7 9.229164710257141 6.611640776872756 37.858673246708136 0 0 0
351 7 12.24454184570081 8.552012244856257 37.83470994484489 -1 0 0
352 6 2.486088929570548 8.654213098233647 37.679203630148784 0 0 0
357 7 3.8385307735719905 10.79633240900151 37.94539794514498 0 0 0
360 7 1.3881210977901912 10.906459422208473 37.876319018521855 1 0 0
353 7 5.1263886569225114 8.686662296260351 37.82852165298709 0 0 0
354 7 7.963028372681989 8.93896162597864 37.81153977784369 0 0 0
358 6 6.423604360281713 10.837232558308257 37.798643724818724 0 0 0
331 7 12.405381905031993 12.901310625037288 37.63990514813826 -1 -1 0
359 2 8.587816468009924 11.13016468407083 37.41333803227994 0 0 0

Velocities

1 0 0 0
2 0 0 0
3 0 0 0
9 0 0 0
5 0 0 0
6 0 0 0
10 0 0 0
16 0 0 0
20 0 0 0
26 0 0 0
27 0 0 0
23 0 0 0
28 0 0 0
29 0 0 0
24 0 0 0
25 0 0 0
30 0 0 0
7 0 0 0
31 0 0 0
32 0 0 0
36 0 0 0
37 0 0 0
56 0 0 0
8 0 0 0
33 0 0 0
34 0 0 0
38 0 0 0
4 0 0 0
35 0 0 0
39 0 0 0
40 0 0 0
11 0 0 0
12 0 0 0
17 0 0 0
42 0 0 0
47 0 0 0
13 0 0 0
18 0 0 0
19 0 0 0
43 0 0 0
44 0 0 0
48 0 0 0
14 0 0 0
15 0 0 0
41 0 0 0
45 0 0 0
49 0 0 0
50 0 0 0
85 0 0 0
21 0 0 0
22 0 0 0
46 0 0 0
52 0 0 0
57 0 0 0
87 0 0 0
53 0 0 0
54 0 0 0
58 0 0 0
51 0 0 0
55 0 0 0
59 0 0 0
60 0 0 0
61 0 0 0
66 0 0 0
67 0 0 0
91 0 0 0
92 0 0 0
96 0 0 0
97 0 0 0
63 0 0 0
64 0 0 0
68 0 0 0
74 0 0 0
93 0 0 0
98 0 0 0
99 0 0 0
65 0 0 0
69 0 0 0
70 0 0 0
75 0 0 0
94 0 0 0
95 0 0 0
100 0 0 0
72 0 0 0
76 0 0 0
77 0 0 0
82 0 0 0
101 0 0 0
102 0 0 0
107 0 0 0
73 0 0 0
78 0 0 0
103 0 0 0
108 0 0 0
109 0 0 0
71 0 0 0
79 0 0 0
80 0 0 0
81 0 0 0
104 0 0 0
105 0 0 0
106 0 0 0
110 0 0 0
62 0 0 0
86 0 0 0
111 0 0 0
112 0 0 0
116 0 0 0
117 0 0 0
83 0 0 0
84 0 0 0
88 0 0 0
113 0 0 0
118 0 0 0
119 0 0 0
89 0 0 0
90 0 0 0
114 0 0 0
115 0 0 0
120 0 0 0
121 0 0 0
122 0 0 0
126 0 0 0
127 0 0 0
156 0 0 0
157 0 0 0
162 0 0 0
123 0 0 0
124 0 0 0
128 0 0 0
153 0 0 0
158 0 0 0
163 0 0 0
164 0 0 0
125 0 0 0
129 0 0 0
130 0 0 0
155 0 0 0
159 0 0 0
160 0 0 0
165 0 0 0
131 0 0 0
132 0 0 0
136 0 0 0
137 0 0 0
161 0 0 0
166 0 0 0
167 0 0 0
171 0 0 0
172 0 0 0
133 0 0 0
134 0 0 0
138 0 0 0
168 0 0 0
173 0 0 0
135 0 0 0
139 0 0 0
140 0 0 0
169 0 0 0
170 0 0 0
175 0 0 0
141 0 0 0
142 0 0 0
146 0 0 0
147 0 0 0
151 0 0 0
152 0 0 0
176 0 0 0
177 0 0 0
143 0 0 0
144 0 0 0
148 0 0 0
154 0 0 0
178 0 0 0
145 0 0 0
149 0 0 0
150 0 0 0
174 0 0 0
179 0 0 0
180 0 0 0
181 0 0 0
182 0 0 0
186 0 0 0
187 0 0 0
211 0 0 0
212 0 0 0
216 0 0 0
217 0 0 0
183 0 0 0
188 0 0 0
189 0 0 0
213 0 0 0
214 0 0 0
218 0 0 0
184 0 0 0
185 0 0 0
190 0 0 0
215 0 0 0
219 0 0 0
220 0 0 0
191 0 0 0
192 0 0 0
196 0 0 0
197 0 0 0
221 0 0 0
222 0 0 0
226 0 0 0
227 0 0 0
193 0 0 0
198 0 0 0
199 0 0 0
223 0 0 0
224 0 0 0
228 0 0 0
194 0 0 0
195 0 0 0
200 0 0 0
225 0 0 0
229 0 0 0
230 0 0 0
201 0 0 0
202 0 0 0
206 0 0 0
207 0 0 0
231 0 0 0
232 0 0 0
236 0 0 0
203 0 0 0
208 0 0 0
209 0 0 0
233 0 0 0
234 0 0 0
238 0 0 0
204 0 0 0
205 0 0 0
210 0 0 0
235 0 0 0
239 0 0 0
240 0 0 0
237 0 0 0
241 0 0 0
242 0 0 0
246 0 0 0
247 0 0 0
252 0 0 0
248 0 0 0
253 0 0 0
254 0 0 0
249 0 0 0
250 0 0 0
255 0 0 0
251 0 0 0
256 0 0 0
257 0 0 0
286 0 0 0
258 0 0 0
264 0 0 0
259 0 0 0
260 0 0 0
284 0 0 0
285 0 0 0
290 0 0 0
261 0 0 0
262 0 0 0
266 0 0 0
267 0 0 0
292 0 0 0
243 0 0 0
244 0 0 0
263 0 0 0
268 0 0 0
293 0 0 0
245 0 0 0
265 0 0 0
269 0 0 0
270 0 0 0
296 0 0 0
271 0 0 0
272 0 0 0
276 0 0 0
277 0 0 0
301 0 0 0
302 0 0 0
306 0 0 0
307 0 0 0
273 0 0 0
278 0 0 0
279 0 0 0
303 0 0 0
304 0 0 0
308 0 0 0
274 0 0 0
275 0 0 0
280 0 0 0
305 0 0 0
309 0 0 0
310 0 0 0
281 0 0 0
282 0 0 0
287 0 0 0
312 0 0 0
316 0 0 0
317 0 0 0
283 0 0 0
288 0 0 0
289 0 0 0
313 0 0 0
314 0 0 0
318 0 0 0
311 0 0 0
315 0 0 0
319 0 0 0
320 0 0 0
350 0 0 0
355 0 0 0
291 0 0 0
297 0 0 0
321 0 0 0
322 0 0 0
326 0 0 0
327 0 0 0
356 0 0 0
298 0 0 0
299 0 0 0
323 0 0 0
324 0 0 0
328 0 0 0
294 0 0 0
295 0 0 0
300 0 0 0
325 0 0 0
329 0 0 0
330 0 0 0
335 0 0 0
332 0 0 0
336 0 0 0
337 0 0 0
341 0 0 0
342 0 0 0
333 0 0 0
334 0 0 0
338 0 0 0
362 0 0 0
339 0 0 0
340 0 0 0
361 0 0 0
346 0 0 0
347 0 0 0
343 0 0 0
344 0 0 0
348 0 0 0
345 0 0 0
349 0 0 0
351 0 0 0
352 0 0 0
357 0 0 0
360 0 0 0
353 0 0 0
354 0 0 0
358 0 0 0
331 0 0 0
359 0 0 0
