LAMMPS (11 Feb 2026 - Development - patch_11Feb2026-99-gb75dfcc930-modified)
KOKKOS mode with Kokkos version 5.0.2 is enabled
  using double precision
  using view layout = legacy
  will use up to 1 GPU(s) per node
  using 1 OpenMP thread(s) per MPI task
package kokkos
package kokkos newton on neigh half
# LAMMPS NVT bulk equilibration — Hastelloy N + 1H
# T = 600 K | Notebook 10
# Phase 1: 250 ps equilibration
# Phase 2: 750 ps production (trajectory for NB11 MSD)
# Refs: NVT [6]; H diffusion [1,2]

units          metal
atom_style     atomic
newton         on
boundary       p p p

read_data      structures/notebook10-bulk-equilibration/N_7/Hastelloy_N_7_H_initial.lammps
Reading data file ...
  orthogonal box = (0 0 0) to (17.861847 17.861847 17.861847)
  1 by 1 by 1 MPI processor grid
  reading atoms ...
  501 atoms
  read_data CPU = 0.024 seconds

pair_style     mliap unified /projects/westgroup/akinyemi.az/mace_lammps/models/mace-mp-0b2-medium.model-mliap_lammps.pt 0
pair_coeff     * * Al B C Cr Fe Mo Ni O H

neighbor       2.0 bin
neigh_modify   every 1 delay 0 check yes

# ── Identify H atom for tracking ─────────────────────────────
group          H_atom   type 9
1 atoms in group H_atom
group          metal    subtract all H_atom
500 atoms in group metal

# ── Thermo ───────────────────────────────────────────────────
thermo         1000
thermo_style   custom step temp pe ke etotal press vol

# ── Timestep ─────────────────────────────────────────────────
timestep       0.0005

# ── Initialize velocities ────────────────────────────────────
velocity       all create 600.0 42 mom yes rot yes dist gaussian

# ── Phase 1: Equilibration ───────────────────────────────────
fix            nvt_equil  all  nvt  temp  600.0  600.0  0.1
print "### Phase 1: Equilibration 250 ps at 600 K ###"
### Phase 1: Equilibration 250 ps at 600 K ###
run            500000

CITE-CITE-CITE-CITE-CITE-CITE-CITE-CITE-CITE-CITE-CITE-CITE-CITE

Your simulation uses code contributions which should be cited:

- KOKKOS package: https://doi.org/10.1145/3731599.3767498

@inproceedings{Johansson25,
 author = {A. Johansson and E. Weinberg and C. Trott and M. McCarthy and S. Moore},
 title = {{LAMMPS-KOKKOS}: {P}erformance Portable Molecular Dynamics Across Exascale Architectures},
 year = 2025,
 booktitle = {Proceedings of the SC '25 Workshops of the International Conference for High Performance Computing,
  Networking, Storage and Analysis},
 pages = {1217–1232},
}

CITE-CITE-CITE-CITE-CITE-CITE-CITE-CITE-CITE-CITE-CITE-CITE-CITE

Neighbor list info ...
  update: every = 1 steps, delay = 0 steps, check = yes
  max neighbors/atom: 2000, page size: 100000
  master list distance cutoff = 7
  ghost atom cutoff = 7
  binsize = 7, bins = 3 3 3
  1 neighbor lists, perpetual/occasional/extra = 1 0 0
  (1) pair mliap/kk, perpetual
      attributes: full, newton on, kokkos_device
      pair build: full/bin/kk/device
      stencil: full/bin/3d
      bin: kk/device
Per MPI rank memory allocation (min/avg/max) = 81.06 | 81.06 | 81.06 Mbytes
   Step          Temp          PotEng         KinEng         TotEng         Press          Volume    
         0   600           -3367.7472      38.778043     -3328.9692      8491.6981      5698.7434    
      1000   575.00144     -3330.1969      37.162385     -3293.0345      40595.854      5698.7434    
      2000   591.88411     -3333.0709      38.253513     -3294.8173      39286.44       5698.7434    
      3000   618.17634     -3330.982       39.952782     -3291.0292      41117.056      5698.7434    
      4000   641.50401     -3332.165       41.460451     -3290.7046      39361.253      5698.7434    
      5000   607.94503     -3332.1923      39.291531     -3292.9007      38731.228      5698.7434    
      6000   596.12412     -3334.458       38.527545     -3295.9305      36457.917      5698.7434    
      7000   585.30995     -3335.8266      37.828624     -3297.9979      38259.294      5698.7434    
      8000   574.70162     -3330.7383      37.143007     -3293.5953      41227.243      5698.7434    
      9000   588.4783      -3333.115       38.033395     -3295.0816      39091.089      5698.7434    
     10000   600.13066     -3335.3883      38.786488     -3296.6018      37120.374      5698.7434    
     11000   618.28622     -3333.3161      39.959883     -3293.3562      41030.059      5698.7434    
     12000   619.83563     -3333.8764      40.060022     -3293.8164      41089.3        5698.7434    
     13000   593.20142     -3334.7738      38.338651     -3296.4351      35650.613      5698.7434    
     14000   616.79334     -3334.6265      39.863398     -3294.7631      38183.984      5698.7434    
     15000   584.37112     -3327.7941      37.767948     -3290.0262      42295.269      5698.7434    
     16000   615.60476     -3330.8263      39.78658      -3291.0397      41711.577      5698.7434    
     17000   606.3306      -3333.7049      39.187191     -3294.5178      36865.582      5698.7434    
     18000   592.14971     -3333.0678      38.270679     -3294.7972      39466.213      5698.7434    
     19000   588.90953     -3332.838       38.061265     -3294.7768      42524.673      5698.7434    
     20000   620.13102     -3331.6378      40.079113     -3291.5587      38691.383      5698.7434    
     21000   616.12638     -3329.9994      39.820293     -3290.1792      43390.337      5698.7434    
     22000   570.5585      -3330.8712      36.875237     -3293.9959      41353.23       5698.7434    
     23000   583.70801     -3334.4803      37.725091     -3296.7552      41056.514      5698.7434    
     24000   608.4482      -3333.9399      39.324051     -3294.6158      39285.106      5698.7434    
     25000   628.29089     -3333.9578      40.606486     -3293.3513      43481.284      5698.7434    
     26000   603.6938      -3336.8473      39.016774     -3297.8305      39937.266      5698.7434    
     27000   612.26636     -3332.4769      39.57082      -3292.906       42548.563      5698.7434    
     28000   604.19073     -3333.6974      39.048891     -3294.6485      41447.8        5698.7434    
     29000   596.32077     -3333.0307      38.540255     -3294.4905      41558.763      5698.7434    
     30000   626.91939     -3329.4318      40.517846     -3288.914       44526.833      5698.7434    
     31000   592.2452      -3332.6561      38.27685      -3294.3792      41857.813      5698.7434    
     32000   596.45437     -3334.9999      38.548889     -3296.451       40018.749      5698.7434    
     33000   577.4762      -3332.889       37.322329     -3295.5667      41145.614      5698.7434    
     34000   621.16577     -3332.3854      40.145988     -3292.2394      40417.989      5698.7434    
     35000   612.94892     -3334.8974      39.614933     -3295.2825      40728.031      5698.7434    
     36000   644.10163     -3334.2481      41.628335     -3292.6197      42439.653      5698.7434    
     37000   617.64341     -3333.1827      39.918338     -3293.2643      43065.632      5698.7434    
     38000   620.64322     -3333.8809      40.112217     -3293.7687      41261.04       5698.7434    
     39000   586.76579     -3334.7929      37.922716     -3296.8702      40677.55       5698.7434    
     40000   609.78094     -3332.7359      39.410186     -3293.3257      43171.421      5698.7434    
     41000   661.14592     -3334.0835      42.729909     -3291.3536      41281.539      5698.7434    
     42000   608.61418     -3335.6342      39.334779     -3296.2994      39511.456      5698.7434    
     43000   595.90741     -3335.8303      38.513539     -3297.3167      36764.604      5698.7434    
     44000   646.68242     -3334.5148      41.795132     -3292.7197      40046.899      5698.7434    
     45000   636.76252     -3333.6619      41.154008     -3292.5079      40945.682      5698.7434    
     46000   592.31291     -3333.2409      38.281226     -3294.9597      43108.063      5698.7434    
     47000   566.40654     -3332.9413      36.606896     -3296.3344      39433.275      5698.7434    
     48000   588.15453     -3335.5854      38.01247      -3297.5729      39058.216      5698.7434    
     49000   604.81882     -3334.6017      39.089484     -3295.5122      41844.397      5698.7434    
     50000   561.90635     -3336.5538      36.316048     -3300.2378      38987.366      5698.7434    
     51000   571.91002     -3335.3152      36.962586     -3298.3526      38356.327      5698.7434    
     52000   593.14399     -3337.6661      38.334939     -3299.3311      35228.363      5698.7434    
     53000   636.09663     -3337.1458      41.110972     -3296.0349      40154.316      5698.7434    
     54000   605.74979     -3336.1595      39.149653     -3297.0098      39363.679      5698.7434    
     55000   616.70151     -3336.3027      39.857463     -3296.4453      38921.172      5698.7434    
     56000   622.98168     -3335.8995      40.263351     -3295.6362      37991.645      5698.7434    
     57000   609.31888     -3338.0828      39.380324     -3298.7025      34281.78       5698.7434    
     58000   586.12664     -3337.7611      37.881408     -3299.8797      36805.439      5698.7434    
     59000   628.31904     -3338.6794      40.608305     -3298.0711      36495.012      5698.7434    
     60000   586.40045     -3335.6795      37.899104     -3297.7804      37807.79       5698.7434    
     61000   620.34055     -3334.3008      40.092655     -3294.2082      40712.797      5698.7434    
     62000   607.90125     -3336.6733      39.288702     -3297.3846      42112.384      5698.7434    
     63000   609.16079     -3338.0972      39.370106     -3298.7271      36287.045      5698.7434    
     64000   591.77248     -3336.8641      38.246298     -3298.6178      36293.447      5698.7434    
     65000   617.818       -3336.6156      39.929622     -3296.686       38949.386      5698.7434    
     66000   596.04413     -3334.0126      38.522375     -3295.4902      40745.456      5698.7434    
     67000   615.89292     -3333.69        39.805204     -3293.8847      39220.897      5698.7434    
     68000   622.6037      -3337.3357      40.238922     -3297.0967      37999.599      5698.7434    
     69000   606.68801     -3337.0803      39.21029      -3297.87        38471.722      5698.7434    
     70000   590.88775     -3337.936       38.189118     -3299.7468      38694.791      5698.7434    
     71000   603.98524     -3336.7024      39.03561      -3297.6668      37591.701      5698.7434    
     72000   601.57285     -3336.1901      38.879697     -3297.3104      39389.982      5698.7434    
     73000   568.04822     -3335.2839      36.712998     -3298.5709      39538.6        5698.7434    
     74000   620.96307     -3335.7688      40.132888     -3295.6359      40708.942      5698.7434    
     75000   605.80513     -3335.3388      39.15323      -3296.1855      39095.67       5698.7434    
     76000   563.85022     -3336.7906      36.44168      -3300.3489      38456.12       5698.7434    
     77000   578.04181     -3338.3368      37.358884     -3300.9779      34837.615      5698.7434    
     78000   594.02762     -3337.4938      38.392048     -3299.1018      35949.221      5698.7434    
     79000   637.22569     -3337.7795      41.183942     -3296.5955      34711.461      5698.7434    
     80000   630.0097      -3337.3041      40.717573     -3296.5865      35576.046      5698.7434    
     81000   609.47865     -3333.9669      39.390649     -3294.5762      39394.081      5698.7434    
     82000   586.42347     -3335.1019      37.900591     -3297.2013      36002.966      5698.7434    
     83000   592.23319     -3337.9726      38.276074     -3299.6965      35747.44       5698.7434    
     84000   575.50361     -3337.416       37.19484      -3300.2211      35095.733      5698.7434    
     85000   604.758       -3337.7379      39.085553     -3298.6523      35599.343      5698.7434    
     86000   574.37106     -3333.8196      37.121643     -3296.698       38002.572      5698.7434    
     87000   627.84176     -3337.5671      40.577458     -3296.9897      38762.54       5698.7434    
     88000   587.41887     -3338.0422      37.964924     -3300.0773      37341.03       5698.7434    
     89000   554.26778     -3338.0576      35.822367     -3302.2353      36070.429      5698.7434    
     90000   635.60204     -3336.2473      41.079006     -3295.1683      41949.655      5698.7434    
     91000   621.08213     -3339.0638      40.140583     -3298.9232      35380.279      5698.7434    
     92000   596.65909     -3338.5812      38.56212      -3300.0191      37224.875      5698.7434    
     93000   598.85913     -3338.8204      38.704309     -3300.1161      35288.965      5698.7434    
     94000   606.03032     -3337.4472      39.167784     -3298.2794      35443.314      5698.7434    
     95000   605.64736     -3338.908       39.143033     -3299.765       35732.736      5698.7434    
     96000   575.50317     -3339.2905      37.194811     -3302.0957      35147.976      5698.7434    
     97000   583.17094     -3338.3929      37.69038      -3300.7025      37874.6        5698.7434    
     98000   620.99447     -3340.6584      40.134917     -3300.5235      35668.313      5698.7434    
     99000   655.94242     -3334.5726      42.393606     -3292.179       42319.276      5698.7434    
    100000   557.20968     -3337.7451      36.012502     -3301.7326      38900.687      5698.7434    
    101000   613.32965     -3339.2363      39.63954      -3299.5968      36265.315      5698.7434    
    102000   605.58127     -3336.4841      39.138762     -3297.3453      40444.922      5698.7434    
    103000   639.41697     -3339.8019      41.325565     -3298.4764      36199.569      5698.7434    
    104000   586.51547     -3337.6929      37.906538     -3299.7863      38434.068      5698.7434    
    105000   617.97981     -3340.0472      39.94008      -3300.1071      33939.298      5698.7434    
    106000   584.46886     -3339.7718      37.774265     -3301.9975      35236.753      5698.7434    
    107000   623.38216     -3339.987       40.289234     -3299.6978      35990.033      5698.7434    
    108000   578.51004     -3337.5817      37.389146     -3300.1925      37075.796      5698.7434    
    109000   577.94839     -3340.8207      37.352847     -3303.4679      34685.053      5698.7434    
    110000   581.27231     -3339.9263      37.567671     -3302.3586      35188.483      5698.7434    
    111000   599.38314     -3338.6309      38.738176     -3299.8927      37944.923      5698.7434    
    112000   610.53152     -3339.3873      39.458696     -3299.9286      37787.536      5698.7434    
    113000   580.62994     -3339.1699      37.526155     -3301.6438      36488.785      5698.7434    
    114000   593.56657     -3339.6748      38.362251     -3301.3125      40294.979      5698.7434    
    115000   603.09822     -3338.0709      38.978282     -3299.0926      39116.167      5698.7434    
    116000   621.13969     -3337.3518      40.144303     -3297.2075      41664.304      5698.7434    
    117000   596.03985     -3338.4062      38.522099     -3299.8841      38925.576      5698.7434    
    118000   589.07906     -3339.2763      38.072222     -3301.2041      39409.825      5698.7434    
    119000   605.15122     -3339.4015      39.110967     -3300.2905      37342.085      5698.7434    
    120000   622.40659     -3339.6177      40.226183     -3299.3915      38247.975      5698.7434    
    121000   603.79697     -3341.1913      39.023442     -3302.1679      36530.242      5698.7434    
    122000   595.84554     -3341.1915      38.50954      -3302.682       36979.661      5698.7434    
    123000   615.36973     -3339.4214      39.77139      -3299.65        35059.214      5698.7434    
    124000   616.86128     -3338.8783      39.867789     -3299.0105      38044.434      5698.7434    
    125000   571.02291     -3338.9933      36.905252     -3302.0881      38503.004      5698.7434    
    126000   562.61532     -3340.1407      36.361869     -3303.7788      35722.091      5698.7434    
    127000   602.01802     -3338.4811      38.908468     -3299.5727      39958.611      5698.7434    
    128000   621.17643     -3338.7378      40.146678     -3298.5911      40552.613      5698.7434    
    129000   679.7305      -3340.8592      43.931032     -3296.9282      36492.409      5698.7434    
    130000   611.89835     -3336.2995      39.547034     -3296.7524      41131.547      5698.7434    
    131000   617.52002     -3338.9115      39.910364     -3299.0011      38883.642      5698.7434    
    132000   614.69        -3340.6388      39.72746      -3300.9113      35845.374      5698.7434    
    133000   620.60735     -3338.6819      40.109898     -3298.572       37301.985      5698.7434    
    134000   606.55022     -3339.352       39.201385     -3300.1506      36416.984      5698.7434    
    135000   574.26937     -3339.6011      37.115071     -3302.486       35791.152      5698.7434    
    136000   597.65986     -3340.1128      38.6268       -3301.486       36712.903      5698.7434    
    137000   599.73357     -3337.6655      38.760824     -3298.9047      40040.341      5698.7434    
    138000   606.39892     -3338.9768      39.191606     -3299.7852      37224.35       5698.7434    
    139000   601.47666     -3336.5155      38.87348      -3297.642       40057.117      5698.7434    
    140000   622.11131     -3338.5411      40.207099     -3298.334       38905.448      5698.7434    
    141000   600.56739     -3339.0933      38.814714     -3300.2786      39822.107      5698.7434    
    142000   595.67206     -3339.9686      38.498328     -3301.4703      38317.894      5698.7434    
    143000   595.51724     -3337.5037      38.488322     -3299.0154      40573.064      5698.7434    
    144000   611.15445     -3337.9279      39.498956     -3298.4289      41140.529      5698.7434    
    145000   598.38535     -3340.3119      38.673688     -3301.6383      37633.182      5698.7434    
    146000   594.25151     -3342.8535      38.406518     -3304.447       35936.585      5698.7434    
    147000   617.21539     -3338.2821      39.890676     -3298.3914      41228.885      5698.7434    
    148000   561.12326     -3334.4539      36.265437     -3298.1885      43420.281      5698.7434    
    149000   593.84236     -3338.0693      38.380075     -3299.6892      37132.611      5698.7434    
    150000   584.87547     -3339.5324      37.800544     -3301.7318      37435.905      5698.7434    
    151000   608.67452     -3340.7392      39.338678     -3301.4005      37080.148      5698.7434    
    152000   630.73166     -3338.494       40.764233     -3297.7297      40205.391      5698.7434    
    153000   623.75126     -3337.6198      40.313089     -3297.3067      41140.339      5698.7434    
    154000   583.39797     -3337.7429      37.705053     -3300.0379      40285.073      5698.7434    
    155000   623.10542     -3339.8919      40.271349     -3299.6206      36071.935      5698.7434    
    156000   620.95146     -3338.0166      40.132138     -3297.8844      41092.873      5698.7434    
    157000   623.0941      -3338.8614      40.270617     -3298.5908      38259.547      5698.7434    
    158000   607.61428     -3340.3788      39.270155     -3301.1087      37287.315      5698.7434    
    159000   565.91307     -3340.0677      36.575003     -3303.4927      35276.97       5698.7434    
    160000   603.62269     -3339.9747      39.012178     -3300.9626      35773.363      5698.7434    
    161000   590.08795     -3337.5649      38.137427     -3299.4275      39241.255      5698.7434    
    162000   577.70644     -3340.4948      37.337209     -3303.1575      35437.679      5698.7434    
    163000   593.19001     -3341.2336      38.337913     -3302.8957      33926.785      5698.7434    
    164000   576.43787     -3339.3755      37.255221     -3302.1203      37407.676      5698.7434    
    165000   608.34595     -3340.4814      39.317443     -3301.1639      35578.797      5698.7434    
    166000   633.5729      -3339.0615      40.947863     -3298.1136      40849.133      5698.7434    
    167000   613.90518     -3336.6069      39.676736     -3296.9302      40443.121      5698.7434    
    168000   608.95429     -3339.7082      39.35676      -3300.3514      35798.95       5698.7434    
    169000   624.67931     -3338.0412      40.373069     -3297.6681      37752.038      5698.7434    
    170000   618.35725     -3338.1756      39.964474     -3298.2111      37528.972      5698.7434    
    171000   595.02076     -3339.8516      38.456235     -3301.3954      36615.319      5698.7434    
    172000   640.13696     -3339.4799      41.372098     -3298.1078      37413.038      5698.7434    
    173000   626.68567     -3339.3017      40.50274      -3298.7989      37821.15       5698.7434    
    174000   618.75873     -3339.1573      39.990422     -3299.1668      40457.605      5698.7434    
    175000   559.74686     -3340.8194      36.17648      -3304.6429      34157.859      5698.7434    
    176000   552.60301     -3337.5318      35.714772     -3301.817       37095.789      5698.7434    
    177000   610.07037     -3338.8823      39.428892     -3299.4534      37342.422      5698.7434    
    178000   580.77916     -3338.8885      37.535799     -3301.3527      38781.424      5698.7434    
    179000   590.02435     -3341.7111      38.133316     -3303.5778      32648.798      5698.7434    
    180000   600.92146     -3341.7626      38.837598     -3302.925       33999.023      5698.7434    
    181000   611.10657     -3338.7112      39.495862     -3299.2153      37885.54       5698.7434    
    182000   624.89576     -3338.3745      40.387058     -3297.9875      39026.235      5698.7434    
    183000   619.68954     -3337.8856      40.05058      -3297.835       36481.429      5698.7434    
    184000   552.05974     -3338.138       35.679661     -3302.4584      38072.497      5698.7434    
    185000   562.54473     -3339.4231      36.357307     -3303.0658      36100.098      5698.7434    
    186000   610.9573      -3339.4874      39.486215     -3300.0012      34450.281      5698.7434    
    187000   576.99358     -3336.2616      37.291137     -3298.9704      36405.053      5698.7434    
    188000   575.61624     -3339.013       37.202119     -3301.8108      37617.72       5698.7434    
    189000   595.8436      -3342.6233      38.509415     -3304.1139      34220.411      5698.7434    
    190000   593.80566     -3339.1127      38.377703     -3300.735       36392.166      5698.7434    
    191000   603.3816      -3337.9313      38.996597     -3298.9347      38952.714      5698.7434    
    192000   557.14401     -3341.7569      36.008258     -3305.7486      34336.319      5698.7434    
    193000   595.92305     -3340.0345      38.51455      -3301.52        36266.599      5698.7434    
    194000   582.78412     -3338.7399      37.66538      -3301.0745      36916.28       5698.7434    
    195000   597.72287     -3340.1158      38.630872     -3301.4849      35276.213      5698.7434    
    196000   588.79492     -3338.4285      38.053858     -3300.3746      39021.408      5698.7434    
    197000   620.44887     -3341.045       40.099655     -3300.9454      34881.973      5698.7434    
    198000   554.25648     -3339.5112      35.821637     -3303.6896      37076.856      5698.7434    
    199000   570.85266     -3338.7822      36.894249     -3301.888       36541.952      5698.7434    
    200000   611.98409     -3338.8352      39.552576     -3299.2826      35309.254      5698.7434    
    201000   612.1371      -3339.1458      39.562465     -3299.5833      36680.006      5698.7434    
    202000   618.76748     -3338.3748      39.990987     -3298.3838      35058.464      5698.7434    
    203000   606.1899      -3340.6965      39.178097     -3301.5184      36222.076      5698.7434    
    204000   582.33065     -3337.3937      37.636072     -3299.7576      39023.546      5698.7434    
    205000   592.02993     -3338.6429      38.262937     -3300.38        36539.528      5698.7434    
    206000   569.38559     -3339.7214      36.799432     -3302.922       35269.107      5698.7434    
    207000   592.65808     -3340.1857      38.303535     -3301.8822      38069.643      5698.7434    
    208000   627.82973     -3339.9308      40.576681     -3299.3541      37782.467      5698.7434    
    209000   619.15549     -3340.7435      40.016064     -3300.7275      34486.685      5698.7434    
    210000   567.69263     -3341.0997      36.690016     -3304.4097      35008.857      5698.7434    
    211000   549.35352     -3338.5069      35.504758     -3303.0021      32738.122      5698.7434    
    212000   592.08558     -3339.6929      38.266534     -3301.4263      36554.593      5698.7434    
    213000   623.17499     -3339.4667      40.275845     -3299.1908      38629.074      5698.7434    
    214000   609.89949     -3338.4447      39.417848     -3299.0269      36053.665      5698.7434    
    215000   581.14864     -3339.5694      37.559679     -3302.0098      34253.14       5698.7434    
    216000   597.98478     -3340.8547      38.6478       -3302.2069      35222.155      5698.7434    
    217000   590.84781     -3337.79        38.186537     -3299.6035      34658.855      5698.7434    
    218000   632.39361     -3338.7219      40.871645     -3297.8503      36451.914      5698.7434    
    219000   570.21914     -3337.5101      36.853304     -3300.6568      33636.216      5698.7434    
    220000   584.95484     -3336.0613      37.805674     -3298.2557      35993.398      5698.7434    
    221000   571.82527     -3337.0329      36.957109     -3300.0758      36517.151      5698.7434    
    222000   577.10783     -3341.0913      37.298521     -3303.7928      30270.275      5698.7434    
    223000   585.80139     -3339.6782      37.860386     -3301.8178      33358.946      5698.7434    
    224000   610.30847     -3338.1695      39.444281     -3298.7252      34900.678      5698.7434    
    225000   605.21653     -3338.5484      39.115188     -3299.4332      35888.252      5698.7434    
    226000   607.67187     -3341.2399      39.273877     -3301.966       34158.848      5698.7434    
    227000   607.59803     -3339.8386      39.269105     -3300.5695      34717.889      5698.7434    
    228000   605.34936     -3336.9281      39.123773     -3297.8043      36819.981      5698.7434    
    229000   605.34602     -3339.7292      39.123557     -3300.6057      32733.892      5698.7434    
    230000   560.44153     -3337.0936      36.221377     -3300.8722      35086.262      5698.7434    
    231000   603.01268     -3338.6201      38.972753     -3299.6474      35687.503      5698.7434    
    232000   592.32393     -3336.0911      38.281939     -3297.8091      38532.316      5698.7434    
    233000   553.84206     -3337.8662      35.794852     -3302.0714      38417.883      5698.7434    
    234000   574.86541     -3338.4506      37.153593     -3301.297       35905.192      5698.7434    
    235000   609.70684     -3337.5001      39.405397     -3298.0947      36665.846      5698.7434    
    236000   656.38321     -3339.1575      42.422094     -3296.7354      37266.725      5698.7434    
    237000   581.98419     -3340.4898      37.61368      -3302.8762      34577.061      5698.7434    
    238000   595.58769     -3340.0415      38.492876     -3301.5486      34052.448      5698.7434    
    239000   619.42667     -3340.8973      40.033591     -3300.8637      35439.718      5698.7434    
    240000   631.82175     -3338.2043      40.834685     -3297.3696      36382.6        5698.7434    
    241000   571.5005      -3340.6866      36.936119     -3303.7505      35312.584      5698.7434    
    242000   572.92806     -3339.0164      37.028382     -3301.988       34880.599      5698.7434    
    243000   599.77521     -3337.5677      38.763515     -3298.8041      36997.987      5698.7434    
    244000   614.44468     -3336.1159      39.711604     -3296.4043      40924.603      5698.7434    
    245000   572.00931     -3336.126       36.969003     -3299.157       37786.444      5698.7434    
    246000   604.09243     -3339.1707      39.042537     -3300.1282      38770.801      5698.7434    
    247000   569.28407     -3342.8219      36.792871     -3306.0291      31121.216      5698.7434    
    248000   580.88242     -3340.0083      37.542473     -3302.4658      34230.609      5698.7434    
    249000   588.86777     -3338.1286      38.058566     -3300.0701      38433.941      5698.7434    
    250000   603.74293     -3335.2945      39.019949     -3296.2745      40100.309      5698.7434    
    251000   627.39918     -3339.983       40.548854     -3299.4341      35738.58       5698.7434    
    252000   590.38932     -3339.5038      38.156904     -3301.3469      37411.743      5698.7434    
    253000   596.07594     -3339.5334      38.524431     -3301.0089      35462.511      5698.7434    
    254000   593.42231     -3336.2844      38.352927     -3297.9315      40163.107      5698.7434    
    255000   607.4469      -3337.0221      39.259337     -3297.7628      36434.556      5698.7434    
    256000   606.37027     -3338.571       39.189755     -3299.3813      37108.753      5698.7434    
    257000   570.17231     -3339.2516      36.850278     -3302.4014      37943.141      5698.7434    
    258000   562.23867     -3339.9589      36.337526     -3303.6214      35952.435      5698.7434    
    259000   591.67633     -3341.4293      38.240084     -3303.1892      36729.961      5698.7434    
    260000   610.25646     -3338.923       39.440919     -3299.4821      35771.354      5698.7434    
    261000   615.97656     -3338.1804      39.81061      -3298.3698      37991.124      5698.7434    
    262000   616.38769     -3338.8683      39.837181     -3299.0311      36731.175      5698.7434    
    263000   633.42878     -3340.1319      40.938548     -3299.1933      35357.55       5698.7434    
    264000   578.18527     -3341.5398      37.368156     -3304.1717      35465.026      5698.7434    
    265000   612.74375     -3338.0747      39.601673     -3298.473       36429.382      5698.7434    
    266000   590.98323     -3337.4697      38.195289     -3299.2744      39554.618      5698.7434    
    267000   619.91709     -3341.1955      40.065287     -3301.1302      33265.32       5698.7434    
    268000   619.42373     -3340.3928      40.033401     -3300.3594      35016.088      5698.7434    
    269000   575.23684     -3337.5592      37.177599     -3300.3816      35666.256      5698.7434    
    270000   571.24101     -3338.9715      36.919348     -3302.0521      35702.914      5698.7434    
    271000   583.81227     -3337.1223      37.73183      -3299.3905      38415.201      5698.7434    
    272000   623.52715     -3337.0475      40.298605     -3296.7489      37317.075      5698.7434    
    273000   598.24743     -3340.1519      38.664775     -3301.4871      35296.014      5698.7434    
    274000   601.35979     -3335.9285      38.865927     -3297.0625      39521.787      5698.7434    
    275000   594.4361      -3338.7086      38.418448     -3300.2902      32772.198      5698.7434    
    276000   619.35383     -3341.2471      40.028883     -3301.2182      33376.236      5698.7434    
    277000   602.17964     -3338.787       38.918914     -3299.8681      36982.118      5698.7434    
    278000   644.01595     -3338.3124      41.622798     -3296.6896      35459.116      5698.7434    
    279000   607.8991      -3339.4134      39.288563     -3300.1248      35803.683      5698.7434    
    280000   578.22625     -3340.5539      37.370805     -3303.1831      34343.515      5698.7434    
    281000   589.0785      -3340.3623      38.072186     -3302.2901      36099.244      5698.7434    
    282000   645.63342     -3336.7668      41.727335     -3295.0395      38843.321      5698.7434    
    283000   573.29795     -3340.1512      37.052288     -3303.0989      37494.82       5698.7434    
    284000   588.05066     -3339.7021      38.005757     -3301.6963      35186.725      5698.7434    
    285000   622.40937     -3336.6596      40.226363     -3296.4332      38786.391      5698.7434    
    286000   598.33292     -3337.9175      38.6703       -3299.2472      37307.831      5698.7434    
    287000   605.83758     -3340.2272      39.155327     -3301.0719      34849.371      5698.7434    
    288000   590.39494     -3342.0039      38.157268     -3303.8466      35176.432      5698.7434    
    289000   592.07708     -3337.6722      38.265985     -3299.4062      35044.656      5698.7434    
    290000   594.72682     -3339.4944      38.437237     -3301.0572      31422.352      5698.7434    
    291000   584.21323     -3339.2484      37.757743     -3301.4906      37007.804      5698.7434    
    292000   609.72904     -3337.4145      39.406832     -3298.0076      39438.856      5698.7434    
    293000   635.53885     -3338.8183      41.074922     -3297.7434      40032.678      5698.7434    
    294000   612.69546     -3338.8264      39.598552     -3299.2278      39585.307      5698.7434    
    295000   584.12268     -3339.7387      37.751891     -3301.9869      34866.986      5698.7434    
    296000   651.975       -3340.3654      42.137191     -3298.2282      34598.271      5698.7434    
    297000   586.65672     -3336.6121      37.915666     -3298.6964      40677.285      5698.7434    
    298000   595.50539     -3339.9071      38.487556     -3301.4196      35425.835      5698.7434    
    299000   567.93867     -3339.076       36.705917     -3302.3701      37423.198      5698.7434    
    300000   561.90947     -3337.0091      36.31625      -3300.6928      36084.66       5698.7434    
    301000   617.94147     -3338.4392      39.937602     -3298.5016      36385.128      5698.7434    
    302000   569.24376     -3339.2651      36.790266     -3302.4749      36845.308      5698.7434    
    303000   572.69295     -3340.2348      37.013187     -3303.2217      36622.602      5698.7434    
    304000   609.67882     -3338.3489      39.403587     -3298.9453      36635.43       5698.7434    
    305000   647.99964     -3340.1843      41.880264     -3298.304       36898.379      5698.7434    
    306000   594.91311     -3339.3069      38.449278     -3300.8577      37092.562      5698.7434    
    307000   588.65856     -3340.6384      38.045045     -3302.5933      35157.913      5698.7434    
    308000   589.11692     -3338.603       38.074669     -3300.5284      36200.494      5698.7434    
    309000   593.03083     -3335.9669      38.327626     -3297.6393      41420.997      5698.7434    
    310000   624.38644     -3337.7867      40.354141     -3297.4326      38153.509      5698.7434    
    311000   586.80718     -3339.4408      37.925391     -3301.5154      36510.364      5698.7434    
    312000   605.09248     -3339.8188      39.107171     -3300.7116      31792.716      5698.7434    
    313000   625.82441     -3339.0491      40.447077     -3298.602       36125.586      5698.7434    
    314000   605.04784     -3337.8005      39.104286     -3298.6962      36159.553      5698.7434    
    315000   579.66121     -3338.7222      37.463546     -3301.2587      37761.368      5698.7434    
    316000   611.32077     -3339.486       39.509706     -3299.9763      36647.423      5698.7434    
    317000   631.13602     -3337.0722      40.790367     -3296.2818      38547.875      5698.7434    
    318000   613.80281     -3339.7801      39.67012      -3300.1099      35203.768      5698.7434    
    319000   611.13585     -3340.363       39.497754     -3300.8652      33902.847      5698.7434    
    320000   612.62051     -3342.1657      39.593708     -3302.572       33896.168      5698.7434    
    321000   609.16085     -3339.3316      39.37011      -3299.9615      34471.016      5698.7434    
    322000   608.74353     -3341.0236      39.343139     -3301.6804      34406.014      5698.7434    
    323000   595.67742     -3342.1776      38.498675     -3303.6789      35022.076      5698.7434    
    324000   606.83494     -3339.5128      39.219786     -3300.293       36699.362      5698.7434    
    325000   619.52399     -3341.0969      40.03988      -3301.0571      34526.145      5698.7434    
    326000   608.11323     -3342.5502      39.302402     -3303.2478      32133.396      5698.7434    
    327000   571.54395     -3339.8035      36.938927     -3302.8646      33316.016      5698.7434    
    328000   627.86092     -3341.7087      40.578697     -3301.13        34707.496      5698.7434    
    329000   621.22995     -3339.1497      40.150136     -3298.9996      40516.285      5698.7434    
    330000   614.58217     -3338.8006      39.72049      -3299.0801      38411.981      5698.7434    
    331000   576.83137     -3338.1949      37.280653     -3300.9143      36988.268      5698.7434    
    332000   597.68035     -3339.9826      38.628125     -3301.3544      36135.708      5698.7434    
    333000   561.59003     -3338.1245      36.295605     -3301.8289      37184.03       5698.7434    
    334000   606.37746     -3338.2586      39.190219     -3299.0684      36252.125      5698.7434    
    335000   636.79795     -3337.5932      41.156297     -3296.4369      39732.177      5698.7434    
    336000   612.428       -3338.8373      39.581266     -3299.2561      36924.765      5698.7434    
    337000   602.40885     -3340.6127      38.933727     -3301.679       35294.918      5698.7434    
    338000   612.55095     -3341.4226      39.589212     -3301.8334      35218.962      5698.7434    
    339000   599.91167     -3339.3599      38.772335     -3300.5876      37494.125      5698.7434    
    340000   605.28099     -3338.3896      39.119354     -3299.2702      38089.957      5698.7434    
    341000   649.08653     -3337.7076      41.95051      -3295.7571      37766.417      5698.7434    
    342000   595.84433     -3340.6017      38.509462     -3302.0922      36166.842      5698.7434    
    343000   578.23338     -3340.2886      37.371266     -3302.9174      32893.857      5698.7434    
    344000   584.15824     -3338.2308      37.754189     -3300.4766      36770.983      5698.7434    
    345000   608.5412      -3339.3348      39.330062     -3300.0047      36571.859      5698.7434    
    346000   583.71785     -3340.0176      37.725727     -3302.2919      33761.853      5698.7434    
    347000   590.17128     -3339.9619      38.142813     -3301.8191      33970.991      5698.7434    
    348000   616.62568     -3339.4618      39.852562     -3299.6093      35137.701      5698.7434    
    349000   636.86079     -3340.223       41.160359     -3299.0626      33613.568      5698.7434    
    350000   602.78258     -3340.8962      38.957882     -3301.9383      34798.245      5698.7434    
    351000   577.61565     -3342.1118      37.331341     -3304.7805      33034.818      5698.7434    
    352000   596.68654     -3339.7489      38.563895     -3301.185       35657.937      5698.7434    
    353000   615.00744     -3338.6419      39.747975     -3298.8939      38607.703      5698.7434    
    354000   646.15668     -3338.7772      41.761153     -3297.0161      36169.955      5698.7434    
    355000   623.90661     -3339.4102      40.323129     -3299.0871      38104.046      5698.7434    
    356000   601.85544     -3340.5393      38.897961     -3301.6413      33230.722      5698.7434    
    357000   619.4339      -3340.7129      40.034058     -3300.6788      33674.992      5698.7434    
    358000   632.84903     -3337.3384      40.901078     -3296.4373      39963.845      5698.7434    
    359000   602.55433     -3337.3032      38.94313      -3298.3601      36247.791      5698.7434    
    360000   576.83709     -3339.8064      37.281023     -3302.5254      33546.418      5698.7434    
    361000   593.56264     -3339.2268      38.361996     -3300.8648      33444.72       5698.7434    
    362000   583.97338     -3338.7267      37.742242     -3300.9845      33061.754      5698.7434    
    363000   627.46451     -3338.8593      40.553077     -3298.3062      37612.475      5698.7434    
    364000   629.69499     -3336.0459      40.697233     -3295.3486      38825.887      5698.7434    
    365000   623.1359      -3339.8348      40.273318     -3299.5614      37662.947      5698.7434    
    366000   585.36606     -3339.108       37.832251     -3301.2757      37477.548      5698.7434    
    367000   607.35168     -3341.2549      39.253183     -3302.0017      34529.862      5698.7434    
    368000   562.31061     -3340.0764      36.342175     -3303.7342      34744.309      5698.7434    
    369000   601.68417     -3341.5479      38.886892     -3302.661       33826.185      5698.7434    
    370000   606.09562     -3338.337       39.172004     -3299.165       37620.286      5698.7434    
    371000   596.91771     -3337.6744      38.578835     -3299.0956      38832.163      5698.7434    
    372000   577.0305      -3340.3736      37.293523     -3303.0801      33618.505      5698.7434    
    373000   598.52795     -3342.0896      38.682905     -3303.4067      32263.712      5698.7434    
    374000   615.96577     -3337.139       39.809912     -3297.3291      35306.7        5698.7434    
    375000   624.71328     -3339.0419      40.375265     -3298.6666      34588.304      5698.7434    
    376000   594.90362     -3338.982       38.448664     -3300.5333      35009.46       5698.7434    
    377000   630.0229      -3338.0157      40.718426     -3297.2972      37276.027      5698.7434    
    378000   605.81956     -3338.3791      39.154162     -3299.2249      35723.533      5698.7434    
    379000   612.01214     -3341.4764      39.554389     -3301.922       34380.227      5698.7434    
    380000   600.15478     -3338.2665      38.788047     -3299.4784      35250.586      5698.7434    
    381000   627.99969     -3339.8515      40.587665     -3299.2638      34799.089      5698.7434    
    382000   615.77575     -3339.7934      39.797631     -3299.9957      33655.366      5698.7434    
    383000   626.37008     -3341.3044      40.482344     -3300.8221      36432.549      5698.7434    
    384000   614.60121     -3340.6955      39.721721     -3300.9738      33882.076      5698.7434    
    385000   627.58423     -3340.1008      40.560814     -3299.54        29930.192      5698.7434    
    386000   605.47873     -3338.1865      39.132134     -3299.0543      34196.795      5698.7434    
    387000   606.95084     -3339.0951      39.227277     -3299.8678      33510.748      5698.7434    
    388000   609.14917     -3340.5947      39.369355     -3301.2254      34795.084      5698.7434    
    389000   606.94632     -3339.3752      39.226985     -3300.1482      33130.964      5698.7434    
    390000   605.29368     -3337.1912      39.120175     -3298.071       36945.811      5698.7434    
    391000   599.03588     -3339.1243      38.715732     -3300.4085      33511.383      5698.7434    
    392000   601.6129      -3339.6072      38.882285     -3300.7249      35979.801      5698.7434    
    393000   651.84406     -3339.8534      42.128729     -3297.7247      36569.021      5698.7434    
    394000   584.95711     -3337.6498      37.805821     -3299.844       37309.118      5698.7434    
    395000   630.80167     -3341.9776      40.768757     -3301.2089      34598.207      5698.7434    
    396000   581.59159     -3340.3714      37.588307     -3302.783       33962.699      5698.7434    
    397000   629.75615     -3341.2215      40.701186     -3300.5203      34683.781      5698.7434    
    398000   569.81686     -3340.6094      36.827305     -3303.7821      31038.155      5698.7434    
    399000   597.55949     -3339.0881      38.620313     -3300.4678      34079.915      5698.7434    
    400000   614.13164     -3339.6647      39.691373     -3299.9734      37282.881      5698.7434    
    401000   594.01177     -3340.6422      38.391024     -3302.2512      37762.073      5698.7434    
    402000   562.46161     -3338.6135      36.351935     -3302.2616      38632.3        5698.7434    
    403000   621.49431     -3337.2704      40.167222     -3297.1032      35529.599      5698.7434    
    404000   629.23813     -3338.747       40.667706     -3298.0793      36220.909      5698.7434    
    405000   589.54523     -3340.3918      38.102351     -3302.2894      33746.263      5698.7434    
    406000   600.14417     -3338.7358      38.787361     -3299.9485      36593.474      5698.7434    
    407000   621.67717     -3337.8642      40.17904      -3297.6851      36013.922      5698.7434    
    408000   619.57722     -3338.6116      40.043321     -3298.5683      37703.203      5698.7434    
    409000   592.58484     -3340.3249      38.298801     -3302.0261      36949.452      5698.7434    
    410000   595.79495     -3340.7531      38.506271     -3302.2468      35281.087      5698.7434    
    411000   585.01746     -3337.0069      37.809721     -3299.1972      35707.488      5698.7434    
    412000   611.90989     -3339.4185      39.547781     -3299.8708      37242.447      5698.7434    
    413000   560.06433     -3337.805       36.196999     -3301.608       38370.42       5698.7434    
    414000   601.33869     -3342.063       38.864563     -3303.1985      32961.569      5698.7434    
    415000   594.92264     -3340.0542      38.449893     -3301.6043      34512.122      5698.7434    
    416000   582.92313     -3337.0348      37.674364     -3299.3604      36039.441      5698.7434    
    417000   586.56459     -3339.2566      37.909712     -3301.3469      35423.05       5698.7434    
    418000   615.45001     -3340.9679      39.776578     -3301.1914      36668.977      5698.7434    
    419000   612.46018     -3339.4306      39.583346     -3299.8472      38033.502      5698.7434    
    420000   570.15703     -3340.4497      36.84929      -3303.6004      35275.984      5698.7434    
    421000   612.8117      -3342.1999      39.606064     -3302.5938      35876.84       5698.7434    
    422000   577.75093     -3338.9807      37.340084     -3301.6406      37321.592      5698.7434    
    423000   590.77752     -3336.6543      38.181994     -3298.4723      36326.157      5698.7434    
    424000   599.46776     -3338.6106      38.743645     -3299.867       37720.357      5698.7434    
    425000   593.73763     -3339.9405      38.373306     -3301.5672      35597.489      5698.7434    
    426000   588.26803     -3339.1206      38.019806     -3301.1008      35064.214      5698.7434    
    427000   640.07185     -3340.5028      41.36789      -3299.1349      36870.211      5698.7434    
    428000   594.44712     -3337.1563      38.419161     -3298.7371      39031.147      5698.7434    
    429000   602.67833     -3337.6246      38.951144     -3298.6735      37467.036      5698.7434    
    430000   590.23031     -3341.6853      38.146628     -3303.5387      35123.606      5698.7434    
    431000   579.71732     -3339.9128      37.467172     -3302.4457      36619.927      5698.7434    
    432000   622.48544     -3339.3813      40.231279     -3299.15        36404.647      5698.7434    
    433000   631.03855     -3340.3554      40.784068     -3299.5713      35624.723      5698.7434    
    434000   587.69362     -3341.1531      37.982681     -3303.1704      32758.131      5698.7434    
    435000   603.91863     -3342.4141      39.031305     -3303.3828      31103.056      5698.7434    
    436000   593.69969     -3341.5137      38.370854     -3303.1429      34473.764      5698.7434    
    437000   600.55895     -3339.2575      38.814169     -3300.4433      37298.82       5698.7434    
    438000   576.1075      -3339.1351      37.233869     -3301.9013      37568.848      5698.7434    
    439000   589.24449     -3341.5042      38.082914     -3303.4213      32264.952      5698.7434    
    440000   602.00804     -3339.4077      38.907823     -3300.4999      36564.428      5698.7434    
    441000   608.75899     -3340.2803      39.344138     -3300.9362      35233.84       5698.7434    
    442000   616.95491     -3342.3373      39.87384      -3302.4635      33484.41       5698.7434    
    443000   587.54745     -3339.9632      37.973234     -3301.9899      34546.551      5698.7434    
    444000   594.3191      -3339.8763      38.410886     -3301.4654      35492.74       5698.7434    
    445000   611.45258     -3335.8519      39.518224     -3296.3337      40112.417      5698.7434    
    446000   591.98631     -3340.3122      38.260118     -3302.0521      38916.595      5698.7434    
    447000   603.007       -3342.2348      38.972386     -3303.2625      32674.216      5698.7434    
    448000   584.40422     -3340.2446      37.770087     -3302.4745      35204.415      5698.7434    
    449000   616.1112      -3339.4281      39.819312     -3299.6088      37735.57       5698.7434    
    450000   608.29911     -3337.988       39.314416     -3298.6736      39904.28       5698.7434    
    451000   598.25565     -3339.0543      38.665306     -3300.389       39712.584      5698.7434    
    452000   572.00355     -3340.6487      36.968631     -3303.6801      36454.779      5698.7434    
    453000   575.53256     -3338.6223      37.196711     -3301.4256      34756.232      5698.7434    
    454000   606.10168     -3340.5922      39.172395     -3301.4198      35041.666      5698.7434    
    455000   575.07871     -3337.9519      37.167379     -3300.7845      37047.232      5698.7434    
    456000   623.19039     -3342.0834      40.27684      -3301.8066      34297.035      5698.7434    
    457000   570.22715     -3342.1463      36.853822     -3305.2925      34060.427      5698.7434    
    458000   596.94829     -3340.6437      38.580811     -3302.0629      33806.307      5698.7434    
    459000   631.05241     -3341.5693      40.784963     -3300.7844      34917.169      5698.7434    
    460000   626.88405     -3341.2874      40.515562     -3300.7718      36763.548      5698.7434    
    461000   591.82401     -3338.4706      38.249629     -3300.2209      37297.206      5698.7434    
    462000   615.45312     -3338.5844      39.77678      -3298.8077      38166.154      5698.7434    
    463000   585.74935     -3340.0342      37.857023     -3302.1772      34593.747      5698.7434    
    464000   578.39508     -3339.5422      37.381716     -3302.1605      35898.784      5698.7434    
    465000   632.15546     -3338.5072      40.856253     -3297.6509      37664.148      5698.7434    
    466000   588.86714     -3341.2555      38.058526     -3303.197       35272.603      5698.7434    
    467000   571.38578     -3339.8883      36.928704     -3302.9596      36114.956      5698.7434    
    468000   581.57708     -3341.2606      37.587369     -3303.6733      35024.196      5698.7434    
    469000   615.24459     -3339.2404      39.763302     -3299.4771      38007.184      5698.7434    
    470000   599.5674      -3338.8751      38.750085     -3300.125       38419.188      5698.7434    
    471000   585.03816     -3343.0481      37.811058     -3305.2371      32860.948      5698.7434    
    472000   599.12107     -3342.3127      38.721238     -3303.5915      32701.75       5698.7434    
    473000   583.33588     -3339.3965      37.70104      -3301.6954      35799.79       5698.7434    
    474000   590.72572     -3337.0775      38.178646     -3298.8989      36044.688      5698.7434    
    475000   583.87188     -3338.9157      37.735682     -3301.18        34743.865      5698.7434    
    476000   594.21429     -3341.7003      38.404113     -3303.2962      35195.916      5698.7434    
    477000   592.62104     -3339.4545      38.301141     -3301.1533      37182.853      5698.7434    
    478000   598.77797     -3341.7223      38.699064     -3303.0232      34842.152      5698.7434    
    479000   580.72956     -3339.1108      37.532594     -3301.5782      34426.331      5698.7434    
    480000   693.16725     -3339.7166      44.79945      -3294.9171      33986.584      5698.7434    
    481000   597.47976     -3341.9423      38.61516      -3303.3271      34908.522      5698.7434    
    482000   572.86232     -3339.4253      37.024133     -3302.4012      37004.352      5698.7434    
    483000   601.66734     -3337.5053      38.885804     -3298.6195      37529.365      5698.7434    
    484000   595.82514     -3337.9189      38.508222     -3299.4106      37152.349      5698.7434    
    485000   589.70217     -3339.7175      38.112494     -3301.605       33826.829      5698.7434    
    486000   568.67853     -3338.6921      36.753735     -3301.9384      33600.463      5698.7434    
    487000   582.91244     -3335.7485      37.673673     -3298.0749      42171.823      5698.7434    
    488000   651.83834     -3339.5517      42.128359     -3297.4234      39804.779      5698.7434    
    489000   615.90881     -3339.3599      39.806231     -3299.5537      36097.048      5698.7434    
    490000   607.19897     -3340.3636      39.243313     -3301.1203      33092.608      5698.7434    
    491000   590.78411     -3341.3159      38.18242      -3303.1335      33534.203      5698.7434    
    492000   573.21682     -3340.0483      37.047044     -3303.0012      36448.402      5698.7434    
    493000   556.42277     -3338.5803      35.961644     -3302.6187      37704.727      5698.7434    
    494000   636.13798     -3340.9953      41.113644     -3299.8817      36861.441      5698.7434    
    495000   632.0012      -3339.3823      40.846283     -3298.536       36047.676      5698.7434    
    496000   596.34958     -3336.6378      38.542117     -3298.0957      35480.552      5698.7434    
    497000   591.8057      -3339.3022      38.248446     -3301.0538      37236.802      5698.7434    
    498000   594.02181     -3341.3497      38.391673     -3302.958       32621.218      5698.7434    
    499000   608.12431     -3339.8279      39.303118     -3300.5248      36960.878      5698.7434    
    500000   594.02812     -3337.7885      38.39208      -3299.3965      35124.032      5698.7434    
Loop time of 15303.8 on 1 procs for 500000 steps with 501 atoms

Performance: 1.411 ns/day, 17.004 hours/ns, 32.672 timesteps/s, 16.369 katom-step/s
99.1% CPU use with 1 MPI tasks x 1 OpenMP threads

MPI task timing breakdown:
Section |  min time  |  avg time  |  max time  |%varavg| %total
---------------------------------------------------------------
Pair    | 15241      | 15241      | 15241      |   0.0 | 99.59
Neigh   | 0.39286    | 0.39286    | 0.39286    |   0.0 |  0.00
Comm    | 18.592     | 18.592     | 18.592     |   0.0 |  0.12
Output  | 0.11642    | 0.11642    | 0.11642    |   0.0 |  0.00
Modify  | 25.278     | 25.278     | 25.278     |   0.0 |  0.17
Other   |            | 17.98      |            |       |  0.12

Nlocal:            501 ave         501 max         501 min
Histogram: 1 0 0 0 0 0 0 0 0 0
Nghost:           2079 ave        2079 max        2079 min
Histogram: 1 0 0 0 0 0 0 0 0 0
Neighs:              0 ave           0 max           0 min
Histogram: 1 0 0 0 0 0 0 0 0 0
FullNghs:        66208 ave       66208 max       66208 min
Histogram: 1 0 0 0 0 0 0 0 0 0

Total # of neighbors = 66208
Ave neighs/atom = 132.1517
Neighbor list builds = 987
Dangerous builds = 0
unfix          nvt_equil

# ── Phase 2: Production ──────────────────────────────────────
# Dump trajectory for NB11 MSD calculation
# Dump every 1000 steps = 500 fs
dump           prod_dump  all  custom  1000  results/notebook10-bulk-equilibration/N_7/Hastelloy_N_7_H_600K_prod.lammpstrj                id type x y z
dump_modify    prod_dump  sort id

fix            nvt_prod  all  nvt  temp  600.0  600.0  0.1

# Compute MSD for H atom
compute        msd_H  H_atom  msd
fix            msd_out  all  ave/time  1  1  1000                c_msd_H[4]  file  results/notebook10-bulk-equilibration/N_7/Hastelloy_N_7_msd_H_600K.txt  mode scalar

print "### Phase 2: Production 750 ps at 600 K ###"
### Phase 2: Production 750 ps at 600 K ###
run            1500000
WARNING: Fix STORE/ATOM not compatible with sending data in Kokkos communication (src/KOKKOS/comm_kokkos.cpp:842)
WARNING: Fix with atom-based arrays not compatible with sending data in Kokkos communication, switching to legacy exchange/border communication (src/KOKKOS/comm_kokkos.cpp:849)
WARNING: Fix STORE/ATOM not (yet) compatible with Kokkos sorting on device (src/KOKKOS/atom_kokkos.cpp:219)
WARNING: Fix with atom-based arrays not (yet) compatible with Kokkos sorting on device, switching to legacy host sorting (src/KOKKOS/atom_kokkos.cpp:225)
Per MPI rank memory allocation (min/avg/max) = 89.17 | 89.17 | 89.17 Mbytes
   Step          Temp          PotEng         KinEng         TotEng         Press          Volume    
    500000   594.02812     -3337.7885      38.39208      -3299.3965      35124.032      5698.7434    
    501000   596.17059     -3338.7767      38.530549     -3300.2462      37967.678      5698.7434    
    502000   594.4027      -3339.983       38.416289     -3301.5667      36509.496      5698.7434    
    503000   580.42822     -3338.7829      37.513118     -3301.2698      35509.574      5698.7434    
    504000   617.83421     -3336.6851      39.93067      -3296.7544      37307.42       5698.7434    
    505000   627.9472      -3339.0995      40.584273     -3298.5152      36662.967      5698.7434    
    506000   583.50838     -3340.8125      37.712189     -3303.1003      36498.93       5698.7434    
    507000   596.11113     -3340.2105      38.526706     -3301.6838      33477.912      5698.7434    
    508000   619.22794     -3339.7062      40.020747     -3299.6854      34659.314      5698.7434    
    509000   630.15952     -3337.89        40.727256     -3297.1628      39349.082      5698.7434    
    510000   599.01228     -3339.8601      38.714207     -3301.1459      35638.026      5698.7434    
    511000   600.92734     -3341.4965      38.837978     -3302.6585      36120.987      5698.7434    
    512000   653.59205     -3337.2536      42.241701     -3295.0119      40580.348      5698.7434    
    513000   605.39089     -3338.6825      39.126457     -3299.556       34930.997      5698.7434    
    514000   589.3118      -3340.0852      38.087264     -3301.998       35937.111      5698.7434    
    515000   581.46978     -3341.4527      37.580434     -3303.8723      32060.442      5698.7434    
    516000   623.36668     -3337.4032      40.288233     -3297.115       35579.217      5698.7434    
    517000   582.80095     -3337.2451      37.666468     -3299.5786      36903.081      5698.7434    
    518000   590.13083     -3340.7479      38.140198     -3302.6077      34777.282      5698.7434    
    519000   563.1556      -3340.9443      36.396787     -3304.5475      35303.889      5698.7434    
    520000   586.81195     -3339.8987      37.925699     -3301.973       32913.058      5698.7434    
    521000   621.28932     -3338.7962      40.153974     -3298.6422      36289.512      5698.7434    
    522000   614.40658     -3339.8445      39.709142     -3300.1354      34403.818      5698.7434    
    523000   562.26046     -3341.5071      36.338934     -3305.1681      33775.879      5698.7434    
    524000   594.49506     -3338.6077      38.422259     -3300.1854      36649.172      5698.7434    
    525000   589.36248     -3337.7671      38.09054      -3299.6765      36450.208      5698.7434    
    526000   598.90629     -3340.2349      38.707357     -3301.5276      36178.579      5698.7434    
    527000   612.00157     -3341.0781      39.553706     -3301.5244      33216.617      5698.7434    
    528000   596.20194     -3338.9082      38.532574     -3300.3757      37105.055      5698.7434    
    529000   622.43421     -3339.2788      40.227968     -3299.0508      33453.791      5698.7434    
    530000   628.23327     -3335.8701      40.602762     -3295.2673      41003.607      5698.7434    
    531000   595.68543     -3340.0029      38.499192     -3301.5037      36896.203      5698.7434    
    532000   586.66897     -3339.7177      37.916458     -3301.8013      35003.807      5698.7434    
    533000   595.19704     -3338.677       38.467628     -3300.2094      37387.163      5698.7434    
    534000   657.71321     -3339.396       42.508053     -3296.8879      36667.103      5698.7434    
    535000   594.42994     -3339.9984      38.41805      -3301.5804      36448.824      5698.7434    
    536000   615.50393     -3341.9417      39.780064     -3302.1617      31985.346      5698.7434    
    537000   604.57292     -3337.3926      39.073592     -3298.319       38981.321      5698.7434    
    538000   612.49169     -3337.4885      39.585382     -3297.9032      42113.513      5698.7434    
    539000   576.07341     -3336.9274      37.231666     -3299.6957      37813.492      5698.7434    
    540000   572.75221     -3338.8476      37.017017     -3301.8306      35628.471      5698.7434    
    541000   595.20916     -3341.9003      38.468411     -3303.4319      35329.941      5698.7434    
    542000   566.5705      -3340.7519      36.617493     -3304.1345      33822.266      5698.7434    
    543000   603.78873     -3339.4141      39.022909     -3300.3912      33872.632      5698.7434    
    544000   620.24968     -3339.5231      40.086782     -3299.4363      34759.42       5698.7434    
    545000   576.9229      -3340.8974      37.286569     -3303.6108      32716.635      5698.7434    
    546000   583.96111     -3342.114       37.741449     -3304.3725      35256.363      5698.7434    
    547000   594.41199     -3340.3983      38.41689      -3301.9814      36573.372      5698.7434    
    548000   606.53491     -3339.9068      39.200395     -3300.7064      33939.74       5698.7434    
    549000   659.07093     -3337.4843      42.595802     -3294.8885      38956.767      5698.7434    
    550000   608.33248     -3339.8911      39.316572     -3300.5745      31374.154      5698.7434    
    551000   583.09068     -3339.5054      37.685193     -3301.8203      35446.268      5698.7434    
    552000   578.31791     -3340.4609      37.376729     -3303.0842      31520.064      5698.7434    
    553000   577.07788     -3340.0087      37.296585     -3302.7121      34647.586      5698.7434    
    554000   587.05241     -3337.3355      37.94124      -3299.3942      35907.617      5698.7434    
    555000   585.10075     -3339.0656      37.815104     -3301.2505      32177.339      5698.7434    
    556000   579.85588     -3338.841       37.476128     -3301.3649      35774.409      5698.7434    
    557000   591.78717     -3338.1431      38.247248     -3299.8959      37586.73       5698.7434    
    558000   609.5138      -3338.1184      39.392921     -3298.7254      38996.487      5698.7434    
    559000   582.75941     -3339.7223      37.663783     -3302.0585      34863.251      5698.7434    
    560000   554.67581     -3340.8966      35.848738     -3305.0479      34242.184      5698.7434    
    561000   612.46228     -3338.4961      39.583481     -3298.9126      33349.424      5698.7434    
    562000   629.22627     -3339.0063      40.66694      -3298.3394      37067.748      5698.7434    
    563000   603.0041      -3338.8563      38.972199     -3299.8841      34491.786      5698.7434    
    564000   589.40466     -3339.7534      38.093266     -3301.6602      36953.82       5698.7434    
    565000   584.89304     -3341.1578      37.80168      -3303.3561      35581.43       5698.7434    
    566000   594.40271     -3339.6311      38.41629      -3301.2148      36424.711      5698.7434    
    567000   601.34416     -3338.6405      38.864917     -3299.7756      33889.02       5698.7434    
    568000   579.96503     -3339.9811      37.483182     -3302.498       34052.206      5698.7434    
    569000   654.55289     -3338.4599      42.303801     -3296.1561      38503.723      5698.7434    
    570000   615.90886     -3338.2092      39.806234     -3298.4029      36204.69       5698.7434    
    571000   615.21712     -3339.398       39.761527     -3299.6365      37096.326      5698.7434    
    572000   590.99292     -3339.7146      38.195915     -3301.5187      36934.472      5698.7434    
    573000   590.43946     -3338.9707      38.160145     -3300.8105      38626.527      5698.7434    
    574000   590.68068     -3340.8648      38.175735     -3302.689       36259.193      5698.7434    
    575000   586.33948     -3338.7824      37.895163     -3300.8872      38898.655      5698.7434    
    576000   603.63728     -3338.8742      39.013121     -3299.8611      34875.623      5698.7434    
    577000   604.7918      -3342.4363      39.087738     -3303.3486      30088.671      5698.7434    
    578000   607.59767     -3340.7649      39.269081     -3301.4959      36537.679      5698.7434    
    579000   552.15251     -3339.2505      35.685657     -3303.5649      31494.334      5698.7434    
    580000   588.0623      -3339.1827      38.006509     -3301.1761      36432.125      5698.7434    
    581000   578.98691     -3336.7198      37.419966     -3299.2999      38224.148      5698.7434    
    582000   616.75471     -3340.1904      39.860902     -3300.3295      34335.253      5698.7434    
    583000   567.96072     -3339.1846      36.707343     -3302.4772      37685.631      5698.7434    
    584000   565.869       -3340.0393      36.572155     -3303.4672      32674.767      5698.7434    
    585000   582.50154     -3342.6282      37.647117     -3304.9811      29198.984      5698.7434    
    586000   587.51065     -3340.2062      37.970856     -3302.2353      34607.392      5698.7434    
    587000   617.92825     -3339.2923      39.936747     -3299.3555      35332.723      5698.7434    
    588000   602.22377     -3339.524       38.921766     -3300.6022      32280.239      5698.7434    
    589000   550.66099     -3340.3225      35.58926      -3304.7333      34780.118      5698.7434    
    590000   557.42937     -3339.6839      36.026701     -3303.6572      34873.578      5698.7434    
    591000   588.60142     -3340.5524      38.041352     -3302.511       34211.471      5698.7434    
    592000   584.96179     -3336.0461      37.806123     -3298.24        35161.295      5698.7434    
    593000   589.86624     -3341.618       38.123098     -3303.4949      35001.593      5698.7434    
    594000   564.57038     -3341.4892      36.488225     -3305.0009      32960.297      5698.7434    
    595000   599.98466     -3338.4162      38.777052     -3299.6391      35278.243      5698.7434    
    596000   602.90566     -3339.0947      38.965836     -3300.1289      36504.93       5698.7434    
    597000   575.85759     -3341.5163      37.217718     -3304.2986      32721.701      5698.7434    
    598000   650.62205     -3341.9737      42.04975      -3299.924       32625.028      5698.7434    
    599000   599.33483     -3338.3252      38.735053     -3299.5901      31527.873      5698.7434    
    600000   621.29379     -3338.8432      40.154262     -3298.689       36398.498      5698.7434    
    601000   584.89578     -3344.5904      37.801856     -3306.7885      32010.686      5698.7434    
    602000   622.84313     -3339.6576      40.254397     -3299.4032      36756.761      5698.7434    
    603000   600.2803      -3336.4518      38.796159     -3297.6556      36730.691      5698.7434    
    604000   621.35035     -3340.0277      40.157918     -3299.8698      31555.35       5698.7434    
    605000   591.13908     -3340.6347      38.205362     -3302.4293      33906.234      5698.7434    
    606000   590.08012     -3341.8805      38.136921     -3303.7436      32649.42       5698.7434    
    607000   620.12745     -3342.1957      40.078882     -3302.1168      32632.227      5698.7434    
    608000   646.94309     -3341.4802      41.811979     -3299.6682      35614.178      5698.7434    
    609000   577.0574      -3338.7515      37.295261     -3301.4562      37949.488      5698.7434    
    610000   579.32232     -3341.2304      37.441643     -3303.7888      33231.091      5698.7434    
    611000   561.58606     -3340.7569      36.295348     -3304.4616      33613.092      5698.7434    
    612000   600.33543     -3338.4826      38.799723     -3299.6829      35081.588      5698.7434    
    613000   585.9233      -3337.6078      37.868265     -3299.7395      35531.177      5698.7434    
    614000   560.38929     -3339.9238      36.218001     -3303.7058      33072.77       5698.7434    
    615000   613.01783     -3340.953       39.619387     -3301.3336      34745.893      5698.7434    
    616000   635.83788     -3337.9846      41.094249     -3296.8904      39488.547      5698.7434    
    617000   605.338       -3337.8279      39.123039     -3298.7049      33917.788      5698.7434    
    618000   590.49453     -3340.4865      38.163704     -3302.3228      34875.126      5698.7434    
    619000   572.58159     -3340.8108      37.00599      -3303.8048      35100.388      5698.7434    
    620000   606.7369      -3340.6535      39.21345      -3301.4401      34222.096      5698.7434    
    621000   599.47299     -3337.9919      38.743982     -3299.2479      37173.144      5698.7434    
    622000   619.66095     -3340.7728      40.048732     -3300.724       31298.63       5698.7434    
    623000   605.06503     -3341.8049      39.105397     -3302.6995      31624.633      5698.7434    
    624000   605.48332     -3340.5188      39.132431     -3301.3864      35067.563      5698.7434    
    625000   593.73275     -3339.2501      38.372991     -3300.8771      35533.684      5698.7434    
    626000   586.75381     -3339.9094      37.921941     -3301.9875      36589.213      5698.7434    
    627000   615.52285     -3340.1461      39.781286     -3300.3649      34155.803      5698.7434    
    628000   602.36762     -3339.2131      38.931063     -3300.282       36599.104      5698.7434    
    629000   601.72146     -3337.9039      38.889301     -3299.0146      39668.816      5698.7434    
    630000   628.85812     -3340.0997      40.643146     -3299.4566      36272.214      5698.7434    
    631000   577.91679     -3339.365       37.350804     -3302.0142      36023.939      5698.7434    
    632000   607.22421     -3340.5795      39.244945     -3301.3346      34774.743      5698.7434    
    633000   631.26112     -3339.7686      40.798452     -3298.9701      35852.544      5698.7434    
    634000   638.81048     -3338.8622      41.286367     -3297.5759      38891.949      5698.7434    
    635000   612.9731      -3339.4759      39.616496     -3299.8594      36654.811      5698.7434    
    636000   583.16132     -3339.5796      37.689758     -3301.8899      38940.305      5698.7434    
    637000   619.58729     -3342.906       40.043971     -3302.8621      32560.888      5698.7434    
    638000   598.75185     -3341.645       38.697375     -3302.9477      33636.21       5698.7434    
    639000   621.07138     -3339.3611      40.139889     -3299.2212      35631.545      5698.7434    
    640000   613.19386     -3339.3319      39.630763     -3299.7012      37557.028      5698.7434    
    641000   588.78794     -3341.1839      38.053407     -3303.1305      35096.006      5698.7434    
    642000   629.85657     -3341.9851      40.707676     -3301.2774      34909.506      5698.7434    
    643000   591.08008     -3338.1114      38.201548     -3299.9098      38338.639      5698.7434    
    644000   598.08154     -3339.7142      38.654053     -3301.0602      36694.922      5698.7434    
    645000   602.41061     -3342.2594      38.933841     -3303.3256      34363.082      5698.7434    
    646000   602.78682     -3339.7906      38.958156     -3300.8324      36836.074      5698.7434    
    647000   652.99667     -3340.9183      42.203222     -3298.7151      34276.433      5698.7434    
    648000   617.94332     -3340.9604      39.937722     -3301.0227      32455.933      5698.7434    
    649000   588.31153     -3338.5124      38.022617     -3300.4898      35694.7        5698.7434    
    650000   614.47875     -3338.3714      39.713806     -3298.6576      36060.821      5698.7434    
    651000   622.93571     -3338.4495      40.26038      -3298.1892      37635.422      5698.7434    
    652000   585.22604     -3340.3415      37.823202     -3302.5183      39017.878      5698.7434    
    653000   622.93822     -3341.5931      40.260542     -3301.3325      34503.726      5698.7434    
    654000   571.87852     -3336.8821      36.96055      -3299.9215      38220.094      5698.7434    
    655000   625.32219     -3340.3593      40.414619     -3299.9447      34271.377      5698.7434    
    656000   575.53581     -3338.9099      37.196921     -3301.7129      36589.292      5698.7434    
    657000   577.33161     -3342.0776      37.312984     -3304.7646      33737.485      5698.7434    
    658000   554.20298     -3339.4998      35.818178     -3303.6817      34515.136      5698.7434    
    659000   628.00543     -3340.4096      40.588036     -3299.8216      35555.98       5698.7434    
    660000   595.44075     -3339.2738      38.483379     -3300.7904      35730.699      5698.7434    
    661000   597.92921     -3339.3586      38.644208     -3300.7143      37328.074      5698.7434    
    662000   586.50446     -3339.7545      37.905826     -3301.8487      35408.453      5698.7434    
    663000   570.63137     -3338.062       36.879947     -3301.182       34819.291      5698.7434    
    664000   619.54822     -3340.4206      40.041446     -3300.3792      36516.657      5698.7434    
    665000   644.41876     -3338.2425      41.648831     -3296.5936      39267.699      5698.7434    
    666000   578.44098     -3339.7795      37.384683     -3302.3949      36952.561      5698.7434    
    667000   594.19828     -3340.8952      38.403078     -3302.4922      33443.152      5698.7434    
    668000   608.55203     -3339.4852      39.330762     -3300.1545      38689.27       5698.7434    
    669000   619.49059     -3337.9176      40.037722     -3297.8799      36804.607      5698.7434    
    670000   589.87895     -3337.744       38.123919     -3299.6201      37802.711      5698.7434    
    671000   604.18572     -3339.9765      39.048567     -3300.9279      37925.419      5698.7434    
    672000   559.18349     -3339.483       36.140069     -3303.3429      33768.376      5698.7434    
    673000   568.28685     -3338.4528      36.72842      -3301.7244      34295.662      5698.7434    
    674000   627.42158     -3337.1716      40.550302     -3296.6213      35446.465      5698.7434    
    675000   618.81567     -3337.7456      39.994102     -3297.7515      39058.43       5698.7434    
    676000   603.18679     -3340.2702      38.984006     -3301.2862      34733.172      5698.7434    
    677000   601.54601     -3340.6755      38.877962     -3301.7975      34606.492      5698.7434    
    678000   582.65723     -3337.5921      37.657179     -3299.9349      35295.225      5698.7434    
    679000   637.7677      -3340.1085      41.218973     -3298.8896      32943.277      5698.7434    
    680000   593.2798      -3338.3213      38.343716     -3299.9776      32462.4        5698.7434    
    681000   598.48585     -3337.546       38.680184     -3298.8658      33394.017      5698.7434    
    682000   642.60006     -3337.2701      41.531289     -3295.7388      35452.73       5698.7434    
    683000   603.98374     -3339.1548      39.035513     -3300.1193      36450.919      5698.7434    
    684000   602.2852      -3340.3861      38.925736     -3301.4604      35179.255      5698.7434    
    685000   581.28281     -3340.7777      37.56835      -3303.2094      34125.781      5698.7434    
    686000   562.15341     -3341.0098      36.332016     -3304.6778      32310.118      5698.7434    
    687000   581.9875      -3338.5399      37.613894     -3300.926       34776.045      5698.7434    
    688000   608.02435     -3339.6135      39.296658     -3300.3168      37100.588      5698.7434    
    689000   547.23898     -3339.2468      35.368095     -3303.8787      35018.525      5698.7434    
    690000   576.87914     -3339.3973      37.283741     -3302.1135      35188.463      5698.7434    
    691000   612.89779     -3338.5379      39.611628     -3298.9263      36493.56       5698.7434    
    692000   625.97044     -3340.7866      40.456515     -3300.3301      33747.991      5698.7434    
    693000   607.23022     -3343.4904      39.245333     -3304.245       30577.934      5698.7434    
    694000   595.78773     -3341.1248      38.505804     -3302.619       32493.614      5698.7434    
    695000   598.17145     -3340.9479      38.659864     -3302.288       33757.161      5698.7434    
    696000   639.12787     -3339.9845      41.306881     -3298.6776      33981.381      5698.7434    
    697000   589.76583     -3338.177       38.116608     -3300.0604      34866.253      5698.7434    
    698000   540.75886     -3338.4875      34.949284     -3303.5382      34863.987      5698.7434    
    699000   593.56161     -3339.6004      38.36193      -3301.2385      33343.611      5698.7434    
    700000   618.8337      -3340.136       39.995267     -3300.1407      33040.187      5698.7434    
    701000   585.85866     -3341.9613      37.864088     -3304.0972      29186.406      5698.7434    
    702000   579.3541      -3339.4206      37.443697     -3301.9769      33673.12       5698.7434    
    703000   627.49507     -3341.2403      40.555052     -3300.6852      36005.726      5698.7434    
    704000   642.20123     -3338.3557      41.505512     -3296.8502      36931.141      5698.7434    
    705000   626.63456     -3338.6202      40.499437     -3298.1208      36262.886      5698.7434    
    706000   620.23932     -3339.3556      40.086112     -3299.2695      34802.539      5698.7434    
    707000   607.52958     -3340.952       39.264681     -3301.6873      33360.662      5698.7434    
    708000   591.34202     -3340.3888      38.218477     -3302.1703      34992.213      5698.7434    
    709000   599.12153     -3338.4967      38.721268     -3299.7755      36036.398      5698.7434    
    710000   592.44653     -3339.7383      38.289862     -3301.4484      33828.758      5698.7434    
    711000   600.41133     -3339.4216      38.804628     -3300.617       35072.432      5698.7434    
    712000   614.09095     -3336.1372      39.688743     -3296.4484      36783.354      5698.7434    
    713000   614.76945     -3338.6697      39.732594     -3298.9371      37522.597      5698.7434    
    714000   606.29519     -3340.4559      39.184902     -3301.271       35814          5698.7434    
    715000   593.80454     -3341.4781      38.37763      -3303.1005      34865.278      5698.7434    
    716000   634.03283     -3341.9185      40.977587     -3300.941       34326.332      5698.7434    
    717000   618.47077     -3338.8803      39.97181      -3298.9085      35652.086      5698.7434    
    718000   620.86069     -3339.3679      40.126272     -3299.2416      32334.556      5698.7434    
    719000   615.42317     -3341.9378      39.774844     -3302.163       33736.626      5698.7434    
    720000   605.62441     -3339.1877      39.141549     -3300.0461      36514.407      5698.7434    
    721000   615.60436     -3339.2224      39.786555     -3299.4358      35406.139      5698.7434    
    722000   592.60239     -3339.8426      38.299935     -3301.5427      34986.816      5698.7434    
    723000   564.54386     -3340.8766      36.48651      -3304.39        30259.2        5698.7434    
    724000   568.60243     -3339.8161      36.748816     -3303.0673      35268.442      5698.7434    
    725000   594.47452     -3340.0024      38.420931     -3301.5815      33738.438      5698.7434    
    726000   621.44941     -3337.0861      40.16432      -3296.9218      33974.608      5698.7434    
    727000   594.03293     -3340.7891      38.392391     -3302.3967      33799.307      5698.7434    
    728000   620.2051      -3342.0593      40.0839       -3301.9754      34864.702      5698.7434    
    729000   588.70634     -3341.0953      38.048133     -3303.0472      34849.465      5698.7434    
    730000   613.11441     -3340.3116      39.625629     -3300.686       37166.615      5698.7434    
    731000   579.88396     -3338.6615      37.477942     -3301.1836      35432.451      5698.7434    
    732000   620.47748     -3341.7006      40.101504     -3301.5991      31620.117      5698.7434    
    733000   601.85753     -3342.2638      38.898096     -3303.3657      32447.468      5698.7434    
    734000   597.38919     -3339.8894      38.609307     -3301.2801      33470.93       5698.7434    
    735000   632.89368     -3340.6289      40.903964     -3299.725       35441.836      5698.7434    
    736000   597.16909     -3343.8547      38.595081     -3305.2596      31287.459      5698.7434    
    737000   567.37197     -3340.9344      36.669292     -3304.2651      35275.135      5698.7434    
    738000   589.33634     -3340.6014      38.08885      -3302.5126      34248.966      5698.7434    
    739000   589.89682     -3339.0985      38.125074     -3300.9735      35022.593      5698.7434    
    740000   645.98179     -3337.469       41.74985      -3295.7191      38019.824      5698.7434    
    741000   623.41202     -3342.4681      40.291164     -3302.1769      35436.471      5698.7434    
    742000   595.52572     -3341.5672      38.488871     -3303.0784      32698.97       5698.7434    
    743000   551.01757     -3341.3662      35.612305     -3305.7539      34827.639      5698.7434    
    744000   599.11943     -3337.2047      38.721132     -3298.4835      38833.997      5698.7434    
    745000   607.21213     -3340.9707      39.244164     -3301.7265      34020.206      5698.7434    
    746000   619.42247     -3341.1538      40.033319     -3301.1205      33460.748      5698.7434    
    747000   545.47796     -3336.6008      35.25428      -3301.3465      37400.679      5698.7434    
    748000   577.35521     -3340.6629      37.314509     -3303.3484      33548          5698.7434    
    749000   613.31274     -3340.4157      39.638447     -3300.7772      33626.432      5698.7434    
    750000   616.27789     -3339.2847      39.830085     -3299.4546      34321.636      5698.7434    
    751000   627.09476     -3337.4962      40.52918      -3296.967       39952.382      5698.7434    
    752000   639.8039      -3339.2712      41.350572     -3297.9206      34569.506      5698.7434    
    753000   613.50004     -3340.6535      39.650552     -3301.003       34501.083      5698.7434    
    754000   609.9194      -3337.3341      39.419135     -3297.915       36734.195      5698.7434    
    755000   618.28388     -3340.4316      39.959732     -3300.4719      35206.332      5698.7434    
    756000   630.03384     -3342.0741      40.719133     -3301.3549      34168.065      5698.7434    
    757000   613.33673     -3339.0824      39.639997     -3299.4424      36766.925      5698.7434    
    758000   591.11097     -3338.477       38.203545     -3300.2735      36778.538      5698.7434    
    759000   608.00386     -3339.1204      39.295333     -3299.825       36725.575      5698.7434    
    760000   633.89782     -3340.8188      40.968862     -3299.8499      35214.68       5698.7434    
    761000   563.40409     -3341.1106      36.412847     -3304.6978      34508.303      5698.7434    
    762000   554.77131     -3338.5506      35.85491      -3302.6957      37670.528      5698.7434    
    763000   590.48095     -3338.9425      38.162826     -3300.7797      37581.891      5698.7434    
    764000   609.87796     -3338.1392      39.416457     -3298.7228      35889.222      5698.7434    
    765000   598.58803     -3339.7933      38.686788     -3301.1065      33553.282      5698.7434    
    766000   597.05673     -3341.69        38.587819     -3303.1022      33778.275      5698.7434    
    767000   594.04086     -3340.2433      38.392904     -3301.8504      35835.872      5698.7434    
    768000   599.96476     -3339.68        38.775766     -3300.9042      34277.046      5698.7434    
    769000   617.04198     -3339.5638      39.879468     -3299.6843      38754.487      5698.7434    
    770000   585.25094     -3338.8457      37.82481      -3301.0209      35463.529      5698.7434    
    771000   607.90991     -3339.9249      39.289261     -3300.6356      34884.417      5698.7434    
    772000   617.91305     -3341.8296      39.935765     -3301.8938      32318.649      5698.7434    
    773000   600.24103     -3342.3543      38.793621     -3303.5607      30980.96       5698.7434    
    774000   601.87559     -3342.0319      38.899263     -3303.1327      36092.521      5698.7434    
    775000   589.92829     -3339.6344      38.127108     -3301.5073      36033.007      5698.7434    
    776000   612.16282     -3340.283       39.564127     -3300.7189      37742.732      5698.7434    
    777000   572.14488     -3340.6797      36.977765     -3303.7019      35952.406      5698.7434    
    778000   604.67146     -3340.1389      39.07996      -3301.0589      34474.51       5698.7434    
    779000   628.21667     -3339.0335      40.601689     -3298.4318      36789.776      5698.7434    
    780000   646.36579     -3339.1169      41.774668     -3297.3423      34230.269      5698.7434    
    781000   611.68326     -3339.7618      39.533134     -3300.2286      36094.642      5698.7434    
    782000   590.08198     -3341.2143      38.137041     -3303.0773      35112.421      5698.7434    
    783000   605.40906     -3341.1457      39.127631     -3302.0181      35690.853      5698.7434    
    784000   584.08794     -3336.0693      37.749646     -3298.3197      35948.152      5698.7434    
    785000   604.68516     -3339.004       39.080846     -3299.9232      37569.403      5698.7434    
    786000   608.71094     -3342.5106      39.341032     -3303.1696      32950.901      5698.7434    
    787000   605.36373     -3340.2844      39.124702     -3301.1597      34257.992      5698.7434    
    788000   597.48726     -3339.0507      38.615645     -3300.4351      38851.999      5698.7434    
    789000   627.27107     -3342.0147      40.540575     -3301.4741      33675.489      5698.7434    
    790000   598.37238     -3340.5103      38.67285      -3301.8375      35755.892      5698.7434    
    791000   619.16374     -3341.5958      40.016597     -3301.5792      33049.667      5698.7434    
    792000   634.89943     -3336.8466      41.033596     -3295.813       41270.845      5698.7434    
    793000   611.90054     -3339.6058      39.547176     -3300.0586      35382.741      5698.7434    
    794000   602.03521     -3339.7048      38.909579     -3300.7953      35992.537      5698.7434    
    795000   625.305       -3343.3732      40.413507     -3302.9597      33381.914      5698.7434    
    796000   564.53154     -3339.9419      36.485714     -3303.4562      34063.234      5698.7434    
    797000   599.79674     -3338.4525      38.764907     -3299.6876      36579.436      5698.7434    
    798000   634.61223     -3340.5849      41.015035     -3299.5699      35228.81       5698.7434    
    799000   612.59541     -3342.0079      39.592086     -3302.4159      33680.461      5698.7434    
    800000   600.22295     -3342.1812      38.792453     -3303.3887      32828.37       5698.7434    
    801000   609.35968     -3342.1411      39.382961     -3302.7582      34719.937      5698.7434    
    802000   556.91847     -3338.8688      35.993681     -3302.8752      37186.187      5698.7434    
    803000   628.38409     -3341.1603      40.612509     -3300.5478      32881.84       5698.7434    
    804000   620.70213     -3338.7062      40.116024     -3298.5901      38205.103      5698.7434    
    805000   619.09524     -3337.8464      40.01217      -3297.8342      37303.2        5698.7434    
    806000   594.55963     -3336.4467      38.426432     -3298.0203      38875.899      5698.7434    
    807000   596.90662     -3341.3018      38.578118     -3302.7236      34222.854      5698.7434    
    808000   574.24844     -3339.4772      37.113719     -3302.3635      33902.633      5698.7434    
    809000   577.0588      -3340.807       37.295352     -3303.5116      37357.918      5698.7434    
    810000   581.40003     -3339.8111      37.575926     -3302.2352      35762.384      5698.7434    
    811000   629.40864     -3340.1452      40.678726     -3299.4664      38031.254      5698.7434    
    812000   587.64621     -3340.4347      37.979617     -3302.4551      32845.842      5698.7434    
    813000   595.33899     -3340.8477      38.476802     -3302.3709      34769.907      5698.7434    
    814000   576.19865     -3339.7785      37.239761     -3302.5387      36792.159      5698.7434    
    815000   553.80775     -3339.6383      35.792635     -3303.8457      35791.986      5698.7434    
    816000   586.34523     -3341.1711      37.895535     -3303.2755      35018.578      5698.7434    
    817000   614.49757     -3339.0244      39.715023     -3299.3093      38523.459      5698.7434    
    818000   599.10335     -3341.0255      38.720093     -3302.3054      32814.722      5698.7434    
    819000   572.74866     -3342.0092      37.016787     -3304.9924      33028.252      5698.7434    
    820000   604.52053     -3339.9154      39.070206     -3300.8451      38045.972      5698.7434    
    821000   612.90767     -3339.653       39.612267     -3300.0408      36429.833      5698.7434    
    822000   584.70599     -3340.5172      37.78959      -3302.7276      33934.371      5698.7434    
    823000   563.27673     -3340.7034      36.404616     -3304.2988      34434.473      5698.7434    
    824000   588.74793     -3340.7686      38.050822     -3302.7178      34223.754      5698.7434    
    825000   587.01371     -3339.3946      37.938739     -3301.4558      36540.722      5698.7434    
    826000   605.98974     -3339.7265      39.165161     -3300.5613      37782.828      5698.7434    
    827000   574.24851     -3339.0095      37.113723     -3301.8958      37622.722      5698.7434    
    828000   590.22187     -3341.2392      38.146082     -3303.0931      34590.223      5698.7434    
    829000   620.97133     -3341.1223      40.133422     -3300.9889      34802.757      5698.7434    
    830000   618.13227     -3340.2513      39.949933     -3300.3014      35972.95       5698.7434    
    831000   576.9175      -3340.6365      37.28622      -3303.3503      34939.59       5698.7434    
    832000   558.57303     -3340.3121      36.100616     -3304.2115      34457.55       5698.7434    
    833000   630.5741      -3339.7683      40.75405      -3299.0143      35024.298      5698.7434    
    834000   609.47022     -3340.5491      39.390104     -3301.159       36084.642      5698.7434    
    835000   611.62686     -3341.3532      39.529488     -3301.8237      34745.633      5698.7434    
    836000   622.14228     -3339.115       40.209101     -3298.9059      37082.907      5698.7434    
    837000   588.18023     -3337.492       38.014131     -3299.4779      38221.503      5698.7434    
    838000   595.74913     -3340.1815      38.503309     -3301.6782      37286.387      5698.7434    
    839000   612.20242     -3340.398       39.566687     -3300.8314      34878.076      5698.7434    
    840000   657.58257     -3338.7816      42.499609     -3296.282       36861.479      5698.7434    
    841000   560.40804     -3339.509       36.219212     -3303.2898      36542.773      5698.7434    
    842000   607.09561     -3342.6752      39.236633     -3303.4385      31309.187      5698.7434    
    843000   600.77883     -3336.2677      38.828379     -3297.4393      41027.827      5698.7434    
    844000   605.31002     -3337.6555      39.12123      -3298.5343      36349.576      5698.7434    
    845000   599.81661     -3341.0765      38.766191     -3302.3103      33868.591      5698.7434    
    846000   590.055       -3337.7687      38.135297     -3299.6334      36869.087      5698.7434    
    847000   593.1139      -3337.8852      38.332994     -3299.5522      35119.862      5698.7434    
    848000   610.39925     -3339.4149      39.450148     -3299.9648      35179.88       5698.7434    
    849000   594.75609     -3341.8201      38.439129     -3303.3809      33023.663      5698.7434    
    850000   574.01429     -3341.2707      37.098585     -3304.1721      31759.689      5698.7434    
    851000   611.0759      -3341.8113      39.49388      -3302.3175      32596.944      5698.7434    
    852000   618.41607     -3339.9653      39.968276     -3299.997       34524.133      5698.7434    
    853000   618.12622     -3336.677       39.949542     -3296.7274      39238.414      5698.7434    
    854000   613.59834     -3340.4966      39.656905     -3300.8397      33231.728      5698.7434    
    855000   603.07349     -3340.0925      38.976683     -3301.1158      35252.844      5698.7434    
    856000   596.63082     -3339.8636      38.560293     -3301.3033      36110.055      5698.7434    
    857000   635.89471     -3339.0014      41.097922     -3297.9035      34447.41       5698.7434    
    858000   627.96981     -3339.1715      40.585734     -3298.5858      36787.407      5698.7434    
    859000   605.32665     -3339.719       39.122305     -3300.5967      37576.304      5698.7434    
    860000   577.46656     -3339.5193      37.321706     -3302.1976      34217.251      5698.7434    
    861000   580.18385     -3339.5089      37.497324     -3302.0116      34601.087      5698.7434    
    862000   610.77818     -3341.0252      39.474638     -3301.5506      32443.518      5698.7434    
    863000   601.59777     -3339.1699      38.881307     -3300.2886      36644.833      5698.7434    
    864000   546.35402     -3339.8488      35.3109       -3304.5379      34897.501      5698.7434    
    865000   586.52955     -3338.7335      37.907447     -3300.826       35626.558      5698.7434    
    866000   606.08108     -3338.3061      39.171064     -3299.135       36482.122      5698.7434    
    867000   627.1968      -3338.6706      40.535775     -3298.1349      36858.133      5698.7434    
    868000   616.71585     -3340.2907      39.85839      -3300.4323      34499.098      5698.7434    
    869000   587.00896     -3339.4346      37.938432     -3301.4962      36070.11       5698.7434    
    870000   607.05961     -3339.7656      39.234307     -3300.5313      32334.238      5698.7434    
    871000   608.31565     -3339.3961      39.315485     -3300.0806      33817.989      5698.7434    
    872000   556.46977     -3340.1766      35.964682     -3304.2119      34781.92       5698.7434    
    873000   571.71138     -3340.0583      36.949748     -3303.1085      32291.146      5698.7434    
    874000   591.24044     -3339.0602      38.211913     -3300.8483      33732.728      5698.7434    
    875000   618.12619     -3337.0443      39.94954      -3297.0947      37606.447      5698.7434    
    876000   629.62863     -3338.7297      40.692944     -3298.0368      36913.111      5698.7434    
    877000   575.49754     -3337.7527      37.194448     -3300.5583      37551.037      5698.7434    
    878000   573.03887     -3338.5366      37.035544     -3301.5011      37282.649      5698.7434    
    879000   598.6061      -3341.1658      38.687956     -3302.4778      36545.471      5698.7434    
    880000   643.52701     -3336.9244      41.591197     -3295.3332      40138.226      5698.7434    
    881000   605.24216     -3341.7316      39.116845     -3302.6148      34194.495      5698.7434    
    882000   624.86511     -3342.71        40.385077     -3302.3249      32821.931      5698.7434    
    883000   603.1921      -3339.0491      38.984349     -3300.0648      37658.178      5698.7434    
    884000   614.52847     -3338.3383      39.71702      -3298.6213      36472.121      5698.7434    
    885000   600.51751     -3338.8253      38.81149      -3300.0138      35949.879      5698.7434    
    886000   600.80515     -3341.1185      38.83008      -3302.2884      35964.745      5698.7434    
    887000   552.0196      -3337.4048      35.677067     -3301.7277      37260.715      5698.7434    
    888000   617.55484     -3339.8782      39.912614     -3299.9656      37627.117      5698.7434    
    889000   620.42391     -3338.5953      40.098042     -3298.4973      36588.6        5698.7434    
    890000   626.18354     -3337.3091      40.470288     -3296.8388      40613.095      5698.7434    
    891000   619.40801     -3340.963       40.032385     -3300.9306      37453.432      5698.7434    
    892000   565.24608     -3339.2651      36.531895     -3302.7332      36216.86       5698.7434    
    893000   554.21799     -3339.935       35.819149     -3304.1158      37324.282      5698.7434    
    894000   592.52521     -3342.7291      38.294947     -3304.4342      34049.96       5698.7434    
    895000   595.85319     -3338.7718      38.510035     -3300.2617      36202.923      5698.7434    
    896000   591.56335     -3338.4538      38.232782     -3300.221       38746.854      5698.7434    
    897000   541.62827     -3340.8453      35.005475     -3305.8398      36796.112      5698.7434    
    898000   608.80754     -3338.6556      39.347276     -3299.3083      37469.189      5698.7434    
    899000   637.04782     -3339.7298      41.172447     -3298.5573      39112.146      5698.7434    
    900000   567.54653     -3341.1535      36.680573     -3304.4729      34465.817      5698.7434    
    901000   570.76281     -3340.2002      36.888442     -3303.3117      38304.966      5698.7434    
    902000   605.45797     -3339.6368      39.130792     -3300.506       37018.333      5698.7434    
    903000   601.24397     -3337.358       38.858441     -3298.4995      39902.677      5698.7434    
    904000   626.38436     -3342.0579      40.483267     -3301.5746      34907.197      5698.7434    
    905000   572.31881     -3340.0306      36.989007     -3303.0416      38036.81       5698.7434    
    906000   571.24908     -3339.1737      36.91987      -3302.2538      38406.998      5698.7434    
    907000   635.42147     -3340.23        41.067336     -3299.1626      37853.791      5698.7434    
    908000   555.23727     -3342.1317      35.885025     -3306.2467      35173.508      5698.7434    
    909000   639.57993     -3341.0632      41.336097     -3299.7272      35968.368      5698.7434    
    910000   605.30268     -3338.21        39.120756     -3299.0893      42083.239      5698.7434    
    911000   603.23187     -3343.2732      38.986919     -3304.2863      36818.056      5698.7434    
    912000   566.28422     -3341.5462      36.59899      -3304.9472      36126          5698.7434    
    913000   612.35591     -3340.7092      39.576607     -3301.1326      36340.509      5698.7434    
    914000   613.92932     -3340.6371      39.678296     -3300.9588      36329.96       5698.7434    
    915000   564.94879     -3340.279       36.512681     -3303.7664      36545.067      5698.7434    
    916000   567.64035     -3341.9521      36.686637     -3305.2655      33931.638      5698.7434    
    917000   594.69122     -3338.7982      38.434937     -3300.3633      35530.746      5698.7434    
    918000   594.2871      -3338.3855      38.408818     -3299.9766      38602.678      5698.7434    
    919000   620.87877     -3341.3078      40.12744      -3301.1804      36845.647      5698.7434    
    920000   582.25334     -3339.9293      37.631075     -3302.2982      36509.132      5698.7434    
    921000   560.53199     -3338.2361      36.227223     -3302.0089      39489.244      5698.7434    
    922000   615.24213     -3337.9495      39.763144     -3298.1864      35697.145      5698.7434    
    923000   599.69662     -3338.1511      38.758436     -3299.3926      35008.572      5698.7434    
    924000   615.47956     -3340.7473      39.778489     -3300.9688      36281.858      5698.7434    
    925000   595.06495     -3338.6973      38.459091     -3300.2382      37306.709      5698.7434    
    926000   608.83015     -3335.8033      39.348737     -3296.4545      39940.855      5698.7434    
    927000   604.84215     -3339.0612      39.090992     -3299.9703      37470.027      5698.7434    
    928000   584.25634     -3339.9775      37.76053      -3302.217       36735.649      5698.7434    
    929000   620.25715     -3338.8329      40.087265     -3298.7456      36341.696      5698.7434    
    930000   625.44417     -3338.1188      40.422502     -3297.6963      39701.202      5698.7434    
    931000   612.67785     -3341.4626      39.597414     -3301.8652      33421.505      5698.7434    
    932000   565.80197     -3339.4835      36.567822     -3302.9156      34929.247      5698.7434    
    933000   602.65717     -3340.2659      38.949777     -3301.3161      35920.853      5698.7434    
    934000   612.61284     -3337.6411      39.593212     -3298.0479      36952.137      5698.7434    
    935000   624.94658     -3339.8183      40.390343     -3299.4279      35884.33       5698.7434    
    936000   576.1419      -3339.9953      37.236093     -3302.7593      34423.01       5698.7434    
    937000   601.3493      -3341.7048      38.865249     -3302.8395      35230.594      5698.7434    
    938000   565.15129     -3338.6743      36.525769     -3302.1485      39417.77       5698.7434    
    939000   600.88202     -3339.5571      38.835048     -3300.7221      37111.484      5698.7434    
    940000   606.56765     -3339.08        39.202511     -3299.8775      35758.618      5698.7434    
    941000   582.06092     -3341.2905      37.61864      -3303.6718      35484.093      5698.7434    
    942000   600.9842      -3343.136       38.841652     -3304.2944      34352.958      5698.7434    
    943000   591.04698     -3340.6075      38.199409     -3302.4081      33407.49       5698.7434    
    944000   624.99057     -3334.7258      40.393186     -3294.3326      42574.509      5698.7434    
    945000   578.02429     -3339.603       37.357752     -3302.2452      37073.468      5698.7434    
    946000   581.11085     -3339.0867      37.557236     -3301.5295      36736.555      5698.7434    
    947000   581.41001     -3340.4831      37.576571     -3302.9065      34977.607      5698.7434    
    948000   552.23697     -3339.9123      35.691116     -3304.2212      33156.992      5698.7434    
    949000   592.12602     -3339.8961      38.269148     -3301.627       34880.739      5698.7434    
    950000   601.54851     -3339.5329      38.878124     -3300.6547      40603.601      5698.7434    
    951000   612.96099     -3337.7849      39.615713     -3298.1692      37760.769      5698.7434    
    952000   617.89072     -3337.2543      39.934322     -3297.3199      39753.243      5698.7434    
    953000   605.70465     -3341.4796      39.146735     -3302.3328      33555.529      5698.7434    
    954000   598.80603     -3339.3676      38.700877     -3300.6667      36754.263      5698.7434    
    955000   643.79652     -3339.1773      41.608616     -3297.5687      35830.379      5698.7434    
    956000   563.70226     -3338.7355      36.432118     -3302.3034      34788.868      5698.7434    
    957000   616.27628     -3339.3469      39.829981     -3299.5169      35185.78       5698.7434    
    958000   647.03476     -3340.6282      41.817904     -3298.8103      33866.664      5698.7434    
    959000   605.83235     -3340.9698      39.154989     -3301.8148      36454.648      5698.7434    
    960000   586.05496     -3340.1065      37.876775     -3302.2297      33264.621      5698.7434    
    961000   630.11655     -3339.7462      40.724478     -3299.0218      37158.278      5698.7434    
    962000   629.75889     -3341.1602      40.701363     -3300.4589      33100.586      5698.7434    
    963000   587.33513     -3341.4543      37.959512     -3303.4948      31839.244      5698.7434    
    964000   572.03659     -3342.5391      36.970766     -3305.5683      35003.287      5698.7434    
    965000   610.9439      -3338.7048      39.485349     -3299.2194      36066.463      5698.7434    
    966000   574.7115      -3339.4173      37.143646     -3302.2737      34708.568      5698.7434    
    967000   599.62736     -3340.0726      38.753959     -3301.3186      35306.425      5698.7434    
    968000   613.02409     -3338.6697      39.619791     -3299.0499      37356.901      5698.7434    
    969000   632.63102     -3337.8671      40.886989     -3296.9801      37157.145      5698.7434    
    970000   623.27278     -3342.3008      40.282165     -3302.0187      32662.42       5698.7434    
    971000   618.22751     -3341.057       39.956089     -3301.1009      36652.186      5698.7434    
    972000   618.71177     -3338.9427      39.987387     -3298.9554      37528.715      5698.7434    
    973000   645.18882     -3338.6919      41.6986       -3296.9933      34054.031      5698.7434    
    974000   587.69942     -3339.0667      37.983056     -3301.0836      38352.36       5698.7434    
    975000   586.35331     -3340.4184      37.896057     -3302.5224      35803.257      5698.7434    
    976000   621.65491     -3340.7434      40.177602     -3300.5658      33744.966      5698.7434    
    977000   655.64894     -3341.0271      42.374639     -3298.6524      36973.32       5698.7434    
    978000   627.45551     -3341.8274      40.552495     -3301.2749      35430.049      5698.7434    
    979000   574.17925     -3338.6172      37.109247     -3301.5079      35347.509      5698.7434    
    980000   565.44487     -3341.8528      36.544743     -3305.308       32162.802      5698.7434    
    981000   581.44514     -3340.5362      37.578842     -3302.9574      32387.486      5698.7434    
    982000   613.06797     -3339.3707      39.622627     -3299.7481      36315          5698.7434    
    983000   615.05665     -3339.8641      39.751156     -3300.113       35158.083      5698.7434    
    984000   614.94957     -3342.8591      39.744235     -3303.1148      33266.124      5698.7434    
    985000   609.97125     -3343.3521      39.422486     -3303.9296      34019.446      5698.7434    
    986000   577.60827     -3339.2309      37.330864     -3301.9         36598.362      5698.7434    
    987000   618.09328     -3339.7766      39.947414     -3299.8292      35099.225      5698.7434    
    988000   582.80852     -3340.2004      37.666957     -3302.5335      32752.684      5698.7434    
    989000   588.96819     -3342.2122      38.065057     -3304.1471      31673.11       5698.7434    
    990000   618.50573     -3340.5309      39.97407      -3300.5569      33400.15       5698.7434    
    991000   603.20519     -3338.0573      38.985195     -3299.0721      38698.705      5698.7434    
    992000   611.02553     -3340.1903      39.490624     -3300.6997      35535.739      5698.7434    
    993000   623.90083     -3344.1255      40.322756     -3303.8027      31818.618      5698.7434    
    994000   635.59339     -3343.1585      41.078447     -3302.0801      30711.557      5698.7434    
    995000   626.09604     -3341.2014      40.464633     -3300.7368      35419.761      5698.7434    
    996000   593.17022     -3339.9683      38.336635     -3301.6317      37371.553      5698.7434    
    997000   591.84256     -3341.3654      38.250827     -3303.1145      35624.062      5698.7434    
    998000   596.13327     -3336.7275      38.528136     -3298.1994      36990.721      5698.7434    
    999000   642.7443      -3340.5989      41.54061      -3299.0583      34112.009      5698.7434    
   1000000   586.48427     -3339.8346      37.904521     -3301.93        36451.33       5698.7434    
   1001000   601.64454     -3342.0764      38.88433      -3303.1921      33593.167      5698.7434    
   1002000   573.41345     -3342.852       37.059753     -3305.7922      33424.049      5698.7434    
   1003000   609.34145     -3342.4826      39.381782     -3303.1008      35320.45       5698.7434    
   1004000   614.00384     -3340.9616      39.683112     -3301.2785      35390.097      5698.7434    
   1005000   618.99422     -3339.2206      40.005641     -3299.215       37268.561      5698.7434    
   1006000   580.18077     -3339.456       37.497125     -3301.9589      36191.769      5698.7434    
   1007000   618.73648     -3340.6587      39.988984     -3300.6697      36099.612      5698.7434    
   1008000   610.23077     -3339.3405      39.439259     -3299.9013      37741.116      5698.7434    
   1009000   621.87849     -3341.8555      40.192052     -3301.6635      37365.875      5698.7434    
   1010000   602.11328     -3342.0724      38.914625     -3303.1577      35142.346      5698.7434    
   1011000   602.86246     -3338.5874      38.963044     -3299.6243      37531.455      5698.7434    
   1012000   624.00608     -3339.9611      40.329558     -3299.6315      37771.025      5698.7434    
   1013000   580.57549     -3339.867       37.522636     -3302.3443      35489.695      5698.7434    
   1014000   595.57486     -3341.5134      38.492047     -3303.0213      34149.899      5698.7434    
   1015000   622.04299     -3340.5385      40.202684     -3300.3358      34997.764      5698.7434    
   1016000   622.52648     -3341.1871      40.233932     -3300.9532      37555.539      5698.7434    
   1017000   574.44306     -3340.6678      37.126297     -3303.5415      36068.819      5698.7434    
   1018000   622.46373     -3341.5058      40.229876     -3301.276       35946.073      5698.7434    
   1019000   608.44502     -3343.205       39.323846     -3303.8812      30192.005      5698.7434    
   1020000   607.40343     -3342.5197      39.256528     -3303.2632      32619.6        5698.7434    
   1021000   625.80268     -3338.0826      40.445672     -3297.6369      38362.71       5698.7434    
   1022000   601.8344      -3339.0912      38.896601     -3300.1946      37339.059      5698.7434    
   1023000   587.47872     -3340.4052      37.968792     -3302.4364      35632.407      5698.7434    
   1024000   594.26287     -3342.2275      38.407252     -3303.8202      34428.778      5698.7434    
   1025000   581.20088     -3339.235       37.563055     -3301.6719      38230.525      5698.7434    
   1026000   613.37231     -3339.7538      39.642297     -3300.1115      38543.261      5698.7434    
   1027000   620.23598     -3338.5451      40.085896     -3298.4592      35502.786      5698.7434    
   1028000   623.38952     -3340.1254      40.28971      -3299.8357      36871.83       5698.7434    
   1029000   591.25574     -3339.5675      38.212902     -3301.3546      35642.22       5698.7434    
   1030000   578.09886     -3340.6583      37.362571     -3303.2957      32622.144      5698.7434    
   1031000   572.0523      -3343.1177      36.971781     -3306.1459      34999.252      5698.7434    
   1032000   596.52932     -3339.6578      38.553733     -3301.1041      35865.345      5698.7434    
   1033000   640.79076     -3341.5688      41.414353     -3300.1545      34901.377      5698.7434    
   1034000   641.89681     -3340.9252      41.485837     -3299.4394      33879.357      5698.7434    
   1035000   590.09183     -3340.8796      38.137678     -3302.7419      34287.359      5698.7434    
   1036000   614.89761     -3337.7813      39.740877     -3298.0404      36902.694      5698.7434    
   1037000   598.78249     -3338.7198      38.699356     -3300.0204      36618.008      5698.7434    
   1038000   613.50051     -3342.6945      39.650583     -3303.0439      31448.844      5698.7434    
   1039000   556.16189     -3338.8286      35.944783     -3302.8839      38396.391      5698.7434    
   1040000   611.75967     -3339.2682      39.538072     -3299.7301      33375.959      5698.7434    
   1041000   631.02126     -3341.5646      40.78295      -3300.7816      34816.366      5698.7434    
   1042000   612.04743     -3340.7992      39.55667      -3301.2425      37232.66       5698.7434    
   1043000   599.60374     -3341.6055      38.752433     -3302.8531      36980.61       5698.7434    
   1044000   572.65178     -3341.7537      37.010526     -3304.7432      36564.49       5698.7434    
   1045000   576.48267     -3343.6821      37.258117     -3306.424       34150.822      5698.7434    
   1046000   607.54314     -3340.8174      39.265557     -3301.5518      35519.76       5698.7434    
   1047000   604.27626     -3339.2412      39.054419     -3300.1868      37354.137      5698.7434    
   1048000   608.10415     -3341.1599      39.301815     -3301.858       35498.468      5698.7434    
   1049000   598.80017     -3340.7478      38.700498     -3302.0473      36896.085      5698.7434    
   1050000   565.51252     -3342.0697      36.549115     -3305.5206      34862.67       5698.7434    
   1051000   598.97313     -3338.0828      38.711677     -3299.3711      38429.147      5698.7434    
   1052000   575.54062     -3342.3203      37.197232     -3305.1231      34564.836      5698.7434    
   1053000   571.73982     -3339.4266      36.951586     -3302.475       37161.686      5698.7434    
   1054000   608.5063      -3340.1777      39.327807     -3300.8499      34945.472      5698.7434    
   1055000   617.0165      -3339.5906      39.877821     -3299.7128      38460.391      5698.7434    
   1056000   615.22176     -3341.8095      39.761827     -3302.0477      36213.357      5698.7434    
   1057000   589.35934     -3340.2271      38.090337     -3302.1368      37842.629      5698.7434    
   1058000   635.08125     -3339.6691      41.045347     -3298.6237      39356.51       5698.7434    
   1059000   603.14079     -3339.0579      38.981033     -3300.0769      37088.707      5698.7434    
   1060000   589.48331     -3341.1554      38.098349     -3303.057       35397.201      5698.7434    
   1061000   590.94654     -3338.1984      38.192918     -3300.0054      39390.479      5698.7434    
   1062000   630.31256     -3340.7175      40.737146     -3299.9804      38220.972      5698.7434    
   1063000   605.75478     -3340.4564      39.149976     -3301.3064      37239.658      5698.7434    
   1064000   599.47298     -3341.5009      38.743982     -3302.7569      39166.668      5698.7434    
   1065000   589.24002     -3339.7637      38.082625     -3301.6811      35811.832      5698.7434    
   1066000   633.36526     -3340.6382      40.934443     -3299.7037      36502.232      5698.7434    
   1067000   613.02973     -3341.7348      39.620156     -3302.1146      33897.188      5698.7434    
   1068000   623.19838     -3342.8908      40.277356     -3302.6134      36737.9        5698.7434    
   1069000   662.31475     -3341.8915      42.80545      -3299.086       35451.599      5698.7434    
   1070000   620.70352     -3338.9635      40.116113     -3298.8474      36875.516      5698.7434    
   1071000   592.66642     -3341.3475      38.304073     -3303.0435      38527.306      5698.7434    
   1072000   586.36037     -3341.2302      37.896514     -3303.3337      34606.167      5698.7434    
   1073000   597.55588     -3340.5991      38.62008      -3301.979       36326.132      5698.7434    
   1074000   570.80996     -3340.5669      36.891489     -3303.6754      32941.235      5698.7434    
   1075000   585.39588     -3342.2561      37.834178     -3304.4219      33430.497      5698.7434    
   1076000   623.6016      -3342.4198      40.303416     -3302.1164      34402.547      5698.7434    
   1077000   615.27939     -3340.1524      39.765552     -3300.3868      38709.956      5698.7434    
   1078000   622.53907     -3341.8313      40.234745     -3301.5965      35108.203      5698.7434    
   1079000   607.98562     -3341.4757      39.294154     -3302.1815      35516.608      5698.7434    
   1080000   611.92204     -3339.2193      39.548565     -3299.6708      37207.052      5698.7434    
   1081000   610.51461     -3340.5678      39.457603     -3301.1102      35615.127      5698.7434    
   1082000   558.27186     -3340.2218      36.081151     -3304.1407      34927.919      5698.7434    
   1083000   614.05023     -3343.604       39.686111     -3303.9179      34087.756      5698.7434    
   1084000   604.92165     -3340.2832      39.09613      -3301.1871      35761.131      5698.7434    
   1085000   581.10438     -3341.34        37.556818     -3303.7832      34979.295      5698.7434    
   1086000   558.29173     -3341.7705      36.082435     -3305.6881      35590.998      5698.7434    
   1087000   626.82603     -3340.6417      40.511812     -3300.1299      37796.588      5698.7434    
   1088000   615.17069     -3339.1267      39.758527     -3299.3682      37608.709      5698.7434    
   1089000   584.28851     -3339.8242      37.762609     -3302.0616      37911          5698.7434    
   1090000   600.64348     -3344.1454      38.819632     -3305.3258      33336.606      5698.7434    
   1091000   601.91546     -3342.5688      38.90184      -3303.667       33849.021      5698.7434    
   1092000   598.27309     -3341.6052      38.666433     -3302.9388      36831.029      5698.7434    
   1093000   602.23541     -3339.0238      38.922518     -3300.1013      37532.754      5698.7434    
   1094000   597.01991     -3340.3562      38.58544      -3301.7707      36110.931      5698.7434    
   1095000   604.33114     -3341.3254      39.057965     -3302.2675      34340.291      5698.7434    
   1096000   540.93881     -3342.5697      34.960915     -3307.6088      32321.936      5698.7434    
   1097000   586.08062     -3338.3089      37.878433     -3300.4304      37316.322      5698.7434    
   1098000   605.36912     -3339.2665      39.12505      -3300.1414      35660.4        5698.7434    
   1099000   584.31747     -3339.2628      37.76448      -3301.4983      36351.937      5698.7434    
   1100000   593.47507     -3341.1274      38.356337     -3302.7711      34246.459      5698.7434    
   1101000   606.26514     -3340.2592      39.18296      -3301.0762      35771.714      5698.7434    
   1102000   615.6443      -3338.3981      39.789136     -3298.609       38413.513      5698.7434    
   1103000   610.73891     -3340.186       39.4721       -3300.7139      38014.606      5698.7434    
   1104000   589.54919     -3342.4694      38.102607     -3304.3668      36464.633      5698.7434    
   1105000   600.5767      -3340.7985      38.815316     -3301.9832      36144.127      5698.7434    
   1106000   611.04563     -3339.1557      39.491923     -3299.6637      36337.903      5698.7434    
   1107000   627.90732     -3343.1482      40.581696     -3302.5665      33466.969      5698.7434    
   1108000   570.05761     -3342.6539      36.842865     -3305.811       34037.494      5698.7434    
   1109000   593.91864     -3340.5375      38.385005     -3302.1525      35887.029      5698.7434    
   1110000   599.92405     -3340.5763      38.773135     -3301.8032      35273.066      5698.7434    
   1111000   599.29931     -3340.6625      38.732758     -3301.9298      36744.296      5698.7434    
   1112000   589.55481     -3339.8522      38.10297      -3301.7492      37938.445      5698.7434    
   1113000   614.8055      -3339.2584      39.734924     -3299.5235      38570.668      5698.7434    
   1114000   537.06419     -3343.2855      34.710497     -3308.575       33640.632      5698.7434    
   1115000   587.17161     -3340.9262      37.948944     -3302.9773      36725.721      5698.7434    
   1116000   604.38496     -3340.9931      39.061444     -3301.9317      37644.642      5698.7434    
   1117000   627.77792     -3341.3626      40.573333     -3300.7893      36874.532      5698.7434    
   1118000   573.81489     -3340.9779      37.085698     -3303.8922      34796.131      5698.7434    
   1119000   634.5752      -3342.6679      41.012641     -3301.6552      33265.894      5698.7434    
   1120000   640.50706     -3340.2588      41.396018     -3298.8628      39693.484      5698.7434    
   1121000   618.06061     -3340.5862      39.945302     -3300.6409      35004.472      5698.7434    
   1122000   586.37728     -3340.0587      37.897606     -3302.1611      37834.48       5698.7434    
   1123000   583.92543     -3340.7297      37.739143     -3302.9905      39750.717      5698.7434    
   1124000   607.79443     -3339.4531      39.281798     -3300.1713      35864.615      5698.7434    
   1125000   596.74535     -3339.5615      38.567695     -3300.9938      37710.876      5698.7434    
   1126000   562.27836     -3341.683       36.340091     -3305.3429      35086.265      5698.7434    
   1127000   577.47296     -3342.4182      37.322119     -3305.0961      35584.004      5698.7434    
   1128000   601.59608     -3340.4724      38.881198     -3301.5912      36829.952      5698.7434    
   1129000   580.84345     -3338.7993      37.539954     -3301.2593      35044.951      5698.7434    
   1130000   600.48057     -3342.3389      38.809103     -3303.5298      35971.978      5698.7434    
   1131000   614.27893     -3340.4666      39.700891     -3300.7657      35701.941      5698.7434    
   1132000   631.44671     -3340.6202      40.810447     -3299.8098      34205.038      5698.7434    
   1133000   615.45219     -3337.5423      39.77672      -3297.7655      39431.309      5698.7434    
   1134000   598.6188      -3340.6295      38.688776     -3301.9407      34015.91       5698.7434    
   1135000   617.7777      -3340.9386      39.927017     -3301.0116      36251.75       5698.7434    
   1136000   562.42535     -3339.6976      36.349591     -3303.348       38553.17       5698.7434    
   1137000   570.00226     -3341.5072      36.839287     -3304.6679      35765.416      5698.7434    
   1138000   606.21761     -3341.8036      39.179888     -3302.6237      34245.368      5698.7434    
   1139000   588.70345     -3338.8304      38.047946     -3300.7825      37434.851      5698.7434    
   1140000   612.1414      -3341.7974      39.562743     -3302.2347      34113.024      5698.7434    
   1141000   638.21845     -3340.7506      41.248105     -3299.5025      36722.938      5698.7434    
   1142000   620.20927     -3339.0265      40.08417      -3298.9423      38572.502      5698.7434    
   1143000   611.9097      -3337.9144      39.547768     -3298.3666      37233.807      5698.7434    
   1144000   553.80076     -3339.1756      35.792183     -3303.3835      35400.015      5698.7434    
   1145000   601.81895     -3342.1018      38.895602     -3303.2062      35010.598      5698.7434    
   1146000   605.89506     -3339.2518      39.159042     -3300.0927      34479.233      5698.7434    
   1147000   624.98627     -3340.4793      40.392908     -3300.0864      36155.04       5698.7434    
   1148000   586.07312     -3340.1648      37.877948     -3302.2868      36790.751      5698.7434    
   1149000   586.61959     -3344.5436      37.913267     -3306.6304      31046.982      5698.7434    
   1150000   592.59277     -3339.5447      38.299313     -3301.2454      35993.345      5698.7434    
   1151000   609.22921     -3340.2676      39.374528     -3300.893       35918.018      5698.7434    
   1152000   620.14169     -3340.6236      40.079803     -3300.5438      34026.45       5698.7434    
   1153000   608.72312     -3340.9746      39.341819     -3301.6328      33220.758      5698.7434    
   1154000   618.74541     -3340.565       39.989561     -3300.5754      33856.92       5698.7434    
   1155000   578.53348     -3341.1823      37.390661     -3303.7917      32461.184      5698.7434    
   1156000   594.31733     -3343.1982      38.410772     -3304.7874      34235.911      5698.7434    
   1157000   584.26328     -3341.1713      37.760978     -3303.4103      34492.647      5698.7434    
   1158000   597.03691     -3341.7674      38.586539     -3303.1808      36054.483      5698.7434    
   1159000   618.46618     -3342.0292      39.971514     -3302.0577      32233.6        5698.7434    
   1160000   595.14887     -3339.1289      38.464514     -3300.6644      36290.757      5698.7434    
   1161000   617.06833     -3340.2599      39.881171     -3300.3787      35123.204      5698.7434    
   1162000   601.83545     -3339.6613      38.896669     -3300.7646      38147.363      5698.7434    
   1163000   573.94705     -3342.3943      37.09424      -3305.3001      33322.277      5698.7434    
   1164000   585.58        -3342.3691      37.846078     -3304.523       33076.462      5698.7434    
   1165000   608.71105     -3340.271       39.341039     -3300.93        36733.433      5698.7434    
   1166000   626.54249     -3340.9707      40.493486     -3300.4772      34720.5        5698.7434    
   1167000   577.20699     -3341.0563      37.304929     -3303.7514      33746.947      5698.7434    
   1168000   603.06847     -3341.4238      38.976359     -3302.4474      35023.165      5698.7434    
   1169000   610.05351     -3339.3738      39.427803     -3299.9459      35126.18       5698.7434    
   1170000   632.32867     -3338.3843      40.867448     -3297.5168      36326.806      5698.7434    
   1171000   623.50731     -3340.9704      40.297323     -3300.6731      36804.918      5698.7434    
   1172000   597.76215     -3340.838       38.633411     -3302.2046      37334.775      5698.7434    
   1173000   569.73825     -3341.0894      36.822225     -3304.2672      32236.411      5698.7434    
   1174000   575.53032     -3338.9496      37.196566     -3301.753       34673.016      5698.7434    
   1175000   608.06096     -3337.6773      39.299024     -3298.3783      36264.932      5698.7434    
   1176000   627.29298     -3340.9771      40.541991     -3300.4351      35451.203      5698.7434    
   1177000   577.927       -3340.5605      37.351464     -3303.209       34887.687      5698.7434    
   1178000   582.03655     -3340.3516      37.617065     -3302.7345      37608.284      5698.7434    
   1179000   636.46959     -3335.6373      41.135076     -3294.5022      37590.592      5698.7434    
   1180000   605.18488     -3341.4444      39.113142     -3302.3313      34452.818      5698.7434    
   1181000   601.06452     -3341.9464      38.846843     -3303.0996      34749.655      5698.7434    
   1182000   614.08798     -3340.4771      39.688551     -3300.7885      36678.024      5698.7434    
   1183000   647.29115     -3340.4224      41.834474     -3298.5879      35112.55       5698.7434    
   1184000   602.16608     -3339.3006      38.918037     -3300.3826      34402.603      5698.7434    
   1185000   618.44534     -3342.4491      39.970167     -3302.4789      33860.765      5698.7434    
   1186000   577.22078     -3339.7875      37.305821     -3302.4816      33424.064      5698.7434    
   1187000   613.04453     -3339.7442      39.621113     -3300.1231      33235.623      5698.7434    
   1188000   601.52041     -3339.2352      38.876308     -3300.3589      36751.883      5698.7434    
   1189000   608.89549     -3338.5138      39.35296      -3299.1609      36789.746      5698.7434    
   1190000   596.80145     -3340.4633      38.571321     -3301.892       35817.445      5698.7434    
   1191000   571.69569     -3339.7552      36.948734     -3302.8065      37571.37       5698.7434    
   1192000   570.18149     -3340.4292      36.850871     -3303.5783      33558.488      5698.7434    
   1193000   589.90234     -3338.893       38.125431     -3300.7676      32368.683      5698.7434    
   1194000   584.25167     -3341.9273      37.760228     -3304.167       34704.784      5698.7434    
   1195000   608.09025     -3342.525       39.300917     -3303.2241      31006.977      5698.7434    
   1196000   589.28731     -3341.4144      38.085681     -3303.3287      34366.628      5698.7434    
   1197000   631.56881     -3340.6868      40.818338     -3299.8684      34847.131      5698.7434    
   1198000   605.4245      -3342.0871      39.12863      -3302.9585      34220.046      5698.7434    
   1199000   592.75222     -3342.328       38.309619     -3304.0184      36401.827      5698.7434    
   1200000   591.24801     -3340.3753      38.212402     -3302.1629      33661.798      5698.7434    
   1201000   621.28804     -3340.8341      40.153891     -3300.6803      33409.201      5698.7434    
   1202000   615.96201     -3340.0862      39.809669     -3300.2765      37452.311      5698.7434    
   1203000   596.87611     -3341.3897      38.576146     -3302.8135      35041.072      5698.7434    
   1204000   572.43567     -3339.9978      36.996559     -3303.0012      36084.998      5698.7434    
   1205000   612.49548     -3340.2582      39.585627     -3300.6726      33727.056      5698.7434    
   1206000   627.39615     -3339.499       40.548659     -3298.9504      36579.223      5698.7434    
   1207000   611.96924     -3339.9029      39.551616     -3300.3512      34406.774      5698.7434    
   1208000   583.00748     -3340.1123      37.679815     -3302.4324      35749.024      5698.7434    
   1209000   569.32656     -3340.8382      36.795617     -3304.0426      34781.636      5698.7434    
   1210000   590.74399     -3339.3531      38.179827     -3301.1733      34393.909      5698.7434    
   1211000   623.62023     -3341.4905      40.304621     -3301.1859      33352.129      5698.7434    
   1212000   623.34812     -3342.2096      40.287034     -3301.9225      34268.723      5698.7434    
   1213000   597.241       -3341.3886      38.599729     -3302.7888      34500.96       5698.7434    
   1214000   570.40658     -3340.5849      36.865418     -3303.7195      34379.648      5698.7434    
   1215000   584.7399      -3342.116       37.791782     -3304.3243      33261.245      5698.7434    
   1216000   582.64617     -3339.4482      37.656464     -3301.7917      34177.791      5698.7434    
   1217000   615.80147     -3339.4744      39.799293     -3299.6751      33904.046      5698.7434    
   1218000   618.83818     -3340.728       39.995557     -3300.7324      33755.213      5698.7434    
   1219000   581.4545      -3340.7765      37.579446     -3303.1971      34244.144      5698.7434    
   1220000   619.81974     -3341.8631      40.058995     -3301.8041      34708.761      5698.7434    
   1221000   603.72066     -3340.3219      39.01851      -3301.3034      34488.248      5698.7434    
   1222000   577.45349     -3341.2433      37.320861     -3303.9225      35689.249      5698.7434    
   1223000   592.48924     -3341.1209      38.292623     -3302.8282      34481.622      5698.7434    
   1224000   634.15876     -3339.8469      40.985726     -3298.8612      37025.929      5698.7434    
   1225000   618.21716     -3338.4229      39.95542      -3298.4675      37958.819      5698.7434    
   1226000   601.91702     -3342.535       38.901941     -3303.633       35771.76       5698.7434    
   1227000   588.37279     -3341.545       38.026576     -3303.5184      32372.43       5698.7434    
   1228000   578.07448     -3339.1533      37.360996     -3301.7923      33258.236      5698.7434    
   1229000   624.2078      -3340.6866      40.342595     -3300.344       33615.513      5698.7434    
   1230000   591.05676     -3339.3484      38.200041     -3301.1484      36425.363      5698.7434    
   1231000   583.55286     -3341.721       37.715064     -3304.0059      33247.963      5698.7434    
   1232000   596.44626     -3343.4578      38.548365     -3304.9094      32175.56       5698.7434    
   1233000   599.64255     -3341.7188      38.754941     -3302.9638      36137.109      5698.7434    
   1234000   605.63106     -3339.8529      39.141979     -3300.711       37009.184      5698.7434    
   1235000   608.32718     -3340.0321      39.31623      -3300.7159      35507.755      5698.7434    
   1236000   617.92531     -3341.2282      39.936558     -3301.2917      35146.785      5698.7434    
   1237000   562.61305     -3341.0573      36.361722     -3304.6956      35070.64       5698.7434    
   1238000   542.69011     -3338.979       35.074101     -3303.9049      36254.7        5698.7434    
   1239000   604.06877     -3342.0312      39.041009     -3302.9902      34720.821      5698.7434    
   1240000   618.07028     -3338.2812      39.945927     -3298.3353      36571.201      5698.7434    
   1241000   597.89137     -3340.2643      38.641762     -3301.6225      36824.006      5698.7434    
   1242000   601.93238     -3341.9502      38.902933     -3303.0473      31757.272      5698.7434    
   1243000   581.91561     -3339.3619      37.609248     -3301.7527      36163.107      5698.7434    
   1244000   614.71597     -3338.4117      39.729138     -3298.6825      36808.603      5698.7434    
   1245000   612.26735     -3339.2986      39.570883     -3299.7277      35406.281      5698.7434    
   1246000   607.79318     -3341.9373      39.281717     -3302.6556      34838.341      5698.7434    
   1247000   621.84631     -3341.1232      40.189972     -3300.9333      33086.66       5698.7434    
   1248000   658.56267     -3339.2462      42.562953     -3296.6833      36319.379      5698.7434    
   1249000   568.74396     -3340.6282      36.757963     -3303.8703      34361.453      5698.7434    
   1250000   592.60072     -3339.2228      38.299827     -3300.9229      36245.902      5698.7434    
   1251000   591.55159     -3339.9594      38.232022     -3301.7274      34102.307      5698.7434    
   1252000   601.41292     -3343.1125      38.869361     -3304.2432      32154.079      5698.7434    
   1253000   604.54027     -3340.3599      39.071482     -3301.2884      34363.004      5698.7434    
   1254000   584.41915     -3338.2111      37.771052     -3300.4401      36149.583      5698.7434    
   1255000   576.46449     -3339.5076      37.256942     -3302.2507      36040.899      5698.7434    
   1256000   566.93002     -3339.5546      36.640728     -3302.9138      36342.526      5698.7434    
   1257000   614.09768     -3340.4321      39.689178     -3300.7429      36082.927      5698.7434    
   1258000   626.9184      -3337.3162      40.517782     -3296.7984      37830.457      5698.7434    
   1259000   589.93448     -3341.2285      38.127508     -3303.101       33242.68       5698.7434    
   1260000   589.60664     -3340.8641      38.10632      -3302.7578      32951.548      5698.7434    
   1261000   603.19317     -3339.629       38.984418     -3300.6446      34170.585      5698.7434    
   1262000   581.79624     -3338.1304      37.601533     -3300.5289      38581.102      5698.7434    
   1263000   598.386       -3340.624       38.673731     -3301.9502      33309.763      5698.7434    
   1264000   627.19313     -3342.5745      40.535537     -3302.0389      34200.298      5698.7434    
   1265000   626.35283     -3340.2343      40.481229     -3299.753       38114.458      5698.7434    
   1266000   615.76695     -3339.0539      39.797063     -3299.2568      36972.568      5698.7434    
   1267000   583.40712     -3340.0403      37.705645     -3302.3346      35319.758      5698.7434    
   1268000   627.94784     -3342.8854      40.584315     -3302.3011      32319.551      5698.7434    
   1269000   636.63142     -3341.3602      41.145535     -3300.2147      35580.444      5698.7434    
   1270000   567.58242     -3341.9631      36.682893     -3305.2802      34467.687      5698.7434    
   1271000   600.23426     -3342.2661      38.793184     -3303.4729      31564.078      5698.7434    
   1272000   598.94118     -3339.5873      38.709612     -3300.8777      35020.964      5698.7434    
   1273000   609.60958     -3342.707       39.399111     -3303.3079      32443.644      5698.7434    
   1274000   625.6056      -3340.9413      40.432936     -3300.5084      35167.225      5698.7434    
   1275000   621.08033     -3338.6733      40.140467     -3298.5329      38308.286      5698.7434    
   1276000   609.48172     -3339.874       39.390848     -3300.4832      35344.283      5698.7434    
   1277000   626.52515     -3341.2437      40.492366     -3300.7513      32842.101      5698.7434    
   1278000   557.15378     -3341.3845      36.008889     -3305.3756      35736.371      5698.7434    
   1279000   577.18986     -3341.1116      37.303822     -3303.8078      33829.134      5698.7434    
   1280000   591.99939     -3339.8902      38.260963     -3301.6292      34590.011      5698.7434    
   1281000   620.55382     -3339.2858      40.106438     -3299.1793      36831.504      5698.7434    
   1282000   610.14585     -3340.467       39.43377      -3301.0332      35728.481      5698.7434    
   1283000   534.29472     -3341.5122      34.531506     -3306.9807      34230.448      5698.7434    
   1284000   650.61175     -3342.0246      42.049084     -3299.9755      34784.743      5698.7434    
   1285000   619.11931     -3339.2289      40.013726     -3299.2152      35922.814      5698.7434    
   1286000   570.80482     -3342.0297      36.891157     -3305.1385      33590.636      5698.7434    
   1287000   550.49749     -3340.1197      35.578693     -3304.541       36409.499      5698.7434    
   1288000   626.97083     -3339.8601      40.52117      -3299.3389      36150.643      5698.7434    
   1289000   590.38154     -3338.2671      38.156402     -3300.1107      36575.65       5698.7434    
   1290000   597.26968     -3340.1865      38.601583     -3301.585       35518.695      5698.7434    
   1291000   563.28658     -3338.7841      36.405252     -3302.3788      36874.519      5698.7434    
   1292000   626.27377     -3340.9271      40.476119     -3300.451       34559.455      5698.7434    
   1293000   591.25674     -3339.4077      38.212966     -3301.1947      34165.132      5698.7434    
   1294000   591.54824     -3342.3245      38.231806     -3304.0927      32189.802      5698.7434    
   1295000   615.48132     -3342.1459      39.778602     -3302.3673      35389.237      5698.7434    
   1296000   639.69014     -3340.4525      41.34322      -3299.1093      36396.058      5698.7434    
   1297000   646.09636     -3341.2179      41.757255     -3299.4606      36086.614      5698.7434    
   1298000   591.25155     -3338.9209      38.21263      -3300.7083      33696.371      5698.7434    
   1299000   584.50435     -3341.626       37.776558     -3303.8495      37350.065      5698.7434    
   1300000   599.66744     -3342.523       38.75655      -3303.7665      35263.995      5698.7434    
   1301000   628.37534     -3341.3414      40.611944     -3300.7295      33922.376      5698.7434    
   1302000   620.46692     -3340.1739      40.100822     -3300.0731      35375.484      5698.7434    
   1303000   598.26552     -3339.5793      38.665944     -3300.9134      36519.112      5698.7434    
   1304000   587.59407     -3341.5079      37.976247     -3303.5317      35813.628      5698.7434    
   1305000   597.53932     -3340.8892      38.61901      -3302.2702      35041.909      5698.7434    
   1306000   594.24144     -3339.5335      38.405867     -3301.1277      33063.791      5698.7434    
   1307000   628.13187     -3338.4002      40.596208     -3297.804       37131.906      5698.7434    
   1308000   593.10724     -3339.3485      38.332564     -3301.016       33984.114      5698.7434    
   1309000   585.35181     -3341.1864      37.83133      -3303.3551      34496.969      5698.7434    
   1310000   611.94426     -3341.0709      39.550002     -3301.5209      36188.321      5698.7434    
   1311000   614.84538     -3336.165       39.737502     -3296.4275      37740.155      5698.7434    
   1312000   585.88723     -3338.7455      37.865934     -3300.8795      35502.804      5698.7434    
   1313000   611.73897     -3341.1966      39.536734     -3301.6599      34481.956      5698.7434    
   1314000   584.42826     -3341.2545      37.771641     -3303.4828      35127.953      5698.7434    
   1315000   587.98934     -3337.6059      38.001794     -3299.6041      37034.868      5698.7434    
   1316000   624.82644     -3339.1662      40.382578     -3298.7837      35167.18       5698.7434    
   1317000   628.04885     -3341.7495      40.590843     -3301.1586      31634.875      5698.7434    
   1318000   570.85762     -3340.3582      36.894569     -3303.4637      34989.541      5698.7434    
   1319000   603.25977     -3341.7722      38.988723     -3302.7834      34504.76       5698.7434    
   1320000   587.93305     -3341.5006      37.998156     -3303.5025      33443.419      5698.7434    
   1321000   606.68875     -3340.679       39.210338     -3301.4687      32779.092      5698.7434    
   1322000   621.22399     -3338.7179      40.149752     -3298.5681      34856.223      5698.7434    
   1323000   597.33943     -3338.4174      38.606091     -3299.8113      37122.491      5698.7434    
   1324000   599.72829     -3340.8363      38.760483     -3302.0758      35279.999      5698.7434    
   1325000   595.23039     -3341.7811      38.469783     -3303.3113      33073.588      5698.7434    
   1326000   613.89382     -3340.006       39.676002     -3300.33        34879.704      5698.7434    
   1327000   554.4741      -3341.0087      35.835701     -3305.173       35781.557      5698.7434    
   1328000   595.93045     -3341.7527      38.515028     -3303.2376      33927.486      5698.7434    
   1329000   588.96659     -3338.4063      38.064954     -3300.3414      39514.732      5698.7434    
   1330000   596.4464      -3339.3111      38.548374     -3300.7628      37662.466      5698.7434    
   1331000   566.18354     -3339.6635      36.592483     -3303.0711      34816.278      5698.7434    
   1332000   608.25131     -3341.3433      39.311326     -3302.032       32650.256      5698.7434    
   1333000   604.49552     -3342.0953      39.068589     -3303.0267      33818.166      5698.7434    
   1334000   590.24465     -3339.9414      38.147555     -3301.7938      35126.84       5698.7434    
   1335000   677.64222     -3338.5015      43.796066     -3294.7054      37819.307      5698.7434    
   1336000   579.09401     -3340.1299      37.426888     -3302.703       34445.564      5698.7434    
   1337000   582.75829     -3340.6103      37.663711     -3302.9465      35362.004      5698.7434    
   1338000   619.22009     -3339.2603      40.020239     -3299.2401      38196.77       5698.7434    
   1339000   603.50671     -3339.4555      39.004683     -3300.4508      38452.38       5698.7434    
   1340000   597.10921     -3341.6359      38.591212     -3303.0447      34613.439      5698.7434    
   1341000   604.26045     -3342.1662      39.053397     -3303.1128      31504.652      5698.7434    
   1342000   592.74425     -3339.7841      38.309104     -3301.475       35588.103      5698.7434    
   1343000   592.40086     -3338.4989      38.286911     -3300.2119      35614.193      5698.7434    
   1344000   601.96094     -3340.6034      38.904779     -3301.6987      36438.353      5698.7434    
   1345000   626.44474     -3339.3756      40.487169     -3298.8884      36014.158      5698.7434    
   1346000   607.73115     -3339.5501      39.277708     -3300.2724      34905.072      5698.7434    
   1347000   596.41069     -3341.9115      38.546066     -3303.3654      35669.224      5698.7434    
   1348000   591.73312     -3342.2023      38.243754     -3303.9585      33041.811      5698.7434    
   1349000   588.50358     -3339.0601      38.035029     -3301.0251      36307.154      5698.7434    
   1350000   556.33422     -3340.6728      35.955921     -3304.7168      35562.625      5698.7434    
   1351000   556.70675     -3339.7501      35.979998     -3303.7701      35573.274      5698.7434    
   1352000   582.98806     -3338.624       37.678561     -3300.9455      38278.759      5698.7434    
   1353000   601.1819      -3337.7173      38.85443      -3298.8629      35331.15       5698.7434    
   1354000   623.12112     -3340.7326      40.272363     -3300.4603      35900.815      5698.7434    
   1355000   603.20752     -3340.4922      38.985346     -3301.5069      36038.571      5698.7434    
   1356000   602.15899     -3338.1807      38.917579     -3299.2631      37654.801      5698.7434    
   1357000   611.11704     -3338.3178      39.496539     -3298.8212      39396.362      5698.7434    
   1358000   604.90122     -3337.3523      39.094809     -3298.2575      37073.05       5698.7434    
   1359000   590.06383     -3340.5324      38.135868     -3302.3965      34099.425      5698.7434    
   1360000   601.03215     -3340.4763      38.844752     -3301.6316      35077.123      5698.7434    
   1361000   594.49576     -3340.1326      38.422304     -3301.7103      34619.376      5698.7434    
   1362000   651.18862     -3339.0564      42.086367     -3296.97        36236.379      5698.7434    
   1363000   601.73252     -3339.8407      38.890017     -3300.9507      35458.906      5698.7434    
   1364000   585.01872     -3340.463       37.809803     -3302.6532      35864.8        5698.7434    
   1365000   589.99109     -3340.4768      38.131167     -3302.3456      35504.16       5698.7434    
   1366000   620.39567     -3340.2931      40.096217     -3300.1969      35347.173      5698.7434    
   1367000   592.50676     -3338.1198      38.293755     -3299.826       37981.945      5698.7434    
   1368000   544.69681     -3342.3631      35.203794     -3307.1593      34416.109      5698.7434    
   1369000   580.68859     -3340.9788      37.529946     -3303.4489      31829.518      5698.7434    
   1370000   583.10361     -3339.5513      37.686029     -3301.8652      33630.77       5698.7434    
   1371000   649.67165     -3340.1302      41.988326     -3298.1419      36508.637      5698.7434    
   1372000   621.42871     -3338.6254      40.162982     -3298.4624      40094.247      5698.7434    
   1373000   599.37678     -3340.1189      38.737765     -3301.3812      37484.932      5698.7434    
   1374000   598.91197     -3341.1408      38.707724     -3302.4331      34589.998      5698.7434    
   1375000   598.19835     -3339.5683      38.661603     -3300.9067      35994.773      5698.7434    
   1376000   605.90191     -3339.0298      39.159485     -3299.8703      34792.631      5698.7434    
   1377000   570.68142     -3342.1743      36.883182     -3305.2911      33093.98       5698.7434    
   1378000   572.11582     -3341.4937      36.975887     -3304.5178      34695.604      5698.7434    
   1379000   598.80631     -3341.4284      38.700895     -3302.7275      33735.235      5698.7434    
   1380000   600.25065     -3339.4842      38.794243     -3300.6899      34316.658      5698.7434    
   1381000   580.24471     -3342.755       37.501258     -3305.2537      31205.198      5698.7434    
   1382000   595.95132     -3343.4115      38.516377     -3304.8952      34558.145      5698.7434    
   1383000   600.33365     -3340.0432      38.799607     -3301.2436      37098.317      5698.7434    
   1384000   579.40575     -3340.7375      37.447036     -3303.2905      33525.409      5698.7434    
   1385000   590.43729     -3340.9994      38.160005     -3302.8394      34489.492      5698.7434    
   1386000   597.67214     -3343.2284      38.627594     -3304.6008      33308.068      5698.7434    
   1387000   583.85921     -3341.6246      37.734863     -3303.8898      34072.338      5698.7434    
   1388000   610.19826     -3339.9926      39.437158     -3300.5554      35065.06       5698.7434    
   1389000   605.12476     -3340.8107      39.109257     -3301.7014      34826.225      5698.7434    
   1390000   570.09915     -3341.7879      36.845549     -3304.9423      32811.519      5698.7434    
   1391000   573.04725     -3340.9214      37.036086     -3303.8853      35016.129      5698.7434    
   1392000   586.89315     -3338.9973      37.930947     -3301.0664      35926.81       5698.7434    
   1393000   639.37466     -3339.8181      41.322831     -3298.4952      35592.427      5698.7434    
   1394000   623.62012     -3340.3245      40.304613     -3300.0199      32870.136      5698.7434    
   1395000   596.39666     -3341.6777      38.545159     -3303.1325      33147.834      5698.7434    
   1396000   579.04387     -3341.4673      37.423648     -3304.0436      31470.446      5698.7434    
   1397000   643.24566     -3342.5602      41.573013     -3300.9872      33993.103      5698.7434    
   1398000   593.28954     -3340.2217      38.344346     -3301.8774      34852.791      5698.7434    
   1399000   594.9583      -3342.2365      38.452198     -3303.7843      33237.052      5698.7434    
   1400000   588.07606     -3340.6807      38.007398     -3302.6733      35592.033      5698.7434    
   1401000   561.41227     -3338.5337      36.284116     -3302.2496      34832.674      5698.7434    
   1402000   568.23289     -3342.4983      36.724933     -3305.7734      35425.353      5698.7434    
   1403000   588.4425      -3341.7008      38.031081     -3303.6697      35396.267      5698.7434    
   1404000   601.0006      -3342.1151      38.842713     -3303.2724      35975.471      5698.7434    
   1405000   637.0053      -3341.0741      41.169699     -3299.9044      33203.208      5698.7434    
   1406000   601.90442     -3341.6965      38.901127     -3302.7953      35625.896      5698.7434    
   1407000   603.96126     -3339.607       39.03406      -3300.5729      34940.905      5698.7434    
   1408000   618.13708     -3339.725       39.950244     -3299.7747      36129.077      5698.7434    
   1409000   530.28979     -3342.898       34.272667     -3308.6253      32979.367      5698.7434    
   1410000   616.35732     -3341.4822      39.835219     -3301.6469      37559.919      5698.7434    
   1411000   558.0938      -3337.3797      36.069642     -3301.31        38078.272      5698.7434    
   1412000   607.65194     -3341.3874      39.272589     -3302.1148      35301.421      5698.7434    
   1413000   553.44037     -3342.551       35.768891     -3306.7821      32898.059      5698.7434    
   1414000   592.72051     -3340.1777      38.30757      -3301.8701      36866.368      5698.7434    
   1415000   608.32124     -3339.7049      39.315846     -3300.389       37006.496      5698.7434    
   1416000   612.32234     -3342.1295      39.574437     -3302.5551      35341.257      5698.7434    
   1417000   578.11309     -3341.3498      37.363491     -3303.9864      35205.243      5698.7434    
   1418000   580.54746     -3340.7369      37.520824     -3303.2161      33337.548      5698.7434    
   1419000   596.13051     -3340.3682      38.527958     -3301.8403      35523.822      5698.7434    
   1420000   583.02002     -3338.4526      37.680626     -3300.772       37268.428      5698.7434    
   1421000   622.54628     -3340.8439      40.235211     -3300.6087      34213.295      5698.7434    
   1422000   572.28669     -3338.2071      36.98693      -3301.2201      33239.425      5698.7434    
   1423000   595.45502     -3341.0846      38.484301     -3302.6003      33724.287      5698.7434    
   1424000   582.59144     -3340.4163      37.652927     -3302.7633      35368.525      5698.7434    
   1425000   601.88102     -3341.121       38.899614     -3302.2214      34861.195      5698.7434    
   1426000   591.40017     -3340.2268      38.222236     -3302.0046      37275.051      5698.7434    
   1427000   605.97727     -3340.3347      39.164355     -3301.1703      34836.812      5698.7434    
   1428000   605.15889     -3339.1463      39.111463     -3300.0348      35473.983      5698.7434    
   1429000   582.62343     -3341.5683      37.654994     -3303.9133      33009.717      5698.7434    
   1430000   585.64771     -3338.7865      37.850454     -3300.936       36225.362      5698.7434    
   1431000   614.97571     -3342.2689      39.745925     -3302.5229      34589.036      5698.7434    
   1432000   583.51475     -3339.3453      37.712601     -3301.6327      34867.997      5698.7434    
   1433000   630.77575     -3340.4553      40.767082     -3299.6883      35448.376      5698.7434    
   1434000   564.21222     -3339.9882      36.465077     -3303.5231      36074.423      5698.7434    
   1435000   623.70815     -3340.7034      40.310303     -3300.3931      34512.968      5698.7434    
   1436000   598.9571      -3340.0946      38.710641     -3301.3839      34832.259      5698.7434    
   1437000   579.76268     -3341.9912      37.470104     -3304.5211      35711.669      5698.7434    
   1438000   570.66925     -3341.6432      36.882395     -3304.7608      33756.435      5698.7434    
   1439000   578.8485      -3338.6987      37.41102      -3301.2877      38049.057      5698.7434    
   1440000   645.57792     -3340.9831      41.723748     -3299.2593      33744.22       5698.7434    
   1441000   597.04424     -3341.3008      38.587013     -3302.7138      35368.392      5698.7434    
   1442000   589.77652     -3339.1399      38.117299     -3301.0226      37572.258      5698.7434    
   1443000   603.36945     -3338.3188      38.995811     -3299.323       35797.86       5698.7434    
   1444000   605.38607     -3341.2479      39.126145     -3302.1218      34205.939      5698.7434    
   1445000   575.62987     -3340.5111      37.203        -3303.3081      35018.563      5698.7434    
   1446000   626.28081     -3341.1648      40.476574     -3300.6882      32933.184      5698.7434    
   1447000   622.292       -3336.3569      40.218777     -3296.1381      37499.143      5698.7434    
   1448000   552.31062     -3338.7267      35.695875     -3303.0308      37360.435      5698.7434    
   1449000   615.56621     -3341.2584      39.784089     -3301.4743      32634.615      5698.7434    
   1450000   613.48119     -3339.3403      39.649334     -3299.691       38504.417      5698.7434    
   1451000   638.18465     -3339.9163      41.24592      -3298.6703      33561.924      5698.7434    
   1452000   627.63419     -3340.2583      40.564043     -3299.6942      31892.165      5698.7434    
   1453000   606.67041     -3340.6282      39.209153     -3301.4191      33929.523      5698.7434    
   1454000   587.1754      -3337.7804      37.949189     -3299.8312      35441.273      5698.7434    
   1455000   563.34701     -3343.8131      36.409158     -3307.4039      29997.108      5698.7434    
   1456000   624.22051     -3341.0856      40.343417     -3300.7421      34859.013      5698.7434    
   1457000   624.06131     -3341.0889      40.333128     -3300.7558      35026.854      5698.7434    
   1458000   567.58349     -3340.036       36.682962     -3303.353       36939.088      5698.7434    
   1459000   574.6316      -3341.2688      37.138482     -3304.1303      36414.921      5698.7434    
   1460000   595.97063     -3339.0709      38.517625     -3300.5533      35812.47       5698.7434    
   1461000   613.27445     -3340.7582      39.635972     -3301.1223      35570.382      5698.7434    
   1462000   592.74805     -3341.6531      38.309349     -3303.3438      31802.508      5698.7434    
   1463000   603.77531     -3341.0838      39.022042     -3302.0618      34050.912      5698.7434    
   1464000   592.17187     -3342.8627      38.272111     -3304.5906      32194.693      5698.7434    
   1465000   581.17958     -3339.5336      37.561679     -3301.9719      36188.34       5698.7434    
   1466000   635.4674      -3341.5969      41.070304     -3300.5266      34912.163      5698.7434    
   1467000   613.11779     -3339.4626      39.625847     -3299.8368      33086.427      5698.7434    
   1468000   587.38973     -3340.117       37.963041     -3302.154       33866.27       5698.7434    
   1469000   569.39339     -3337.8139      36.799936     -3301.0139      36849.533      5698.7434    
   1470000   621.37336     -3338.5603      40.159405     -3298.4009      37282.027      5698.7434    
   1471000   629.11012     -3339.9214      40.659433     -3299.2619      34118.717      5698.7434    
   1472000   559.26585     -3337.2167      36.145392     -3301.0713      35315.731      5698.7434    
   1473000   578.6918      -3340.0572      37.400893     -3302.6563      35686.629      5698.7434    
   1474000   575.67503     -3342.4573      37.205919     -3305.2514      32941.605      5698.7434    
   1475000   605.96277     -3339.871       39.163418     -3300.7076      35779.178      5698.7434    
   1476000   587.80805     -3338.2099      37.990077     -3300.2199      35812.982      5698.7434    
   1477000   626.17963     -3340.9095      40.470035     -3300.4394      34899.416      5698.7434    
   1478000   569.86775     -3339.5679      36.830594     -3302.7373      35337.396      5698.7434    
   1479000   556.57226     -3338.9132      35.971305     -3302.9419      35716.737      5698.7434    
   1480000   600.99871     -3340.9387      38.84259      -3302.0961      31567.95       5698.7434    
   1481000   604.91122     -3339.1801      39.095456     -3300.0847      36779.719      5698.7434    
   1482000   614.85406     -3338.9911      39.738063     -3299.253       34611.07       5698.7434    
   1483000   595.61276     -3339.8895      38.494496     -3301.395       35721.933      5698.7434    
   1484000   626.06074     -3342.6789      40.462351     -3302.2165      32937.149      5698.7434    
   1485000   590.65556     -3340.9983      38.174111     -3302.8241      33695.145      5698.7434    
   1486000   600.68786     -3340.743       38.8225       -3301.9205      32159.225      5698.7434    
   1487000   578.88406     -3336.7863      37.413318     -3299.373       40554.571      5698.7434    
   1488000   592.29024     -3340.6867      38.279761     -3302.4069      34131.621      5698.7434    
   1489000   589.92463     -3339.8817      38.126871     -3301.7548      36346.627      5698.7434    
   1490000   633.28929     -3341.0025      40.929533     -3300.073       32463.495      5698.7434    
   1491000   601.36903     -3339.1036      38.866524     -3300.237       35010.449      5698.7434    
   1492000   595.15704     -3339.7947      38.465043     -3301.3297      34322.459      5698.7434    
   1493000   587.71504     -3339.4747      37.984066     -3301.4906      35186.264      5698.7434    
   1494000   573.54383     -3340.4731      37.068179     -3303.405       34577.694      5698.7434    
   1495000   620.05242     -3338.6196      40.074033     -3298.5456      32558.054      5698.7434    
   1496000   646.7211      -3340.5997      41.797632     -3298.8021      35038.913      5698.7434    
   1497000   651.22064     -3341.7097      42.088437     -3299.6213      30892.264      5698.7434    
   1498000   608.73865     -3341.634       39.342823     -3302.2911      32615.072      5698.7434    
   1499000   598.97086     -3339.0751      38.71153      -3300.3635      37724.292      5698.7434    
   1500000   665.73784     -3341.9651      43.026685     -3298.9384      34632.119      5698.7434    
   1501000   596.64508     -3340.896       38.561215     -3302.3348      34501.461      5698.7434    
   1502000   595.11803     -3340.775       38.462522     -3302.3125      35626.75       5698.7434    
   1503000   591.02031     -3337.8242      38.197686     -3299.6265      35647.624      5698.7434    
   1504000   585.4788      -3338.5332      37.839538     -3300.6937      33799.263      5698.7434    
   1505000   570.19854     -3341.1992      36.851973     -3304.3473      32676.366      5698.7434    
   1506000   571.074       -3342.291       36.908554     -3305.3825      30185.291      5698.7434    
   1507000   586.82231     -3341.2283      37.926368     -3303.302       35119.955      5698.7434    
   1508000   569.58889     -3337.73        36.812572     -3300.9174      36046.241      5698.7434    
   1509000   593.58324     -3341.0902      38.363328     -3302.7269      34453.526      5698.7434    
   1510000   556.38659     -3340.9929      35.959306     -3305.0336      32712.983      5698.7434    
   1511000   608.99573     -3343.0297      39.359438     -3303.6702      29959.053      5698.7434    
   1512000   604.82982     -3339.9647      39.090195     -3300.8745      34184.104      5698.7434    
   1513000   575.3083      -3338.5999      37.182217     -3301.4177      33156.575      5698.7434    
   1514000   600.9669      -3341.5235      38.840534     -3302.6829      33640.512      5698.7434    
   1515000   531.30424     -3341.0925      34.338231     -3306.7543      34737.953      5698.7434    
   1516000   632.72984     -3340.1756      40.893375     -3299.2822      37306.979      5698.7434    
   1517000   587.30633     -3339.3301      37.957651     -3301.3725      33451.075      5698.7434    
   1518000   607.17808     -3341.5858      39.241964     -3302.3439      33961.156      5698.7434    
   1519000   590.95222     -3340.0921      38.193285     -3301.8988      34547.06       5698.7434    
   1520000   648.19813     -3339.4213      41.893092     -3297.5283      36901.935      5698.7434    
   1521000   608.9602      -3340.9342      39.357142     -3301.5771      35861.932      5698.7434    
   1522000   614.08005     -3342.8596      39.688038     -3303.1716      29566.252      5698.7434    
   1523000   559.11821     -3341.832       36.13585      -3305.6961      34912.37       5698.7434    
   1524000   596.74423     -3341.8353      38.567623     -3303.2677      34044.461      5698.7434    
   1525000   618.66093     -3340.6455      39.984101     -3300.6614      37368.147      5698.7434    
   1526000   629.76601     -3339.941       40.701823     -3299.2391      33868.783      5698.7434    
   1527000   635.07175     -3337.7046      41.044734     -3296.6599      34814.85       5698.7434    
   1528000   571.18031     -3341.9416      36.915425     -3305.0261      30489.585      5698.7434    
   1529000   613.2379      -3339.9981      39.63361      -3300.3645      36702.125      5698.7434    
   1530000   590.71727     -3339.1202      38.1781       -3300.9421      35770.378      5698.7434    
   1531000   574.08736     -3341.0212      37.103308     -3303.9179      31105.778      5698.7434    
   1532000   571.37423     -3342.6254      36.927958     -3305.6975      33809.8        5698.7434    
   1533000   614.10367     -3340.9147      39.689565     -3301.2252      34049.135      5698.7434    
   1534000   623.52759     -3339.3536      40.298634     -3299.055       33565.567      5698.7434    
   1535000   603.29139     -3340.7033      38.990766     -3301.7125      35029.813      5698.7434    
   1536000   599.56474     -3342.0398      38.749913     -3303.2899      34959.367      5698.7434    
   1537000   611.79153     -3339.9943      39.540131     -3300.4542      36147.164      5698.7434    
   1538000   605.9025      -3339.8335      39.159522     -3300.674       34005.343      5698.7434    
   1539000   613.03353     -3338.6136      39.620401     -3298.9932      35442.648      5698.7434    
   1540000   614.36033     -3341.4954      39.706153     -3301.7893      31820.587      5698.7434    
   1541000   591.76649     -3341.1148      38.245911     -3302.8689      33678.72       5698.7434    
   1542000   597.85159     -3340.5483      38.639191     -3301.9092      34148.061      5698.7434    
   1543000   627.88728     -3339.4268      40.580401     -3298.8464      34385.614      5698.7434    
   1544000   616.78121     -3339.0722      39.862614     -3299.2095      34578.176      5698.7434    
   1545000   600.57642     -3340.7699      38.815298     -3301.9547      33679.986      5698.7434    
   1546000   581.93961     -3340.0267      37.610799     -3302.4159      34484.561      5698.7434    
   1547000   601.5822      -3339.8467      38.880301     -3300.9664      34185.125      5698.7434    
   1548000   613.1918      -3337.0916      39.630631     -3297.461       39455.032      5698.7434    
   1549000   620.35116     -3340.9025      40.093341     -3300.8092      35195.834      5698.7434    
   1550000   597.62167     -3341.6329      38.624332     -3303.0085      33598.823      5698.7434    
   1551000   566.3175      -3338.8364      36.601141     -3302.2353      35241.571      5698.7434    
   1552000   621.90124     -3339.2673      40.193522     -3299.0738      34390.806      5698.7434    
   1553000   586.95674     -3339.3718      37.935057     -3301.4368      34704.253      5698.7434    
   1554000   591.17591     -3341.5409      38.207742     -3303.3331      34421.879      5698.7434    
   1555000   589.98367     -3343.6951      38.130687     -3305.5644      29598.286      5698.7434    
   1556000   619.45521     -3341.4198      40.035435     -3301.3844      33815.173      5698.7434    
   1557000   625.91435     -3339.003       40.45289      -3298.5501      37312.213      5698.7434    
   1558000   594.2302      -3337.9447      38.405141     -3299.5395      37968.303      5698.7434    
   1559000   572.05939     -3338.5849      36.97224      -3301.6126      32973.87       5698.7434    
   1560000   565.75676     -3342.027       36.564901     -3305.4621      32661.302      5698.7434    
   1561000   586.08445     -3341.4398      37.87868      -3303.5611      33101.329      5698.7434    
   1562000   614.76284     -3340.4843      39.732167     -3300.7521      36724.145      5698.7434    
   1563000   606.41871     -3339.4157      39.192885     -3300.2229      35650.383      5698.7434    
   1564000   616.07137     -3338.68        39.816737     -3298.8633      39044.118      5698.7434    
   1565000   592.57903     -3340.3553      38.298426     -3302.0569      33998.062      5698.7434    
   1566000   614.56819     -3342.0547      39.719586     -3302.3351      34956.795      5698.7434    
   1567000   611.79862     -3340.2851      39.540589     -3300.7445      34890.507      5698.7434    
   1568000   640.05619     -3339.5668      41.366878     -3298.2         33596.551      5698.7434    
   1569000   621.56964     -3341.8457      40.172091     -3301.6736      31834.859      5698.7434    
   1570000   587.23753     -3340.524       37.953204     -3302.5708      35651.269      5698.7434    
   1571000   610.07571     -3342.0957      39.429237     -3302.6664      31645.063      5698.7434    
   1572000   624.61928     -3340.211       40.369189     -3299.8418      33914.056      5698.7434    
   1573000   597.29222     -3338.2983      38.60304      -3299.6953      34717.05       5698.7434    
   1574000   608.30138     -3341.6386      39.314562     -3302.324       31436.85       5698.7434    
   1575000   561.31268     -3339.532       36.277679     -3303.2543      35322.677      5698.7434    
   1576000   579.33564     -3337.7108      37.442505     -3300.2683      36339.312      5698.7434    
   1577000   591.69431     -3337.5879      38.241246     -3299.3467      35583.616      5698.7434    
   1578000   627.09698     -3339.7606      40.529323     -3299.2313      32086.332      5698.7434    
   1579000   607.20837     -3341.4905      39.243921     -3302.2466      35116.703      5698.7434    
   1580000   576.27145     -3340.0519      37.244465     -3302.8075      32846.169      5698.7434    
   1581000   578.62983     -3341.2542      37.396888     -3303.8573      32825.716      5698.7434    
   1582000   595.28104     -3340.6654      38.473057     -3302.1924      36607.743      5698.7434    
   1583000   603.4013      -3339.535       38.99787      -3300.5371      37197.68       5698.7434    
   1584000   605.71644     -3339.8693      39.147497     -3300.7218      33899.307      5698.7434    
   1585000   607.17557     -3338.9724      39.241801     -3299.7306      35343.39       5698.7434    
   1586000   621.93374     -3341.5516      40.195623     -3301.356       33540.695      5698.7434    
   1587000   585.39401     -3340.9577      37.834057     -3303.1237      32197.346      5698.7434    
   1588000   584.04011     -3341.1165      37.746555     -3303.37        33998.582      5698.7434    
   1589000   603.35487     -3340.5241      38.994869     -3301.5292      34478.981      5698.7434    
   1590000   613.86933     -3339.8644      39.674419     -3300.1899      35925.703      5698.7434    
   1591000   575.15686     -3340.6132      37.172429     -3303.4408      35654.829      5698.7434    
   1592000   578.82807     -3339.2033      37.4097       -3301.7936      35334.959      5698.7434    
   1593000   605.33439     -3341.4424      39.122806     -3302.3196      33174.743      5698.7434    
   1594000   582.72398     -3342.651       37.661493     -3304.9895      31577.2        5698.7434    
   1595000   576.44596     -3341.6868      37.255744     -3304.4311      33078.789      5698.7434    
   1596000   580.72537     -3338.0425      37.532323     -3300.5102      36670.741      5698.7434    
   1597000   630.02525     -3340.6645      40.718578     -3299.9459      34632.426      5698.7434    
   1598000   614.01302     -3341.5833      39.683706     -3301.8996      31085.794      5698.7434    
   1599000   623.17384     -3341.8599      40.275771     -3301.5841      33722.725      5698.7434    
   1600000   598.24288     -3339.5668      38.664481     -3300.9023      34948.047      5698.7434    
   1601000   598.59639     -3338.9491      38.687328     -3300.2618      36249.483      5698.7434    
   1602000   609.41428     -3341.8843      39.386489     -3302.4978      32922.134      5698.7434    
   1603000   625.28364     -3339.3154      40.412127     -3298.9032      35893.335      5698.7434    
   1604000   591.7788      -3340.3408      38.246707     -3302.0941      35530.965      5698.7434    
   1605000   591.12042     -3341.7313      38.204156     -3303.5272      34888.433      5698.7434    
   1606000   615.0582      -3342.101       39.751256     -3302.3497      32712.905      5698.7434    
   1607000   637.71218     -3339.24        41.215384     -3298.0246      36792.205      5698.7434    
   1608000   633.75072     -3338.8967      40.959355     -3297.9373      38101.104      5698.7434    
   1609000   591.39953     -3338.8362      38.222195     -3300.614       38066.46       5698.7434    
   1610000   578.72533     -3339.0328      37.40306      -3301.6297      36269.421      5698.7434    
   1611000   580.68407     -3341.4127      37.529654     -3303.883       34889.202      5698.7434    
   1612000   601.14248     -3340.8543      38.851882     -3302.0024      34392.543      5698.7434    
   1613000   634.42078     -3338.6976      41.002661     -3297.6949      37039.302      5698.7434    
   1614000   637.0618      -3339.6415      41.17335      -3298.4681      35074.443      5698.7434    
   1615000   596.50322     -3339.9972      38.552046     -3301.4451      33547.772      5698.7434    
   1616000   570.77653     -3340.6242      36.889328     -3303.7349      35132.309      5698.7434    
   1617000   605.81331     -3341.3422      39.153758     -3302.1884      35391.069      5698.7434    
   1618000   600.13234     -3339.2141      38.786597     -3300.4275      37630.004      5698.7434    
   1619000   598.30634     -3337.7851      38.668582     -3299.1166      36467.066      5698.7434    
   1620000   597.49762     -3340.1734      38.616314     -3301.5571      36489.689      5698.7434    
   1621000   599.34993     -3342.4598      38.736029     -3303.7238      31368.478      5698.7434    
   1622000   591.12457     -3340.0539      38.204424     -3301.8495      36015.135      5698.7434    
   1623000   638.57879     -3341.3919      41.271394     -3300.1205      35336.99       5698.7434    
   1624000   579.38869     -3341.3669      37.445933     -3303.9209      35787.742      5698.7434    
   1625000   611.35264     -3341.1133      39.511765     -3301.6015      35349.256      5698.7434    
   1626000   606.65243     -3339.1372      39.207991     -3299.9292      35550.184      5698.7434    
   1627000   624.55333     -3340.0953      40.364927     -3299.7304      35661.727      5698.7434    
   1628000   607.45968     -3338.7951      39.260163     -3299.5349      37892.39       5698.7434    
   1629000   585.13484     -3340.5643      37.817307     -3302.747       34463.241      5698.7434    
   1630000   612.61548     -3340.2326      39.593383     -3300.6392      35694.754      5698.7434    
   1631000   614.36437     -3339.4489      39.706414     -3299.7425      36208.743      5698.7434    
   1632000   557.88509     -3341.5571      36.056154     -3305.501       35375.09       5698.7434    
   1633000   587.35614     -3341.8941      37.96087      -3303.9332      32286.758      5698.7434    
   1634000   633.02759     -3342.0336      40.912619     -3301.121       30898.563      5698.7434    
   1635000   598.62125     -3338.3577      38.688935     -3299.6687      37180.939      5698.7434    
   1636000   614.07741     -3341.0761      39.687867     -3301.3882      33974.834      5698.7434    
   1637000   579.87969     -3341.6338      37.477666     -3304.1561      31475.164      5698.7434    
   1638000   547.40016     -3340.4708      35.378512     -3305.0923      33484.993      5698.7434    
   1639000   581.44789     -3340.0461      37.579019     -3302.4671      33414.499      5698.7434    
   1640000   590.66808     -3339.0393      38.174921     -3300.8644      37933.603      5698.7434    
   1641000   606.71514     -3341.1536      39.212043     -3301.9416      33673.055      5698.7434    
   1642000   552.95376     -3341.2962      35.737442     -3305.5588      32683.365      5698.7434    
   1643000   592.21936     -3340.3019      38.27518      -3302.0267      33967.555      5698.7434    
   1644000   591.14757     -3338.4504      38.20591      -3300.2445      34473.442      5698.7434    
   1645000   619.03166     -3338.8778      40.008061     -3298.8697      36870.58       5698.7434    
   1646000   602.0804      -3337.616       38.9125       -3298.7035      39471.303      5698.7434    
   1647000   589.35879     -3340.4582      38.090302     -3302.3679      38508.577      5698.7434    
   1648000   641.53515     -3342.0174      41.462463     -3300.5549      35188.252      5698.7434    
   1649000   575.60688     -3340.2674      37.201514     -3303.0659      35885.352      5698.7434    
   1650000   581.44596     -3341.6014      37.578895     -3304.0225      33925.496      5698.7434    
   1651000   586.80236     -3340.2044      37.925079     -3302.2793      36060.046      5698.7434    
   1652000   599.98162     -3339.4802      38.776856     -3300.7034      37630.613      5698.7434    
   1653000   583.43932     -3339.7044      37.707725     -3301.9966      31090.5        5698.7434    
   1654000   566.36159     -3341.5653      36.60399      -3304.9613      30771.389      5698.7434    
   1655000   595.81621     -3341.146       38.507645     -3302.6384      34591.314      5698.7434    
   1656000   606.99567     -3339.6316      39.230174     -3300.4014      37544.045      5698.7434    
   1657000   599.59091     -3339.8822      38.751604     -3301.1306      34076.037      5698.7434    
   1658000   624.47912     -3342.2185      40.360131     -3301.8584      32075.207      5698.7434    
   1659000   611.71501     -3340.0427      39.535186     -3300.5075      36938.087      5698.7434    
   1660000   584.55434     -3341.6752      37.77979      -3303.8955      35804.935      5698.7434    
   1661000   599.82728     -3341.2371      38.766881     -3302.4702      36978.088      5698.7434    
   1662000   605.60201     -3338.772       39.140102     -3299.6319      36504.422      5698.7434    
   1663000   604.79875     -3339.2794      39.088187     -3300.1913      34475.507      5698.7434    
   1664000   591.72625     -3340.5725      38.243311     -3302.3292      36202.805      5698.7434    
   1665000   610.32473     -3342.0961      39.445331     -3302.6508      34358.319      5698.7434    
   1666000   588.61437     -3341.9335      38.042189     -3303.8913      34190.987      5698.7434    
   1667000   594.60786     -3341.1257      38.429549     -3302.6962      33656.306      5698.7434    
   1668000   609.73851     -3340.0413      39.407444     -3300.6338      34954.155      5698.7434    
   1669000   567.67759     -3342.0806      36.689044     -3305.3916      31127.603      5698.7434    
   1670000   591.68056     -3342.2252      38.240357     -3303.9849      32474.881      5698.7434    
   1671000   603.59429     -3341.5971      39.010343     -3302.5867      36396.991      5698.7434    
   1672000   591.11979     -3337.9908      38.204115     -3299.7866      39994.531      5698.7434    
   1673000   660.29977     -3340.0789      42.675222     -3297.4036      36756.671      5698.7434    
   1674000   588.3208      -3339.466       38.023216     -3301.4427      36740.497      5698.7434    
   1675000   601.07017     -3340.8249      38.847209     -3301.9777      34364.577      5698.7434    
   1676000   609.95705     -3342.4411      39.421569     -3303.0195      35511.621      5698.7434    
   1677000   594.00368     -3341.6723      38.390501     -3303.2818      33195.417      5698.7434    
   1678000   604.54594     -3340.2318      39.071848     -3301.1599      37347.331      5698.7434    
   1679000   570.98851     -3337.1274      36.903029     -3300.2243      38432.977      5698.7434    
   1680000   595.14978     -3337.9489      38.464573     -3299.4843      38625.078      5698.7434    
   1681000   587.95055     -3340.0675      37.999287     -3302.0682      36563.14       5698.7434    
   1682000   578.36681     -3342.0008      37.379889     -3304.6209      35530.303      5698.7434    
   1683000   594.2477      -3342.9181      38.406272     -3304.5119      34180.458      5698.7434    
   1684000   566.64166     -3340.0388      36.622091     -3303.4167      35060.503      5698.7434    
   1685000   588.42266     -3338.3702      38.029799     -3300.3404      38137.595      5698.7434    
   1686000   584.03133     -3341.8205      37.745987     -3304.0745      35778.03       5698.7434    
   1687000   557.24647     -3341.6251      36.01488      -3305.6102      35382.102      5698.7434    
   1688000   564.90751     -3337.9813      36.510013     -3301.4712      37399.845      5698.7434    
   1689000   594.85485     -3337.4825      38.445512     -3299.0369      36147.964      5698.7434    
   1690000   615.35465     -3341.3343      39.770415     -3301.5639      32758.498      5698.7434    
   1691000   592.65552     -3338.3656      38.303369     -3300.0622      37037.19       5698.7434    
   1692000   586.41658     -3338.5603      37.900146     -3300.6602      36987.012      5698.7434    
   1693000   548.96931     -3340.3849      35.479927     -3304.905       32980.779      5698.7434    
   1694000   568.78719     -3340.869       36.760758     -3304.1082      34456.979      5698.7434    
   1695000   616.16268     -3341.6688      39.822638     -3301.8461      35923.859      5698.7434    
   1696000   592.0029      -3338.6027      38.26119      -3300.3415      38149.494      5698.7434    
   1697000   624.57778     -3339.4527      40.366507     -3299.0862      35144.853      5698.7434    
   1698000   628.00617     -3341.6843      40.588084     -3301.0962      33043.504      5698.7434    
   1699000   594.2443      -3341.6586      38.406052     -3303.2526      34589.761      5698.7434    
   1700000   592.67656     -3341.5253      38.304729     -3303.2205      35408.194      5698.7434    
   1701000   609.94326     -3342.5409      39.420677     -3303.1202      33295.594      5698.7434    
   1702000   615.8746      -3341.0122      39.80402      -3301.2082      36306.492      5698.7434    
   1703000   577.79941     -3337.6039      37.343218     -3300.2606      35755.019      5698.7434    
   1704000   607.80255     -3341.8305      39.282323     -3302.5481      33242.899      5698.7434    
   1705000   565.78284     -3341.061       36.566586     -3304.4945      33933.018      5698.7434    
   1706000   606.17121     -3341.9117      39.176889     -3302.7348      33021.39       5698.7434    
   1707000   600.66247     -3339.9516      38.820859     -3301.1307      36396.159      5698.7434    
   1708000   606.0309      -3340.2931      39.167821     -3301.1253      36599.455      5698.7434    
   1709000   602.74882     -3341.4834      38.9557       -3302.5277      32308.38       5698.7434    
   1710000   624.43857     -3339.8957      40.35751      -3299.5382      37344.021      5698.7434    
   1711000   618.53994     -3338.0268      39.976281     -3298.0506      37066.104      5698.7434    
   1712000   600.99116     -3341.1024      38.842102     -3302.2603      33158.562      5698.7434    
   1713000   553.31118     -3341.309       35.760541     -3305.5485      29464.782      5698.7434    
   1714000   592.01733     -3340.5976      38.262123     -3302.3355      33629.067      5698.7434    
   1715000   627.72834     -3340.8696      40.570128     -3300.2995      33908.582      5698.7434    
   1716000   609.94912     -3341.2434      39.421056     -3301.8223      36301.724      5698.7434    
   1717000   566.33116     -3341.2614      36.602024     -3304.6594      36207.378      5698.7434    
   1718000   584.11161     -3339.5874      37.751176     -3301.8362      34890.427      5698.7434    
   1719000   614.85258     -3339.5903      39.737967     -3299.8523      37611.693      5698.7434    
   1720000   580.30335     -3340.6904      37.505047     -3303.1854      31617.678      5698.7434    
   1721000   565.51762     -3340.7672      36.549445     -3304.2177      33615.989      5698.7434    
   1722000   613.43358     -3340.2597      39.646257     -3300.6135      34859.293      5698.7434    
   1723000   586.37003     -3340.3309      37.897138     -3302.4338      32204.143      5698.7434    
   1724000   575.77423     -3339.8939      37.21233      -3302.6816      34207.142      5698.7434    
   1725000   612.76495     -3340.5524      39.603043     -3300.9494      33009.058      5698.7434    
   1726000   608.05839     -3339.6073      39.298858     -3300.3085      35494.148      5698.7434    
   1727000   623.18086     -3339.3366      40.276224     -3299.0603      37361.928      5698.7434    
   1728000   606.42536     -3341.0645      39.193315     -3301.8712      36495.996      5698.7434    
   1729000   596.40679     -3338.7022      38.545814     -3300.1564      38578.498      5698.7434    
   1730000   628.1221      -3338.0514      40.595577     -3297.4559      38829.443      5698.7434    
   1731000   589.53848     -3342.114       38.101915     -3304.012       33700.307      5698.7434    
   1732000   583.86316     -3340.0373      37.735118     -3302.3022      32305.528      5698.7434    
   1733000   592.72118     -3339.6782      38.307613     -3301.3706      34633.083      5698.7434    
   1734000   594.3133      -3340.8708      38.410512     -3302.4603      34044.52       5698.7434    
   1735000   575.88084     -3341.1628      37.219221     -3303.9436      35127.138      5698.7434    
   1736000   638.58297     -3343.077       41.271664     -3301.8054      33440.092      5698.7434    
   1737000   610.86408     -3340.1225      39.48019      -3300.6423      36516.993      5698.7434    
   1738000   618.25531     -3338.1059      39.957885     -3298.148       35840.164      5698.7434    
   1739000   600.68017     -3339.497       38.822003     -3300.675       38881.349      5698.7434    
   1740000   597.28812     -3341.3089      38.602774     -3302.7062      33358.646      5698.7434    
   1741000   606.74382     -3338.3577      39.213897     -3299.1438      37089.641      5698.7434    
   1742000   608.4205      -3339.3087      39.322261     -3299.9865      34710.016      5698.7434    
   1743000   586.90724     -3341.4432      37.931858     -3303.5113      30735.719      5698.7434    
   1744000   563.95701     -3339.1808      36.448582     -3302.7322      37414.9        5698.7434    
   1745000   605.58669     -3337.3771      39.139112     -3298.238       37978.79       5698.7434    
   1746000   600.75754     -3341.1408      38.827003     -3302.3138      34766.345      5698.7434    
   1747000   568.47076     -3337.7028      36.740306     -3300.9625      36280.778      5698.7434    
   1748000   641.38045     -3339.5078      41.452465     -3298.0553      35457.724      5698.7434    
   1749000   616.917       -3341.3186      39.87139      -3301.4472      33327.858      5698.7434    
   1750000   592.99415     -3341.4255      38.325255     -3303.1003      33177.13       5698.7434    
   1751000   627.82142     -3339.957       40.576144     -3299.3808      35202.781      5698.7434    
   1752000   642.22581     -3341.517       41.5071       -3300.0099      34158.136      5698.7434    
   1753000   596.82092     -3340.5243      38.572579     -3301.9517      32669.551      5698.7434    
   1754000   602.64076     -3340.4042      38.948716     -3301.4555      38247.699      5698.7434    
   1755000   648.17969     -3340.2947      41.8919       -3298.4028      34699.055      5698.7434    
   1756000   642.98559     -3341.5923      41.556205     -3300.0361      31109.932      5698.7434    
   1757000   615.79799     -3340.2537      39.799069     -3300.4546      36904.621      5698.7434    
   1758000   560.16618     -3340.6289      36.203581     -3304.4253      32344.349      5698.7434    
   1759000   554.82526     -3342.2872      35.858397     -3306.4288      31166.713      5698.7434    
   1760000   646.33606     -3341.5131      41.772746     -3299.7403      32968.241      5698.7434    
   1761000   631.96819     -3340.9349      40.84415      -3300.0908      34871.289      5698.7434    
   1762000   593.45116     -3338.6342      38.354791     -3300.2794      35425.935      5698.7434    
   1763000   576.92455     -3339.6007      37.286675     -3302.314       34167.452      5698.7434    
   1764000   585.75627     -3340.4494      37.85747      -3302.5919      34652.901      5698.7434    
   1765000   615.00691     -3340.7153      39.747941     -3300.9674      35276.109      5698.7434    
   1766000   601.08553     -3338.6007      38.848201     -3299.7525      36993.179      5698.7434    
   1767000   551.00686     -3337.9422      35.611613     -3302.3306      36405.611      5698.7434    
   1768000   587.65076     -3341.0277      37.979911     -3303.0477      32933.22       5698.7434    
   1769000   633.22713     -3337.7843      40.925515     -3296.8587      35854.379      5698.7434    
   1770000   625.46127     -3339.8736      40.423607     -3299.45        32205.035      5698.7434    
   1771000   602.32644     -3338.3688      38.928402     -3299.4404      36589.185      5698.7434    
   1772000   583.99035     -3338.7976      37.743339     -3301.0543      35584.232      5698.7434    
   1773000   603.05385     -3340.9176      38.975414     -3301.9422      32181.102      5698.7434    
   1774000   584.30898     -3340.5878      37.763932     -3302.8238      31801.436      5698.7434    
   1775000   628.20665     -3341.822       40.601041     -3301.221       32751.344      5698.7434    
   1776000   613.79018     -3338.8295      39.669304     -3299.1602      37195.996      5698.7434    
   1777000   612.28575     -3339.4215      39.572072     -3299.8494      33160.684      5698.7434    
   1778000   602.91672     -3340.6256      38.966551     -3301.6591      34468.982      5698.7434    
   1779000   558.61192     -3341.1492      36.103129     -3305.0461      34748.228      5698.7434    
   1780000   579.69287     -3340.7236      37.465592     -3303.258       34042.599      5698.7434    
   1781000   612.25747     -3341.2607      39.570245     -3301.6904      33479.854      5698.7434    
   1782000   613.44347     -3338.8297      39.646896     -3299.1828      35645.484      5698.7434    
   1783000   595.32585     -3339.6882      38.475953     -3301.2122      34940.03       5698.7434    
   1784000   606.49074     -3341.6541      39.19754      -3302.4565      32911.926      5698.7434    
   1785000   587.48077     -3339.1919      37.968925     -3301.223       36811.17       5698.7434    
   1786000   567.11266     -3337.6238      36.652533     -3300.9713      36156.376      5698.7434    
   1787000   619.51256     -3339.7898      40.039141     -3299.7507      37641.102      5698.7434    
   1788000   592.83372     -3339.7008      38.314886     -3301.3859      36314.786      5698.7434    
   1789000   625.54414     -3341.7044      40.428963     -3301.2754      34862.92       5698.7434    
   1790000   549.6617      -3344.0054      35.524676     -3308.4807      30205.517      5698.7434    
   1791000   617.89571     -3339.3793      39.934645     -3299.4446      37269.188      5698.7434    
   1792000   566.6448      -3338.4738      36.622294     -3301.8516      36234.499      5698.7434    
   1793000   608.14343     -3339.4577      39.304354     -3300.1534      33941.389      5698.7434    
   1794000   631.02939     -3338.6186      40.783476     -3297.8351      38621.194      5698.7434    
   1795000   592.93578     -3338.2686      38.321482     -3299.9471      37628.45       5698.7434    
   1796000   592.64055     -3341.7282      38.302402     -3303.4258      31486.848      5698.7434    
   1797000   592.49708     -3340.0843      38.29313      -3301.7911      34195.648      5698.7434    
   1798000   590.12849     -3341.8451      38.140047     -3303.7051      33485.23       5698.7434    
   1799000   602.7862      -3340.8507      38.958116     -3301.8926      32841.83       5698.7434    
   1800000   601.6784      -3339.9116      38.886518     -3301.0251      35796.077      5698.7434    
   1801000   619.43181     -3340.2895      40.033923     -3300.2555      33381.297      5698.7434    
   1802000   597.05873     -3340.604       38.587949     -3302.0161      33754.619      5698.7434    
   1803000   657.68981     -3343.1599      42.50654      -3300.6534      30716.987      5698.7434    
   1804000   577.52954     -3339.8586      37.325776     -3302.5329      35774.694      5698.7434    
   1805000   599.94608     -3342.0605      38.774559     -3303.286       31206.334      5698.7434    
   1806000   638.21875     -3338.7613      41.248124     -3297.5132      35129.133      5698.7434    
   1807000   623.4886      -3340.8158      40.296114     -3300.5197      31210.883      5698.7434    
   1808000   569.09695     -3339.2913      36.780777     -3302.5106      32519.446      5698.7434    
   1809000   584.17377     -3338.444       37.755193     -3300.6888      34896.884      5698.7434    
   1810000   606.84223     -3339.8775      39.220257     -3300.6573      34996.658      5698.7434    
   1811000   588.73626     -3342.011       38.050067     -3303.9609      33451.116      5698.7434    
   1812000   590.72788     -3341.3983      38.178786     -3303.2195      33716.712      5698.7434    
   1813000   604.1322      -3338.9955      39.045108     -3299.9504      36309.05       5698.7434    
   1814000   603.70312     -3338.3422      39.017377     -3299.3248      37472.113      5698.7434    
   1815000   590.08603     -3340.1496      38.137303     -3302.0123      35851.046      5698.7434    
   1816000   580.3634      -3340.6048      37.508929     -3303.0959      34816.216      5698.7434    
   1817000   589.54276     -3339.7434      38.102191     -3301.6412      33774.746      5698.7434    
   1818000   571.56168     -3338.4315      36.940073     -3301.4915      35582.994      5698.7434    
   1819000   585.36386     -3340.9889      37.832109     -3303.1568      36297.138      5698.7434    
   1820000   578.38048     -3340.6654      37.380772     -3303.2847      34203.279      5698.7434    
   1821000   587.44421     -3340.2354      37.966562     -3302.2689      35894.024      5698.7434    
   1822000   640.05885     -3341.7389      41.36705      -3300.3719      32795          5698.7434    
   1823000   590.3804      -3340.5429      38.156328     -3302.3866      34635.253      5698.7434    
   1824000   598.53559     -3343.2093      38.683398     -3304.5259      28923.964      5698.7434    
   1825000   580.37038     -3340.6375      37.50938      -3303.1281      31750.525      5698.7434    
   1826000   597.84894     -3339.113       38.639021     -3300.474       37445.983      5698.7434    
   1827000   599.10188     -3340.0798      38.719998     -3301.3598      34805.455      5698.7434    
   1828000   582.14206     -3341.4806      37.623884     -3303.8567      34620.463      5698.7434    
   1829000   601.7721      -3341.8205      38.892575     -3302.9279      32994.775      5698.7434    
   1830000   575.112       -3338.6009      37.16953      -3301.4314      37661.862      5698.7434    
   1831000   605.64188     -3341.4645      39.142679     -3302.3218      32114.634      5698.7434    
   1832000   579.50521     -3343.2066      37.453464     -3305.7531      32406.817      5698.7434    
   1833000   597.67032     -3341.0461      38.627476     -3302.4186      33831.269      5698.7434    
   1834000   604.80352     -3340.2722      39.088495     -3301.1837      34997.855      5698.7434    
   1835000   572.02655     -3341.0457      36.970118     -3304.0756      33649.963      5698.7434    
   1836000   626.01777     -3342.2372      40.459574     -3301.7777      34934.877      5698.7434    
   1837000   597.18649     -3340.6007      38.596206     -3302.0045      35269.175      5698.7434    
   1838000   585.38418     -3339.5955      37.833422     -3301.7621      36117.117      5698.7434    
   1839000   606.01534     -3340.1517      39.166816     -3300.9849      35163.903      5698.7434    
   1840000   628.91657     -3340.848       40.646923     -3300.2011      36769.911      5698.7434    
   1841000   578.49622     -3338.2601      37.388253     -3300.8718      37060.349      5698.7434    
   1842000   582.16369     -3342.1219      37.625281     -3304.4967      31598.517      5698.7434    
   1843000   585.38791     -3341.9306      37.833663     -3304.0969      33425.933      5698.7434    
   1844000   624.43048     -3341.8205      40.356987     -3301.4636      33977.532      5698.7434    
   1845000   602.90309     -3340.1433      38.965671     -3301.1776      34264.49       5698.7434    
   1846000   554.81073     -3339.9157      35.857458     -3304.0583      34561.665      5698.7434    
   1847000   589.51621     -3339.9315      38.100475     -3301.831       35494.143      5698.7434    
   1848000   594.88652     -3338.1405      38.447559     -3299.693       37073.12       5698.7434    
   1849000   598.71067     -3336.9199      38.694714     -3298.2252      35955.723      5698.7434    
   1850000   618.97799     -3340.4395      40.004593     -3300.4349      37321.222      5698.7434    
   1851000   593.01497     -3341.8149      38.326601     -3303.4883      31365.196      5698.7434    
   1852000   590.93707     -3340.5895      38.192305     -3302.3972      36736.773      5698.7434    
   1853000   614.42008     -3339.5096      39.710015     -3299.7996      34274.81       5698.7434    
   1854000   599.20081     -3338.9664      38.726392     -3300.24        35376.527      5698.7434    
   1855000   560.21339     -3342.7312      36.206632     -3306.5246      31704.765      5698.7434    
   1856000   600.3142      -3342.0428      38.798351     -3303.2445      33025.831      5698.7434    
   1857000   619.76737     -3340.6042      40.05561      -3300.5486      33413.987      5698.7434    
   1858000   609.25556     -3338.8731      39.376231     -3299.4969      35694.496      5698.7434    
   1859000   605.1319      -3341.4861      39.109719     -3302.3764      34071.98       5698.7434    
   1860000   549.07482     -3340.8127      35.486745     -3305.3259      32220.458      5698.7434    
   1861000   571.10667     -3340.9574      36.910665     -3304.0468      36692.034      5698.7434    
   1862000   578.7825      -3339.1708      37.406755     -3301.764       35469.913      5698.7434    
   1863000   613.12983     -3342.1228      39.626625     -3302.4962      34303.315      5698.7434    
   1864000   599.0963      -3339.8182      38.719637     -3301.0986      37953.787      5698.7434    
   1865000   625.87684     -3341.5462      40.450466     -3301.0957      35892.046      5698.7434    
   1866000   630.01634     -3344.2992      40.718002     -3303.5812      32470.953      5698.7434    
   1867000   586.09436     -3341.1138      37.879321     -3303.2345      34534.643      5698.7434    
   1868000   593.78215     -3340.9129      38.376184     -3302.5367      34356.277      5698.7434    
   1869000   647.35367     -3339.0889      41.838515     -3297.2504      36665.01       5698.7434    
   1870000   590.70051     -3339.7563      38.177017     -3301.5793      34130.508      5698.7434    
   1871000   610.26156     -3341.6487      39.441249     -3302.2075      32858.299      5698.7434    
   1872000   588.02257     -3341.9932      38.003942     -3303.9892      29867.853      5698.7434    
   1873000   545.35092     -3338.2652      35.246069     -3303.0192      36239.021      5698.7434    
   1874000   609.99578     -3340.0806      39.424071     -3300.6566      33407.122      5698.7434    
   1875000   603.60669     -3338.9302      39.011144     -3299.919       33599.941      5698.7434    
   1876000   557.16406     -3341.6453      36.009554     -3305.6357      33904.394      5698.7434    
   1877000   601.44501     -3341.3826      38.871435     -3302.5112      30900.401      5698.7434    
   1878000   599.99539     -3339.5047      38.777745     -3300.7269      34122.608      5698.7434    
   1879000   635.04657     -3339.2591      41.043106     -3298.216       34915.242      5698.7434    
   1880000   633.34509     -3342.2017      40.933139     -3301.2686      32622.151      5698.7434    
   1881000   566.93604     -3342.538       36.641118     -3305.8968      33193.773      5698.7434    
   1882000   629.01705     -3341.4502      40.653418     -3300.7968      36623.776      5698.7434    
   1883000   587.75075     -3337.5909      37.986374     -3299.6045      38669.399      5698.7434    
   1884000   619.87379     -3337.5916      40.062488     -3297.5291      37334.923      5698.7434    
   1885000   619.52372     -3339.9028      40.039863     -3299.863       33924.134      5698.7434    
   1886000   605.8066      -3341.313       39.153325     -3302.1597      32703.389      5698.7434    
   1887000   600.90609     -3340.6385      38.836604     -3301.8019      32862.276      5698.7434    
   1888000   594.3251      -3338.8363      38.411274     -3300.425       37718.818      5698.7434    
   1889000   569.78819     -3339.8041      36.825452     -3302.9786      33217.016      5698.7434    
   1890000   574.48903     -3340.8513      37.129268     -3303.722       34684.575      5698.7434    
   1891000   598.48735     -3339.3775      38.680281     -3300.6972      35761.441      5698.7434    
   1892000   582.13177     -3340.7425      37.623218     -3303.1193      37205.336      5698.7434    
   1893000   571.041       -3342.006       36.906421     -3305.0996      35567.778      5698.7434    
   1894000   589.97357     -3340.7149      38.130035     -3302.5848      38446.389      5698.7434    
   1895000   613.55266     -3340.4502      39.653953     -3300.7963      35354.401      5698.7434    
   1896000   621.54281     -3341.2211      40.170357     -3301.0507      36072.195      5698.7434    
   1897000   598.20235     -3341.6972      38.661861     -3303.0353      36201.568      5698.7434    
   1898000   571.03573     -3340.8945      36.90608      -3303.9884      36801.834      5698.7434    
   1899000   581.91449     -3340.4004      37.609175     -3302.7912      36913.653      5698.7434    
   1900000   609.75625     -3338.0359      39.40859      -3298.6273      39476.912      5698.7434    
   1901000   591.32984     -3340.5302      38.217691     -3302.3126      35637.037      5698.7434    
   1902000   579.36183     -3340.7375      37.444197     -3303.2933      33859.632      5698.7434    
   1903000   611.49757     -3340.472       39.521133     -3300.9509      36281.167      5698.7434    
   1904000   591.74011     -3340.4231      38.244207     -3302.1789      37462.841      5698.7434    
   1905000   594.76106     -3338.3154      38.439451     -3299.8759      39501.383      5698.7434    
   1906000   605.13965     -3339.9778      39.11022      -3300.8676      34345.285      5698.7434    
   1907000   591.26457     -3340.6709      38.213472     -3302.4574      38296.845      5698.7434    
   1908000   596.00175     -3339.993       38.519636     -3301.4734      33878.374      5698.7434    
   1909000   648.0359      -3338.9393      41.882607     -3297.0567      36303.052      5698.7434    
   1910000   615.79206     -3341.3461      39.798685     -3301.5474      36484.241      5698.7434    
   1911000   582.9558      -3340.5955      37.676475     -3302.919       34438.607      5698.7434    
   1912000   604.74654     -3340.3799      39.084812     -3301.2951      32936.626      5698.7434    
   1913000   616.8165      -3341.7898      39.864895     -3301.9249      35550.485      5698.7434    
   1914000   624.66598     -3343.8284      40.372208     -3303.4562      31991.603      5698.7434    
   1915000   587.29355     -3339.202       37.956825     -3301.2452      35995.478      5698.7434    
   1916000   626.25535     -3340.6409      40.474929     -3300.1659      35185.778      5698.7434    
   1917000   569.32526     -3340.0565      36.795533     -3303.261       35487.127      5698.7434    
   1918000   603.62029     -3341.0649      39.012023     -3302.0529      35192.529      5698.7434    
   1919000   577.64664     -3339.6723      37.333344     -3302.339       35273.904      5698.7434    
   1920000   609.84563     -3341.4539      39.414367     -3302.0396      32631.369      5698.7434    
   1921000   612.85335     -3340.8494      39.608757     -3301.2406      33199.548      5698.7434    
   1922000   581.68218     -3341.6248      37.594162     -3304.0306      33657.07       5698.7434    
   1923000   588.91967     -3339.0555      38.061921     -3300.9935      34600.496      5698.7434    
   1924000   613.13004     -3341.3855      39.626639     -3301.7589      34716.621      5698.7434    
   1925000   573.12321     -3341.0164      37.040994     -3303.9754      34046.631      5698.7434    
   1926000   617.57631     -3341.4833      39.914002     -3301.5693      30491.695      5698.7434    
   1927000   603.09038     -3339.0606      38.977775     -3300.0829      38629.767      5698.7434    
   1928000   609.3406      -3339.5958      39.381727     -3300.214       34071.296      5698.7434    
   1929000   599.74809     -3342.1875      38.761762     -3303.4257      31440.914      5698.7434    
   1930000   573.77741     -3340.8797      37.083276     -3303.7964      33801.925      5698.7434    
   1931000   611.0656      -3341.0519      39.493214     -3301.5587      35222.99       5698.7434    
   1932000   598.31136     -3341.1676      38.668907     -3302.4987      32720.472      5698.7434    
   1933000   592.81587     -3338.8528      38.313733     -3300.5391      37832.762      5698.7434    
   1934000   601.88785     -3336.259       38.900055     -3297.359       37674.997      5698.7434    
   1935000   623.11433     -3340.9597      40.271924     -3300.6877      32337.125      5698.7434    
   1936000   558.17205     -3340.6898      36.0747       -3304.6151      33467.266      5698.7434    
   1937000   606.13083     -3342.4792      39.17428      -3303.3049      33742.741      5698.7434    
   1938000   586.30436     -3340.6818      37.892893     -3302.7889      32129.845      5698.7434    
   1939000   616.16847     -3341.6393      39.823013     -3301.8163      35179.896      5698.7434    
   1940000   581.87858     -3338.3646      37.606855     -3300.7577      39167.848      5698.7434    
   1941000   572.30069     -3343.0728      36.987835     -3306.0849      31884.248      5698.7434    
   1942000   588.54278     -3341.454       38.037563     -3303.4164      34420.369      5698.7434    
   1943000   633.48084     -3342.3357      40.941912     -3301.3938      32091.953      5698.7434    
   1944000   622.77968     -3337.6215      40.250296     -3297.3712      38934.266      5698.7434    
   1945000   585.53522     -3337.6807      37.843184     -3299.8376      38799.719      5698.7434    
   1946000   621.31801     -3341.5965      40.155828     -3301.4407      33761.959      5698.7434    
   1947000   599.11369     -3342.6765      38.720761     -3303.9558      33441.133      5698.7434    
   1948000   581.94667     -3339.8499      37.611255     -3302.2387      36070.264      5698.7434    
   1949000   598.09926     -3339.2604      38.655199     -3300.6052      34383.036      5698.7434    
   1950000   595.34038     -3339.7892      38.476892     -3301.3123      35550.526      5698.7434    
   1951000   573.74635     -3341.8164      37.081268     -3304.7351      32409.264      5698.7434    
   1952000   568.75822     -3340.6409      36.758885     -3303.882       34808.532      5698.7434    
   1953000   607.03644     -3340.4204      39.232809     -3301.1876      34229.761      5698.7434    
   1954000   564.4312      -3340.6484      36.479229     -3304.1692      33519.45       5698.7434    
   1955000   576.97668     -3340.1059      37.290045     -3302.8158      34897.388      5698.7434    
   1956000   595.72166     -3341.2628      38.501534     -3302.7612      34701.903      5698.7434    
   1957000   602.77212     -3339.484       38.957206     -3300.5268      35225.272      5698.7434    
   1958000   588.30909     -3338.0985      38.022459     -3300.076       37382          5698.7434    
   1959000   627.7356      -3341.5942      40.570597     -3301.0236      32798.529      5698.7434    
   1960000   601.66213     -3342.3634      38.885467     -3303.4779      33540.524      5698.7434    
   1961000   561.86937     -3341.54        36.313658     -3305.2264      33414.52       5698.7434    
   1962000   572.82433     -3341.5583      37.021678     -3304.5366      32218.547      5698.7434    
   1963000   573.76627     -3340.8735      37.082556     -3303.791       33046.942      5698.7434    
   1964000   580.79028     -3339.7962      37.536518     -3302.2596      35457.147      5698.7434    
   1965000   601.67169     -3341.869       38.886085     -3302.9829      34070.002      5698.7434    
   1966000   617.89414     -3341.1023      39.934543     -3301.1677      33738.825      5698.7434    
   1967000   596.26468     -3338.9096      38.53663      -3300.373       37068.947      5698.7434    
   1968000   625.237       -3341.2539      40.409112     -3300.8447      32889.175      5698.7434    
   1969000   601.5308      -3343.3036      38.876979     -3304.4266      34593.968      5698.7434    
   1970000   609.59193     -3340.896       39.39797      -3301.498       32989.462      5698.7434    
   1971000   626.75084     -3339.7113      40.506952     -3299.2043      35620.71       5698.7434    
   1972000   623.77884     -3341.8677      40.314872     -3301.5528      31157.034      5698.7434    
   1973000   598.9518      -3341.9019      38.710298     -3303.1916      35188.978      5698.7434    
   1974000   620.0888      -3337.5503      40.076384     -3297.474       40064.369      5698.7434    
   1975000   616.98554     -3339.2517      39.87582      -3299.3758      38944.235      5698.7434    
   1976000   622.70467     -3341.3935      40.245448     -3301.148       31903.437      5698.7434    
   1977000   611.38762     -3343.0822      39.514026     -3303.5682      31209.003      5698.7434    
   1978000   576.2894      -3341.9307      37.245625     -3304.6851      33385.678      5698.7434    
   1979000   566.87        -3339.0263      36.636849     -3302.3894      35727.437      5698.7434    
   1980000   616.69533     -3340.2557      39.857064     -3300.3987      35028.234      5698.7434    
   1981000   600.03662     -3339.1923      38.780411     -3300.4119      35535.34       5698.7434    
   1982000   573.61163     -3339.6795      37.072561     -3302.6069      37034.797      5698.7434    
   1983000   597.06391     -3340.352       38.588284     -3301.7638      32639.308      5698.7434    
   1984000   629.01667     -3340.7872      40.653393     -3300.1338      32860.473      5698.7434    
   1985000   666.18403     -3341.8041      43.055522     -3298.7486      32956.367      5698.7434    
   1986000   587.00502     -3339.7826      37.938177     -3301.8444      34226.061      5698.7434    
   1987000   593.70678     -3338.5415      38.371312     -3300.1701      37868.122      5698.7434    
   1988000   645.1783      -3340.9135      41.69792      -3299.2156      34465.691      5698.7434    
   1989000   592.42581     -3341.0243      38.288523     -3302.7358      33553.552      5698.7434    
   1990000   629.27626     -3341.8614      40.670171     -3301.1912      34332.988      5698.7434    
   1991000   596.77018     -3338.2398      38.5693       -3299.6705      37917.117      5698.7434    
   1992000   607.36573     -3339.5203      39.254091     -3300.2662      35166.074      5698.7434    
   1993000   603.04919     -3339.8058      38.975113     -3300.8307      36255.844      5698.7434    
   1994000   569.31136     -3342.1314      36.794635     -3305.3367      31637.116      5698.7434    
   1995000   618.75653     -3340.7062      39.990279     -3300.7159      33084.612      5698.7434    
   1996000   619.42388     -3339.5832      40.033411     -3299.5498      36422.605      5698.7434    
   1997000   594.40006     -3338.3734      38.416119     -3299.9573      39408.087      5698.7434    
   1998000   599.51448     -3341.0896      38.746664     -3302.3429      38457.277      5698.7434    
   1999000   585.52488     -3338.3299      37.842515     -3300.4874      39378.574      5698.7434    
   2000000   593.35461     -3336.7312      38.348551     -3298.3826      39850.616      5698.7434    
Loop time of 47210.3 on 1 procs for 1500000 steps with 501 atoms

Performance: 1.373 ns/day, 17.485 hours/ns, 31.773 timesteps/s, 15.918 katom-step/s
99.2% CPU use with 1 MPI tasks x 1 OpenMP threads

MPI task timing breakdown:
Section |  min time  |  avg time  |  max time  |%varavg| %total
---------------------------------------------------------------
Pair    | 45902      | 45902      | 45902      |   0.0 | 97.23
Neigh   | 1.125      | 1.125      | 1.125      |   0.0 |  0.00
Comm    | 57.024     | 57.024     | 57.024     |   0.0 |  0.12
Output  | 1.2195     | 1.2195     | 1.2195     |   0.0 |  0.00
Modify  | 1191.3     | 1191.3     | 1191.3     |   0.0 |  2.52
Other   |            | 57.33      |            |       |  0.12

Nlocal:            501 ave         501 max         501 min
Histogram: 1 0 0 0 0 0 0 0 0 0
Nghost:           2102 ave        2102 max        2102 min
Histogram: 1 0 0 0 0 0 0 0 0 0
Neighs:              0 ave           0 max           0 min
Histogram: 1 0 0 0 0 0 0 0 0 0
FullNghs:        66186 ave       66186 max       66186 min
Histogram: 1 0 0 0 0 0 0 0 0 0

Total # of neighbors = 66186
Ave neighs/atom = 132.10778
Neighbor list builds = 2023
Dangerous builds = 0

# ── Save final state ─────────────────────────────────────────
variable  pe_final  equal  pe
variable  temp_fin  equal  temp
variable  press_fin equal  press

print "EQUIL_RESULTS_START"
EQUIL_RESULTS_START
print "  T_K          : 600"
  T_K          : 600
print "  pe_final_eV  : ${pe_final}"
  pe_final_eV  : -3336.73115712403
print "  temp_final_K : ${temp_fin}"
  temp_final_K : 593.354609296929
print "  press_final  : ${press_fin}"
  press_final  : 39850.6160490183
print "EQUIL_RESULTS_END"
EQUIL_RESULTS_END

write_data     structures/notebook10-bulk-equilibration/N_7/Hastelloy_N_7_H_600K.lammps
System init for write_data ...
Total wall time: 17:22:23
