LAMMPS (11 Feb 2026 - Development - patch_11Feb2026-99-gb75dfcc930-modified)
KOKKOS mode with Kokkos version 5.0.2 is enabled
  using double precision
  using view layout = legacy
  will use up to 1 GPU(s) per node
  using 1 OpenMP thread(s) per MPI task
package kokkos
package kokkos newton on neigh half
# LAMMPS NVT bulk equilibration — Hastelloy N + 1H
# T = 300 K | Notebook 10
# Phase 1: 250 ps equilibration
# Phase 2: 750 ps production (trajectory for NB11 MSD)
# Refs: NVT [6]; H diffusion [1,2]

units          metal
atom_style     atomic
newton         on
boundary       p p p

read_data      structures/notebook10-bulk-equilibration/N_7/Hastelloy_N_7_H_initial.lammps
Reading data file ...
  orthogonal box = (0 0 0) to (17.861847 17.861847 17.861847)
  1 by 1 by 1 MPI processor grid
  reading atoms ...
  501 atoms
  read_data CPU = 0.024 seconds

pair_style     mliap unified /projects/westgroup/akinyemi.az/mace_lammps/models/mace-mp-0b2-medium.model-mliap_lammps.pt 0
pair_coeff     * * Al B C Cr Fe Mo Ni O H

neighbor       2.0 bin
neigh_modify   every 1 delay 0 check yes

# ── Identify H atom for tracking ─────────────────────────────
group          H_atom   type 9
1 atoms in group H_atom
group          metal    subtract all H_atom
500 atoms in group metal

# ── Thermo ───────────────────────────────────────────────────
thermo         1000
thermo_style   custom step temp pe ke etotal press vol

# ── Timestep ─────────────────────────────────────────────────
timestep       0.0005

# ── Initialize velocities ────────────────────────────────────
velocity       all create 300.0 42 mom yes rot yes dist gaussian

# ── Phase 1: Equilibration ───────────────────────────────────
fix            nvt_equil  all  nvt  temp  300.0  300.0  0.1
print "### Phase 1: Equilibration 250 ps at 300 K ###"
### Phase 1: Equilibration 250 ps at 300 K ###
run            500000

CITE-CITE-CITE-CITE-CITE-CITE-CITE-CITE-CITE-CITE-CITE-CITE-CITE

Your simulation uses code contributions which should be cited:

- KOKKOS package: https://doi.org/10.1145/3731599.3767498

@inproceedings{Johansson25,
 author = {A. Johansson and E. Weinberg and C. Trott and M. McCarthy and S. Moore},
 title = {{LAMMPS-KOKKOS}: {P}erformance Portable Molecular Dynamics Across Exascale Architectures},
 year = 2025,
 booktitle = {Proceedings of the SC '25 Workshops of the International Conference for High Performance Computing,
  Networking, Storage and Analysis},
 pages = {1217–1232},
}

CITE-CITE-CITE-CITE-CITE-CITE-CITE-CITE-CITE-CITE-CITE-CITE-CITE

Neighbor list info ...
  update: every = 1 steps, delay = 0 steps, check = yes
  max neighbors/atom: 2000, page size: 100000
  master list distance cutoff = 7
  ghost atom cutoff = 7
  binsize = 7, bins = 3 3 3
  1 neighbor lists, perpetual/occasional/extra = 1 0 0
  (1) pair mliap/kk, perpetual
      attributes: full, newton on, kokkos_device
      pair build: full/bin/kk/device
      stencil: full/bin/3d
      bin: kk/device
Per MPI rank memory allocation (min/avg/max) = 81.06 | 81.06 | 81.06 Mbytes
   Step          Temp          PotEng         KinEng         TotEng         Press          Volume    
         0   300           -3367.7472      19.389022     -3348.3582      4857.6063      5698.7434    
      1000   295.49011     -3349.6663      19.097547     -3330.5687      20373.187      5698.7434    
      2000   281.21118     -3350.3103      18.174699     -3332.1356      21782.205      5698.7434    
      3000   310.73406     -3349.7967      20.082765     -3329.7139      22963.503      5698.7434    
      4000   321.38982     -3349.4048      20.771447     -3328.6333      21966.459      5698.7434    
      5000   292.19841     -3348.7021      18.884805     -3329.8173      24440.339      5698.7434    
      6000   295.65963     -3350.3796      19.108503     -3331.2711      20724.034      5698.7434    
      7000   290.82649     -3350.3431      18.796137     -3331.5469      23645.398      5698.7434    
      8000   303.75772     -3349.913       19.631884     -3330.2811      24067.61       5698.7434    
      9000   290.19368     -3349.3661      18.755239     -3330.6109      22239.922      5698.7434    
     10000   295.53457     -3350.0057      19.10042      -3330.9052      22170.699      5698.7434    
     11000   301.82615     -3351.5145      19.507046     -3332.0075      21860.344      5698.7434    
     12000   314.80517     -3353.0209      20.345881     -3332.6751      20294.476      5698.7434    
     13000   294.33698     -3350.0544      19.02302      -3331.0313      21742.183      5698.7434    
     14000   300.68204     -3349.8709      19.433102     -3330.4378      22504.563      5698.7434    
     15000   312.51816     -3350.5953      20.198072     -3330.3972      21360.258      5698.7434    
     16000   299.02484     -3350.5431      19.325997     -3331.2171      21154.958      5698.7434    
     17000   289.0879      -3350.5751      18.683772     -3331.8913      21212.692      5698.7434    
     18000   323.00419     -3350.0792      20.875784     -3329.2034      22378.078      5698.7434    
     19000   300.23016     -3349.536       19.403897     -3330.1321      25142.482      5698.7434    
     20000   307.58228     -3351.4872      19.879065     -3331.6082      19504.499      5698.7434    
     21000   301.15467     -3350.8349      19.463648     -3331.3712      21078.771      5698.7434    
     22000   306.21397     -3349.58        19.790631     -3329.7894      22472.434      5698.7434    
     23000   305.12777     -3349.734       19.72043      -3330.0136      22136.242      5698.7434    
     24000   291.94131     -3350.9096      18.868188     -3332.0415      22422.04       5698.7434    
     25000   293.22957     -3351.0458      18.951448     -3332.0943      22384.194      5698.7434    
     26000   297.57375     -3350.3376      19.232213     -3331.1054      21923.352      5698.7434    
     27000   302.28549     -3350.3546      19.536733     -3330.8178      22478.996      5698.7434    
     28000   281.0071      -3350.4109      18.161509     -3332.2494      21597.298      5698.7434    
     29000   279.19764     -3350.9931      18.044564     -3332.9485      20593.884      5698.7434    
     30000   291.0201      -3350.6533      18.80865      -3331.8447      23760.221      5698.7434    
     31000   303.73097     -3350.5796      19.630155     -3330.9494      22987.435      5698.7434    
     32000   291.99635     -3350.9139      18.871745     -3332.0421      22371.43       5698.7434    
     33000   280.70453     -3350.6006      18.141954     -3332.4587      22009.598      5698.7434    
     34000   298.60571     -3350.0302      19.298909     -3330.7313      21573.201      5698.7434    
     35000   306.87519     -3349.9049      19.833366     -3330.0715      22355.834      5698.7434    
     36000   305.04078     -3351.0454      19.714808     -3331.3305      21756.583      5698.7434    
     37000   276.42892     -3350.6213      17.865621     -3332.7557      18670.011      5698.7434    
     38000   278.77003     -3350.8299      18.016927     -3332.8129      20682.748      5698.7434    
     39000   306.03055     -3350.7349      19.778777     -3330.9561      20444.994      5698.7434    
     40000   307.15976     -3349.8787      19.851758     -3330.027       20150.682      5698.7434    
     41000   304.97543     -3351.0177      19.710584     -3331.3072      21709.191      5698.7434    
     42000   295.46462     -3352.0178      19.0959       -3332.9219      22932.286      5698.7434    
     43000   301.22997     -3352.1077      19.468515     -3332.6392      21449.285      5698.7434    
     44000   299.65556     -3350.6617      19.366761     -3331.2949      21436.655      5698.7434    
     45000   301.72679     -3348.9856      19.500625     -3329.485       23308.048      5698.7434    
     46000   314.58278     -3350.1477      20.331508     -3329.8162      21825.979      5698.7434    
     47000   280.3523      -3349.9817      18.11919      -3331.8625      23412.564      5698.7434    
     48000   312.47035     -3350.7139      20.194981     -3330.5189      23243.979      5698.7434    
     49000   311.87792     -3350.5866      20.156692     -3330.4299      23004.161      5698.7434    
     50000   297.27372     -3349.7993      19.212822     -3330.5865      22243.883      5698.7434    
     51000   303.0277      -3351.1559      19.584702     -3331.5712      18930.844      5698.7434    
     52000   304.43158     -3351.3997      19.675435     -3331.7243      20846.547      5698.7434    
     53000   300.8527      -3350.3141      19.444132     -3330.87        20631.05       5698.7434    
     54000   286.12859     -3349.9357      18.492511     -3331.4432      21200.52       5698.7434    
     55000   296.55244     -3349.8069      19.166206     -3330.6407      22780.719      5698.7434    
     56000   294.31839     -3349.9862      19.021819     -3330.9644      20320.227      5698.7434    
     57000   273.21277     -3351.5087      17.657761     -3333.851       17693.857      5698.7434    
     58000   318.21667     -3350.7133      20.566366     -3330.1469      19156.633      5698.7434    
     59000   304.41472     -3350.1852      19.674345     -3330.5109      20199.421      5698.7434    
     60000   276.32797     -3351.1362      17.859097     -3333.2771      18622.052      5698.7434    
     61000   282.35963     -3350.8199      18.248923     -3332.571       19153.319      5698.7434    
     62000   307.75697     -3350.9214      19.890355     -3331.031       17858.029      5698.7434    
     63000   301.61373     -3349.7141      19.493317     -3330.2208      20730.393      5698.7434    
     64000   298.04483     -3351.1758      19.262659     -3331.9131      18751.972      5698.7434    
     65000   290.73546     -3350.3544      18.790254     -3331.5641      21020.465      5698.7434    
     66000   307.09929     -3350.4895      19.84785      -3330.6417      20635.718      5698.7434    
     67000   302.24458     -3349.566       19.534089     -3330.0319      22010.297      5698.7434    
     68000   309.2185      -3349.881       19.984814     -3329.8961      21452.074      5698.7434    
     69000   287.79906     -3349.9476      18.600474     -3331.3471      20461.253      5698.7434    
     70000   302.37571     -3351.3291      19.542564     -3331.7865      22206.722      5698.7434    
     71000   282.62604     -3350.4869      18.266141     -3332.2208      17487.601      5698.7434    
     72000   310.52657     -3350.8167      20.069355     -3330.7474      21709.601      5698.7434    
     73000   297.2534      -3349.7118      19.211509     -3330.5003      21830.256      5698.7434    
     74000   295.80957     -3350.6086      19.118194     -3331.4905      20482.955      5698.7434    
     75000   279.51603     -3350.7823      18.065141     -3332.7171      20424.258      5698.7434    
     76000   299.06667     -3350.4449      19.328701     -3331.1162      21102.219      5698.7434    
     77000   306.82145     -3350.0237      19.829892     -3330.1938      19631.341      5698.7434    
     78000   303.86251     -3351.2479      19.638656     -3331.6092      19733.53       5698.7434    
     79000   292.14194     -3351.5679      18.881155     -3332.6868      18765.529      5698.7434    
     80000   303.64151     -3350.5839      19.624373     -3330.9596      19492.007      5698.7434    
     81000   297.22039     -3350.2091      19.209375     -3330.9997      19511.105      5698.7434    
     82000   299.00253     -3351.3751      19.324555     -3332.0505      19672.149      5698.7434    
     83000   270.67611     -3350.6609      17.493817     -3333.1671      19993.637      5698.7434    
     84000   291.06317     -3350.125       18.811434     -3331.3136      18059.992      5698.7434    
     85000   304.55214     -3350.4633      19.683227     -3330.7801      18884.094      5698.7434    
     86000   313.77686     -3351.0017      20.279421     -3330.7223      18351.228      5698.7434    
     87000   290.61271     -3351.3577      18.782321     -3332.5753      20258.751      5698.7434    
     88000   292.97789     -3351.1931      18.935182     -3332.2579      20152.617      5698.7434    
     89000   296.27547     -3349.5778      19.148305     -3330.4295      19814.297      5698.7434    
     90000   300.42186     -3350.4923      19.416286     -3331.0761      19302.977      5698.7434    
     91000   286.99166     -3350.9374      18.548292     -3332.3891      18521.657      5698.7434    
     92000   292.3366      -3350.9901      18.893736     -3332.0964      19720.876      5698.7434    
     93000   305.4625      -3350.7222      19.742064     -3330.9802      20326.123      5698.7434    
     94000   305.65936     -3350.0032      19.754787     -3330.2484      22092.361      5698.7434    
     95000   323.11036     -3350.5669      20.882646     -3329.6843      19635.463      5698.7434    
     96000   326.92524     -3352.1386      21.129202     -3331.0094      22166.458      5698.7434    
     97000   289.72308     -3351.2036      18.724824     -3332.4787      20494.12       5698.7434    
     98000   307.17857     -3351.109       19.852973     -3331.256       20104.864      5698.7434    
     99000   295.66552     -3350.0764      19.108884     -3330.9675      20648.497      5698.7434    
    100000   316.26882     -3350.6789      20.440477     -3330.2384      21163.805      5698.7434    
    101000   295.91303     -3350.8034      19.12488      -3331.6785      19133.674      5698.7434    
    102000   292.10435     -3352.02        18.878725     -3333.1412      19281.598      5698.7434    
    103000   288.68412     -3350.7377      18.657676     -3332.0801      22014.901      5698.7434    
    104000   291.67941     -3351.0963      18.851262     -3332.245       21687.159      5698.7434    
    105000   284.80495     -3350.7354      18.406964     -3332.3284      20799.847      5698.7434    
    106000   298.17414     -3350.1239      19.271016     -3330.8529      22838.917      5698.7434    
    107000   300.19566     -3349.1267      19.401667     -3329.7251      22529.393      5698.7434    
    108000   289.23736     -3349.6244      18.693432     -3330.931       21910.556      5698.7434    
    109000   288.69247     -3349.8848      18.658215     -3331.2266      22979.354      5698.7434    
    110000   274.03364     -3351.8427      17.710814     -3334.1319      21115.569      5698.7434    
    111000   283.82399     -3349.9599      18.343565     -3331.6164      23199.544      5698.7434    
    112000   310.56682     -3350.0758      20.071956     -3330.0038      22649.678      5698.7434    
    113000   302.17136     -3349.8627      19.529357     -3330.3333      21415.717      5698.7434    
    114000   295.87894     -3350.7982      19.122677     -3331.6755      21580.252      5698.7434    
    115000   291.20895     -3351.0195      18.820856     -3332.1987      19951.64       5698.7434    
    116000   281.00143     -3351.1672      18.161143     -3333.0061      20697.906      5698.7434    
    117000   286.79088     -3351.3556      18.535315     -3332.8203      21992.076      5698.7434    
    118000   305.07814     -3351.029       19.717223     -3331.3118      20265.253      5698.7434    
    119000   304.92227     -3350.6277      19.707149     -3330.9206      20529.597      5698.7434    
    120000   292.63959     -3350.9883      18.913318     -3332.075       20196.839      5698.7434    
    121000   302.25424     -3351.3631      19.534714     -3331.8284      18639.321      5698.7434    
    122000   306.40879     -3351.0941      19.803222     -3331.2909      21599.621      5698.7434    
    123000   298.95339     -3349.566       19.321379     -3330.2446      22151.941      5698.7434    
    124000   317.72267     -3350.1736      20.534439     -3329.6391      22694.406      5698.7434    
    125000   300.32177     -3351.0257      19.409818     -3331.6159      19734.6        5698.7434    
    126000   283.32752     -3349.9544      18.311478     -3331.6429      19293.609      5698.7434    
    127000   291.65701     -3349.0385      18.849814     -3330.1887      22388.667      5698.7434    
    128000   296.33938     -3351.9548      19.152435     -3332.8023      18830.217      5698.7434    
    129000   300.32281     -3350.8465      19.409885     -3331.4366      18519.506      5698.7434    
    130000   300.1622      -3350.1392      19.399505     -3330.7397      20717.315      5698.7434    
    131000   300.92513     -3349.3211      19.448813     -3329.8723      22768.391      5698.7434    
    132000   305.6527      -3350.7313      19.754356     -3330.977       20747.287      5698.7434    
    133000   302.58608     -3350.7853      19.55616      -3331.2292      20221.906      5698.7434    
    134000   279.78297     -3351.686       18.082394     -3333.6036      19853.811      5698.7434    
    135000   303.54848     -3350.3642      19.61836      -3330.7459      22399.29       5698.7434    
    136000   333.80281     -3352.055       21.5737       -3330.4813      20743.942      5698.7434    
    137000   284.17213     -3349.9231      18.366065     -3331.557       23037.841      5698.7434    
    138000   299.30705     -3350.427       19.344236     -3331.0828      21229.899      5698.7434    
    139000   313.15131     -3350.4232      20.238992     -3330.1842      19785.245      5698.7434    
    140000   304.65602     -3350.5287      19.689941     -3330.8388      20519.484      5698.7434    
    141000   291.0631      -3350.6351      18.811429     -3331.8237      20760.676      5698.7434    
    142000   306.20265     -3351.8165      19.7899       -3332.0266      21140.813      5698.7434    
    143000   301.89405     -3351.9493      19.511434     -3332.4378      19399.136      5698.7434    
    144000   309.03823     -3350.0418      19.973163     -3330.0686      22279.881      5698.7434    
    145000   297.98456     -3349.0924      19.258763     -3329.8336      23195.928      5698.7434    
    146000   291.13268     -3350.8323      18.815926     -3332.0164      19377.531      5698.7434    
    147000   303.00579     -3351.2269      19.583286     -3331.6436      19231.954      5698.7434    
    148000   308.88927     -3350.3101      19.963536     -3330.3465      21032.355      5698.7434    
    149000   318.01961     -3351.1284      20.553631     -3330.5748      20872.197      5698.7434    
    150000   292.07054     -3352.5866      18.87654      -3333.7101      20247.959      5698.7434    
    151000   293.66729     -3351.3466      18.979738     -3332.3669      18315.284      5698.7434    
    152000   301.84128     -3351.2589      19.508024     -3331.7508      18741.769      5698.7434    
    153000   303.03945     -3351.3031      19.585462     -3331.7176      21204.056      5698.7434    
    154000   291.36382     -3349.9113      18.830865     -3331.0804      20648.97       5698.7434    
    155000   286.25954     -3349.8952      18.500975     -3331.3942      20725.521      5698.7434    
    156000   298.20889     -3351.7517      19.273262     -3332.4784      20887.991      5698.7434    
    157000   294.07048     -3352.2693      19.005797     -3333.2635      21512.57       5698.7434    
    158000   279.38717     -3350.3956      18.056813     -3332.3388      21016.343      5698.7434    
    159000   308.25288     -3351.1184      19.922406     -3331.196       18492.484      5698.7434    
    160000   282.45965     -3350.8274      18.255388     -3332.572       21425.5        5698.7434    
    161000   295.56278     -3350.8282      19.102244     -3331.726       22582.022      5698.7434    
    162000   304.33041     -3350.0958      19.668896     -3330.4269      22175.108      5698.7434    
    163000   304.04127     -3351.3181      19.650209     -3331.6679      21676.777      5698.7434    
    164000   303.05235     -3351.627       19.586295     -3332.0407      19637.174      5698.7434    
    165000   296.46594     -3351.1173      19.160615     -3331.9566      21909.506      5698.7434    
    166000   309.22505     -3350.4791      19.985237     -3330.4939      23288.222      5698.7434    
    167000   313.85639     -3350.9677      20.284561     -3330.6831      21597.124      5698.7434    
    168000   300.57803     -3350.8801      19.42638      -3331.4537      22676.005      5698.7434    
    169000   286.52737     -3351.361       18.518284     -3332.8427      18871.247      5698.7434    
    170000   312.369       -3350.4477      20.188431     -3330.2592      23574.113      5698.7434    
    171000   318.70348     -3350.6378      20.597829     -3330.04        21414.862      5698.7434    
    172000   290.68885     -3350.8899      18.787242     -3332.1027      20349.19       5698.7434    
    173000   293.33562     -3351.1637      18.958302     -3332.2054      20825.201      5698.7434    
    174000   308.62066     -3351.4846      19.946176     -3331.5384      20175.939      5698.7434    
    175000   304.95483     -3351.8146      19.709253     -3332.1053      20932.433      5698.7434    
    176000   302.09759     -3351.3071      19.524589     -3331.7825      22178.874      5698.7434    
    177000   307.47092     -3351.4844      19.871868     -3331.6125      21371.6        5698.7434    
    178000   298.85325     -3351.5697      19.314907     -3332.2548      19223.233      5698.7434    
    179000   294.69991     -3349.836       19.046477     -3330.7895      22270.441      5698.7434    
    180000   315.64709     -3351.2604      20.400294     -3330.8601      19801.305      5698.7434    
    181000   309.60867     -3351.8175      20.010031     -3331.8074      19471.865      5698.7434    
    182000   281.99383     -3350.4637      18.225282     -3332.2385      22441.398      5698.7434    
    183000   303.79737     -3352.2184      19.634446     -3332.584       20852.079      5698.7434    
    184000   275.49386     -3349.6727      17.805188     -3331.8675      21582.993      5698.7434    
    185000   309.43658     -3350.4477      19.998909     -3330.4488      23012.542      5698.7434    
    186000   303.57911     -3351.2888      19.62034      -3331.6684      22537.822      5698.7434    
    187000   288.64255     -3351.5621      18.654989     -3332.9071      21271.75       5698.7434    
    188000   302.13245     -3352.336       19.526842     -3332.8091      19000.706      5698.7434    
    189000   299.73375     -3352.0956      19.371814     -3332.7238      18972.928      5698.7434    
    190000   331.6343      -3350.3986      21.433549     -3328.9651      22816.069      5698.7434    
    191000   300.15025     -3351.6345      19.398733     -3332.2358      19753.768      5698.7434    
    192000   310.45422     -3352.8977      20.064678     -3332.833       18781.111      5698.7434    
    193000   294.2762      -3349.774       19.019092     -3330.7549      22781.729      5698.7434    
    194000   312.84766     -3350.2882      20.219367     -3330.0689      20279.834      5698.7434    
    195000   300.51722     -3350.717       19.42245      -3331.2945      20830.215      5698.7434    
    196000   293.93151     -3351.198       18.996815     -3332.2012      19307.998      5698.7434    
    197000   306.99315     -3351.4461      19.840989     -3331.6051      19319.888      5698.7434    
    198000   315.93501     -3350.4192      20.418903     -3330.0003      19646.326      5698.7434    
    199000   296.96407     -3350.1327      19.19281      -3330.9399      21279.742      5698.7434    
    200000   310.88271     -3351.2693      20.092372     -3331.1769      21105.127      5698.7434    
    201000   302.25699     -3350.8404      19.534891     -3331.3055      17435.93       5698.7434    
    202000   280.63827     -3352.3413      18.137672     -3334.2037      19633.362      5698.7434    
    203000   309.13936     -3352.5802      19.979699     -3332.6005      18595.141      5698.7434    
    204000   313.25443     -3351.83        20.245657     -3331.5843      19083.716      5698.7434    
    205000   306.49221     -3351.5361      19.808613     -3331.7275      21840.602      5698.7434    
    206000   308.52759     -3353.1106      19.94016      -3333.1704      18928.49       5698.7434    
    207000   281.63026     -3351.2188      18.201784     -3333.017       20432.485      5698.7434    
    208000   296.09155     -3350.8613      19.136419     -3331.7249      21877.082      5698.7434    
    209000   304.87799     -3350.3614      19.704287     -3330.6571      22494.707      5698.7434    
    210000   293.40693     -3350.6831      18.962911     -3331.7202      20578.969      5698.7434    
    211000   284.61933     -3350.4564      18.394968     -3332.0614      22077.855      5698.7434    
    212000   293.33045     -3349.6194      18.957969     -3330.6614      22154.927      5698.7434    
    213000   309.68742     -3350.715       20.01512      -3330.6999      21619.766      5698.7434    
    214000   301.70795     -3352.2333      19.499407     -3332.7339      20997.46       5698.7434    
    215000   295.37475     -3351.0877      19.090091     -3331.9976      22993.735      5698.7434    
    216000   314.72692     -3350.4914      20.340824     -3330.1506      22300.434      5698.7434    
    217000   283.88647     -3350.9934      18.347603     -3332.6458      21453.594      5698.7434    
    218000   293.01441     -3351.3701      18.937542     -3332.4326      20990.905      5698.7434    
    219000   309.39583     -3350.263       19.996275     -3330.2667      22081.613      5698.7434    
    220000   312.40398     -3350.8887      20.190692     -3330.6981      22536.919      5698.7434    
    221000   301.42124     -3350.746       19.480877     -3331.2651      22509.699      5698.7434    
    222000   286.60875     -3352.7791      18.523544     -3334.2556      18430.646      5698.7434    
    223000   281.11396     -3350.2682      18.168416     -3332.0998      20501.134      5698.7434    
    224000   313.31145     -3350.5653      20.249341     -3330.3159      22081.245      5698.7434    
    225000   298.44004     -3351.0911      19.288201     -3331.8029      20111.715      5698.7434    
    226000   295.45426     -3351.5819      19.09523      -3332.4866      17491.206      5698.7434    
    227000   281.63946     -3350.8782      18.202379     -3332.6758      21169.168      5698.7434    
    228000   292.92819     -3351.7908      18.93197      -3332.8588      19493.935      5698.7434    
    229000   303.87818     -3351.5128      19.639669     -3331.8731      19850.13       5698.7434    
    230000   310.15377     -3351.7903      20.045261     -3331.745       22437.776      5698.7434    
    231000   290.80692     -3352.197       18.794872     -3333.4021      19565.323      5698.7434    
    232000   286.99069     -3351.4415      18.548229     -3332.8933      19872.81       5698.7434    
    233000   314.46583     -3352.3862      20.32395      -3332.0622      19712.396      5698.7434    
    234000   312.58114     -3350.6436      20.202142     -3330.4415      21361.563      5698.7434    
    235000   286.38234     -3350.2442      18.508911     -3331.7353      22064.433      5698.7434    
    236000   291.79665     -3351.9586      18.858839     -3333.0997      20079.222      5698.7434    
    237000   293.94511     -3351.6885      18.997694     -3332.6908      20330.523      5698.7434    
    238000   291.7554      -3351.2294      18.856172     -3332.3733      22425.334      5698.7434    
    239000   301.52021     -3351.0025      19.487273     -3331.5152      19198.503      5698.7434    
    240000   319.09622     -3350.6928      20.623212     -3330.0696      22278.898      5698.7434    
    241000   302.22614     -3350.954       19.532897     -3331.4211      23450.702      5698.7434    
    242000   287.00815     -3350.7414      18.549358     -3332.192       20345.221      5698.7434    
    243000   295.32097     -3351.476       19.086616     -3332.3894      21480.045      5698.7434    
    244000   309.59768     -3349.0868      20.00932      -3329.0775      20912.925      5698.7434    
    245000   293.45605     -3351.3981      18.966086     -3332.432       21527.811      5698.7434    
    246000   283.19056     -3350.5052      18.302626     -3332.2026      22043.332      5698.7434    
    247000   301.7607      -3351.1194      19.502816     -3331.6166      20987.382      5698.7434    
    248000   309.59217     -3350.7021      20.008964     -3330.6931      21686.329      5698.7434    
    249000   302.09911     -3350.4025      19.524687     -3330.8779      21756.598      5698.7434    
    250000   293.59037     -3350.7701      18.974767     -3331.7953      20138.372      5698.7434    
    251000   282.50659     -3351.8684      18.258421     -3333.61        20420.092      5698.7434    
    252000   303.4131      -3351.8184      19.609611     -3332.2087      19759.387      5698.7434    
    253000   304.86896     -3351.3654      19.703703     -3331.6617      21267.46       5698.7434    
    254000   286.12288     -3351.7972      18.492143     -3333.3051      21798.374      5698.7434    
    255000   297.7355      -3351.8761      19.242667     -3332.6335      20641.846      5698.7434    
    256000   287.31125     -3351.069       18.568947     -3332.5001      21117.901      5698.7434    
    257000   306.74384     -3350.5354      19.824877     -3330.7105      21992.304      5698.7434    
    258000   312.68194     -3350.848       20.208657     -3330.6393      22825.008      5698.7434    
    259000   308.57023     -3350.9326      19.942916     -3330.9897      22821.38       5698.7434    
    260000   291.85305     -3351.523       18.862484     -3332.6605      19937.837      5698.7434    
    261000   291.4061      -3352.0836      18.833597     -3333.25        19422.5        5698.7434    
    262000   301.63894     -3351.8221      19.494947     -3332.3272      20102.982      5698.7434    
    263000   301.39552     -3351.1295      19.479214     -3331.6503      18951.918      5698.7434    
    264000   314.55637     -3350.2278      20.329801     -3329.898       20397.912      5698.7434    
    265000   305.46168     -3350.5738      19.74201      -3330.8318      20158.149      5698.7434    
    266000   298.31644     -3351.1236      19.280213     -3331.8434      21090.991      5698.7434    
    267000   284.35828     -3351.5873      18.378096     -3333.2092      19640.428      5698.7434    
    268000   285.15131     -3351.9001      18.42935      -3333.4707      17742.248      5698.7434    
    269000   316.20422     -3351.973       20.436302     -3331.5367      20091.929      5698.7434    
    270000   316.04963     -3351.1956      20.426311     -3330.7693      20305.81       5698.7434    
    271000   305.44485     -3351.1427      19.740923     -3331.4018      20693.647      5698.7434    
    272000   313.35069     -3350.6231      20.251878     -3330.3712      18426.679      5698.7434    
    273000   311.36276     -3351.9108      20.123398     -3331.7874      21191.992      5698.7434    
    274000   301.48894     -3350.9245      19.485252     -3331.4392      22194.792      5698.7434    
    275000   307.25336     -3350.6948      19.857807     -3330.837       20250.966      5698.7434    
    276000   328.58643     -3352.2225      21.236565     -3330.9859      19971.796      5698.7434    
    277000   285.90732     -3350.4943      18.478211     -3332.0161      20502.916      5698.7434    
    278000   302.01099     -3351.7022      19.518992     -3332.1832      19906.741      5698.7434    
    279000   300.56059     -3350.183       19.425253     -3330.7578      21047.866      5698.7434    
    280000   292.77405     -3350.2744      18.922008     -3331.3523      19366.309      5698.7434    
    281000   287.68602     -3351.118       18.593168     -3332.5249      21143.757      5698.7434    
    282000   307.48678     -3351.241       19.872893     -3331.3681      21942.352      5698.7434    
    283000   308.90715     -3350.8047      19.964691     -3330.84        21351.846      5698.7434    
    284000   314.357       -3350.2803      20.316916     -3329.9633      19877.172      5698.7434    
    285000   307.2292      -3351.5459      19.856245     -3331.6896      21592.212      5698.7434    
    286000   298.00901     -3351.446       19.260344     -3332.1857      19954.285      5698.7434    
    287000   303.24428     -3350.6245      19.5987       -3331.0258      23101.022      5698.7434    
    288000   290.73742     -3350.7035      18.790381     -3331.9131      20721.397      5698.7434    
    289000   289.51036     -3351.0398      18.711075     -3332.3288      21632.036      5698.7434    
    290000   310.98941     -3351.3121      20.099268     -3331.2128      21616.693      5698.7434    
    291000   307.85405     -3350.9813      19.89663      -3331.0847      19081.123      5698.7434    
    292000   277.26108     -3351.6057      17.919404     -3333.6863      21882.055      5698.7434    
    293000   287.67647     -3351.6663      18.592551     -3333.0738      21746.929      5698.7434    
    294000   293.75195     -3351.4312      18.98521      -3332.446       20614.213      5698.7434    
    295000   310.52037     -3351.6327      20.068954     -3331.5637      22404.256      5698.7434    
    296000   288.23019     -3351.7187      18.628338     -3333.0904      18621.755      5698.7434    
    297000   287.94065     -3351.8019      18.609625     -3333.1923      19175.078      5698.7434    
    298000   307.00037     -3351.1562      19.841456     -3331.3148      22143.362      5698.7434    
    299000   313.38104     -3350.9593      20.253839     -3330.7055      21580.826      5698.7434    
    300000   302.81608     -3351.3922      19.571025     -3331.8212      19997.783      5698.7434    
    301000   293.63046     -3351.4102      18.977358     -3332.4328      21237.027      5698.7434    
    302000   302.27428     -3351.7059      19.536009     -3332.1699      22411.054      5698.7434    
    303000   289.19019     -3349.873       18.690383     -3331.1826      22032.717      5698.7434    
    304000   306.89447     -3350.7413      19.834612     -3330.9067      20600.668      5698.7434    
    305000   301.43254     -3351.4081      19.481607     -3331.9265      21162.78       5698.7434    
    306000   280.13302     -3351.5806      18.105018     -3333.4756      19214.062      5698.7434    
    307000   289.09103     -3352.2625      18.683974     -3333.5785      20412.723      5698.7434    
    308000   303.42179     -3351.2553      19.610172     -3331.6452      22564.736      5698.7434    
    309000   293.18496     -3350.2358      18.948565     -3331.2872      22119.952      5698.7434    
    310000   304.50588     -3350.9765      19.680237     -3331.2963      18736.45       5698.7434    
    311000   285.99881     -3350.9358      18.484124     -3332.4517      20865.867      5698.7434    
    312000   293.1512      -3351.1821      18.946384     -3332.2358      19961.935      5698.7434    
    313000   308.10845     -3351.1146      19.913071     -3331.2015      21272.325      5698.7434    
    314000   313.71513     -3350.4767      20.275432     -3330.2013      20849.529      5698.7434    
    315000   307.85438     -3351.2585      19.896651     -3331.3618      22021.454      5698.7434    
    316000   289.34683     -3351.1541      18.700507     -3332.4536      21865.988      5698.7434    
    317000   298.3193      -3351.231       19.280398     -3331.9506      21520.148      5698.7434    
    318000   285.87914     -3350.3075      18.476389     -3331.8311      21806.881      5698.7434    
    319000   313.1537      -3350.7591      20.239146     -3330.5199      21317.065      5698.7434    
    320000   294.64086     -3351.0186      19.04266      -3331.976       20809.398      5698.7434    
    321000   287.17513     -3351.3381      18.560149     -3332.7779      22447.608      5698.7434    
    322000   293.81296     -3351.9877      18.989153     -3332.9985      20383.747      5698.7434    
    323000   303.66359     -3350.9502      19.6258       -3331.3244      20285.877      5698.7434    
    324000   294.5684      -3349.7797      19.037977     -3330.7417      22221.137      5698.7434    
    325000   295.34842     -3348.9862      19.08839      -3329.8978      21423.781      5698.7434    
    326000   309.04333     -3352.1107      19.973493     -3332.1372      20058.735      5698.7434    
    327000   304.00553     -3352.2498      19.647899     -3332.6019      19094.724      5698.7434    
    328000   290.83661     -3352.0067      18.796791     -3333.2099      19967.098      5698.7434    
    329000   293.86608     -3351.7903      18.992586     -3332.7977      19949.886      5698.7434    
    330000   303.35466     -3350.6732      19.605833     -3331.0674      22744.67       5698.7434    
    331000   300.5345      -3350.4452      19.423567     -3331.0216      22484.042      5698.7434    
    332000   288.20094     -3352.7936      18.626448     -3334.1671      19810.925      5698.7434    
    333000   285.7058      -3350.6489      18.465187     -3332.1837      20574.688      5698.7434    
    334000   304.04499     -3351.1411      19.65045      -3331.4906      20444.673      5698.7434    
    335000   312.24352     -3351.0684      20.180321     -3330.8881      20879.996      5698.7434    
    336000   298.0038      -3351.514       19.260007     -3332.254       20288.681      5698.7434    
    337000   313.46081     -3350.0671      20.258995     -3329.8081      23343.356      5698.7434    
    338000   301.33269     -3351.7467      19.475154     -3332.2715      21501.253      5698.7434    
    339000   293.14142     -3351.7417      18.945751     -3332.796       19185.715      5698.7434    
    340000   303.86835     -3350.6174      19.639034     -3330.9783      22034.455      5698.7434    
    341000   309.05219     -3351.0093      19.974066     -3331.0352      20802.616      5698.7434    
    342000   291.94193     -3351.0744      18.868228     -3332.2061      21167.749      5698.7434    
    343000   304.29551     -3351.3447      19.666641     -3331.6781      19168.904      5698.7434    
    344000   292.21267     -3350.984       18.885726     -3332.0983      21184.707      5698.7434    
    345000   289.37087     -3351.0299      18.70206      -3332.3278      20315.709      5698.7434    
    346000   320.79513     -3350.6115      20.733013     -3329.8785      23090.621      5698.7434    
    347000   297.16987     -3350.6299      19.20611      -3331.4237      19700.215      5698.7434    
    348000   298.13038     -3351.9919      19.268188     -3332.7238      19110.724      5698.7434    
    349000   308.91051     -3351.8479      19.964909     -3331.883       17380.29       5698.7434    
    350000   318.31704     -3351.5287      20.572853     -3330.9559      19498.854      5698.7434    
    351000   302.39126     -3349.9487      19.543569     -3330.4051      21665.075      5698.7434    
    352000   293.73878     -3351.6964      18.984359     -3332.712       19980.209      5698.7434    
    353000   296.73588     -3351.3578      19.178061     -3332.1797      20276.973      5698.7434    
    354000   331.83139     -3351.1803      21.446287     -3329.734       21036.66       5698.7434    
    355000   287.88564     -3351.5236      18.60607      -3332.9176      21180.732      5698.7434    
    356000   301.6322      -3351.1978      19.494511     -3331.7032      23012.392      5698.7434    
    357000   303.96206     -3350.7262      19.64509      -3331.0811      21847.75       5698.7434    
    358000   297.17113     -3351.3066      19.206191     -3332.1005      22369.86       5698.7434    
    359000   297.3809      -3352.0875      19.219749     -3332.8678      20512.468      5698.7434    
    360000   289.44254     -3350.4472      18.706693     -3331.7405      20940.604      5698.7434    
    361000   299.23881     -3351.2614      19.339826     -3331.9216      20866.554      5698.7434    
    362000   289.61646     -3351.6919      18.717933     -3332.974       20019.435      5698.7434    
    363000   280.856       -3350.9641      18.151743     -3332.8123      22578.287      5698.7434    
    364000   286.63842     -3350.2967      18.525462     -3331.7713      21623.924      5698.7434    
    365000   300.67521     -3350.8688      19.432661     -3331.4361      21874.391      5698.7434    
    366000   291.80371     -3351.3261      18.859295     -3332.4668      19178.6        5698.7434    
    367000   296.63253     -3352.7007      19.171382     -3333.5293      19409.796      5698.7434    
    368000   294.77444     -3352.0123      19.051293     -3332.961       19004.538      5698.7434    
    369000   295.3574      -3351.2475      19.08897      -3332.1585      18972.637      5698.7434    
    370000   299.57366     -3349.8777      19.361468     -3330.5162      21971.907      5698.7434    
    371000   290.50536     -3350.0059      18.775382     -3331.2305      21088.413      5698.7434    
    372000   301.6608      -3351.5604      19.496359     -3332.0641      18862.218      5698.7434    
    373000   285.47938     -3351.1924      18.450553     -3332.7418      19697.246      5698.7434    
    374000   293.82578     -3350.7567      18.989982     -3331.7668      22335.563      5698.7434    
    375000   284.90557     -3350.1346      18.413468     -3331.7212      21254.245      5698.7434    
    376000   307.04645     -3352.472       19.844434     -3332.6275      18971.78       5698.7434    
    377000   290.50212     -3352.3458      18.775173     -3333.5706      20287.42       5698.7434    
    378000   314.23213     -3352.4467      20.308845     -3332.1379      18739.879      5698.7434    
    379000   308.74415     -3350.6196      19.954157     -3330.6655      17901.275      5698.7434    
    380000   320.04835     -3351.786       20.684748     -3331.1012      21919.769      5698.7434    
    381000   286.41114     -3351.6299      18.510773     -3333.1191      21579.084      5698.7434    
    382000   295.8774      -3352.3148      19.122578     -3333.1922      21386.762      5698.7434    
    383000   297.48942     -3352.2357      19.226763     -3333.0089      18802.421      5698.7434    
    384000   306.18835     -3352.09        19.788976     -3332.301       18780.566      5698.7434    
    385000   301.91324     -3350.5175      19.512675     -3331.0048      23351.401      5698.7434    
    386000   310.05702     -3352.4763      20.039008     -3332.4373      19367.504      5698.7434    
    387000   283.76577     -3351.6697      18.339802     -3333.3299      19784.802      5698.7434    
    388000   310.53907     -3352.023       20.070162     -3331.9528      19904.51       5698.7434    
    389000   292.09851     -3350.4287      18.878348     -3331.5504      19636.082      5698.7434    
    390000   297.95285     -3350.8071      19.256715     -3331.5504      19908.844      5698.7434    
    391000   279.61703     -3351.2094      18.071669     -3333.1377      21458.178      5698.7434    
    392000   280.24998     -3350.9022      18.112577     -3332.7897      20137.177      5698.7434    
    393000   307.21276     -3352.6099      19.855183     -3332.7547      17419.145      5698.7434    
    394000   300.52576     -3351.4568      19.423002     -3332.0338      19306.398      5698.7434    
    395000   296.88997     -3352.2082      19.18802      -3333.0202      18514.286      5698.7434    
    396000   286.70639     -3352.0339      18.529855     -3333.504       20812.411      5698.7434    
    397000   302.16721     -3352.1249      19.529089     -3332.5958      19986.838      5698.7434    
    398000   302.68901     -3351.327       19.562812     -3331.7642      18758.501      5698.7434    
    399000   299.08602     -3349.8408      19.329951     -3330.5108      19096.762      5698.7434    
    400000   288.96784     -3351.285       18.676013     -3332.609       17367.346      5698.7434    
    401000   297.80228     -3352.5041      19.246983     -3333.2571      19264.448      5698.7434    
    402000   297.2452      -3351.7733      19.210979     -3332.5623      19053.398      5698.7434    
    403000   298.64622     -3351.9018      19.301527     -3332.6003      19954.922      5698.7434    
    404000   303.06801     -3351.599       19.587307     -3332.0117      19348.549      5698.7434    
    405000   289.64352     -3351.9693      18.719682     -3333.2496      19860.824      5698.7434    
    406000   299.66405     -3351.3707      19.367309     -3332.0034      20092.447      5698.7434    
    407000   313.53591     -3351.1086      20.263849     -3330.8448      19906.334      5698.7434    
    408000   317.4829      -3352.2034      20.518943     -3331.6844      20428.957      5698.7434    
    409000   285.55593     -3351.0232      18.455501     -3332.5677      19330.347      5698.7434    
    410000   302.56393     -3353.1731      19.554729     -3333.6184      16577.867      5698.7434    
    411000   303.36203     -3352.0607      19.60631      -3332.4544      18043.039      5698.7434    
    412000   312.13518     -3351.8689      20.173319     -3331.6956      22142.201      5698.7434    
    413000   314.91565     -3351.2389      20.353021     -3330.8859      21531.148      5698.7434    
    414000   300.96746     -3351.6106      19.451548     -3332.159       20804.322      5698.7434    
    415000   301.9491      -3350.7351      19.514992     -3331.2201      20465.443      5698.7434    
    416000   298.89624     -3352.0126      19.317686     -3332.6949      18824.566      5698.7434    
    417000   297.59151     -3352.142       19.233361     -3332.9086      19020.845      5698.7434    
    418000   297.53363     -3351.4327      19.22962      -3332.2031      18362.593      5698.7434    
    419000   301.86554     -3351.6398      19.509592     -3332.1302      17018.422      5698.7434    
    420000   306.10395     -3351.7115      19.78352      -3331.928       18550.131      5698.7434    
    421000   298.2831      -3352.281       19.278058     -3333.0029      18636.645      5698.7434    
    422000   286.54355     -3353.2164      18.51933      -3334.6971      18388.914      5698.7434    
    423000   304.7847      -3352.3737      19.698257     -3332.6754      18475.871      5698.7434    
    424000   305.15307     -3351.1328      19.722065     -3331.4107      18992.859      5698.7434    
    425000   291.74455     -3351.0663      18.855472     -3332.2108      18888.829      5698.7434    
    426000   299.31301     -3352.5358      19.344622     -3333.1912      17787.31       5698.7434    
    427000   291.94379     -3353.0613      18.868349     -3334.1929      17299.407      5698.7434    
    428000   304.22621     -3352.2882      19.662162     -3332.626       22444.198      5698.7434    
    429000   295.7922      -3350.9732      19.117071     -3331.8561      20206.772      5698.7434    
    430000   300.19757     -3352.0622      19.401791     -3332.6604      20821.897      5698.7434    
    431000   287.11279     -3351.5546      18.55612      -3332.9985      19223.401      5698.7434    
    432000   295.11703     -3352.5142      19.073435     -3333.4408      19409.996      5698.7434    
    433000   322.54523     -3349.6039      20.846121     -3328.7578      22808.57       5698.7434    
    434000   298.13137     -3352.2297      19.268252     -3332.9615      19648.456      5698.7434    
    435000   286.27611     -3352.0163      18.502045     -3333.5143      19616.695      5698.7434    
    436000   288.36062     -3353.1273      18.636768     -3334.4906      17855.962      5698.7434    
    437000   300.66229     -3352.3117      19.431825     -3332.8799      20214.209      5698.7434    
    438000   310.36025     -3351.9048      20.058605     -3331.8462      19695.752      5698.7434    
    439000   285.49182     -3350.4977      18.451357     -3332.0464      21242.446      5698.7434    
    440000   310.9147      -3353.1939      20.09444      -3333.0994      20628.459      5698.7434    
    441000   283.79861     -3351.5482      18.341925     -3333.2063      22224.489      5698.7434    
    442000   310.60777     -3352.943       20.074602     -3332.8684      19093.248      5698.7434    
    443000   290.50973     -3352.1107      18.775665     -3333.335       22952.436      5698.7434    
    444000   304.26109     -3353.4042      19.664416     -3333.7397      19791.088      5698.7434    
    445000   300.5682      -3351.6853      19.425745     -3332.2596      19724.912      5698.7434    
    446000   306.82018     -3351.8643      19.82981      -3332.0345      20153.864      5698.7434    
    447000   306.37812     -3353.7571      19.80124      -3333.9558      18253.843      5698.7434    
    448000   312.49563     -3352.3496      20.196615     -3332.153       19679.058      5698.7434    
    449000   312.96348     -3351.8663      20.226853     -3331.6395      20367.588      5698.7434    
    450000   292.28336     -3352.2687      18.890294     -3333.3784      20562.249      5698.7434    
    451000   326.53081     -3351.9598      21.10371      -3330.8561      20211.855      5698.7434    
    452000   308.92429     -3351.8664      19.965799     -3331.9006      19892.971      5698.7434    
    453000   296.69993     -3352.2674      19.175738     -3333.0917      21016.417      5698.7434    
    454000   291.92406     -3351.6698      18.867073     -3332.8027      21239.115      5698.7434    
    455000   319.81922     -3352.2711      20.66994      -3331.6011      20018.304      5698.7434    
    456000   327.40674     -3353.3623      21.160321     -3332.202       19888.857      5698.7434    
    457000   305.81864     -3352.9477      19.765081     -3333.1826      17179.457      5698.7434    
    458000   311.13511     -3353.8885      20.108685     -3333.7799      19224.762      5698.7434    
    459000   294.85081     -3353.3354      19.056229     -3334.2792      19592.422      5698.7434    
    460000   301.47895     -3352.2222      19.484606     -3332.7376      21242.425      5698.7434    
    461000   314.49158     -3352.6987      20.325614     -3332.3731      20375.308      5698.7434    
    462000   291.85391     -3353.7763      18.862539     -3334.9137      20583.403      5698.7434    
    463000   287.53968     -3353.7557      18.58371      -3335.172       18324.003      5698.7434    
    464000   299.23762     -3353.2648      19.339749     -3333.9251      19810.142      5698.7434    
    465000   302.62424     -3352.7758      19.558626     -3333.2172      19267.805      5698.7434    
    466000   307.36301     -3351.9682      19.864894     -3332.1033      21704.751      5698.7434    
    467000   306.7837      -3352.6185      19.827452     -3332.7911      20075.172      5698.7434    
    468000   319.57583     -3352.9576      20.654209     -3332.3034      18522.218      5698.7434    
    469000   283.51275     -3353.0977      18.323449     -3334.7742      19873.745      5698.7434    
    470000   293.92042     -3353.3029      18.996098     -3334.3068      20426.83       5698.7434    
    471000   292.7483      -3352.529       18.920344     -3333.6087      18129.368      5698.7434    
    472000   316.73966     -3352.4011      20.470907     -3331.9302      19733.664      5698.7434    
    473000   307.03027     -3352.4455      19.843389     -3332.6021      22505.916      5698.7434    
    474000   296.41614     -3352.8525      19.157396     -3333.6951      21465.395      5698.7434    
    475000   308.10392     -3352.7203      19.912779     -3332.8075      19727.366      5698.7434    
    476000   308.66701     -3351.4147      19.949171     -3331.4655      21686.81       5698.7434    
    477000   305.31855     -3352.7584      19.73276      -3333.0257      20446.389      5698.7434    
    478000   311.99936     -3354.0273      20.164541     -3333.8627      17183.013      5698.7434    
    479000   285.29567     -3351.8475      18.43868      -3333.4088      20909.141      5698.7434    
    480000   319.6841      -3352.3981      20.661207     -3331.7369      18740.135      5698.7434    
    481000   318.45395     -3352.4015      20.581702     -3331.8198      20114.391      5698.7434    
    482000   301.47901     -3352.8199      19.48461      -3333.3353      16667.227      5698.7434    
    483000   304.10958     -3353.554       19.654624     -3333.8994      17326.175      5698.7434    
    484000   283.9352      -3353.0072      18.350752     -3334.6564      20995.822      5698.7434    
    485000   291.33559     -3352.7275      18.82904      -3333.8985      20344.213      5698.7434    
    486000   305.27594     -3352.0737      19.730006     -3332.3437      20397.232      5698.7434    
    487000   291.87821     -3352.0882      18.86411      -3333.2241      19325.828      5698.7434    
    488000   291.54757     -3351.961       18.842741     -3333.1183      18033.614      5698.7434    
    489000   303.04006     -3351.8989      19.585501     -3332.3134      19005.549      5698.7434    
    490000   303.76527     -3352.8624      19.632371     -3333.23        18169.725      5698.7434    
    491000   314.35632     -3353.1512      20.316872     -3332.8343      19073.771      5698.7434    
    492000   308.64481     -3351.5278      19.947736     -3331.58        18891.732      5698.7434    
    493000   324.92731     -3352.9093      21.000075     -3331.9092      20087.206      5698.7434    
    494000   288.42982     -3352.9999      18.64124      -3334.3587      19308.217      5698.7434    
    495000   304.18565     -3352.2201      19.65954      -3332.5606      21196.615      5698.7434    
    496000   291.13648     -3351.5152      18.816172     -3332.6991      17755.158      5698.7434    
    497000   297.44854     -3352.5441      19.224121     -3333.32        19530.35       5698.7434    
    498000   288.88331     -3353.5443      18.67055      -3334.8737      17454.094      5698.7434    
    499000   299.57123     -3352.9218      19.36131      -3333.5605      18189.541      5698.7434    
    500000   287.80758     -3351.2568      18.601025     -3332.6557      19113.072      5698.7434    
Loop time of 15648.2 on 1 procs for 500000 steps with 501 atoms

Performance: 1.380 ns/day, 17.387 hours/ns, 31.953 timesteps/s, 16.008 katom-step/s
99.1% CPU use with 1 MPI tasks x 1 OpenMP threads

MPI task timing breakdown:
Section |  min time  |  avg time  |  max time  |%varavg| %total
---------------------------------------------------------------
Pair    | 15580      | 15580      | 15580      |   0.0 | 99.57
Neigh   | 0.13844    | 0.13844    | 0.13844    |   0.0 |  0.00
Comm    | 20.554     | 20.554     | 20.554     |   0.0 |  0.13
Output  | 0.090109   | 0.090109   | 0.090109   |   0.0 |  0.00
Modify  | 26.691     | 26.691     | 26.691     |   0.0 |  0.17
Other   |            | 20.48      |            |       |  0.13

Nlocal:            501 ave         501 max         501 min
Histogram: 1 0 0 0 0 0 0 0 0 0
Nghost:           2026 ave        2026 max        2026 min
Histogram: 1 0 0 0 0 0 0 0 0 0
Neighs:              0 ave           0 max           0 min
Histogram: 1 0 0 0 0 0 0 0 0 0
FullNghs:        66648 ave       66648 max       66648 min
Histogram: 1 0 0 0 0 0 0 0 0 0

Total # of neighbors = 66648
Ave neighs/atom = 133.02994
Neighbor list builds = 330
Dangerous builds = 0
unfix          nvt_equil

# ── Phase 2: Production ──────────────────────────────────────
# Dump trajectory for NB11 MSD calculation
# Dump every 1000 steps = 500 fs
dump           prod_dump  all  custom  1000  results/notebook10-bulk-equilibration/N_7/Hastelloy_N_7_H_300K_prod.lammpstrj                id type x y z
dump_modify    prod_dump  sort id

fix            nvt_prod  all  nvt  temp  300.0  300.0  0.1

# Compute MSD for H atom
compute        msd_H  H_atom  msd
fix            msd_out  all  ave/time  1  1  1000                c_msd_H[4]  file  results/notebook10-bulk-equilibration/N_7/Hastelloy_N_7_msd_H_300K.txt  mode scalar

print "### Phase 2: Production 750 ps at 300 K ###"
### Phase 2: Production 750 ps at 300 K ###
run            1500000
WARNING: Fix STORE/ATOM not compatible with sending data in Kokkos communication (src/KOKKOS/comm_kokkos.cpp:842)
WARNING: Fix with atom-based arrays not compatible with sending data in Kokkos communication, switching to legacy exchange/border communication (src/KOKKOS/comm_kokkos.cpp:849)
WARNING: Fix STORE/ATOM not (yet) compatible with Kokkos sorting on device (src/KOKKOS/atom_kokkos.cpp:219)
WARNING: Fix with atom-based arrays not (yet) compatible with Kokkos sorting on device, switching to legacy host sorting (src/KOKKOS/atom_kokkos.cpp:225)
Per MPI rank memory allocation (min/avg/max) = 88.81 | 88.81 | 88.81 Mbytes
   Step          Temp          PotEng         KinEng         TotEng         Press          Volume    
    500000   287.80758     -3351.2568      18.601025     -3332.6557      19113.072      5698.7434    
    501000   286.39627     -3352.4905      18.509812     -3333.9807      18799.483      5698.7434    
    502000   284.37351     -3352.9231      18.37908      -3334.544       17019.633      5698.7434    
    503000   312.14639     -3353.3315      20.174044     -3333.1574      18998.28       5698.7434    
    504000   305.03427     -3352.4903      19.714387     -3332.7759      19605.086      5698.7434    
    505000   311.64604     -3352.084       20.141706     -3331.9423      20872.215      5698.7434    
    506000   302.97732     -3352.9157      19.581446     -3333.3342      20026.477      5698.7434    
    507000   304.52915     -3352.7902      19.681741     -3333.1084      19274.315      5698.7434    
    508000   312.31246     -3352.236       20.184777     -3332.0512      21156.308      5698.7434    
    509000   297.54867     -3352.5984      19.230592     -3333.3678      20232.362      5698.7434    
    510000   283.24838     -3352.2963      18.306364     -3333.99        20593.197      5698.7434    
    511000   286.4256      -3353.8549      18.511708     -3335.3432      17112.81       5698.7434    
    512000   299.4663      -3352.0981      19.354529     -3332.7436      19030.01       5698.7434    
    513000   306.6251      -3352.2522      19.817202     -3332.435       18540.086      5698.7434    
    514000   295.84824     -3352.7472      19.120693     -3333.6265      17441.571      5698.7434    
    515000   273.81962     -3351.909       17.696982     -3334.212       19530.595      5698.7434    
    516000   302.16741     -3352.2087      19.529101     -3332.6796      18403.644      5698.7434    
    517000   318.92722     -3351.7853      20.61229      -3331.173       21009.814      5698.7434    
    518000   304.18193     -3353.38        19.6593       -3333.7207      19703.399      5698.7434    
    519000   292.20133     -3352.661       18.884993     -3333.776       18958.436      5698.7434    
    520000   293.2012      -3352.3682      18.949615     -3333.4186      18267.341      5698.7434    
    521000   305.66649     -3352.1158      19.755247     -3332.3606      20542.9        5698.7434    
    522000   291.78415     -3352.2746      18.858031     -3333.4165      20094.024      5698.7434    
    523000   301.10125     -3353.0064      19.460196     -3333.5462      17746.894      5698.7434    
    524000   320.60123     -3352.6487      20.720481     -3331.9282      19511.127      5698.7434    
    525000   304.13492     -3352.0479      19.656262     -3332.3917      18766.918      5698.7434    
    526000   279.83999     -3352.3065      18.086079     -3334.2204      18542.068      5698.7434    
    527000   284.15639     -3352.106       18.365048     -3333.741       18170.399      5698.7434    
    528000   296.6862      -3350.8886      19.17485      -3331.7137      21720.737      5698.7434    
    529000   297.6998      -3351.6692      19.24036      -3332.4288      20580.08       5698.7434    
    530000   281.91961     -3352.2572      18.220485     -3334.0368      19445.748      5698.7434    
    531000   289.45534     -3352.6551      18.70752      -3333.9476      18620.345      5698.7434    
    532000   304.29602     -3353.0046      19.666674     -3333.3379      21595.767      5698.7434    
    533000   321.88988     -3351.8657      20.803767     -3331.062       20657.657      5698.7434    
    534000   295.75966     -3351.6728      19.114968     -3332.5578      20512.227      5698.7434    
    535000   298.31651     -3352.8266      19.280218     -3333.5464      18942.658      5698.7434    
    536000   316.38272     -3353.6972      20.447838     -3333.2494      18652.091      5698.7434    
    537000   309.91687     -3352.3063      20.02995      -3332.2763      20856.85       5698.7434    
    538000   283.19971     -3352.2546      18.303218     -3333.9514      20352.453      5698.7434    
    539000   286.84224     -3353.1394      18.538635     -3334.6007      17442.401      5698.7434    
    540000   295.72        -3352.1739      19.112405     -3333.0615      19373.955      5698.7434    
    541000   307.91569     -3352.9998      19.900614     -3333.0992      19181.417      5698.7434    
    542000   301.2346      -3352.5655      19.468814     -3333.0967      18854.504      5698.7434    
    543000   289.69461     -3352.8783      18.722984     -3334.1553      19930.312      5698.7434    
    544000   302.52845     -3354.3852      19.552435     -3334.8327      18473.281      5698.7434    
    545000   293.80231     -3353.5778      18.988464     -3334.5894      17650.484      5698.7434    
    546000   309.95228     -3352.4908      20.032239     -3332.4586      21378.395      5698.7434    
    547000   314.02946     -3352.3154      20.295747     -3332.0196      19762.309      5698.7434    
    548000   317.01242     -3352.8122      20.488536     -3332.3237      19209.912      5698.7434    
    549000   304.70784     -3353.9086      19.69329      -3334.2153      15505.4        5698.7434    
    550000   301.64314     -3352.5592      19.495218     -3333.064       18245.261      5698.7434    
    551000   318.39602     -3352.7844      20.577958     -3332.2064      17088.335      5698.7434    
    552000   282.32343     -3353.479       18.246584     -3335.2324      18604.926      5698.7434    
    553000   288.55907     -3353.1257      18.649594     -3334.4761      18180.239      5698.7434    
    554000   286.05378     -3352.4499      18.487677     -3333.9622      20043.43       5698.7434    
    555000   318.82056     -3353.9422      20.605396     -3333.3368      19675.396      5698.7434    
    556000   303.89433     -3352.5218      19.640713     -3332.8811      19755.34       5698.7434    
    557000   287.61025     -3351.1643      18.588271     -3332.576       20572.629      5698.7434    
    558000   282.68506     -3352.8372      18.269956     -3334.5672      21565.219      5698.7434    
    559000   276.65429     -3353.1981      17.880187     -3335.3179      17239.982      5698.7434    
    560000   316.51392     -3352.9222      20.456318     -3332.4659      19092.186      5698.7434    
    561000   297.07683     -3352.6999      19.200097     -3333.4998      19390.459      5698.7434    
    562000   312.25338     -3352.2922      20.180959     -3332.1112      20129.065      5698.7434    
    563000   308.51119     -3352.5498      19.9391       -3332.6107      19015.71       5698.7434    
    564000   291.37227     -3352.8824      18.831411     -3334.051       20012.077      5698.7434    
    565000   287.21563     -3352.6888      18.562767     -3334.1261      18256.574      5698.7434    
    566000   284.98018     -3351.8573      18.418289     -3333.4391      22382.768      5698.7434    
    567000   307.18551     -3352.7594      19.853422     -3332.906       20141.07       5698.7434    
    568000   299.37041     -3353.5099      19.348331     -3334.1616      17163.513      5698.7434    
    569000   294.02522     -3353.5848      19.002872     -3334.5819      18531.901      5698.7434    
    570000   313.81234     -3352.5287      20.281715     -3332.247       22568.727      5698.7434    
    571000   298.29912     -3352.6199      19.279094     -3333.3408      19103.991      5698.7434    
    572000   277.83204     -3351.3012      17.956305     -3333.3449      20643.088      5698.7434    
    573000   313.16133     -3351.9969      20.23964      -3331.7573      19227.427      5698.7434    
    574000   307.69415     -3352.9002      19.886295     -3333.0139      19549.768      5698.7434    
    575000   302.63074     -3353.4309      19.559047     -3333.8718      19102.449      5698.7434    
    576000   278.82156     -3352.9073      18.020257     -3334.887       18776.954      5698.7434    
    577000   304.33258     -3353.9931      19.669037     -3334.324       18779.187      5698.7434    
    578000   286.82676     -3351.9074      18.537634     -3333.3698      19169.904      5698.7434    
    579000   308.49792     -3351.8455      19.938243     -3331.9073      20022.435      5698.7434    
    580000   318.2972      -3352.5334      20.571571     -3331.9618      19996.531      5698.7434    
    581000   304.20039     -3353.9265      19.660493     -3334.266       17833.527      5698.7434    
    582000   311.66187     -3353.357       20.142729     -3333.2143      19641.89       5698.7434    
    583000   306.59492     -3351.8559      19.815252     -3332.0407      19759.744      5698.7434    
    584000   323.0981      -3351.912       20.881854     -3331.0301      21107.455      5698.7434    
    585000   293.89349     -3353.0928      18.994358     -3334.0985      19769.653      5698.7434    
    586000   299.86418     -3353.0987      19.380243     -3333.7185      18632.299      5698.7434    
    587000   290.45604     -3351.9259      18.772195     -3333.1537      18687.32       5698.7434    
    588000   296.41584     -3352.2171      19.157377     -3333.0597      20158.402      5698.7434    
    589000   287.29494     -3352.9163      18.567893     -3334.3484      19479.857      5698.7434    
    590000   295.73577     -3354.6235      19.113424     -3335.51        20132.048      5698.7434    
    591000   305.39847     -3352.7084      19.737926     -3332.9705      19749.69       5698.7434    
    592000   305.37782     -3352.2351      19.736591     -3332.4985      20237.518      5698.7434    
    593000   310.59172     -3353.5119      20.073565     -3333.4383      20005.143      5698.7434    
    594000   299.2587      -3353.7508      19.341112     -3334.4097      18522.704      5698.7434    
    595000   314.22759     -3353.8005      20.308552     -3333.4919      18770.455      5698.7434    
    596000   317.31829     -3351.7317      20.508304     -3331.2234      21581.949      5698.7434    
    597000   313.99239     -3352.7967      20.293351     -3332.5034      18499.926      5698.7434    
    598000   300.54781     -3352.5885      19.424426     -3333.1641      17804.414      5698.7434    
    599000   301.3131      -3353.437       19.473888     -3333.9631      17253.244      5698.7434    
    600000   287.26277     -3352.824       18.565814     -3334.2582      19953.2        5698.7434    
    601000   305.05505     -3352.8211      19.71573      -3333.1054      18336.604      5698.7434    
    602000   305.9514      -3352.2052      19.773661     -3332.4315      19476.948      5698.7434    
    603000   294.39661     -3352.3976      19.026874     -3333.3707      18470.12       5698.7434    
    604000   299.83639     -3353.427       19.378448     -3334.0485      18909.178      5698.7434    
    605000   298.51129     -3352.1002      19.292806     -3332.8074      19555.34       5698.7434    
    606000   305.64227     -3351.7789      19.753682     -3332.0252      17803.018      5698.7434    
    607000   293.89372     -3352.5157      18.994372     -3333.5214      17633.253      5698.7434    
    608000   296.48444     -3354.0214      19.161811     -3334.8596      18162.664      5698.7434    
    609000   297.3177      -3352.413       19.215664     -3333.1974      20914.479      5698.7434    
    610000   304.4615      -3352.804       19.677369     -3333.1266      18257.678      5698.7434    
    611000   304.85779     -3353.9591      19.702981     -3334.2561      16949.46       5698.7434    
    612000   290.80816     -3352.2776      18.794953     -3333.4826      18655.294      5698.7434    
    613000   306.6842      -3352.1508      19.821022     -3332.3298      19428.126      5698.7434    
    614000   306.91518     -3353.1797      19.83595      -3333.3438      18174.617      5698.7434    
    615000   271.90377     -3352.6338      17.57316      -3335.0606      19445.013      5698.7434    
    616000   292.85531     -3352.8376      18.92726      -3333.9104      18957.947      5698.7434    
    617000   311.6674      -3352.4538      20.143087     -3332.3107      19168.559      5698.7434    
    618000   310.65933     -3352.4008      20.077935     -3332.3228      19977.072      5698.7434    
    619000   292.58849     -3352.4636      18.910015     -3333.5535      19302.477      5698.7434    
    620000   297.0497      -3352.98        19.198343     -3333.7817      19443.563      5698.7434    
    621000   305.39729     -3352.2288      19.737849     -3332.4909      18234.131      5698.7434    
    622000   312.16643     -3352.8012      20.175339     -3332.6259      18672.492      5698.7434    
    623000   305.46647     -3353.6052      19.74232      -3333.8629      16682.562      5698.7434    
    624000   298.10066     -3353.541       19.266267     -3334.2748      18363.034      5698.7434    
    625000   304.61187     -3352.4857      19.687087     -3332.7986      19147.607      5698.7434    
    626000   302.76382     -3353.3063      19.567648     -3333.7386      18684.055      5698.7434    
    627000   295.97806     -3353.8296      19.129084     -3334.7005      19236.409      5698.7434    
    628000   296.71776     -3352.4241      19.17689      -3333.2472      20814.857      5698.7434    
    629000   291.00633     -3353.1818      18.80776      -3334.374       18894.994      5698.7434    
    630000   290.26557     -3352.1613      18.759885     -3333.4015      20926.915      5698.7434    
    631000   303.94972     -3351.6963      19.644292     -3332.052       20490.268      5698.7434    
    632000   292.59577     -3352.0407      18.910486     -3333.1302      19567.477      5698.7434    
    633000   298.64467     -3352.8741      19.301427     -3333.5726      19285.402      5698.7434    
    634000   293.64367     -3353.9054      18.978212     -3334.9272      18333.253      5698.7434    
    635000   296.90391     -3353.7967      19.188921     -3334.6077      18181.42       5698.7434    
    636000   295.25627     -3352.7709      19.082434     -3333.6885      17967.896      5698.7434    
    637000   314.23425     -3352.4888      20.308983     -3332.1798      19608.496      5698.7434    
    638000   306.90162     -3351.4424      19.835074     -3331.6074      21280.025      5698.7434    
    639000   299.01426     -3352.8048      19.325313     -3333.4795      18132.474      5698.7434    
    640000   322.85521     -3354.4151      20.866156     -3333.549       18214.284      5698.7434    
    641000   312.06465     -3352.3607      20.168761     -3332.192       21281.089      5698.7434    
    642000   300.04401     -3352.4295      19.391866     -3333.0377      20462.758      5698.7434    
    643000   301.84341     -3353.0023      19.508161     -3333.4941      18695.434      5698.7434    
    644000   289.92004     -3352.0295      18.737553     -3333.292       18625.095      5698.7434    
    645000   317.80703     -3352.8177      20.539891     -3332.2778      19396.983      5698.7434    
    646000   288.55926     -3353.2099      18.649606     -3334.5603      18634.299      5698.7434    
    647000   284.17146     -3353.0125      18.366022     -3334.6465      18791.689      5698.7434    
    648000   299.97354     -3353.1575      19.387312     -3333.7701      18703.116      5698.7434    
    649000   307.09833     -3352.8612      19.847787     -3333.0134      18943.148      5698.7434    
    650000   302.59413     -3351.8421      19.55668      -3332.2854      19514.193      5698.7434    
    651000   306.26509     -3352.4454      19.793935     -3332.6515      19874.332      5698.7434    
    652000   298.208       -3353.3014      19.273204     -3334.0282      19241.567      5698.7434    
    653000   301.10261     -3353.108       19.460283     -3333.6477      21239.719      5698.7434    
    654000   311.95151     -3351.7434      20.161449     -3331.5819      20732.457      5698.7434    
    655000   297.01443     -3353.4169      19.196064     -3334.2209      19959.821      5698.7434    
    656000   290.07913     -3352.8802      18.747835     -3334.1323      19286.909      5698.7434    
    657000   319.9166      -3351.6563      20.676233     -3330.98        19388.112      5698.7434    
    658000   326.73732     -3353.027       21.117056     -3331.9099      19655.367      5698.7434    
    659000   286.60825     -3351.5869      18.523512     -3333.0634      22493.344      5698.7434    
    660000   305.94711     -3353.9567      19.773384     -3334.1834      20503.221      5698.7434    
    661000   291.77105     -3352.6752      18.857184     -3333.818       19947.67       5698.7434    
    662000   307.34278     -3352.643       19.863586     -3332.7794      21943.409      5698.7434    
    663000   306.5967      -3352.3248      19.815367     -3332.5094      21856.677      5698.7434    
    664000   296.4208      -3352.9183      19.157698     -3333.7606      20997.013      5698.7434    
    665000   300.16609     -3352.7957      19.399756     -3333.3959      20270.788      5698.7434    
    666000   291.4571      -3353.3484      18.836893     -3334.5116      17732.476      5698.7434    
    667000   322.63666     -3354.3393      20.85203      -3333.4873      18212.554      5698.7434    
    668000   316.55484     -3352.8382      20.458962     -3332.3793      18220.795      5698.7434    
    669000   321.78469     -3353.4256      20.796968     -3332.6287      18042.506      5698.7434    
    670000   299.24372     -3352.7134      19.340144     -3333.3733      18643.948      5698.7434    
    671000   292.55751     -3353.4462      18.908013     -3334.5382      18876.784      5698.7434    
    672000   302.24562     -3353.0626      19.534156     -3333.5285      18669.352      5698.7434    
    673000   302.73495     -3351.7596      19.565782     -3332.1938      21429.404      5698.7434    
    674000   306.56343     -3352.2125      19.813216     -3332.3993      18209.077      5698.7434    
    675000   310.53824     -3353.5746      20.070109     -3333.5045      17970.54       5698.7434    
    676000   286.58784     -3352.7782      18.522193     -3334.2561      17743.113      5698.7434    
    677000   282.06294     -3352.9605      18.229748     -3334.7307      17176.567      5698.7434    
    678000   306.38206     -3353.0491      19.801495     -3333.2476      19846.328      5698.7434    
    679000   308.69737     -3353.0863      19.951134     -3333.1351      16839.386      5698.7434    
    680000   307.19382     -3354.0249      19.853959     -3334.1709      20815.154      5698.7434    
    681000   292.75301     -3352.0752      18.920648     -3333.1545      19925.45       5698.7434    
    682000   324.15755     -3352.9412      20.950326     -3331.9909      19280.685      5698.7434    
    683000   294.89127     -3352.5942      19.058844     -3333.5354      20650.428      5698.7434    
    684000   316.75475     -3352.3933      20.471882     -3331.9215      19280.577      5698.7434    
    685000   295.14519     -3352.1578      19.075255     -3333.0826      19225.733      5698.7434    
    686000   312.43711     -3353.908       20.192833     -3333.7152      16773.252      5698.7434    
    687000   302.86302     -3352.9683      19.574059     -3333.3942      14945.377      5698.7434    
    688000   328.64264     -3352.1313      21.240198     -3330.8911      16523.466      5698.7434    
    689000   295.83544     -3353.2002      19.119866     -3334.0804      16739.887      5698.7434    
    690000   308.77472     -3353.5415      19.956132     -3333.5854      18949.243      5698.7434    
    691000   308.94117     -3352.2628      19.96689      -3332.2959      19008.706      5698.7434    
    692000   302.36765     -3350.5123      19.542043     -3330.9702      22610.113      5698.7434    
    693000   300.40809     -3353.5857      19.415397     -3334.1703      18504.41       5698.7434    
    694000   294.77345     -3352.5202      19.05123      -3333.469       20456.043      5698.7434    
    695000   317.23915     -3353.2014      20.503189     -3332.6982      19384.46       5698.7434    
    696000   299.45513     -3351.3181      19.353807     -3331.9643      21840.823      5698.7434    
    697000   317.35561     -3353.7249      20.510716     -3333.2142      18777.562      5698.7434    
    698000   302.00229     -3353.4348      19.51843      -3333.9163      19293.78       5698.7434    
    699000   298.13285     -3352.9022      19.268347     -3333.6338      19638.487      5698.7434    
    700000   303.05169     -3351.8109      19.586253     -3332.2246      21309.863      5698.7434    
    701000   323.20826     -3353.3185      20.888974     -3332.4295      19775.283      5698.7434    
    702000   303.0682      -3353.5144      19.58732      -3333.9271      19826.037      5698.7434    
    703000   307.57372     -3353.5671      19.878512     -3333.6886      17808.381      5698.7434    
    704000   301.10237     -3353.0525      19.460268     -3333.5923      18469.27       5698.7434    
    705000   288.1984      -3351.2404      18.626284     -3332.6141      21756.125      5698.7434    
    706000   312.0154      -3352.4106      20.165578     -3332.245       19811.3        5698.7434    
    707000   309.80944     -3353.8679      20.023007     -3333.8449      17374.578      5698.7434    
    708000   299.95328     -3354.3819      19.386002     -3334.9959      19141.737      5698.7434    
    709000   291.77318     -3352.5769      18.857322     -3333.7196      19010.307      5698.7434    
    710000   297.44601     -3352.7142      19.223957     -3333.4902      19470.862      5698.7434    
    711000   316.73233     -3351.7836      20.470433     -3331.3132      20486.064      5698.7434    
    712000   310.65653     -3352.6368      20.077754     -3332.5591      19519.148      5698.7434    
    713000   289.44886     -3353.1752      18.707101     -3334.4681      18924.471      5698.7434    
    714000   286.37006     -3352.3114      18.508117     -3333.8033      18934.399      5698.7434    
    715000   306.67886     -3352.4048      19.820677     -3332.5842      17966.135      5698.7434    
    716000   299.4468      -3352.3803      19.353269     -3333.027       17922.544      5698.7434    
    717000   297.81445     -3352.9452      19.24777      -3333.6975      20467.648      5698.7434    
    718000   298.50048     -3353.387       19.292108     -3334.0949      18630.308      5698.7434    
    719000   303.37117     -3353.4433      19.606901     -3333.8364      19389.56       5698.7434    
    720000   297.82832     -3352.3968      19.248666     -3333.1482      19171.132      5698.7434    
    721000   317.28884     -3352.9901      20.506401     -3332.4837      16757.741      5698.7434    
    722000   304.50684     -3352.0696      19.680299     -3332.3893      18916.337      5698.7434    
    723000   299.72893     -3353.1579      19.371502     -3333.7864      18667.366      5698.7434    
    724000   301.34182     -3352.4976      19.475743     -3333.0219      20052.212      5698.7434    
    725000   298.39019     -3353.5618      19.284979     -3334.2768      19039.674      5698.7434    
    726000   284.74065     -3352.0927      18.402809     -3333.6899      22177.416      5698.7434    
    727000   302.89157     -3352.2979      19.575904     -3332.722       19407.158      5698.7434    
    728000   322.85584     -3352.8392      20.866196     -3331.973       19102.122      5698.7434    
    729000   316.21555     -3352.3059      20.437034     -3331.8689      19353.932      5698.7434    
    730000   303.53785     -3353.165       19.617673     -3333.5473      17503.97       5698.7434    
    731000   294.03039     -3353.0893      19.003205     -3334.0861      19107.939      5698.7434    
    732000   307.0635      -3352.9972      19.845536     -3333.1517      17954.254      5698.7434    
    733000   329.44641     -3352.8276      21.292145     -3331.5354      17529.778      5698.7434    
    734000   310.41848     -3352.6733      20.062369     -3332.6109      20028.968      5698.7434    
    735000   301.54191     -3353.536       19.488676     -3334.0473      18175.087      5698.7434    
    736000   286.43715     -3352.7781      18.512454     -3334.2656      19706.637      5698.7434    
    737000   289.71722     -3353.0728      18.724445     -3334.3484      19861.632      5698.7434    
    738000   309.94842     -3353.0289      20.031989     -3332.9969      18563.869      5698.7434    
    739000   307.49088     -3352.7883      19.873158     -3332.9151      21265.542      5698.7434    
    740000   288.42643     -3351.6276      18.641021     -3332.9866      21443.35       5698.7434    
    741000   313.36914     -3353.6838      20.25307      -3333.4308      18682.937      5698.7434    
    742000   299.34648     -3352.9047      19.346785     -3333.5579      16536.413      5698.7434    
    743000   292.5276      -3352.6673      18.90608      -3333.7613      19874.066      5698.7434    
    744000   314.02804     -3353.1119      20.295655     -3332.8163      18274.317      5698.7434    
    745000   308.40203     -3352.6661      19.932046     -3332.734       20646.855      5698.7434    
    746000   294.68254     -3351.5546      19.045354     -3332.5092      20128.669      5698.7434    
    747000   297.12971     -3353.1823      19.203515     -3333.9788      18702.658      5698.7434    
    748000   306.29431     -3353.3629      19.795823     -3333.5671      19212.176      5698.7434    
    749000   283.825       -3351.5769      18.343631     -3333.2333      19077.648      5698.7434    
    750000   300.58371     -3352.1431      19.426747     -3332.7163      18955.366      5698.7434    
    751000   298.19955     -3353.0053      19.272658     -3333.7326      19135.947      5698.7434    
    752000   300.28203     -3354.4428      19.407249     -3335.0356      18638.97       5698.7434    
    753000   284.76483     -3352.9631      18.404371     -3334.5587      17525.533      5698.7434    
    754000   292.72667     -3352.345       18.918946     -3333.426       19279.807      5698.7434    
    755000   310.78818     -3352.272       20.086262     -3332.1858      20716.026      5698.7434    
    756000   316.92426     -3353.0244      20.482838     -3332.5415      20253.916      5698.7434    
    757000   303.63555     -3353.4216      19.623987     -3333.7976      17494.619      5698.7434    
    758000   304.41796     -3353.2166      19.674555     -3333.542       19820.359      5698.7434    
    759000   299.0543      -3352.5418      19.327901     -3333.2139      20175.273      5698.7434    
    760000   275.48556     -3353.0057      17.804652     -3335.2011      20045.758      5698.7434    
    761000   283.4801      -3352.9089      18.32134      -3334.5876      18045.389      5698.7434    
    762000   299.79877     -3353.0567      19.376016     -3333.6807      18323.137      5698.7434    
    763000   305.5662      -3352.0521      19.748765     -3332.3034      18627.142      5698.7434    
    764000   299.33934     -3350.7133      19.346323     -3331.367       19849.298      5698.7434    
    765000   306.5834      -3353.3362      19.814508     -3333.5217      17340.612      5698.7434    
    766000   283.09698     -3352.2891      18.296578     -3333.9925      16553.502      5698.7434    
    767000   301.75885     -3352.6037      19.502697     -3333.101       20575.787      5698.7434    
    768000   302.81547     -3351.5561      19.570986     -3331.9851      21103.189      5698.7434    
    769000   300.40051     -3353.1422      19.414907     -3333.7273      19500.204      5698.7434    
    770000   290.65019     -3354.4817      18.784743     -3335.6969      15240.116      5698.7434    
    771000   292.29616     -3352.1391      18.891122     -3333.248       19382.733      5698.7434    
    772000   289.6261      -3351.5883      18.718556     -3332.8697      19905.264      5698.7434    
    773000   303.90145     -3352.3301      19.641172     -3332.6889      18959.597      5698.7434    
    774000   277.73065     -3352.4589      17.949752     -3334.5092      19096.123      5698.7434    
    775000   297.85731     -3353.7991      19.25054      -3334.5486      19676.648      5698.7434    
    776000   299.74979     -3352.6354      19.37285      -3333.2626      18482.24       5698.7434    
    777000   297.69647     -3352.566       19.240145     -3333.3258      17321.54       5698.7434    
    778000   299.71704     -3353.4014      19.370734     -3334.0307      17686.929      5698.7434    
    779000   292.80404     -3352.5291      18.923946     -3333.6052      19651.35       5698.7434    
    780000   293.3037      -3351.3985      18.956239     -3332.4422      21203.532      5698.7434    
    781000   307.41492     -3352.5166      19.868249     -3332.6484      18021.829      5698.7434    
    782000   298.23883     -3352.5037      19.275197     -3333.2285      20359.26       5698.7434    
    783000   295.85673     -3353.3146      19.121242     -3334.1934      17870.205      5698.7434    
    784000   286.92727     -3352.5915      18.54413      -3334.0474      20438.861      5698.7434    
    785000   311.9035      -3353.0797      20.158346     -3332.9213      19295.106      5698.7434    
    786000   297.66276     -3350.6637      19.237966     -3331.4257      21087.636      5698.7434    
    787000   297.19996     -3351.8377      19.208055     -3332.6296      21546.753      5698.7434    
    788000   285.02335     -3352.08        18.42108      -3333.6589      20360.17       5698.7434    
    789000   287.67799     -3353.8189      18.592649     -3335.2262      17311.155      5698.7434    
    790000   289.19527     -3353.0895      18.690711     -3334.3988      20194.099      5698.7434    
    791000   304.54883     -3352.7066      19.683013     -3333.0236      19437.956      5698.7434    
    792000   288.00284     -3353.2237      18.613644     -3334.61        16722.387      5698.7434    
    793000   292.58046     -3352.3066      18.909496     -3333.3971      18045.321      5698.7434    
    794000   312.58707     -3352.4251      20.202525     -3332.2225      19591.413      5698.7434    
    795000   307.05285     -3353.7426      19.844848     -3333.8978      18465.052      5698.7434    
    796000   300.05355     -3351.9303      19.392483     -3332.5378      20496.916      5698.7434    
    797000   310.10119     -3351.8072      20.041863     -3331.7653      20132.434      5698.7434    
    798000   296.59869     -3351.9208      19.169195     -3332.7516      20320.808      5698.7434    
    799000   304.56858     -3353.0405      19.684289     -3333.3562      19338.595      5698.7434    
    800000   306.34733     -3351.9091      19.79925      -3332.1098      18884.622      5698.7434    
    801000   282.26267     -3352.032       18.242657     -3333.7893      20027.515      5698.7434    
    802000   304.83782     -3353.5304      19.701691     -3333.8288      18712.626      5698.7434    
    803000   309.38435     -3352.4348      19.995533     -3332.4393      20145.559      5698.7434    
    804000   300.25101     -3352.2623      19.405245     -3332.857       19083.405      5698.7434    
    805000   300.41612     -3354.6087      19.415916     -3335.1928      15901.667      5698.7434    
    806000   282.81414     -3352.5198      18.278298     -3334.2415      19012.98       5698.7434    
    807000   302.47013     -3352.6236      19.548667     -3333.0749      18117.419      5698.7434    
    808000   289.7714      -3352.4467      18.727946     -3333.7187      19494.502      5698.7434    
    809000   278.87385     -3353.6148      18.023637     -3335.5912      19169.515      5698.7434    
    810000   301.92107     -3352.3684      19.513181     -3332.8552      20156.721      5698.7434    
    811000   313.73151     -3352.9375      20.27649      -3332.661       19048.883      5698.7434    
    812000   282.5943      -3353.2287      18.26409      -3334.9646      18015.994      5698.7434    
    813000   285.13648     -3353.3419      18.428391     -3334.9135      19158.544      5698.7434    
    814000   296.37072     -3353.2002      19.154461     -3334.0458      17318.052      5698.7434    
    815000   301.0086      -3352.0493      19.454208     -3332.5951      20427.062      5698.7434    
    816000   308.59359     -3351.9561      19.944426     -3332.0117      18761.5        5698.7434    
    817000   290.50801     -3350.4378      18.775554     -3331.6622      22013.948      5698.7434    
    818000   289.49344     -3352.6872      18.709982     -3333.9772      19018.077      5698.7434    
    819000   290.92917     -3352.5307      18.802773     -3333.7279      19971.82       5698.7434    
    820000   310.69158     -3353.1949      20.08002      -3333.1148      21808.7        5698.7434    
    821000   293.12222     -3352.3049      18.94451      -3333.3604      19322.962      5698.7434    
    822000   290.38049     -3353.5588      18.767312     -3334.7914      18192.092      5698.7434    
    823000   285.64157     -3353.7128      18.461035     -3335.2518      18244.817      5698.7434    
    824000   306.97121     -3353.6466      19.839571     -3333.807       18463.021      5698.7434    
    825000   298.36694     -3352.3438      19.283477     -3333.0603      20060.639      5698.7434    
    826000   296.23189     -3352.1334      19.145489     -3332.9879      22423.712      5698.7434    
    827000   280.94918     -3352.7884      18.157766     -3334.6306      18368.139      5698.7434    
    828000   288.37144     -3353.0608      18.637467     -3334.4233      18719.292      5698.7434    
    829000   295.45729     -3353.4383      19.095426     -3334.3429      18934.519      5698.7434    
    830000   322.89945     -3352.0081      20.869015     -3331.1391      19890.835      5698.7434    
    831000   316.44689     -3353.6053      20.451986     -3333.1533      16940.524      5698.7434    
    832000   299.16475     -3352.8603      19.33504      -3333.5252      18049.92       5698.7434    
    833000   301.45058     -3352.8418      19.482773     -3333.359       19436.533      5698.7434    
    834000   310.0225      -3351.6772      20.036776     -3331.6404      18170.813      5698.7434    
    835000   319.63622     -3352.9271      20.658112     -3332.269       19163.763      5698.7434    
    836000   284.55108     -3352.6989      18.390557     -3334.3083      16234.38       5698.7434    
    837000   308.84642     -3353.4481      19.960767     -3333.4873      18348.243      5698.7434    
    838000   311.80093     -3352.8304      20.151717     -3332.6787      19112.054      5698.7434    
    839000   313.5191      -3353.0363      20.262762     -3332.7736      17143.778      5698.7434    
    840000   306.70418     -3353.5033      19.822313     -3333.681       18720.613      5698.7434    
    841000   287.42119     -3353.3926      18.576052     -3334.8166      18133.505      5698.7434    
    842000   299.43561     -3353.7938      19.352545     -3334.4413      16448.316      5698.7434    
    843000   304.21028     -3352.0193      19.661133     -3332.3582      18084.924      5698.7434    
    844000   306.64711     -3352.5308      19.818625     -3332.7122      18984.769      5698.7434    
    845000   306.46441     -3353.4638      19.806817     -3333.657       19143.003      5698.7434    
    846000   309.04187     -3353.845       19.973398     -3333.8716      16316.063      5698.7434    
    847000   319.53989     -3352.3444      20.651886     -3331.6926      20720.296      5698.7434    
    848000   298.86463     -3351.2613      19.315643     -3331.9457      20825.93       5698.7434    
    849000   303.58669     -3352.733       19.62083      -3333.1122      19577.127      5698.7434    
    850000   295.54967     -3353.0512      19.101397     -3333.9498      18066.379      5698.7434    
    851000   282.12559     -3352.0685      18.233797     -3333.8347      19602.431      5698.7434    
    852000   299.19705     -3351.6464      19.337127     -3332.3092      20111.942      5698.7434    
    853000   316.76241     -3352.7446      20.472377     -3332.2722      19207.78       5698.7434    
    854000   284.98426     -3352.6224      18.418553     -3334.2038      18525.301      5698.7434    
    855000   300.4938      -3353.6763      19.420936     -3334.2554      18391.524      5698.7434    
    856000   320.70552     -3352.3675      20.727221     -3331.6402      19120.512      5698.7434    
    857000   317.22516     -3351.831       20.502285     -3331.3287      19545.204      5698.7434    
    858000   281.36941     -3352.6332      18.184925     -3334.4483      17943.861      5698.7434    
    859000   297.16081     -3352.818       19.205525     -3333.6125      17241.165      5698.7434    
    860000   325.3624      -3352.7133      21.028195     -3331.6851      19234.627      5698.7434    
    861000   314.61316     -3351.5931      20.333472     -3331.2596      17804.871      5698.7434    
    862000   303.85013     -3352.4266      19.637856     -3332.7887      18895.84       5698.7434    
    863000   286.11691     -3352.1334      18.491756     -3333.6417      19578.327      5698.7434    
    864000   284.09671     -3352.945       18.361191     -3334.5838      18143.823      5698.7434    
    865000   291.11531     -3351.8574      18.814803     -3333.0426      19656.277      5698.7434    
    866000   312.95593     -3352.6015      20.226365     -3332.3751      19507.875      5698.7434    
    867000   279.86221     -3352.9231      18.087515     -3334.8356      20668.476      5698.7434    
    868000   268.54263     -3351.9093      17.35593      -3334.5533      19013.118      5698.7434    
    869000   307.79543     -3352.9863      19.892841     -3333.0935      19782.112      5698.7434    
    870000   308.37616     -3352.9379      19.930374     -3333.0075      18609.661      5698.7434    
    871000   311.32479     -3353.2226      20.120944     -3333.1016      19709.559      5698.7434    
    872000   293.84067     -3354.184       18.990944     -3335.1931      19627.57       5698.7434    
    873000   284.235       -3352.8625      18.370129     -3334.4924      22243.74       5698.7434    
    874000   280.15508     -3352.2471      18.106443     -3334.1406      19413.843      5698.7434    
    875000   306.16076     -3351.3092      19.787192     -3331.522       19057.23       5698.7434    
    876000   304.84246     -3352.4395      19.70199      -3332.7375      20352.718      5698.7434    
    877000   305.68131     -3352.9357      19.756205     -3333.1795      19449.848      5698.7434    
    878000   278.35584     -3352.6335      17.990158     -3334.6434      19055.139      5698.7434    
    879000   289.22417     -3354.4139      18.692579     -3335.7213      15623.748      5698.7434    
    880000   287.80653     -3352.3917      18.600957     -3333.7908      19455.071      5698.7434    
    881000   312.7665      -3352.8532      20.214121     -3332.6391      18049.464      5698.7434    
    882000   309.17129     -3352.13        19.981763     -3332.1482      20487.257      5698.7434    
    883000   317.95238     -3352.2699      20.549285     -3331.7206      20861.508      5698.7434    
    884000   305.78327     -3352.4045      19.762795     -3332.6417      18265.641      5698.7434    
    885000   307.20994     -3352.929       19.855        -3333.074       18819.01       5698.7434    
    886000   297.98582     -3353.2358      19.258845     -3333.977       19200.88       5698.7434    
    887000   306.58332     -3352.6293      19.814502     -3332.8148      19794.43       5698.7434    
    888000   311.56299     -3352.9082      20.136338     -3332.7718      18407.716      5698.7434    
    889000   319.07332     -3353.3782      20.621732     -3332.7565      19479.508      5698.7434    
    890000   297.20395     -3353.7734      19.208313     -3334.565       19854.244      5698.7434    
    891000   286.80589     -3353.2716      18.536286     -3334.7353      18705.953      5698.7434    
    892000   300.79742     -3352.4803      19.440559     -3333.0397      18722.792      5698.7434    
    893000   295.02974     -3352.821       19.067793     -3333.7532      17768.514      5698.7434    
    894000   310.28622     -3353.4019      20.053821     -3333.348       18413.93       5698.7434    
    895000   319.16537     -3352.5646      20.627681     -3331.937       20857.754      5698.7434    
    896000   307.98085     -3352.0051      19.904824     -3332.1003      17884.234      5698.7434    
    897000   315.21679     -3352.9619      20.372484     -3332.5894      15697.718      5698.7434    
    898000   298.67496     -3353.0258      19.303384     -3333.7224      19780.159      5698.7434    
    899000   304.30314     -3351.5579      19.667134     -3331.8908      19375.326      5698.7434    
    900000   309.83843     -3351.3254      20.02488      -3331.3005      21470.703      5698.7434    
    901000   305.02265     -3353.0353      19.713636     -3333.3217      17991.336      5698.7434    
    902000   287.24228     -3353.0696      18.564489     -3334.5051      20283.647      5698.7434    
    903000   297.41679     -3352.8328      19.222069     -3333.6108      19285.732      5698.7434    
    904000   320.28623     -3352.8374      20.700122     -3332.1373      19299.595      5698.7434    
    905000   303.1879      -3353.0941      19.595056     -3333.4991      17557.8        5698.7434    
    906000   279.7832      -3353.6134      18.082408     -3335.531       17145.783      5698.7434    
    907000   298.3555      -3352.9525      19.282738     -3333.6697      18721.767      5698.7434    
    908000   300.36537     -3352.3217      19.412636     -3332.9091      19758.487      5698.7434    
    909000   294.56244     -3351.6951      19.037592     -3332.6575      17218.897      5698.7434    
    910000   278.21672     -3352.2002      17.981167     -3334.2191      18958.396      5698.7434    
    911000   320.02602     -3352.1754      20.683305     -3331.4921      17720.283      5698.7434    
    912000   316.00555     -3353.387       20.423462     -3332.9635      20510.298      5698.7434    
    913000   301.82853     -3353.7544      19.5072       -3334.2472      21527.292      5698.7434    
    914000   289.31835     -3351.9512      18.698666     -3333.2525      20132.061      5698.7434    
    915000   298.94537     -3352.5156      19.320861     -3333.1948      18462.432      5698.7434    
    916000   309.65517     -3354.2941      20.013036     -3334.281       17749.056      5698.7434    
    917000   284.31531     -3352.7784      18.375319     -3334.4031      16629.719      5698.7434    
    918000   310.83382     -3352.2958      20.089212     -3332.2066      20798.138      5698.7434    
    919000   306.07985     -3352.0909      19.781963     -3332.3089      19891.268      5698.7434    
    920000   296.96151     -3352.1634      19.192644     -3332.9708      19603.183      5698.7434    
    921000   294.10653     -3353.0146      19.008127     -3334.0065      17859.92       5698.7434    
    922000   300.95613     -3352.7516      19.450816     -3333.3008      18168.219      5698.7434    
    923000   305.93808     -3351.5938      19.7728       -3331.821       18087.726      5698.7434    
    924000   313.27672     -3352.6387      20.247097     -3332.3916      17895.419      5698.7434    
    925000   308.1902      -3352.3735      19.918355     -3332.4552      17703.082      5698.7434    
    926000   284.26385     -3352.7596      18.371993     -3334.3876      16348.871      5698.7434    
    927000   294.87516     -3354.1301      19.057803     -3335.0723      16681.386      5698.7434    
    928000   319.66195     -3352.6309      20.659775     -3331.9711      17071.867      5698.7434    
    929000   299.55898     -3352.2538      19.360519     -3332.8933      19721.455      5698.7434    
    930000   289.03667     -3354.2178      18.680461     -3335.5373      17625.029      5698.7434    
    931000   296.64487     -3352.1105      19.172179     -3332.9383      18853.863      5698.7434    
    932000   316.66231     -3352.8212      20.465908     -3332.3553      18006.492      5698.7434    
    933000   292.75747     -3353.539       18.920937     -3334.6181      18437.1        5698.7434    
    934000   296.31718     -3354.2937      19.151001     -3335.1427      17358.15       5698.7434    
    935000   292.66639     -3353.6044      18.91505      -3334.6893      17650.263      5698.7434    
    936000   300.37821     -3353.1922      19.413465     -3333.7788      19419.972      5698.7434    
    937000   292.92737     -3351.747       18.931917     -3332.8151      21138.434      5698.7434    
    938000   310.25707     -3353.405       20.051937     -3333.353       19535.154      5698.7434    
    939000   321.94361     -3353.304       20.807239     -3332.4968      19843.387      5698.7434    
    940000   301.02824     -3351.3393      19.455477     -3331.8838      21550.343      5698.7434    
    941000   312.94176     -3353.5817      20.225449     -3333.3562      19278.486      5698.7434    
    942000   294.21175     -3352.7929      19.014927     -3333.778       18037.661      5698.7434    
    943000   295.82934     -3352.2621      19.119472     -3333.1426      19374.898      5698.7434    
    944000   311.03151     -3352.2492      20.101989     -3332.1472      20713.476      5698.7434    
    945000   314.55354     -3352.6268      20.329618     -3332.2972      18519.158      5698.7434    
    946000   289.83082     -3352.0612      18.731787     -3333.3294      18866.584      5698.7434    
    947000   277.59832     -3352.2295      17.9412       -3334.2883      19483.462      5698.7434    
    948000   297.9718      -3354.9472      19.257939     -3335.6892      17601.861      5698.7434    
    949000   311.45955     -3352.703       20.129654     -3332.5734      20468.773      5698.7434    
    950000   300.4104      -3351.8089      19.415546     -3332.3934      21286.531      5698.7434    
    951000   297.79736     -3351.2588      19.246665     -3332.0122      20668.721      5698.7434    
    952000   296.22481     -3352.5928      19.145031     -3333.4477      17194.279      5698.7434    
    953000   286.32177     -3353.3393      18.504997     -3334.8343      18036.258      5698.7434    
    954000   310.68641     -3353.6052      20.079685     -3333.5255      18898.348      5698.7434    
    955000   317.24456     -3352.9722      20.503539     -3332.4686      20200.209      5698.7434    
    956000   313.482       -3352.6581      20.260364     -3332.3977      18762.381      5698.7434    
    957000   292.60072     -3352.6162      18.910806     -3333.7054      19554.179      5698.7434    
    958000   276.88778     -3353.228       17.895277     -3335.3327      16635.37       5698.7434    
    959000   310.4257      -3354.5588      20.062836     -3334.4959      17817.108      5698.7434    
    960000   304.75015     -3352.3724      19.696024     -3332.6764      19910.149      5698.7434    
    961000   319.92472     -3352.6332      20.676758     -3331.9564      16984.551      5698.7434    
    962000   321.24858     -3352.4347      20.762319     -3331.6723      20403.327      5698.7434    
    963000   313.67679     -3353.383       20.272954     -3333.1101      17960.506      5698.7434    
    964000   300.91443     -3353.0833      19.448121     -3333.6352      18845.09       5698.7434    
    965000   287.67903     -3352.4116      18.592716     -3333.8189      18215.441      5698.7434    
    966000   306.38403     -3352.3595      19.801622     -3332.5579      19788.643      5698.7434    
    967000   319.35629     -3352.7216      20.64002      -3332.0816      18178.109      5698.7434    
    968000   319.07239     -3353.4289      20.621672     -3332.8072      19543.998      5698.7434    
    969000   285.5024      -3354.1982      18.452041     -3335.7461      16178.275      5698.7434    
    970000   287.08902     -3352.2723      18.554584     -3333.7177      20472.599      5698.7434    
    971000   309.66214     -3352.2424      20.013487     -3332.2289      19655.442      5698.7434    
    972000   290.22223     -3352.4734      18.757084     -3333.7163      21101.905      5698.7434    
    973000   287.51142     -3352.8625      18.581884     -3334.2807      17640.417      5698.7434    
    974000   271.8971      -3352.7074      17.57273      -3335.1347      19756.795      5698.7434    
    975000   300.17726     -3354.5177      19.400478     -3335.1172      19158.508      5698.7434    
    976000   305.01494     -3352.7289      19.713138     -3333.0157      18500.167      5698.7434    
    977000   302.99681     -3352.6776      19.582706     -3333.0949      18519.718      5698.7434    
    978000   294.81176     -3352.8927      19.053706     -3333.839       20336.65       5698.7434    
    979000   294.99712     -3353.2283      19.065686     -3334.1626      17901.641      5698.7434    
    980000   306.1427      -3352.4701      19.786025     -3332.6841      19895.674      5698.7434    
    981000   306.11837     -3352.6023      19.784453     -3332.8179      19130.006      5698.7434    
    982000   305.13417     -3353.515       19.720843     -3333.7942      18037.734      5698.7434    
    983000   280.15317     -3353.1216      18.10632      -3335.0153      19049.633      5698.7434    
    984000   295.60543     -3351.8147      19.105        -3332.7097      19649.592      5698.7434    
    985000   297.69118     -3352.8749      19.239803     -3333.6351      20857.577      5698.7434    
    986000   320.81144     -3353.4044      20.734067     -3332.6704      18569.189      5698.7434    
    987000   313.44851     -3352.035       20.2582       -3331.7768      20273.309      5698.7434    
    988000   311.17902     -3352.7117      20.111522     -3332.6001      20531.888      5698.7434    
    989000   299.0539      -3352.8121      19.327876     -3333.4842      18598.893      5698.7434    
    990000   300.59065     -3354.1427      19.427196     -3334.7155      17340.768      5698.7434    
    991000   296.26426     -3353.583       19.14758      -3334.4354      18466.193      5698.7434    
    992000   300.11331     -3351.9626      19.396345     -3332.5663      17266.051      5698.7434    
    993000   296.85708     -3351.4843      19.185894     -3332.2984      19070.257      5698.7434    
    994000   294.91341     -3354.6893      19.060275     -3335.6291      15805.514      5698.7434    
    995000   308.11177     -3352.8624      19.913286     -3332.9491      18462.743      5698.7434    
    996000   313.24487     -3352.8563      20.245039     -3332.6113      18235.412      5698.7434    
    997000   280.70118     -3352.626       18.141738     -3334.4842      17027.732      5698.7434    
    998000   297.96283     -3354.1803      19.257359     -3334.9229      18179.393      5698.7434    
    999000   294.48574     -3352.2982      19.032635     -3333.2656      19115.983      5698.7434    
   1000000   300.05601     -3351.5246      19.392642     -3332.132       19016.346      5698.7434    
   1001000   301.14896     -3352.979       19.463279     -3333.5157      17970.649      5698.7434    
   1002000   307.05975     -3353.3135      19.845294     -3333.4682      19196.338      5698.7434    
   1003000   321.86454     -3352.4147      20.802128     -3331.6126      21061.192      5698.7434    
   1004000   307.99742     -3351.7016      19.905895     -3331.7957      19132.593      5698.7434    
   1005000   304.13568     -3352.0039      19.656311     -3332.3476      18641.551      5698.7434    
   1006000   300.39834     -3352.8296      19.414766     -3333.4148      18588.356      5698.7434    
   1007000   288.54324     -3353.141       18.648571     -3334.4924      16670.48       5698.7434    
   1008000   278.8143      -3353.3129      18.019788     -3335.2931      17060.493      5698.7434    
   1009000   309.97263     -3353.8653      20.033553     -3333.8317      19392.252      5698.7434    
   1010000   313.13433     -3353.4118      20.237895     -3333.1739      20592.967      5698.7434    
   1011000   288.46808     -3351.0428      18.643713     -3332.3991      20440.745      5698.7434    
   1012000   326.12233     -3352.5944      21.07731      -3331.5171      19721.143      5698.7434    
   1013000   291.16494     -3353.1313      18.818011     -3334.3133      18247.285      5698.7434    
   1014000   313.10487     -3353.6504      20.23599      -3333.4144      19581.75       5698.7434    
   1015000   307.65546     -3352.1783      19.883795     -3332.2945      18223.494      5698.7434    
   1016000   302.48483     -3352.669       19.549617     -3333.1193      20514.815      5698.7434    
   1017000   299.47345     -3353.2332      19.354991     -3333.8782      19462.465      5698.7434    
   1018000   302.2374      -3354.3485      19.533625     -3334.8149      17153.566      5698.7434    
   1019000   282.63337     -3352.8556      18.266615     -3334.589       17596.188      5698.7434    
   1020000   295.50665     -3352.2815      19.098616     -3333.1829      19978.832      5698.7434    
   1021000   286.75557     -3352.8299      18.533033     -3334.2969      17546.621      5698.7434    
   1022000   297.80842     -3353.302       19.24738      -3334.0546      16124.314      5698.7434    
   1023000   304.67246     -3352.9697      19.691003     -3333.2787      17835.631      5698.7434    
   1024000   292.57113     -3352.0583      18.908893     -3333.1494      18209.326      5698.7434    
   1025000   305.51886     -3352.9436      19.745706     -3333.1979      20240.492      5698.7434    
   1026000   301.64429     -3353.8189      19.495292     -3334.3236      21457.354      5698.7434    
   1027000   308.62075     -3353.2189      19.946181     -3333.2727      17652.447      5698.7434    
   1028000   288.17333     -3351.114       18.624663     -3332.4893      19044.917      5698.7434    
   1029000   303.33353     -3353.2849      19.604468     -3333.6804      18321.997      5698.7434    
   1030000   294.10307     -3352.4048      19.007903     -3333.3969      20988.994      5698.7434    
   1031000   301.38644     -3352.3059      19.478627     -3332.8273      19483.894      5698.7434    
   1032000   315.3862      -3352.1081      20.383433     -3331.7246      19618.765      5698.7434    
   1033000   316.51809     -3353.5698      20.456587     -3333.1132      16897.261      5698.7434    
   1034000   300.61271     -3353.0733      19.428621     -3333.6447      17623.864      5698.7434    
   1035000   279.15973     -3354.6835      18.042113     -3336.6414      17431.561      5698.7434    
   1036000   294.12762     -3351.4123      19.009489     -3332.4028      21859.298      5698.7434    
   1037000   295.16735     -3352.4791      19.076687     -3333.4024      19352.754      5698.7434    
   1038000   277.35207     -3353.1036      17.925284     -3335.1783      17920.765      5698.7434    
   1039000   277.03014     -3352.9827      17.904478     -3335.0782      17725.633      5698.7434    
   1040000   301.71947     -3352.8015      19.500151     -3333.3013      17798.394      5698.7434    
   1041000   304.10281     -3351.4738      19.654187     -3331.8196      17709.697      5698.7434    
   1042000   299.2529      -3351.9213      19.340736     -3332.5805      18694.309      5698.7434    
   1043000   308.87181     -3352.7631      19.962407     -3332.8007      19735.585      5698.7434    
   1044000   305.92766     -3353.4017      19.772127     -3333.6296      19507.016      5698.7434    
   1045000   296.17961     -3351.4433      19.14211      -3332.3012      19112.667      5698.7434    
   1046000   313.45284     -3351.6959      20.25848      -3331.4374      22499.466      5698.7434    
   1047000   295.69372     -3353.4332      19.110707     -3334.3225      19827.131      5698.7434    
   1048000   300.68657     -3353.1218      19.433395     -3333.6884      20748.642      5698.7434    
   1049000   297.53324     -3354.0997      19.229595     -3334.8701      18974.279      5698.7434    
   1050000   290.70291     -3353.2984      18.78815      -3334.5103      17633.057      5698.7434    
   1051000   293.01395     -3352.8496      18.937513     -3333.9121      18552.37       5698.7434    
   1052000   316.6534      -3351.9965      20.465332     -3331.5312      20208.664      5698.7434    
   1053000   291.32031     -3351.9303      18.828052     -3333.1022      18629.917      5698.7434    
   1054000   298.13164     -3352.975       19.268269     -3333.7067      18751.468      5698.7434    
   1055000   287.53134     -3352.3415      18.583171     -3333.7583      19901.956      5698.7434    
   1056000   301.85439     -3352.2962      19.508871     -3332.7873      19794.729      5698.7434    
   1057000   306.46681     -3352.4688      19.806972     -3332.6618      19708.434      5698.7434    
   1058000   299.94326     -3352.7881      19.385355     -3333.4027      19395.723      5698.7434    
   1059000   300.58337     -3351.7038      19.426725     -3332.2771      18236.358      5698.7434    
   1060000   292.3235      -3352.2306      18.892889     -3333.3377      19401.048      5698.7434    
   1061000   304.3358      -3352.0795      19.669245     -3332.4103      18592.293      5698.7434    
   1062000   307.05216     -3354.3677      19.844803     -3334.5229      18528.744      5698.7434    
   1063000   329.83398     -3352.5015      21.317194     -3331.1843      18430.127      5698.7434    
   1064000   287.8371      -3350.789       18.602933     -3332.1861      19676.429      5698.7434    
   1065000   291.28449     -3352.5248      18.825738     -3333.699       18900.215      5698.7434    
   1066000   284.37993     -3352.7446      18.379495     -3334.3651      18496.529      5698.7434    
   1067000   295.98163     -3352.6304      19.129314     -3333.5011      18611.447      5698.7434    
   1068000   294.32285     -3351.1873      19.022107     -3332.1652      21455.703      5698.7434    
   1069000   312.05518     -3352.7987      20.168149     -3332.6306      19608.763      5698.7434    
   1070000   314.31954     -3353.0969      20.314495     -3332.7824      19197.459      5698.7434    
   1071000   294.66211     -3352.6228      19.044033     -3333.5787      18383.959      5698.7434    
   1072000   305.23677     -3353.3077      19.727474     -3333.5802      17403.848      5698.7434    
   1073000   311.46916     -3352.1607      20.130274     -3332.0304      18723.329      5698.7434    
   1074000   321.33279     -3352.9055      20.767761     -3332.1377      18665.295      5698.7434    
   1075000   301.00007     -3352.504       19.453656     -3333.0504      17628.131      5698.7434    
   1076000   316.02017     -3353.808       20.424406     -3333.3836      18899.398      5698.7434    
   1077000   294.7867      -3351.8359      19.052086     -3332.7838      21076.32       5698.7434    
   1078000   294.50601     -3352.1364      19.033945     -3333.1025      20223.961      5698.7434    
   1079000   301.07273     -3353.4384      19.458352     -3333.98        18264.11       5698.7434    
   1080000   297.40012     -3353.3581      19.220991     -3334.1371      17187.293      5698.7434    
   1081000   309.5084      -3352.3365      20.003551     -3332.333       18095.046      5698.7434    
   1082000   325.51818     -3352.1097      21.038264     -3331.0715      20876.032      5698.7434    
   1083000   302.4839      -3353.9787      19.549557     -3334.4291      17236.16       5698.7434    
   1084000   303.75563     -3353.3408      19.631748     -3333.7091      19274.436      5698.7434    
   1085000   319.42119     -3353.2131      20.644214     -3332.5689      17909.849      5698.7434    
   1086000   311.49825     -3354.0785      20.132155     -3333.9463      17084.92       5698.7434    
   1087000   296.6499      -3352.6526      19.172505     -3333.4801      18155.108      5698.7434    
   1088000   302.90961     -3351.5113      19.57707      -3331.9343      20007.794      5698.7434    
   1089000   297.74718     -3352.3128      19.243422     -3333.0694      19723.535      5698.7434    
   1090000   296.6255      -3353.5714      19.170928     -3334.4005      18496.294      5698.7434    
   1091000   288.885       -3351.4392      18.670658     -3332.7686      22043.32       5698.7434    
   1092000   307.68692     -3353.6794      19.885828     -3333.7935      20893.087      5698.7434    
   1093000   288.01455     -3353.6576      18.614401     -3335.0432      18913.079      5698.7434    
   1094000   294.77632     -3352.1931      19.051415     -3333.1417      21246.093      5698.7434    
   1095000   296.31016     -3353.8317      19.150547     -3334.6812      16830.269      5698.7434    
   1096000   290.98912     -3353.6169      18.806648     -3334.8103      18327.816      5698.7434    
   1097000   299.60667     -3351.9118      19.363601     -3332.5482      20159.272      5698.7434    
   1098000   294.51544     -3352.5085      19.034554     -3333.474       19865.303      5698.7434    
   1099000   299.19239     -3353.768       19.336826     -3334.4312      17241.654      5698.7434    
   1100000   291.11317     -3353.4428      18.814665     -3334.6281      18668.104      5698.7434    
   1101000   306.15818     -3352.2119      19.787026     -3332.4248      19847.901      5698.7434    
   1102000   309.64118     -3353.1947      20.012132     -3333.1825      17728.713      5698.7434    
   1103000   287.28386     -3353.429       18.567177     -3334.8618      17406.268      5698.7434    
   1104000   309.3277      -3353.7101      19.991872     -3333.7182      18529.547      5698.7434    
   1105000   306.2974      -3352.2561      19.796023     -3332.46        19542.626      5698.7434    
   1106000   300.11967     -3352.0175      19.396756     -3332.6207      18135.851      5698.7434    
   1107000   289.16792     -3352.6216      18.688944     -3333.9326      19370.164      5698.7434    
   1108000   281.76271     -3354.1861      18.210345     -3335.9758      17492.52       5698.7434    
   1109000   300.26604     -3352.532       19.406216     -3333.1258      19650.421      5698.7434    
   1110000   308.36288     -3352.7353      19.929516     -3332.8058      19920.418      5698.7434    
   1111000   299.03739     -3352.8973      19.326808     -3333.5705      19644.974      5698.7434    
   1112000   295.15339     -3353.3194      19.075785     -3334.2436      18423.2        5698.7434    
   1113000   290.94827     -3353.6889      18.804008     -3334.8849      17777.636      5698.7434    
   1114000   285.57103     -3353.1224      18.456476     -3334.6659      18562.303      5698.7434    
   1115000   300.68        -3352.3049      19.432971     -3332.872       19729.282      5698.7434    
   1116000   292.2212      -3352.0719      18.886277     -3333.1856      21452.719      5698.7434    
   1117000   298.57399     -3353.4213      19.296858     -3334.1244      20991.436      5698.7434    
   1118000   295.24073     -3353.7059      19.08143      -3334.6244      18731.27       5698.7434    
   1119000   296.68993     -3353.3747      19.175092     -3334.1996      18952.252      5698.7434    
   1120000   290.62985     -3352.0157      18.783428     -3333.2323      19146.172      5698.7434    
   1121000   300.28367     -3351.7695      19.407356     -3332.3621      21349.135      5698.7434    
   1122000   303.15311     -3352.4048      19.592807     -3332.812       19886.298      5698.7434    
   1123000   295.35336     -3352.7549      19.088709     -3333.6662      19954.863      5698.7434    
   1124000   287.0342      -3352.2454      18.551041     -3333.6943      20363.305      5698.7434    
   1125000   321.80433     -3352.8254      20.798237     -3332.0271      19907.392      5698.7434    
   1126000   307.75281     -3351.4024      19.890086     -3331.5123      21298.012      5698.7434    
   1127000   304.40773     -3352.4771      19.673893     -3332.8032      18924.271      5698.7434    
   1128000   288.60796     -3352.711       18.652754     -3334.0583      21515.548      5698.7434    
   1129000   312.58792     -3352.7322      20.20258      -3332.5296      19227.219      5698.7434    
   1130000   295.97742     -3351.6013      19.129042     -3332.4723      22053.371      5698.7434    
   1131000   285.88831     -3352.1827      18.476982     -3333.7057      19980.887      5698.7434    
   1132000   289.28337     -3352.5144      18.696405     -3333.818       19010.134      5698.7434    
   1133000   305.99963     -3353.8691      19.776778     -3334.0924      18426.306      5698.7434    
   1134000   294.79527     -3353.3738      19.05264      -3334.3212      17597.597      5698.7434    
   1135000   304.18175     -3352.5113      19.659289     -3332.8521      18223.718      5698.7434    
   1136000   290.3138      -3351.7142      18.763002     -3332.9512      19351.803      5698.7434    
   1137000   290.12642     -3353.0142      18.750892     -3334.2633      19078.284      5698.7434    
   1138000   302.29132     -3353.813       19.53711      -3334.2759      18287.817      5698.7434    
   1139000   315.40319     -3352.7159      20.384531     -3332.3314      20287.835      5698.7434    
   1140000   318.28618     -3352.2889      20.570859     -3331.718       20483.216      5698.7434    
   1141000   301.28728     -3353.0567      19.472219     -3333.5845      19416.195      5698.7434    
   1142000   300.84759     -3353.1202      19.443801     -3333.6764      20351.481      5698.7434    
   1143000   312.31309     -3352.4086      20.184818     -3332.2237      19388.258      5698.7434    
   1144000   315.70323     -3351.7903      20.403923     -3331.3864      19620.151      5698.7434    
   1145000   283.65778     -3352.7033      18.332823     -3334.3704      19990.506      5698.7434    
   1146000   294.02894     -3353.1127      19.003112     -3334.1096      18334.642      5698.7434    
   1147000   309.53834     -3351.7607      20.005485     -3331.7553      20264.892      5698.7434    
   1148000   312.92638     -3352.8809      20.224455     -3332.6564      18342.697      5698.7434    
   1149000   293.24376     -3352.9399      18.952365     -3333.9875      18710.321      5698.7434    
   1150000   303.98642     -3353.9534      19.646664     -3334.3067      17676.186      5698.7434    
   1151000   294.4316      -3352.9021      19.029136     -3333.8729      18985.027      5698.7434    
   1152000   295.00409     -3352.1382      19.066136     -3333.072       19645.995      5698.7434    
   1153000   306.8333      -3353.9233      19.830658     -3334.0927      18691.364      5698.7434    
   1154000   296.30868     -3352.863       19.150451     -3333.7126      16278.556      5698.7434    
   1155000   305.05165     -3352.7551      19.71551      -3333.0396      19086.615      5698.7434    
   1156000   294.67741     -3351.9118      19.045023     -3332.8668      18346.178      5698.7434    
   1157000   315.03152     -3353.2901      20.36051      -3332.9296      20113.138      5698.7434    
   1158000   292.01955     -3353.0509      18.873244     -3334.1776      17564.167      5698.7434    
   1159000   287.80132     -3352.2224      18.60062      -3333.6218      20291.139      5698.7434    
   1160000   293.69562     -3353.4589      18.981569     -3334.4773      20031.84       5698.7434    
   1161000   302.11469     -3352.8099      19.525694     -3333.2842      18457.795      5698.7434    
   1162000   293.58089     -3353.3583      18.974154     -3334.3842      17349.302      5698.7434    
   1163000   288.04265     -3353.3422      18.616218     -3334.726       18796.017      5698.7434    
   1164000   288.2421      -3352.5278      18.629108     -3333.8987      20125.516      5698.7434    
   1165000   299.71925     -3352.3078      19.370877     -3332.9369      19719.737      5698.7434    
   1166000   307.92284     -3352.9075      19.901075     -3333.0064      21418.813      5698.7434    
   1167000   292.37298     -3353.3128      18.896087     -3334.4167      19220.457      5698.7434    
   1168000   291.8036      -3353.8999      18.859288     -3335.0406      17353.144      5698.7434    
   1169000   284.81991     -3351.9902      18.407931     -3333.5823      19951.888      5698.7434    
   1170000   307.33985     -3352.7645      19.863397     -3332.9011      17649.871      5698.7434    
   1171000   297.63371     -3352.9675      19.236088     -3333.7315      19677.312      5698.7434    
   1172000   295.21727     -3354.1875      19.079914     -3335.1076      17499.952      5698.7434    
   1173000   303.39526     -3353.5511      19.608458     -3333.9427      21066.765      5698.7434    
   1174000   302.25237     -3352.4744      19.534593     -3332.9398      21382.653      5698.7434    
   1175000   316.63302     -3351.6966      20.464015     -3331.2325      21904.754      5698.7434    
   1176000   310.50968     -3353.7363      20.068263     -3333.6681      20669.6        5698.7434    
   1177000   293.09451     -3352.5913      18.942719     -3333.6485      20180.586      5698.7434    
   1178000   306.03344     -3352.2486      19.778964     -3332.4696      20742.216      5698.7434    
   1179000   295.75702     -3352.3216      19.114798     -3333.2068      20668.911      5698.7434    
   1180000   285.72672     -3353.4286      18.466539     -3334.962       19440.855      5698.7434    
   1181000   282.30008     -3353.2375      18.245074     -3334.9924      20109.927      5698.7434    
   1182000   279.87912     -3351.7923      18.088608     -3333.7037      20495.227      5698.7434    
   1183000   326.70451     -3353.7085      21.114936     -3332.5935      21519.17       5698.7434    
   1184000   307.08998     -3352.4703      19.847248     -3332.623       22096.265      5698.7434    
   1185000   299.34629     -3353.0772      19.346772     -3333.7305      18863.386      5698.7434    
   1186000   288.9859      -3351.6898      18.67718      -3333.0126      20672.451      5698.7434    
   1187000   319.06442     -3352.9153      20.621157     -3332.2941      21368.254      5698.7434    
   1188000   303.21358     -3353.8547      19.596716     -3334.258       20365.65       5698.7434    
   1189000   288.95194     -3353.584       18.674985     -3334.909       18641.599      5698.7434    
   1190000   295.70607     -3352.8525      19.111505     -3333.741       20275.496      5698.7434    
   1191000   311.50193     -3353.0048      20.132392     -3332.8724      19145.206      5698.7434    
   1192000   298.3034      -3353.3165      19.27937      -3334.0372      18066.684      5698.7434    
   1193000   306.0942      -3353.5917      19.78289      -3333.8088      18442.629      5698.7434    
   1194000   308.18017     -3352.4008      19.917707     -3332.4831      20353.157      5698.7434    
   1195000   301.09984     -3352.4235      19.460104     -3332.9634      20955.597      5698.7434    
   1196000   308.83244     -3352.2497      19.959863     -3332.2899      19568.883      5698.7434    
   1197000   300.93289     -3353.3402      19.449314     -3333.8909      18987.234      5698.7434    
   1198000   293.57916     -3353.3826      18.974042     -3334.4085      18998.125      5698.7434    
   1199000   301.70351     -3352.8758      19.49912      -3333.3767      19799.835      5698.7434    
   1200000   319.40841     -3352.3865      20.643389     -3331.7431      20016.789      5698.7434    
   1201000   309.90155     -3352.9029      20.02896      -3332.874       19283.771      5698.7434    
   1202000   301.68633     -3353.0881      19.498009     -3333.5901      18141.349      5698.7434    
   1203000   296.40198     -3353.653       19.156481     -3334.4965      19690.562      5698.7434    
   1204000   282.45729     -3352.3348      18.255235     -3334.0796      19948.541      5698.7434    
   1205000   280.49406     -3352.2887      18.128351     -3334.1603      20048.76       5698.7434    
   1206000   317.49171     -3351.5362      20.519513     -3331.0166      19109.312      5698.7434    
   1207000   316.31381     -3352.6495      20.443385     -3332.2061      19896.384      5698.7434    
   1208000   309.22132     -3353.2071      19.984996     -3333.2221      18311.55       5698.7434    
   1209000   296.18872     -3353.4895      19.142698     -3334.3468      18689.333      5698.7434    
   1210000   309.7448      -3353.2123      20.018829     -3333.1935      18984.801      5698.7434    
   1211000   314.47577     -3352.1879      20.324592     -3331.8633      20680.61       5698.7434    
   1212000   296.88338     -3352.4813      19.187594     -3333.2937      19391.051      5698.7434    
   1213000   290.10205     -3354.1534      18.749316     -3335.4041      16780.266      5698.7434    
   1214000   301.37316     -3352.0103      19.477769     -3332.5325      17396.839      5698.7434    
   1215000   320.17558     -3353.4824      20.692971     -3332.7895      18714.592      5698.7434    
   1216000   302.59869     -3352.8683      19.556975     -3333.3113      18077.352      5698.7434    
   1217000   288.03602     -3353.2287      18.615789     -3334.6129      16445.281      5698.7434    
   1218000   289.10662     -3352.8115      18.684981     -3334.1266      20366.107      5698.7434    
   1219000   297.14953     -3353.2233      19.204796     -3334.0185      20603.236      5698.7434    
   1220000   296.07654     -3352.5714      19.135448     -3333.4359      19531.754      5698.7434    
   1221000   290.3202      -3351.6407      18.763415     -3332.8773      24315.103      5698.7434    
   1222000   298.35163     -3353.5262      19.282488     -3334.2437      17655.928      5698.7434    
   1223000   293.97066     -3352.3756      18.999345     -3333.3762      18892.916      5698.7434    
   1224000   305.25438     -3352.4032      19.728613     -3332.6746      19836.506      5698.7434    
   1225000   317.46914     -3352.0214      20.518054     -3331.5034      19949.813      5698.7434    
   1226000   314.06509     -3353.0518      20.298049     -3332.7538      21087.102      5698.7434    
   1227000   304.71351     -3353.3378      19.693656     -3333.6441      17891.208      5698.7434    
   1228000   295.18788     -3353.2903      19.078014     -3334.2123      18740.532      5698.7434    
   1229000   300.11935     -3352.7676      19.396735     -3333.3708      20220.435      5698.7434    
   1230000   307.96605     -3352.5702      19.903868     -3332.6663      18972.305      5698.7434    
   1231000   282.71076     -3353.0061      18.271617     -3334.7345      20132.588      5698.7434    
   1232000   286.36969     -3353.6375      18.508094     -3335.1294      18513.743      5698.7434    
   1233000   302.86815     -3353.0335      19.574391     -3333.4591      19837.871      5698.7434    
   1234000   298.42606     -3352.3574      19.287298     -3333.0701      21166.19       5698.7434    
   1235000   294.16235     -3353.0387      19.011734     -3334.027       19869.83       5698.7434    
   1236000   283.92224     -3352.1191      18.349915     -3333.7692      19696.101      5698.7434    
   1237000   298.16237     -3353.2431      19.270256     -3333.9729      17295.398      5698.7434    
   1238000   323.09716     -3353.6434      20.881793     -3332.7616      18391.576      5698.7434    
   1239000   308.92841     -3351.3624      19.966065     -3331.3963      20540.509      5698.7434    
   1240000   290.5509      -3352.3023      18.778325     -3333.5239      20286.532      5698.7434    
   1241000   280.10756     -3352.2615      18.103372     -3334.1582      19033.33       5698.7434    
   1242000   292.35361     -3351.0745      18.894835     -3332.1797      19424.845      5698.7434    
   1243000   313.11518     -3352.0469      20.236657     -3331.8102      20084.084      5698.7434    
   1244000   304.65332     -3352.8167      19.689766     -3333.1269      20280.14       5698.7434    
   1245000   295.46233     -3352.829       19.095752     -3333.7332      20943.471      5698.7434    
   1246000   263.73117     -3352.9801      17.044965     -3335.9351      17643.466      5698.7434    
   1247000   311.16341     -3352.5016      20.110514     -3332.3911      19225.429      5698.7434    
   1248000   295.78626     -3352.0835      19.116687     -3332.9668      20381.994      5698.7434    
   1249000   304.29409     -3352.4545      19.666549     -3332.7879      20513.277      5698.7434    
   1250000   292.63328     -3352.5023      18.91291      -3333.5894      20080.631      5698.7434    
   1251000   299.80614     -3350.8747      19.376493     -3331.4982      19192.405      5698.7434    
   1252000   304.91955     -3352.3182      19.706973     -3332.6112      20822.683      5698.7434    
   1253000   295.41867     -3352.9565      19.09293      -3333.8636      18713.355      5698.7434    
   1254000   294.83463     -3352.3253      19.055183     -3333.2701      20452.437      5698.7434    
   1255000   307.00725     -3352.7316      19.841901     -3332.8897      20022.031      5698.7434    
   1256000   303.25137     -3352.3052      19.599158     -3332.706       21723.678      5698.7434    
   1257000   295.56752     -3352.9294      19.10255      -3333.8268      16603.895      5698.7434    
   1258000   295.41221     -3352.5754      19.092512     -3333.4829      19946.961      5698.7434    
   1259000   309.79709     -3352.089       20.022208     -3332.0668      21096.892      5698.7434    
   1260000   316.6079      -3352.3683      20.462392     -3331.9059      20744.503      5698.7434    
   1261000   304.61553     -3352.4628      19.687324     -3332.7755      18728.236      5698.7434    
   1262000   300.56792     -3353.5936      19.425726     -3334.1679      19586.484      5698.7434    
   1263000   309.12639     -3352.7607      19.978861     -3332.7819      19669.186      5698.7434    
   1264000   308.09112     -3352.7322      19.911952     -3332.8202      19585.258      5698.7434    
   1265000   286.30628     -3353.5775      18.503996     -3335.0735      18317.427      5698.7434    
   1266000   304.63167     -3354.3809      19.688367     -3334.6925      16368.055      5698.7434    
   1267000   303.50029     -3352.576       19.615246     -3332.9607      17793.806      5698.7434    
   1268000   303.55684     -3352.0376      19.6189       -3332.4187      19793.111      5698.7434    
   1269000   299.1329      -3352.7248      19.332981     -3333.3918      18563.344      5698.7434    
   1270000   291.96449     -3353.1308      18.869686     -3334.2611      18044.287      5698.7434    
   1271000   305.06716     -3352.953       19.716513     -3333.2365      17252.677      5698.7434    
   1272000   299.49708     -3352.6694      19.356518     -3333.3129      19424.74       5698.7434    
   1273000   307.489       -3351.9742      19.873036     -3332.1012      19049.398      5698.7434    
   1274000   299.20359     -3352.5182      19.337549     -3333.1806      17567.607      5698.7434    
   1275000   298.5739      -3353.5503      19.296853     -3334.2534      19291.057      5698.7434    
   1276000   291.03551     -3353.0682      18.809646     -3334.2586      20469.132      5698.7434    
   1277000   302.2171      -3353.1134      19.532313     -3333.5811      17419.968      5698.7434    
   1278000   301.36862     -3352.268       19.477476     -3332.7906      20038.44       5698.7434    
   1279000   303.30739     -3352.9993      19.602779     -3333.3965      19266.352      5698.7434    
   1280000   283.91813     -3352.2528      18.34965      -3333.9031      19049.064      5698.7434    
   1281000   305.67967     -3352.9173      19.756099     -3333.1612      18251.379      5698.7434    
   1282000   319.34702     -3352.4688      20.639421     -3331.8294      21683.42       5698.7434    
   1283000   311.74746     -3352.1041      20.148261     -3331.9558      19422.747      5698.7434    
   1284000   301.20932     -3353.0002      19.46718      -3333.533       19848.412      5698.7434    
   1285000   290.04614     -3353.2692      18.745703     -3334.5235      19426.482      5698.7434    
   1286000   310.77731     -3353.2393      20.08556      -3333.1537      19299.877      5698.7434    
   1287000   308.19617     -3352.5454      19.918741     -3332.6266      19297.444      5698.7434    
   1288000   273.22847     -3353.2958      17.658776     -3335.637       18244.439      5698.7434    
   1289000   302.43043     -3353.634       19.546101     -3334.0879      19080.337      5698.7434    
   1290000   293.13944     -3352.2688      18.945624     -3333.3231      20171.239      5698.7434    
   1291000   302.65887     -3354.0151      19.560865     -3334.4543      18455.164      5698.7434    
   1292000   287.13486     -3352.3137      18.557547     -3333.7562      21488.416      5698.7434    
   1293000   291.8912      -3351.7814      18.864949     -3332.9165      18516.406      5698.7434    
   1294000   304.71905     -3353.5955      19.694015     -3333.9015      19622.168      5698.7434    
   1295000   283.38421     -3352.934       18.315142     -3334.6188      18518.845      5698.7434    
   1296000   303.3159      -3352.9607      19.603329     -3333.3573      18551.107      5698.7434    
   1297000   304.39939     -3352.0436      19.673355     -3332.3702      18464.25       5698.7434    
   1298000   294.83399     -3351.7334      19.055142     -3332.6782      19978.258      5698.7434    
   1299000   278.32942     -3352.0076      17.98845      -3334.0192      18579.02       5698.7434    
   1300000   304.35999     -3353.4601      19.670808     -3333.7893      18515.571      5698.7434    
   1301000   289.7376      -3352.3804      18.725762     -3333.6547      19306.117      5698.7434    
   1302000   316.10562     -3353.6179      20.429929     -3333.188       19906.104      5698.7434    
   1303000   286.2907      -3353.3415      18.502989     -3334.8385      17617.563      5698.7434    
   1304000   312.16064     -3354.7977      20.174965     -3334.6227      18248.343      5698.7434    
   1305000   286.92922     -3352.7377      18.544256     -3334.1935      18979.62       5698.7434    
   1306000   290.39338     -3351.8303      18.768145     -3333.0622      17113.239      5698.7434    
   1307000   323.67502     -3352.684       20.91914      -3331.7648      18989.533      5698.7434    
   1308000   302.32008     -3353.4317      19.538969     -3333.8928      18787.496      5698.7434    
   1309000   293.72161     -3353.6521      18.983249     -3334.6689      19232.453      5698.7434    
   1310000   310.29241     -3353.1577      20.054221     -3333.1035      18682.078      5698.7434    
   1311000   291.00266     -3353.1579      18.807523     -3334.3504      19028.315      5698.7434    
   1312000   278.89739     -3353.4291      18.025159     -3335.4039      18098.043      5698.7434    
   1313000   304.64688     -3353.7609      19.68935      -3334.0715      18246.782      5698.7434    
   1314000   311.10077     -3353.3314      20.106465     -3333.225       19756.443      5698.7434    
   1315000   309.78231     -3353.0035      20.021253     -3332.9822      20503.366      5698.7434    
   1316000   300.08502     -3353.442       19.394517     -3334.0475      19961.527      5698.7434    
   1317000   291.92221     -3353.5336      18.866954     -3334.6666      18300.678      5698.7434    
   1318000   299.16236     -3353.8348      19.334885     -3334.4999      18609.715      5698.7434    
   1319000   291.45027     -3352.1276      18.836452     -3333.2911      19181.379      5698.7434    
   1320000   302.33991     -3351.8993      19.54025      -3332.359       21118.435      5698.7434    
   1321000   285.13576     -3352.1908      18.428345     -3333.7625      18678.589      5698.7434    
   1322000   282.76816     -3353.0206      18.275327     -3334.7453      18267.183      5698.7434    
   1323000   303.8334      -3352.4832      19.636775     -3332.8464      19953.8        5698.7434    
   1324000   308.47052     -3353.0043      19.936472     -3333.0678      18953.517      5698.7434    
   1325000   296.19889     -3354.3098      19.143356     -3335.1664      18109.697      5698.7434    
   1326000   293.90251     -3353.565       18.99494      -3334.5701      19196.463      5698.7434    
   1327000   335.36552     -3352.3511      21.674698     -3330.6764      20929.323      5698.7434    
   1328000   294.79227     -3352.9739      19.052446     -3333.9214      19939.438      5698.7434    
   1329000   302.57066     -3353.3606      19.555164     -3333.8054      18928.43       5698.7434    
   1330000   320.90965     -3351.9802      20.740414     -3331.2398      20100.312      5698.7434    
   1331000   312.35899     -3352.1143      20.187784     -3331.9265      21637.245      5698.7434    
   1332000   314.91513     -3353.0718      20.352988     -3332.7188      18220.176      5698.7434    
   1333000   289.78757     -3354.6194      18.728992     -3335.8904      18349.721      5698.7434    
   1334000   318.09603     -3353.0748      20.55857      -3332.5162      19892.338      5698.7434    
   1335000   312.22772     -3352.6034      20.1793       -3332.4241      21553.441      5698.7434    
   1336000   278.79698     -3353.5478      18.018669     -3335.5292      18652.149      5698.7434    
   1337000   290.65516     -3353.1755      18.785064     -3334.3904      19612.722      5698.7434    
   1338000   295.04111     -3352.2801      19.068528     -3333.2116      19728.697      5698.7434    
   1339000   306.81252     -3353.0751      19.829315     -3333.2458      18757.238      5698.7434    
   1340000   283.08498     -3352.2343      18.295803     -3333.9385      18548.144      5698.7434    
   1341000   295.8155      -3352.9444      19.118577     -3333.8258      19033.349      5698.7434    
   1342000   297.93134     -3352.2896      19.255324     -3333.0343      20801.921      5698.7434    
   1343000   335.02409     -3351.9622      21.652631     -3330.3095      20700.981      5698.7434    
   1344000   299.97658     -3353.0146      19.387508     -3333.627       19451.971      5698.7434    
   1345000   304.49714     -3354.1471      19.679672     -3334.4675      15242.255      5698.7434    
   1346000   270.80916     -3352.7784      17.502416     -3335.2759      17686.739      5698.7434    
   1347000   296.284       -3351.8082      19.148856     -3332.6593      18096.938      5698.7434    
   1348000   303.08461     -3352.6382      19.58838      -3333.0498      18406.256      5698.7434    
   1349000   290.9874      -3352.7971      18.806537     -3333.9905      21070.765      5698.7434    
   1350000   296.0254      -3353.8431      19.132143     -3334.711       17686.396      5698.7434    
   1351000   296.20052     -3352.3033      19.143461     -3333.1599      17360.839      5698.7434    
   1352000   296.88446     -3351.7393      19.187664     -3332.5516      19594.706      5698.7434    
   1353000   322.16003     -3352.0034      20.821226     -3331.1822      20255.925      5698.7434    
   1354000   305.75776     -3352.7934      19.761146     -3333.0323      19274.37       5698.7434    
   1355000   290.2791      -3352.4826      18.76076      -3333.7219      20365.348      5698.7434    
   1356000   306.15122     -3352.4439      19.786576     -3332.6573      19215.937      5698.7434    
   1357000   328.26594     -3352.403       21.215852     -3331.1872      18430.846      5698.7434    
   1358000   314.76734     -3352.6659      20.343436     -3332.3224      19414.815      5698.7434    
   1359000   291.19628     -3352.588       18.820037     -3333.768       18497.068      5698.7434    
   1360000   298.37628     -3353.5432      19.284081     -3334.2591      19262.767      5698.7434    
   1361000   302.68854     -3352.9029      19.562782     -3333.3401      19196.563      5698.7434    
   1362000   317.65263     -3352.9981      20.529912     -3332.4682      20428.803      5698.7434    
   1363000   304.66455     -3352.5182      19.690492     -3332.8277      20462.846      5698.7434    
   1364000   308.5531      -3352.4563      19.941809     -3332.5145      19577.273      5698.7434    
   1365000   280.49242     -3354.0554      18.128246     -3335.9271      18700.566      5698.7434    
   1366000   305.72038     -3352.7198      19.75873      -3332.9611      19731.812      5698.7434    
   1367000   309.60373     -3352.2285      20.009711     -3332.2188      18802.61       5698.7434    
   1368000   304.40623     -3351.7045      19.673797     -3332.0307      17948.719      5698.7434    
   1369000   318.30863     -3353.4249      20.57231      -3332.8526      20526.916      5698.7434    
   1370000   300.12764     -3353.0373      19.397271     -3333.64        20558.478      5698.7434    
   1371000   309.24859     -3351.6413      19.986759     -3331.6546      21215.021      5698.7434    
   1372000   299.30368     -3351.2526      19.344018     -3331.9085      19003.141      5698.7434    
   1373000   300.667       -3352.6557      19.43213      -3333.2236      18291.323      5698.7434    
   1374000   304.12748     -3353.0095      19.655781     -3333.3538      17355.391      5698.7434    
   1375000   322.18979     -3353.0117      20.82315      -3332.1885      19394.456      5698.7434    
   1376000   298.06248     -3352.7879      19.2638       -3333.5241      18487.824      5698.7434    
   1377000   295.17208     -3352.5316      19.076993     -3333.4546      19568.557      5698.7434    
   1378000   305.69282     -3353.0487      19.756949     -3333.2917      18217.088      5698.7434    
   1379000   301.37115     -3351.8734      19.477639     -3332.3958      20224.919      5698.7434    
   1380000   294.48702     -3352.3319      19.032717     -3333.2992      19195.616      5698.7434    
   1381000   305.5442      -3353.8253      19.747344     -3334.078       17845.856      5698.7434    
   1382000   271.69162     -3353.3164      17.559449     -3335.7569      18134.379      5698.7434    
   1383000   301.6292      -3352.1252      19.494317     -3332.6308      21512.382      5698.7434    
   1384000   299.78795     -3351.9867      19.375317     -3332.6114      19466.194      5698.7434    
   1385000   280.92476     -3353.2341      18.156188     -3335.0779      18324.173      5698.7434    
   1386000   287.2499      -3353.2399      18.564982     -3334.6749      16868.665      5698.7434    
   1387000   308.87612     -3350.6481      19.962686     -3330.6854      21789.323      5698.7434    
   1388000   308.51704     -3354.0405      19.939479     -3334.101       19640.782      5698.7434    
   1389000   285.50521     -3353.4513      18.452222     -3334.999       20031.894      5698.7434    
   1390000   302.19268     -3354.3204      19.530735     -3334.7896      17804.597      5698.7434    
   1391000   308.44662     -3352.8885      19.934928     -3332.9536      17312.081      5698.7434    
   1392000   295.22366     -3351.8354      19.080326     -3332.755       19821.334      5698.7434    
   1393000   312.30632     -3353.3995      20.18438      -3333.2151      19738.4        5698.7434    
   1394000   297.08825     -3353.338       19.200835     -3334.1372      20247.261      5698.7434    
   1395000   302.73043     -3352.5911      19.56549      -3333.0256      19931.615      5698.7434    
   1396000   298.9167      -3351.7291      19.319008     -3332.4101      21156.698      5698.7434    
   1397000   288.43957     -3352.6189      18.64187      -3333.977       17128.353      5698.7434    
   1398000   321.8279      -3354.3499      20.799761     -3333.5501      19075.774      5698.7434    
   1399000   310.43384     -3352.0175      20.063362     -3331.9542      20808.763      5698.7434    
   1400000   324.92978     -3353.4564      21.000235     -3332.4562      18564.912      5698.7434    
   1401000   296.03004     -3352.8834      19.132443     -3333.751       18059.802      5698.7434    
   1402000   285.62972     -3353.7826      18.46027      -3335.3223      18119.777      5698.7434    
   1403000   308.25265     -3353.2364      19.922391     -3333.314       20105.717      5698.7434    
   1404000   314.21439     -3352.9487      20.307699     -3332.641       19902.862      5698.7434    
   1405000   306.8068      -3354.928       19.828946     -3335.0991      19101.1        5698.7434    
   1406000   298.49481     -3353.5242      19.291741     -3334.2325      19143.232      5698.7434    
   1407000   299.00954     -3352.5519      19.325008     -3333.2269      21163.937      5698.7434    
   1408000   299.92412     -3351.8538      19.384118     -3332.4697      20232.394      5698.7434    
   1409000   301.64166     -3351.5407      19.495123     -3332.0455      20390.03       5698.7434    
   1410000   310.37076     -3352.974       20.059285     -3332.9147      20141.751      5698.7434    
   1411000   297.22632     -3353.3766      19.209759     -3334.1668      19111.465      5698.7434    
   1412000   296.97752     -3353.2347      19.193679     -3334.0411      17591.188      5698.7434    
   1413000   303.13563     -3352.6354      19.591678     -3333.0437      17626.76       5698.7434    
   1414000   321.08144     -3353.2913      20.751516     -3332.5398      18585.836      5698.7434    
   1415000   282.97826     -3353.0406      18.288906     -3334.7517      18852.458      5698.7434    
   1416000   299.02408     -3354.6101      19.325948     -3335.2841      15875.861      5698.7434    
   1417000   299.30884     -3352.6826      19.344352     -3333.3383      19511.807      5698.7434    
   1418000   308.50088     -3353.0691      19.938434     -3333.1307      20413.153      5698.7434    
   1419000   284.40893     -3353.1388      18.38137      -3334.7574      18273.02       5698.7434    
   1420000   300.33137     -3353.1555      19.410438     -3333.7451      18639.974      5698.7434    
   1421000   324.58552     -3352.9675      20.977986     -3331.9895      18663.443      5698.7434    
   1422000   281.72055     -3354.6154      18.20762      -3336.4077      19281.484      5698.7434    
   1423000   303.57004     -3353.0294      19.619754     -3333.4097      18719.732      5698.7434    
   1424000   307.43984     -3353.0181      19.869859     -3333.1482      17480.145      5698.7434    
   1425000   303.13021     -3353.4291      19.591327     -3333.8378      19720.402      5698.7434    
   1426000   301.40162     -3352.5315      19.479609     -3333.0519      19369.531      5698.7434    
   1427000   293.74988     -3351.6412      18.985076     -3332.6562      22619.881      5698.7434    
   1428000   303.12875     -3353.0764      19.591233     -3333.4852      20508.313      5698.7434    
   1429000   290.28457     -3352.6573      18.761113     -3333.8961      19701.285      5698.7434    
   1430000   304.2815      -3353.2091      19.665735     -3333.5434      18324.576      5698.7434    
   1431000   304.98694     -3351.9942      19.711328     -3332.2828      19552.713      5698.7434    
   1432000   300.16162     -3352.1398      19.399467     -3332.7403      20436.542      5698.7434    
   1433000   293.01514     -3353.691       18.93759      -3334.7534      17124.767      5698.7434    
   1434000   283.06166     -3352.9527      18.294295     -3334.6584      19746.99       5698.7434    
   1435000   302.64906     -3353.5009      19.56023      -3333.9406      17678.058      5698.7434    
   1436000   308.38009     -3353.0021      19.930628     -3333.0715      17872.783      5698.7434    
   1437000   316.17678     -3352.4712      20.434529     -3332.0367      20870.544      5698.7434    
   1438000   309.16002     -3352.6159      19.981035     -3332.6349      18849.274      5698.7434    
   1439000   297.45286     -3353.2438      19.2244       -3334.0194      19804.304      5698.7434    
   1440000   284.54595     -3354.3727      18.390225     -3335.9825      17157.903      5698.7434    
   1441000   308.25403     -3352.684       19.922481     -3332.7615      18595.713      5698.7434    
   1442000   321.15597     -3353.7729      20.756333     -3333.0165      21023.342      5698.7434    
   1443000   301.27767     -3353.4865      19.471598     -3334.0149      18637.541      5698.7434    
   1444000   303.14484     -3352.9361      19.592273     -3333.3438      21268.502      5698.7434    
   1445000   322.5771      -3353.5207      20.848181     -3332.6726      18812.987      5698.7434    
   1446000   305.13034     -3353.3767      19.720596     -3333.6561      17947.152      5698.7434    
   1447000   288.0228      -3352.9329      18.614934     -3334.318       18104.316      5698.7434    
   1448000   298.16484     -3353.5557      19.270415     -3334.2853      18398.241      5698.7434    
   1449000   299.33347     -3351.7141      19.345944     -3332.3682      21352.581      5698.7434    
   1450000   292.21069     -3352.4792      18.885598     -3333.5936      17553.968      5698.7434    
   1451000   305.35612     -3353.8754      19.735188     -3334.1402      16949.129      5698.7434    
   1452000   316.50596     -3353.2744      20.455803     -3332.8186      19668.628      5698.7434    
   1453000   306.93889     -3353.1811      19.837483     -3333.3437      20040.008      5698.7434    
   1454000   298.68094     -3353.0808      19.303771     -3333.7771      18667.592      5698.7434    
   1455000   290.53074     -3351.4664      18.777022     -3332.6894      21586.296      5698.7434    
   1456000   299.65419     -3351.122       19.366672     -3331.7553      20245.141      5698.7434    
   1457000   281.30353     -3351.2665      18.180667     -3333.0858      19040.522      5698.7434    
   1458000   297.94712     -3352.66        19.256344     -3333.4036      16525.022      5698.7434    
   1459000   310.52175     -3354.0607      20.069043     -3333.9917      18935.33       5698.7434    
   1460000   294.06383     -3351.6939      19.005367     -3332.6885      19849.434      5698.7434    
   1461000   302.79979     -3350.3423      19.569972     -3330.7723      19270.914      5698.7434    
   1462000   314.74006     -3352.0271      20.341673     -3331.6854      18291.782      5698.7434    
   1463000   305.88314     -3352.9384      19.76925      -3333.1691      18682.02       5698.7434    
   1464000   283.93675     -3352.9291      18.350852     -3334.5782      19776.207      5698.7434    
   1465000   308.52866     -3353.4515      19.94023      -3333.5113      18063.602      5698.7434    
   1466000   293.58262     -3352.5881      18.974266     -3333.6139      17206.69       5698.7434    
   1467000   314.95247     -3352.6248      20.355401     -3332.2694      20235.906      5698.7434    
   1468000   292.07042     -3352.2183      18.876533     -3333.3417      17971.843      5698.7434    
   1469000   294.05061     -3353.3805      19.004512     -3334.376       18907.953      5698.7434    
   1470000   290.21644     -3352.1373      18.756709     -3333.3806      21988.262      5698.7434    
   1471000   304.77506     -3351.9069      19.697634     -3332.2093      19174.018      5698.7434    
   1472000   304.66774     -3352.4069      19.690698     -3332.7162      17825.118      5698.7434    
   1473000   308.50888     -3353.0626      19.938951     -3333.1236      18332.485      5698.7434    
   1474000   295.87657     -3352.8982      19.122524     -3333.7756      19110.199      5698.7434    
   1475000   314.30793     -3352.7427      20.313744     -3332.4289      20002.674      5698.7434    
   1476000   320.31981     -3351.751       20.702293     -3331.0487      18016.404      5698.7434    
   1477000   309.58624     -3352.9717      20.008581     -3332.9631      18806.422      5698.7434    
   1478000   296.66274     -3352.9722      19.173334     -3333.7988      19529.657      5698.7434    
   1479000   291.23451     -3353.555       18.822507     -3334.7325      19060.98       5698.7434    
   1480000   292.2788      -3352.2692      18.89         -3333.3792      19532.985      5698.7434    
   1481000   307.92338     -3352.5999      19.90111      -3332.6987      20254.619      5698.7434    
   1482000   307.1536      -3351.9456      19.851359     -3332.0943      21387.324      5698.7434    
   1483000   307.72727     -3353.2135      19.888436     -3333.325       20602.701      5698.7434    
   1484000   289.69276     -3350.7589      18.722864     -3332.036       20221.687      5698.7434    
   1485000   326.62344     -3352.3186      21.109696     -3331.2089      20245.436      5698.7434    
   1486000   299.82221     -3353.3429      19.377531     -3333.9653      18974.683      5698.7434    
   1487000   300.59423     -3353.9263      19.427427     -3334.4988      18624.664      5698.7434    
   1488000   284.38192     -3353.1786      18.379624     -3334.7989      19272.354      5698.7434    
   1489000   304.43568     -3352.8082      19.6757       -3333.1325      20829.184      5698.7434    
   1490000   309.30479     -3352.4225      19.990391     -3332.4321      19778.712      5698.7434    
   1491000   314.9672      -3352.4816      20.356353     -3332.1252      19514.513      5698.7434    
   1492000   307.3707      -3353.094       19.865391     -3333.2286      18880.012      5698.7434    
   1493000   304.81995     -3353.3946      19.700535     -3333.6941      19377.474      5698.7434    
   1494000   296.91956     -3352.3704      19.189932     -3333.1805      20308.479      5698.7434    
   1495000   302.27201     -3352.2679      19.535862     -3332.732       19691.423      5698.7434    
   1496000   305.00203     -3352.1826      19.712303     -3332.4703      18936.271      5698.7434    
   1497000   302.34311     -3353.0756      19.540457     -3333.5351      17873.947      5698.7434    
   1498000   281.26292     -3352.1242      18.178043     -3333.9462      19689.486      5698.7434    
   1499000   295.67984     -3351.9928      19.10981      -3332.883       18221.473      5698.7434    
   1500000   305.49241     -3352.7785      19.743996     -3333.0345      20104.716      5698.7434    
   1501000   275.0283      -3352.4547      17.775099     -3334.6796      18629.123      5698.7434    
   1502000   307.07042     -3353.6162      19.845983     -3333.7702      17979.327      5698.7434    
   1503000   308.4091      -3352.7957      19.932502     -3332.8632      19896.697      5698.7434    
   1504000   318.56051     -3351.6482      20.588589     -3331.0596      18437.008      5698.7434    
   1505000   304.3426      -3353.0064      19.669684     -3333.3367      19218.947      5698.7434    
   1506000   306.40795     -3351.6029      19.803168     -3331.7998      21351.178      5698.7434    
   1507000   307.84314     -3352.271       19.895924     -3332.375       19429.632      5698.7434    
   1508000   315.95305     -3353.4599      20.420068     -3333.0399      17895.423      5698.7434    
   1509000   288.99944     -3353.3285      18.678055     -3334.6504      18295.169      5698.7434    
   1510000   286.61466     -3352.6995      18.523926     -3334.1756      20510.206      5698.7434    
   1511000   308.09394     -3352.888       19.912134     -3332.9758      21124.811      5698.7434    
   1512000   301.9132      -3352.3361      19.512672     -3332.8234      19817.359      5698.7434    
   1513000   303.68633     -3353.7197      19.62727      -3334.0924      20377.189      5698.7434    
   1514000   300.0337      -3354.2358      19.3912       -3334.8446      16527.861      5698.7434    
   1515000   296.63285     -3353.5295      19.171402     -3334.3581      16634.12       5698.7434    
   1516000   286.26918     -3352.7213      18.501598     -3334.2198      18279.41       5698.7434    
   1517000   287.04472     -3352.4994      18.551721     -3333.9477      19112.843      5698.7434    
   1518000   306.97279     -3352.3615      19.839674     -3332.5218      18001.785      5698.7434    
   1519000   297.70358     -3352.4705      19.240604     -3333.2299      20329.599      5698.7434    
   1520000   307.13446     -3353.7677      19.850123     -3333.9176      17797.026      5698.7434    
   1521000   293.23817     -3352.6204      18.952004     -3333.6683      19950.734      5698.7434    
   1522000   297.42979     -3351.3252      19.222909     -3332.1023      19954.417      5698.7434    
   1523000   301.48184     -3351.153       19.484793     -3331.6682      21431.218      5698.7434    
   1524000   311.57758     -3352.2783      20.137281     -3332.141       17226.119      5698.7434    
   1525000   293.56219     -3352.2249      18.972946     -3333.252       19895.847      5698.7434    
   1526000   296.24184     -3352.6387      19.146132     -3333.4925      20234.276      5698.7434    
   1527000   304.52199     -3354.971       19.681278     -3335.2898      18300.663      5698.7434    
   1528000   298.49863     -3352.3892      19.291988     -3333.0972      18413.773      5698.7434    
   1529000   308.30234     -3352.271       19.925602     -3332.3454      16306.981      5698.7434    
   1530000   294.96369     -3353.8618      19.063525     -3334.7983      18578.793      5698.7434    
   1531000   304.75329     -3352.8044      19.696227     -3333.1082      19086.398      5698.7434    
   1532000   319.04402     -3352.9118      20.619838     -3332.292       17311.259      5698.7434    
   1533000   291.86871     -3352.1961      18.863496     -3333.3326      17020.837      5698.7434    
   1534000   298.25591     -3353.3261      19.276301     -3334.0498      19397.041      5698.7434    
   1535000   281.0759      -3354.2459      18.165956     -3336.0799      18825.491      5698.7434    
   1536000   305.79358     -3352.212       19.763461     -3332.4486      19643.205      5698.7434    
   1537000   307.7731      -3351.994       19.891398     -3332.1026      18587.182      5698.7434    
   1538000   298.70729     -3353.1149      19.305474     -3333.8094      20117.377      5698.7434    
   1539000   321.19049     -3353.1182      20.758565     -3332.3597      19643.122      5698.7434    
   1540000   299.16329     -3352.6181      19.334945     -3333.2831      19356.476      5698.7434    
   1541000   290.57484     -3353.3549      18.779873     -3334.575       19349.107      5698.7434    
   1542000   289.14453     -3353.8643      18.687432     -3335.1769      18877.975      5698.7434    
   1543000   289.13926     -3352.8912      18.687091     -3334.2041      20152.757      5698.7434    
   1544000   304.72219     -3353.0722      19.694217     -3333.3779      21050.655      5698.7434    
   1545000   304.27031     -3352.6313      19.665012     -3332.9663      19659.192      5698.7434    
   1546000   301.77722     -3353.5867      19.503884     -3334.0828      17362.908      5698.7434    
   1547000   290.55786     -3353.4022      18.778776     -3334.6234      17339.419      5698.7434    
   1548000   285.81735     -3352.4804      18.472396     -3334.008       18524.419      5698.7434    
   1549000   294.00091     -3353.1725      19.0013       -3334.1712      18598.271      5698.7434    
   1550000   296.54352     -3354.0081      19.165629     -3334.8425      16059.725      5698.7434    
   1551000   299.79807     -3352.7583      19.375971     -3333.3823      17706.571      5698.7434    
   1552000   309.10734     -3353.1746      19.97763      -3333.197       17492.174      5698.7434    
   1553000   298.69644     -3354.2827      19.304773     -3334.9779      17195.778      5698.7434    
   1554000   277.07543     -3352.4143      17.907405     -3334.5069      20396.144      5698.7434    
   1555000   295.00472     -3352.7248      19.066176     -3333.6586      17851.582      5698.7434    
   1556000   324.5954      -3351.706       20.978624     -3330.7274      18856.516      5698.7434    
   1557000   311.27321     -3353.9445      20.11761      -3333.8268      15922.975      5698.7434    
   1558000   301.9837      -3352.9047      19.517228     -3333.3875      19085.995      5698.7434    
   1559000   305.81819     -3352.5279      19.765052     -3332.7629      18069.572      5698.7434    
   1560000   297.94993     -3352.4099      19.256526     -3333.1534      18693.649      5698.7434    
   1561000   306.66246     -3352.2552      19.819617     -3332.4356      18309.689      5698.7434    
   1562000   320.42311     -3352.2547      20.708969     -3331.5457      17181.017      5698.7434    
   1563000   319.35079     -3352.9946      20.639664     -3332.3549      18594.604      5698.7434    
   1564000   309.19981     -3353.3725      19.983606     -3333.3889      19577.241      5698.7434    
   1565000   284.63864     -3352.1289      18.396216     -3333.7327      19664.278      5698.7434    
   1566000   292.15168     -3352.1242      18.881784     -3333.2424      17682.461      5698.7434    
   1567000   305.30163     -3351.2029      19.731667     -3331.4712      20162.209      5698.7434    
   1568000   316.61498     -3353.2511      20.462849     -3332.7883      17891.601      5698.7434    
   1569000   285.95027     -3352.7675      18.480986     -3334.2865      17935.127      5698.7434    
   1570000   274.89276     -3353.7088      17.766339     -3335.9425      16824.681      5698.7434    
   1571000   302.36832     -3353.0319      19.542086     -3333.4898      19459.28       5698.7434    
   1572000   305.5067      -3352.7892      19.74492      -3333.0443      19864.969      5698.7434    
   1573000   312.83566     -3352.4385      20.218592     -3332.2199      19476.56       5698.7434    
   1574000   299.92072     -3352.5282      19.383898     -3333.1443      20316.143      5698.7434    
   1575000   308.90059     -3353.9307      19.964268     -3333.9664      21160.628      5698.7434    
   1576000   293.34675     -3354.1768      18.959022     -3335.2178      16523.001      5698.7434    
   1577000   289.04749     -3352.9917      18.68116      -3334.3105      18261.84       5698.7434    
   1578000   303.4504      -3352.3836      19.612021     -3332.7716      17749.02       5698.7434    
   1579000   301.93637     -3352.6037      19.514169     -3333.0896      22859.178      5698.7434    
   1580000   286.15913     -3353.3715      18.494485     -3334.877       18912.97       5698.7434    
   1581000   282.77372     -3353.2206      18.275686     -3334.9449      19268.814      5698.7434    
   1582000   295.1696      -3352.9195      19.076833     -3333.8427      17947.633      5698.7434    
   1583000   310.78852     -3352.9596      20.086285     -3332.8733      18113.367      5698.7434    
   1584000   321.53082     -3353.0328      20.78056      -3332.2522      19068.141      5698.7434    
   1585000   300.24622     -3352.4095      19.404935     -3333.0045      19570.217      5698.7434    
   1586000   282.24549     -3352.9734      18.241546     -3334.7319      19701.429      5698.7434    
   1587000   293.28563     -3352.6572      18.955071     -3333.7021      17266.712      5698.7434    
   1588000   299.91719     -3351.8008      19.38367      -3332.4171      19326.071      5698.7434    
   1589000   312.57118     -3352.3264      20.201498     -3332.1249      19580.004      5698.7434    
   1590000   304.69223     -3352.2408      19.692281     -3332.5486      19157.768      5698.7434    
   1591000   298.27187     -3353.1361      19.277333     -3333.8588      18933.337      5698.7434    
   1592000   315.64212     -3351.1997      20.399973     -3330.7997      18943.294      5698.7434    
   1593000   315.39447     -3352.8699      20.383967     -3332.4859      19596.923      5698.7434    
   1594000   318.56819     -3354.1154      20.589086     -3333.5263      18125.714      5698.7434    
   1595000   291.55686     -3352.6709      18.843341     -3333.8276      19973.545      5698.7434    
   1596000   280.46293     -3352.4101      18.126339     -3334.2838      22349.645      5698.7434    
   1597000   307.436       -3352.2036      19.869611     -3332.334       21709.052      5698.7434    
   1598000   302.88678     -3351.3423      19.575595     -3331.7667      21957.392      5698.7434    
   1599000   302.74207     -3353.4496      19.566242     -3333.8833      18647.505      5698.7434    
   1600000   298.13714     -3353.6852      19.268625     -3334.4166      19205.46       5698.7434    
   1601000   303.87381     -3353.1451      19.639387     -3333.5057      20566.272      5698.7434    
   1602000   300.55218     -3352.9757      19.424709     -3333.551       19638.158      5698.7434    
   1603000   324.98769     -3352.8528      21.003978     -3331.8488      17550.965      5698.7434    
   1604000   313.6323      -3352.3381      20.270079     -3332.068       21480.5        5698.7434    
   1605000   322.03356     -3353.1569      20.813052     -3332.3439      18468.993      5698.7434    
   1606000   318.79412     -3353.6794      20.603687     -3333.0757      19612.022      5698.7434    
   1607000   301.85342     -3353.2368      19.508808     -3333.728       18213.647      5698.7434    
   1608000   289.09908     -3352.4269      18.684495     -3333.7424      18372.474      5698.7434    
   1609000   289.43209     -3353.359       18.706017     -3334.653       19905.478      5698.7434    
   1610000   314.32165     -3353.6389      20.314631     -3333.3243      17837.154      5698.7434    
   1611000   286.96821     -3353.3719      18.546776     -3334.8251      18817.813      5698.7434    
   1612000   304.2693      -3352.6672      19.664947     -3333.0022      20139.672      5698.7434    
   1613000   305.96845     -3352.8254      19.774763     -3333.0507      20379.25       5698.7434    
   1614000   281.10454     -3352.5451      18.167807     -3334.3773      21188.416      5698.7434    
   1615000   285.53064     -3351.8142      18.453866     -3333.3604      19038.271      5698.7434    
   1616000   313.71985     -3352.2588      20.275737     -3331.9831      19091.216      5698.7434    
   1617000   291.6691      -3352.0196      18.850595     -3333.169       20852.139      5698.7434    
   1618000   311.213       -3353.7464      20.113719     -3333.6327      19091.547      5698.7434    
   1619000   303.05921     -3352.4849      19.586739     -3332.8982      20118.431      5698.7434    
   1620000   315.94588     -3352.1135      20.419605     -3331.6939      18858.765      5698.7434    
   1621000   309.04032     -3351.4864      19.973298     -3331.5131      21471.526      5698.7434    
   1622000   294.94223     -3352.7116      19.062138     -3333.6495      18956.843      5698.7434    
   1623000   298.6682      -3353.2854      19.302947     -3333.9825      19261.892      5698.7434    
   1624000   295.00851     -3352.2357      19.066421     -3333.1692      20367.965      5698.7434    
   1625000   292.70333     -3352.8528      18.917438     -3333.9354      17819.222      5698.7434    
   1626000   286.48998     -3352.9103      18.515868     -3334.3944      20259.136      5698.7434    
   1627000   296.53865     -3352.4689      19.165314     -3333.3036      19190.064      5698.7434    
   1628000   297.5165      -3353.3217      19.228513     -3334.0932      18739.253      5698.7434    
   1629000   293.43437     -3353.7202      18.964685     -3334.7555      20043.845      5698.7434    
   1630000   305.12254     -3355.0965      19.720092     -3335.3764      18719.831      5698.7434    
   1631000   293.04891     -3351.8521      18.939773     -3332.9123      20878.328      5698.7434    
   1632000   302.39456     -3351.8446      19.543782     -3332.3008      18497.293      5698.7434    
   1633000   302.88493     -3352.8975      19.575475     -3333.322       18837.173      5698.7434    
   1634000   297.70131     -3353.2717      19.240457     -3334.0312      20116.93       5698.7434    
   1635000   305.47135     -3354.2622      19.742636     -3334.5196      20778.171      5698.7434    
   1636000   291.0145      -3352.2854      18.808288     -3333.4771      20227.449      5698.7434    
   1637000   292.11875     -3352.4152      18.879656     -3333.5356      20222.347      5698.7434    
   1638000   291.00732     -3353.5245      18.807824     -3334.7167      18165.652      5698.7434    
   1639000   301.40938     -3353.7238      19.48011      -3334.2437      18532.732      5698.7434    
   1640000   316.82298     -3353.088       20.476292     -3332.6117      19531.501      5698.7434    
   1641000   309.49167     -3353.2337      20.002469     -3333.2313      18499.091      5698.7434    
   1642000   293.50033     -3353.5237      18.968948     -3334.5547      19393.946      5698.7434    
   1643000   285.70184     -3353.6922      18.464931     -3335.2273      18352.964      5698.7434    
   1644000   298.85184     -3352.2324      19.314816     -3332.9176      20751.331      5698.7434    
   1645000   308.09617     -3352.9069      19.912278     -3332.9947      19776.091      5698.7434    
   1646000   288.13821     -3353.315       18.622394     -3334.6926      18623.237      5698.7434    
   1647000   287.25212     -3353.6487      18.565125     -3335.0835      19459.365      5698.7434    
   1648000   298.52702     -3353.5032      19.293823     -3334.2094      18691.758      5698.7434    
   1649000   303.63434     -3353.4488      19.623909     -3333.8249      20787.018      5698.7434    
   1650000   312.3995      -3353.0549      20.190402     -3332.8645      21591.118      5698.7434    
   1651000   310.4952      -3352.7514      20.067327     -3332.6841      16618.212      5698.7434    
   1652000   284.86374     -3353.472       18.410764     -3335.0613      18866.821      5698.7434    
   1653000   282.67126     -3352.8678      18.269064     -3334.5988      18658.107      5698.7434    
   1654000   287.70328     -3352.5469      18.594284     -3333.9527      22880.225      5698.7434    
   1655000   308.11744     -3352.9099      19.913653     -3332.9962      20240.853      5698.7434    
   1656000   308.81404     -3353.3002      19.958674     -3333.3415      18884.431      5698.7434    
   1657000   310.33977     -3353.1034      20.057282     -3333.0461      19350.188      5698.7434    
   1658000   279.87243     -3352.2071      18.088175     -3334.1189      20714.457      5698.7434    
   1659000   301.82007     -3352.9578      19.506653     -3333.4512      18955.556      5698.7434    
   1660000   318.21477     -3352.6408      20.566244     -3332.0745      18183.346      5698.7434    
   1661000   294.66846     -3352.3447      19.044444     -3333.3002      19815.071      5698.7434    
   1662000   308.70195     -3353.3785      19.951429     -3333.4271      18829.696      5698.7434    
   1663000   297.79842     -3351.8607      19.246734     -3332.614       20317.118      5698.7434    
   1664000   294.96181     -3352.271       19.063403     -3333.2076      20029.944      5698.7434    
   1665000   312.56155     -3354.7171      20.200876     -3334.5162      16972.109      5698.7434    
   1666000   295.30223     -3352.8406      19.085404     -3333.7552      19800.505      5698.7434    
   1667000   316.18692     -3351.1464      20.435184     -3330.7112      21643.105      5698.7434    
   1668000   284.26678     -3352.5998      18.372183     -3334.2276      17654.101      5698.7434    
   1669000   298.09542     -3353.7746      19.265928     -3334.5086      18939.042      5698.7434    
   1670000   287.18047     -3353.9863      18.560495     -3335.4258      19006.645      5698.7434    
   1671000   312.74423     -3353.262       20.212682     -3333.0493      19043.913      5698.7434    
   1672000   308.03599     -3353.3404      19.908388     -3333.432       18597.554      5698.7434    
   1673000   280.81529     -3354.2942      18.149113     -3336.1451      18444.599      5698.7434    
   1674000   307.28894     -3352.0882      19.860106     -3332.2281      19371.635      5698.7434    
   1675000   306.30847     -3352.9306      19.796738     -3333.1339      19574.285      5698.7434    
   1676000   298.71337     -3352.8594      19.305867     -3333.5535      19731.226      5698.7434    
   1677000   305.83934     -3351.6248      19.766419     -3331.8584      20409.013      5698.7434    
   1678000   311.17177     -3352.5254      20.111054     -3332.4143      21548.717      5698.7434    
   1679000   294.51123     -3352.6694      19.034282     -3333.6351      20636.107      5698.7434    
   1680000   301.99065     -3354.3739      19.517677     -3334.8562      18365.717      5698.7434    
   1681000   276.58273     -3353.0375      17.875562     -3335.1619      19233.013      5698.7434    
   1682000   314.55566     -3352.7096      20.329755     -3332.3798      19870.175      5698.7434    
   1683000   313.85271     -3352.3961      20.284324     -3332.1118      18884.975      5698.7434    
   1684000   292.98322     -3353.3097      18.935527     -3334.3742      18343.142      5698.7434    
   1685000   302.83993     -3352.6606      19.572567     -3333.088       19228.475      5698.7434    
   1686000   318.50619     -3352.087       20.585078     -3331.5019      21396.226      5698.7434    
   1687000   296.71395     -3353.182       19.176644     -3334.0053      19628.614      5698.7434    
   1688000   304.30725     -3353.9341      19.667399     -3334.2667      18535.008      5698.7434    
   1689000   303.27377     -3352.9563      19.600606     -3333.3557      19995.949      5698.7434    
   1690000   305.1752      -3352.6733      19.723495     -3332.9498      19619.39       5698.7434    
   1691000   300.03614     -3353.826       19.391358     -3334.4346      17283.021      5698.7434    
   1692000   287.51013     -3353.878       18.5818       -3335.2962      17184.257      5698.7434    
   1693000   298.71394     -3352.8551      19.305904     -3333.5492      18842.83       5698.7434    
   1694000   312.71771     -3352.4151      20.210969     -3332.2041      20777.556      5698.7434    
   1695000   300.5982      -3352.6761      19.427684     -3333.2484      20747.396      5698.7434    
   1696000   285.67513     -3353.1524      18.463204     -3334.6892      18480.718      5698.7434    
   1697000   293.13787     -3352.6209      18.945522     -3333.6753      18653.795      5698.7434    
   1698000   318.50232     -3352.8801      20.584828     -3332.2953      19177.343      5698.7434    
   1699000   296.6774      -3352.7109      19.174282     -3333.5366      20339.235      5698.7434    
   1700000   290.15286     -3352.3352      18.752601     -3333.5826      18968.356      5698.7434    
   1701000   316.90336     -3352.2901      20.481487     -3331.8086      19474.705      5698.7434    
   1702000   289.18649     -3351.6115      18.690144     -3332.9214      20332.776      5698.7434    
   1703000   304.62784     -3353.1977      19.68812      -3333.5095      18688.809      5698.7434    
   1704000   308.62402     -3352.3737      19.946393     -3332.4273      19767.715      5698.7434    
   1705000   282.78095     -3353.3341      18.276153     -3335.0579      18581.987      5698.7434    
   1706000   290.86553     -3353.6999      18.79866      -3334.9012      19108.17       5698.7434    
   1707000   307.06318     -3352.8801      19.845516     -3333.0345      16673.365      5698.7434    
   1708000   292.21238     -3353.5683      18.885707     -3334.6826      18941.572      5698.7434    
   1709000   310.57306     -3354.1699      20.07236      -3334.0976      18051.096      5698.7434    
   1710000   302.17704     -3352.4439      19.529724     -3332.9142      19629.004      5698.7434    
   1711000   296.87906     -3352.1496      19.187315     -3332.9623      20455.417      5698.7434    
   1712000   283.89793     -3352.4292      18.348344     -3334.0809      17061.07       5698.7434    
   1713000   293.69627     -3353.0918      18.981611     -3334.1102      17748.574      5698.7434    
   1714000   288.16573     -3352.7987      18.624172     -3334.1745      19343.428      5698.7434    
   1715000   288.51721     -3352.2547      18.646888     -3333.6078      19433.788      5698.7434    
   1716000   302.8987      -3352.5617      19.576365     -3332.9854      18522.258      5698.7434    
   1717000   299.19652     -3353.3803      19.337093     -3334.0432      17914.744      5698.7434    
   1718000   287.52174     -3353.5411      18.582551     -3334.9586      18000.965      5698.7434    
   1719000   305.08003     -3352.8757      19.717344     -3333.1584      19604.08       5698.7434    
   1720000   297.59473     -3351.7884      19.233569     -3332.5548      20874.313      5698.7434    
   1721000   286.54069     -3353.621       18.519146     -3335.1018      16499.372      5698.7434    
   1722000   293.6563      -3353.1456      18.979028     -3334.1666      19716.057      5698.7434    
   1723000   318.31795     -3353.5857      20.572912     -3333.0127      19594.61       5698.7434    
   1724000   301.41503     -3352.2725      19.480475     -3332.792       21065.805      5698.7434    
   1725000   291.97276     -3354.023       18.870221     -3335.1528      19431.62       5698.7434    
   1726000   298.09795     -3354.2524      19.266092     -3334.9863      17557.005      5698.7434    
   1727000   290.69212     -3352.851       18.787453     -3334.0636      18661.557      5698.7434    
   1728000   292.47746     -3351.9276      18.902839     -3333.0248      19166.864      5698.7434    
   1729000   309.70965     -3351.9812      20.016557     -3331.9647      18948.557      5698.7434    
   1730000   303.18476     -3353.0477      19.594853     -3333.4528      18773.704      5698.7434    
   1731000   318.00261     -3353.0712      20.552532     -3332.5187      20506.302      5698.7434    
   1732000   323.16538     -3352.5021      20.886202     -3331.6159      19925.887      5698.7434    
   1733000   296.76247     -3352.4372      19.17978      -3333.2574      19334.316      5698.7434    
   1734000   288.93419     -3352.4346      18.673838     -3333.7607      21653.971      5698.7434    
   1735000   295.49483     -3352.5755      19.097852     -3333.4776      20975.878      5698.7434    
   1736000   309.7653      -3353.0979      20.020154     -3333.0778      19225.749      5698.7434    
   1737000   297.91698     -3353.0881      19.254396     -3333.8337      16544.156      5698.7434    
   1738000   271.6433      -3352.8706      17.556326     -3335.3142      19252.031      5698.7434    
   1739000   292.12457     -3352.7264      18.880032     -3333.8464      19756.007      5698.7434    
   1740000   292.54741     -3351.7378      18.907361     -3332.8305      21620.754      5698.7434    
   1741000   302.63474     -3352.814       19.559305     -3333.2547      17546.591      5698.7434    
   1742000   287.13415     -3353.3829      18.557501     -3334.8254      19590.73       5698.7434    
   1743000   288.61982     -3352.8295      18.65352      -3334.176       18728.99       5698.7434    
   1744000   298.16        -3351.9743      19.270103     -3332.7042      19066.429      5698.7434    
   1745000   310.23333     -3352.7137      20.050403     -3332.6633      19402.723      5698.7434    
   1746000   297.64655     -3354.0459      19.236918     -3334.809       18139.545      5698.7434    
   1747000   285.92892     -3352.9617      18.479607     -3334.4821      19375.18       5698.7434    
   1748000   310.59348     -3352.6102      20.073679     -3332.5366      17915.713      5698.7434    
   1749000   285.97617     -3352.0779      18.482661     -3333.5952      20586.49       5698.7434    
   1750000   290.74943     -3353.291       18.791157     -3334.4998      18897.815      5698.7434    
   1751000   288.96884     -3353.8075      18.676077     -3335.1314      19994.934      5698.7434    
   1752000   311.05762     -3353.1364      20.103677     -3333.0327      19118.213      5698.7434    
   1753000   282.56709     -3351.5061      18.262331     -3333.2438      21188.86       5698.7434    
   1754000   300.3897      -3353.0802      19.414208     -3333.666       18830.484      5698.7434    
   1755000   287.27591     -3353.5194      18.566663     -3334.9527      18114.619      5698.7434    
   1756000   288.06967     -3352.6333      18.617964     -3334.0153      21205.17       5698.7434    
   1757000   297.30663     -3351.924       19.214949     -3332.709       20642.567      5698.7434    
   1758000   296.16402     -3352.3251      19.141102     -3333.184       20941.521      5698.7434    
   1759000   308.26969     -3352.4239      19.923492     -3332.5004      20326.499      5698.7434    
   1760000   303.87434     -3352.7507      19.639421     -3333.1113      19524.004      5698.7434    
   1761000   294.8984      -3353.5431      19.059305     -3334.4838      17793.751      5698.7434    
   1762000   300.92072     -3352.5926      19.448528     -3333.1441      18125.522      5698.7434    
   1763000   300.01287     -3351.9657      19.389853     -3332.5758      20351.452      5698.7434    
   1764000   327.50483     -3352.7627      21.166661     -3331.596       20679.877      5698.7434    
   1765000   315.9462      -3353.127       20.419626     -3332.7074      18111.768      5698.7434    
   1766000   292.80789     -3352.5181      18.924195     -3333.5939      20477.134      5698.7434    
   1767000   275.41227     -3353.4382      17.799915     -3335.6383      18974.159      5698.7434    
   1768000   293.69162     -3352.6533      18.981311     -3333.672       18063.928      5698.7434    
   1769000   305.07149     -3352.5021      19.716793     -3332.7853      18075.609      5698.7434    
   1770000   305.47067     -3351.682       19.742591     -3331.9394      20389.117      5698.7434    
   1771000   299.32954     -3352.7627      19.34569      -3333.417       19650.069      5698.7434    
   1772000   295.76358     -3353.7941      19.115222     -3334.6789      18273.155      5698.7434    
   1773000   296.50234     -3352.7062      19.162968     -3333.5433      19929.558      5698.7434    
   1774000   308.08625     -3351.956       19.911637     -3332.0444      20217.165      5698.7434    
   1775000   319.01428     -3352.6822      20.617916     -3332.0643      20131.519      5698.7434    
   1776000   299.16962     -3353.3552      19.335354     -3334.0198      18679.727      5698.7434    
   1777000   288.96551     -3352.7087      18.675862     -3334.0329      18631.038      5698.7434    
   1778000   316.00202     -3352.1216      20.423234     -3331.6984      18283.723      5698.7434    
   1779000   319.2063      -3352.4381      20.630326     -3331.8077      20867.992      5698.7434    
   1780000   294.81626     -3352.3275      19.053996     -3333.2735      20573.054      5698.7434    
   1781000   302.664       -3353.2967      19.561197     -3333.7355      18971.056      5698.7434    
   1782000   284.19875     -3352.7991      18.367786     -3334.4313      18996.497      5698.7434    
   1783000   290.3252      -3353.885       18.763739     -3335.1212      19212.581      5698.7434    
   1784000   300.94965     -3353.163       19.450398     -3333.7126      20829.152      5698.7434    
   1785000   308.32673     -3352.9671      19.927179     -3333.0399      20104.706      5698.7434    
   1786000   292.93637     -3352.57        18.932499     -3333.6375      20495.91       5698.7434    
   1787000   283.87869     -3353.2327      18.3471       -3334.8856      18287.408      5698.7434    
   1788000   317.43317     -3352.1727      20.515729     -3331.6569      18408.167      5698.7434    
   1789000   316.79223     -3352.7486      20.474305     -3332.2743      19187.702      5698.7434    
   1790000   280.88932     -3352.6169      18.153897     -3334.463       20193.348      5698.7434    
   1791000   305.58095     -3353.1946      19.749719     -3333.4449      18896.653      5698.7434    
   1792000   302.76994     -3352.8476      19.568043     -3333.2795      18987.815      5698.7434    
   1793000   316.33176     -3353.5263      20.444545     -3333.0817      18051.253      5698.7434    
   1794000   297.25815     -3353.8449      19.211816     -3334.6331      18576.548      5698.7434    
   1795000   300.04564     -3353.7871      19.391971     -3334.3951      18085.217      5698.7434    
   1796000   294.82796     -3353.0479      19.054752     -3333.9931      21127.689      5698.7434    
   1797000   300.31742     -3352.3376      19.409537     -3332.9281      18927.759      5698.7434    
   1798000   315.80989     -3351.977       20.410816     -3331.5662      21015.425      5698.7434    
   1799000   316.55721     -3352.2919      20.459115     -3331.8327      20643.899      5698.7434    
   1800000   300.67031     -3353.2069      19.432344     -3333.7746      20711.151      5698.7434    
   1801000   305.97127     -3353.8743      19.774945     -3334.0993      17307.193      5698.7434    
   1802000   316.34876     -3353.4166      20.445643     -3332.971       19676.155      5698.7434    
   1803000   296.96045     -3351.8083      19.192576     -3332.6157      21259.831      5698.7434    
   1804000   304.18315     -3352.4694      19.659379     -3332.8101      20646.563      5698.7434    
   1805000   290.73228     -3352.317       18.790048     -3333.5269      20383.689      5698.7434    
   1806000   299.91393     -3353.4858      19.383459     -3334.1024      20565.251      5698.7434    
   1807000   307.38606     -3353.0271      19.866383     -3333.1607      20319.337      5698.7434    
   1808000   307.21977     -3351.8762      19.855636     -3332.0205      18718.498      5698.7434    
   1809000   293.77399     -3352.1718      18.986634     -3333.1852      19024.161      5698.7434    
   1810000   291.92085     -3353.6431      18.866866     -3334.7763      19906.659      5698.7434    
   1811000   301.01852     -3353.0099      19.454849     -3333.555       20796.031      5698.7434    
   1812000   302.12192     -3352.5854      19.526162     -3333.0593      17555.594      5698.7434    
   1813000   313.5752      -3352.2881      20.266388     -3332.0217      19676.138      5698.7434    
   1814000   314.96171     -3351.8094      20.355998     -3331.4534      21119.427      5698.7434    
   1815000   290.80463     -3352.9552      18.794724     -3334.1604      18118.09       5698.7434    
   1816000   304.14649     -3353.7181      19.65701      -3334.0611      19552.52       5698.7434    
   1817000   303.14402     -3351.9882      19.59222      -3332.396       20605.91       5698.7434    
   1818000   296.77152     -3351.5051      19.180365     -3332.3247      20678.883      5698.7434    
   1819000   302.07948     -3350.9373      19.523419     -3331.4139      20330.352      5698.7434    
   1820000   297.85748     -3352.654       19.250551     -3333.4035      20814.267      5698.7434    
   1821000   288.87069     -3353.0458      18.669734     -3334.376       18871.648      5698.7434    
   1822000   300.66228     -3350.8872      19.431825     -3331.4554      19781.406      5698.7434    
   1823000   320.01988     -3353.1176      20.682908     -3332.4347      20791.143      5698.7434    
   1824000   289.58406     -3353.113       18.715839     -3334.3971      17372.189      5698.7434    
   1825000   288.85471     -3353.7807      18.668701     -3335.112       17942.424      5698.7434    
   1826000   301.43093     -3352.5363      19.481503     -3333.0548      16765.079      5698.7434    
   1827000   308.7235      -3354.0763      19.952822     -3334.1235      18701.05       5698.7434    
   1828000   288.84405     -3353.3976      18.668012     -3334.7295      17650.567      5698.7434    
   1829000   274.40821     -3351.8955      17.735022     -3334.1604      16589.369      5698.7434    
   1830000   304.43764     -3353.0584      19.675827     -3333.3826      17649.456      5698.7434    
   1831000   280.06118     -3352.776       18.100374     -3334.6757      18680.278      5698.7434    
   1832000   316.18938     -3353.5014      20.435343     -3333.0661      16010.359      5698.7434    
   1833000   325.97756     -3353.6471      21.067953     -3332.5791      17526.672      5698.7434    
   1834000   300.01992     -3352.9463      19.390309     -3333.556       21915.112      5698.7434    
   1835000   287.17361     -3354.3198      18.560052     -3335.7598      18863.755      5698.7434    
   1836000   302.81552     -3352.0029      19.570989     -3332.4319      19956.073      5698.7434    
   1837000   299.78507     -3351.9795      19.375131     -3332.6043      20842.885      5698.7434    
   1838000   286.24551     -3353.5163      18.500068     -3335.0162      17650.828      5698.7434    
   1839000   284.24673     -3353.06        18.370887     -3334.6891      17592.307      5698.7434    
   1840000   307.7858      -3352.9399      19.892218     -3333.0477      20796.466      5698.7434    
   1841000   315.49561     -3352.1658      20.390504     -3331.7753      20200.709      5698.7434    
   1842000   306.04935     -3352.5288      19.779992     -3332.7488      18414.58       5698.7434    
   1843000   296.96981     -3352.7326      19.19318      -3333.5395      18271.715      5698.7434    
   1844000   296.44836     -3352.8515      19.159479     -3333.6921      18941.083      5698.7434    
   1845000   315.32133     -3351.2784      20.379241     -3330.8992      20223.011      5698.7434    
   1846000   304.2625      -3351.9025      19.664508     -3332.238       19839.101      5698.7434    
   1847000   304.37387     -3353.1916      19.671706     -3333.5199      17876.518      5698.7434    
   1848000   301.12586     -3353.1913      19.461786     -3333.7295      18761.566      5698.7434    
   1849000   307.04909     -3351.3326      19.844605     -3331.488       19833.869      5698.7434    
   1850000   300.76257     -3352.6021      19.438307     -3333.1638      20290.362      5698.7434    
   1851000   305.55525     -3353.8912      19.748058     -3334.1431      17142.656      5698.7434    
   1852000   291.082       -3353.5895      18.812651     -3334.7769      17406.359      5698.7434    
   1853000   285.25765     -3352.7384      18.436223     -3334.3022      17611.402      5698.7434    
   1854000   298.90633     -3352.9142      19.318338     -3333.5959      18582.789      5698.7434    
   1855000   301.96542     -3352.1151      19.516047     -3332.599       18403.82       5698.7434    
   1856000   305.31482     -3350.5331      19.732519     -3330.8006      20750.879      5698.7434    
   1857000   318.70733     -3353.5819      20.598078     -3332.9838      16138.343      5698.7434    
   1858000   290.5977      -3353.2951      18.78135      -3334.5137      20164.213      5698.7434    
   1859000   310.34017     -3353.8981      20.057308     -3333.8408      17946.057      5698.7434    
   1860000   292.07086     -3351.8075      18.876561     -3332.9309      20471.934      5698.7434    
   1861000   299.83078     -3352.6501      19.378085     -3333.272       17915.966      5698.7434    
   1862000   298.23012     -3352.7343      19.274634     -3333.4596      17889.405      5698.7434    
   1863000   297.94534     -3353.2934      19.256229     -3334.0372      16114.786      5698.7434    
   1864000   310.93001     -3352.6355      20.095429     -3332.54        17457.22       5698.7434    
   1865000   303.58195     -3352.8087      19.620523     -3333.1882      19675.195      5698.7434    
   1866000   298.52066     -3353.2087      19.293412     -3333.9153      18552.784      5698.7434    
   1867000   292.50104     -3353.0801      18.904363     -3334.1757      17717.523      5698.7434    
   1868000   304.73334     -3352.621       19.694938     -3332.9261      19814.675      5698.7434    
   1869000   314.46551     -3351.916       20.323929     -3331.5921      17301.549      5698.7434    
   1870000   309.14873     -3353.9281      19.980305     -3333.9478      16885.69       5698.7434    
   1871000   282.55645     -3352.5814      18.261644     -3334.3198      19125.175      5698.7434    
   1872000   296.59106     -3353.4826      19.168702     -3334.3139      18855.201      5698.7434    
   1873000   295.79456     -3352.2619      19.117224     -3333.1446      19722.216      5698.7434    
   1874000   293.05912     -3352.5113      18.940432     -3333.5708      19082.845      5698.7434    
   1875000   287.16175     -3352.6014      18.559285     -3334.0421      20059.235      5698.7434    
   1876000   303.20926     -3353.5581      19.596436     -3333.9617      17859.117      5698.7434    
   1877000   310.35175     -3352.7648      20.058056     -3332.7067      20720.332      5698.7434    
   1878000   295.63625     -3351.8951      19.106992     -3332.7881      20135.484      5698.7434    
   1879000   306.1007      -3354.447       19.783311     -3334.6637      16358.287      5698.7434    
   1880000   286.43258     -3352.7232      18.512159     -3334.211       18303.611      5698.7434    
   1881000   290.79993     -3352.2677      18.79442      -3333.4733      19600.028      5698.7434    
   1882000   295.52573     -3354.1405      19.099849     -3335.0407      16773.178      5698.7434    
   1883000   313.25155     -3351.6843      20.24547      -3331.4388      19595.912      5698.7434    
   1884000   302.17689     -3352.4689      19.529714     -3332.9392      19058.655      5698.7434    
   1885000   281.11768     -3352.9364      18.168656     -3334.7677      17781.926      5698.7434    
   1886000   293.20465     -3353.2779      18.949838     -3334.3281      20096.647      5698.7434    
   1887000   283.65784     -3352.2719      18.332827     -3333.939       18889.809      5698.7434    
   1888000   290.05814     -3351.8622      18.746478     -3333.1157      19278.665      5698.7434    
   1889000   300.19196     -3352.2849      19.401428     -3332.8834      20358.07       5698.7434    
   1890000   287.93887     -3352.8312      18.60951      -3334.2217      18775.061      5698.7434    
   1891000   307.24973     -3353.6217      19.857572     -3333.7641      18588.731      5698.7434    
   1892000   311.24343     -3352.4513      20.115685     -3332.3357      19981.128      5698.7434    
   1893000   293.77928     -3352.4653      18.986976     -3333.4784      22263.017      5698.7434    
   1894000   284.48039     -3352.3544      18.385989     -3333.9684      17985.777      5698.7434    
   1895000   276.99533     -3352.7333      17.902229     -3334.831       17094.324      5698.7434    
   1896000   298.67099     -3352.7405      19.303128     -3333.4374      17326.45       5698.7434    
   1897000   299.59478     -3352.3917      19.362833     -3333.0289      20036.33       5698.7434    
   1898000   302.11618     -3353.4554      19.525791     -3333.9297      17930.861      5698.7434    
   1899000   282.48477     -3352.6777      18.257011     -3334.4207      20531.268      5698.7434    
   1900000   295.4722      -3353.0932      19.09639      -3333.9968      19839.912      5698.7434    
   1901000   317.90352     -3352.372       20.546128     -3331.8259      21247.392      5698.7434    
   1902000   309.6144      -3352.7669      20.010401     -3332.7565      18927.884      5698.7434    
   1903000   305.31468     -3352.6064      19.73251      -3332.8739      17843.44       5698.7434    
   1904000   305.10569     -3353.4617      19.719003     -3333.7427      18022.71       5698.7434    
   1905000   292.11234     -3354.0304      18.879241     -3335.1511      17132.047      5698.7434    
   1906000   292.48887     -3353.9917      18.903577     -3335.0881      19295.327      5698.7434    
   1907000   288.75721     -3351.4584      18.662399     -3332.796       21028.436      5698.7434    
   1908000   313.3081      -3353.3543      20.249125     -3333.1052      17480.344      5698.7434    
   1909000   296.23344     -3353.486       19.145589     -3334.3404      16374.165      5698.7434    
   1910000   293.99343     -3353.0702      19.000817     -3334.0694      19175.342      5698.7434    
   1911000   306.04023     -3352.449       19.779402     -3332.6696      20997.143      5698.7434    
   1912000   297.91424     -3351.7525      19.254219     -3332.4983      19389.365      5698.7434    
   1913000   288.06143     -3353.2217      18.617431     -3334.6043      19760.855      5698.7434    
   1914000   299.47755     -3353.9201      19.355256     -3334.5648      18067.524      5698.7434    
   1915000   288.74484     -3352.1858      18.6616       -3333.5242      17548.5        5698.7434    
   1916000   302.19972     -3352.1457      19.53119      -3332.6145      19716.412      5698.7434    
   1917000   328.66504     -3351.5261      21.241645     -3330.2845      20364.088      5698.7434    
   1918000   294.3934      -3353.0834      19.026667     -3334.0568      18164.779      5698.7434    
   1919000   310.83082     -3354.3246      20.089019     -3334.2356      17888.858      5698.7434    
   1920000   316.66751     -3353.389       20.466244     -3332.9228      18285.252      5698.7434    
   1921000   314.38624     -3352.8313      20.318805     -3332.5125      18348.045      5698.7434    
   1922000   295.6349      -3352.7036      19.106905     -3333.5967      17880.348      5698.7434    
   1923000   321.59088     -3354.3851      20.784442     -3333.6006      17513.802      5698.7434    
   1924000   310.79962     -3352.7237      20.087002     -3332.6367      17870.249      5698.7434    
   1925000   317.9343      -3351.6663      20.548117     -3331.1182      22123.58       5698.7434    
   1926000   315.03113     -3352.7971      20.360485     -3332.4367      19676.96       5698.7434    
   1927000   316.61526     -3354.0122      20.462867     -3333.5493      17616.756      5698.7434    
   1928000   296.9791      -3353.6475      19.193781     -3334.4537      18576.479      5698.7434    
   1929000   305.04703     -3352.3798      19.715211     -3332.6646      17845.433      5698.7434    
   1930000   302.5916      -3351.4338      19.556517     -3331.8772      20603.531      5698.7434    
   1931000   295.0498      -3352.4978      19.06909      -3333.4287      20621.239      5698.7434    
   1932000   301.66425     -3353.2587      19.496582     -3333.7622      19774.41       5698.7434    
   1933000   316.30262     -3353.2227      20.442661     -3332.78        17616.004      5698.7434    
   1934000   303.17943     -3351.7535      19.594509     -3332.159       20338.186      5698.7434    
   1935000   315.32175     -3352.5106      20.379267     -3332.1313      21871.759      5698.7434    
   1936000   297.8441      -3352.1483      19.249686     -3332.8986      19978.384      5698.7434    
   1937000   302.48228     -3352.8389      19.549452     -3333.2895      21735.262      5698.7434    
   1938000   293.35167     -3352.4499      18.95934      -3333.4905      18928.116      5698.7434    
   1939000   289.43603     -3352.9196      18.706271     -3334.2134      20682.302      5698.7434    
   1940000   289.84583     -3354.1835      18.732757     -3335.4507      18558.588      5698.7434    
   1941000   291.63957     -3352.6026      18.848687     -3333.7539      18897.184      5698.7434    
   1942000   305.63542     -3351.87        19.75324      -3332.1168      21936.763      5698.7434    
   1943000   305.70308     -3351.9719      19.757613     -3332.2143      18451.139      5698.7434    
   1944000   304.32034     -3352.5199      19.668246     -3332.8517      19317.809      5698.7434    
   1945000   277.21272     -3353.9899      17.916278     -3336.0736      16405.783      5698.7434    
   1946000   292.30828     -3353.0223      18.891905     -3334.1304      20365.657      5698.7434    
   1947000   300.14549     -3352.5507      19.398425     -3333.1522      19461.946      5698.7434    
   1948000   304.57249     -3353.5013      19.684542     -3333.8168      17284.281      5698.7434    
   1949000   296.27013     -3352.9566      19.14796      -3333.8086      19006.468      5698.7434    
   1950000   301.84946     -3352.8136      19.508553     -3333.3051      21263.062      5698.7434    
   1951000   306.33737     -3352.1085      19.798606     -3332.3099      19957.079      5698.7434    
   1952000   287.94447     -3352.1067      18.609872     -3333.4968      20069.879      5698.7434    
   1953000   305.73634     -3353.7805      19.759762     -3334.0207      20699.78       5698.7434    
   1954000   304.3494      -3352.2629      19.670124     -3332.5928      19855.432      5698.7434    
   1955000   301.0007      -3351.2666      19.453697     -3331.8129      21181.893      5698.7434    
   1956000   309.10855     -3352.8058      19.977708     -3332.8281      18325.647      5698.7434    
   1957000   299.64516     -3353.5655      19.366088     -3334.1995      18099.562      5698.7434    
   1958000   288.41423     -3352.878       18.640233     -3334.2378      17554.582      5698.7434    
   1959000   307.01992     -3352.697       19.842719     -3332.8543      21456.917      5698.7434    
   1960000   286.19427     -3352.7418      18.496756     -3334.245       19480.426      5698.7434    
   1961000   302.81998     -3353.1439      19.571277     -3333.5726      19686.758      5698.7434    
   1962000   311.08445     -3352.3866      20.105411     -3332.2812      21740.904      5698.7434    
   1963000   297.34412     -3350.8782      19.217372     -3331.6608      22112.874      5698.7434    
   1964000   308.9177      -3353.8103      19.965373     -3333.8449      19139.996      5698.7434    
   1965000   303.13507     -3354.1134      19.591642     -3334.5218      18696.579      5698.7434    
   1966000   296.31118     -3354.0901      19.150613     -3334.9395      18813.662      5698.7434    
   1967000   305.19509     -3353.5183      19.724781     -3333.7936      19916.069      5698.7434    
   1968000   288.45862     -3351.7658      18.643102     -3333.1227      24098.967      5698.7434    
   1969000   301.62123     -3352.374       19.493802     -3332.8802      18787.023      5698.7434    
   1970000   289.84721     -3353.5349      18.732846     -3334.8021      19209.315      5698.7434    
   1971000   286.69077     -3353.9759      18.528845     -3335.447       19230.629      5698.7434    
   1972000   288.31497     -3353.0188      18.633817     -3334.385       20606.142      5698.7434    
   1973000   296.49757     -3353.1402      19.16266      -3333.9775      21947.808      5698.7434    
   1974000   311.249       -3350.4563      20.116045     -3330.3403      21379.006      5698.7434    
   1975000   312.38995     -3353.5331      20.189785     -3333.3433      18730.846      5698.7434    
   1976000   301.94779     -3353.1498      19.514907     -3333.6349      17387.232      5698.7434    
   1977000   326.4585      -3352.9657      21.099037     -3331.8667      19499.541      5698.7434    
   1978000   307.71559     -3352.4786      19.887681     -3332.5909      18844.492      5698.7434    
   1979000   288.75262     -3352.6686      18.662103     -3334.0065      18014.966      5698.7434    
   1980000   292.28532     -3352.5232      18.890422     -3333.6328      20651.855      5698.7434    
   1981000   320.77422     -3352.621       20.731661     -3331.8894      17921.139      5698.7434    
   1982000   289.22897     -3352.3919      18.692889     -3333.699       19119.934      5698.7434    
   1983000   281.64053     -3352.9446      18.202448     -3334.7422      18882.672      5698.7434    
   1984000   298.01895     -3353.1256      19.260987     -3333.8646      19470.587      5698.7434    
   1985000   306.56941     -3352.6571      19.813603     -3332.8435      19832.171      5698.7434    
   1986000   313.58671     -3353.1876      20.267132     -3332.9205      19559.266      5698.7434    
   1987000   308.9217      -3353.7485      19.965632     -3333.7828      18076.363      5698.7434    
   1988000   293.16806     -3353.278       18.947473     -3334.3306      17503.997      5698.7434    
   1989000   287.74181     -3351.7923      18.596774     -3333.1955      20307.61       5698.7434    
   1990000   296.83563     -3350.7907      19.184508     -3331.6062      22018.039      5698.7434    
   1991000   301.19498     -3352.2398      19.466253     -3332.7735      19745.851      5698.7434    
   1992000   283.10698     -3352.1659      18.297225     -3333.8687      22714.219      5698.7434    
   1993000   300.69651     -3353.3201      19.434038     -3333.8861      20352.378      5698.7434    
   1994000   319.13206     -3353.2525      20.625528     -3332.627       20579.978      5698.7434    
   1995000   310.13182     -3351.9273      20.043842     -3331.8834      19090.629      5698.7434    
   1996000   305.99929     -3352.7178      19.776757     -3332.941       19749.588      5698.7434    
   1997000   293.58262     -3353.4144      18.974266     -3334.4401      19631.867      5698.7434    
   1998000   295.06521     -3352.6943      19.070086     -3333.6242      19673.116      5698.7434    
   1999000   294.74171     -3353.007       19.049178     -3333.9579      18325.167      5698.7434    
   2000000   287.1277      -3353.7835      18.557084     -3335.2264      18444.515      5698.7434    
Loop time of 46979.5 on 1 procs for 1500000 steps with 501 atoms

Performance: 1.379 ns/day, 17.400 hours/ns, 31.929 timesteps/s, 15.996 katom-step/s
99.1% CPU use with 1 MPI tasks x 1 OpenMP threads

MPI task timing breakdown:
Section |  min time  |  avg time  |  max time  |%varavg| %total
---------------------------------------------------------------
Pair    | 44988      | 44988      | 44988      |   0.0 | 95.76
Neigh   | 0.39379    | 0.39379    | 0.39379    |   0.0 |  0.00
Comm    | 57.12      | 57.12      | 57.12      |   0.0 |  0.12
Output  | 1.3179     | 1.3179     | 1.3179     |   0.0 |  0.00
Modify  | 1872.1     | 1872.1     | 1872.1     |   0.0 |  3.98
Other   |            | 60.5       |            |       |  0.13

Nlocal:            501 ave         501 max         501 min
Histogram: 1 0 0 0 0 0 0 0 0 0
Nghost:           2054 ave        2054 max        2054 min
Histogram: 1 0 0 0 0 0 0 0 0 0
Neighs:              0 ave           0 max           0 min
Histogram: 1 0 0 0 0 0 0 0 0 0
FullNghs:        66602 ave       66602 max       66602 min
Histogram: 1 0 0 0 0 0 0 0 0 0

Total # of neighbors = 66602
Ave neighs/atom = 132.93812
Neighbor list builds = 596
Dangerous builds = 0

# ── Save final state ─────────────────────────────────────────
variable  pe_final  equal  pe
variable  temp_fin  equal  temp
variable  press_fin equal  press

print "EQUIL_RESULTS_START"
EQUIL_RESULTS_START
print "  T_K          : 300"
  T_K          : 300
print "  pe_final_eV  : ${pe_final}"
  pe_final_eV  : -3353.78346496036
print "  temp_final_K : ${temp_fin}"
  temp_final_K : 287.127702075768
print "  press_final  : ${press_fin}"
  press_final  : 18444.514890914
print "EQUIL_RESULTS_END"
EQUIL_RESULTS_END

write_data     structures/notebook10-bulk-equilibration/N_7/Hastelloy_N_7_H_300K.lammps
System init for write_data ...
Total wall time: 17:24:19
