LAMMPS data file via write_data, version 11 Feb 2026, timestep = 553, units = metal

360 atoms
8 atom types

0 12.6318719411 xlo xhi
0 15.1582463294 ylo yhi
0 52.6905365514 zlo zhi

Masses

1 26.9815
2 10.811
3 12.011
4 51.9961
5 55.845
6 95.95999999999999
7 58.6934
8 1.008

Atoms # atomic/kk

1 7 0 0 15 0 0 0
13 7 1.2631871941 2.1879043997 15 0 0 0
25 7 2.5263743882 4.3758087993 15 0 0 0
73 7 2.5263743882 0 15 0 0 0
85 6 3.7895615823 2.1879043997 15 0 0 0
313 1 0 4.3758087993 15 1 0 0
97 6 5.0527487765 4.3758087993 15 0 0 0
145 7 5.0527487765 0 15 0 0 0
157 7 6.3159359706 2.1879043997 15 0 0 0
169 4 7.5791231647 4.3758087993 15 0 0 0
217 7 7.5791231647 0 15 0 0 0
229 7 8.8423103588 2.1879043997 15 0 0 0
241 7 10.1054975529 4.3758087993 15 0 0 0
289 6 10.1054975529 0 15 0 0 0
301 7 11.368684747 2.1879043997 15 0 0 0
37 4 3.7895615823 6.563713199 15 0 0 0
265 7 0 8.7516175987 15 1 0 0
325 6 1.2631871941000004 6.563713199 15 1 0 0
337 7 2.5263743883000007 8.7516175987 15 1 0 0
49 7 5.0527487765 8.7516175987 15 0 0 0
109 5 6.3159359706 6.563713199 15 0 0 0
121 7 7.5791231647 8.7516175987 15 0 0 0
181 6 8.8423103588 6.563713199 15 0 0 0
193 7 10.1054975529 8.7516175987 15 0 0 0
253 7 11.368684747 6.563713199 15 0 0 0
277 7 1.2631871941000004 10.9395219984 15 1 0 0
349 7 3.7895615823999993 10.9395219984 15 1 0 0
61 7 6.3159359706 10.9395219984 15 0 0 0
133 7 8.8423103588 10.9395219984 15 0 0 0
205 7 11.368684747 10.9395219984 15 0 0 0
2 7 2.5263743882 1.4586029331 17.0627760501 0 0 0
3 6 1.2631871941 0.7293014666 19.1255521003 0 0 0
14 7 3.7895615823 3.6465073328 17.0627760501 0 0 0
15 5 2.5263743882 2.9172058662 19.1255521003 0 0 0
75 7 3.7895615823 0.7293014666 19.1255521003 0 0 0
290 7 0 1.4586029331 17.0627760501 1 0 0
302 7 1.2631871941000004 3.6465073328 17.0627760501 1 0 0
303 7 0 2.9172058662 19.1255521003 1 0 0
74 7 5.0527487765 1.4586029331 17.0627760501 0 0 0
86 7 6.3159359706 3.6465073328 17.0627760501 0 0 0
87 7 5.0527487765 2.9172058662 19.1255521003 0 0 0
146 7 7.5791231647 1.4586029331 17.0627760501 0 0 0
147 7 6.3159359706 0.7293014666 19.1255521003 0 0 0
159 5 7.5791231647 2.9172058662 19.1255521003 0 0 0
158 7 8.8423103588 3.6465073328 17.0627760501 0 0 0
218 7 10.1054975529 1.4586029331 17.0627760501 0 0 0
219 7 8.8423103588 0.7293014666 19.1255521003 0 0 0
230 6 11.368684747 3.6465073328 17.0627760501 0 0 0
231 7 10.1054975529 2.9172058662 19.1255521003 0 0 0
291 7 11.368684747 0.7293014666 19.1255521003 0 0 0
27 4 3.7895615823 5.1051102659 19.1255521003 0 0 0
242 7 0 5.8344117325 17.0627760501 1 0 0
254 7 1.2631871941000004 8.0223161321 17.0627760501 1 0 0
255 7 0 7.2930146656 19.1255521003 1 0 0
267 7 1.2631871941000004 9.4809190653 19.1255521003 1 0 0
314 7 2.5263743883000007 5.8344117325 17.0627760501 1 0 0
315 7 1.2631871941000004 5.1051102659 19.1255521003 1 0 0
326 7 3.7895615823999993 8.0223161321 17.0627760501 1 0 0
327 7 2.5263743883000007 7.2930146656 19.1255521003 1 0 0
339 4 3.7895615823999993 9.4809190653 19.1255521003 1 0 0
26 7 5.0527487765 5.8344117325 17.0627760501 0 0 0
38 7 6.3159359706 8.0223161321 17.0627760501 0 0 0
39 7 5.0527487765 7.2930146656 19.1255521003 0 0 0
51 7 6.3159359706 9.4809190653 19.1255521003 0 0 0
98 7 7.5791231647 5.8344117325 17.0627760501 0 0 0
99 7 6.3159359706 5.1051102659 19.1255521003 0 0 0
111 7 7.5791231647 7.2930146656 19.1255521003 0 0 0
110 6 8.8423103588 8.0223161321 17.0627760501 0 0 0
123 7 8.8423103588 9.4809190653 19.1255521003 0 0 0
170 7 10.1054975529 5.8344117325 17.0627760501 0 0 0
171 2 8.8423103588 5.1051102659 19.1255521003 0 0 0
182 4 11.368684747 8.0223161321 17.0627760501 0 0 0
183 7 10.1054975529 7.2930146656 19.1255521003 0 0 0
195 7 11.368684747 9.4809190653 19.1255521003 0 0 0
243 7 11.368684747 5.1051102659 19.1255521003 0 0 0
194 7 0 10.2102205318 17.0627760501 1 0 0
206 6 1.2631871941000004 12.3981249315 17.0627760501 1 0 0
207 7 0 11.6688234649 19.1255521003 1 0 0
266 7 2.5263743883000007 10.2102205318 17.0627760501 1 0 0
278 7 3.7895615823999993 12.3981249315 17.0627760501 1 0 0
279 7 2.5263743883000007 11.6688234649 19.1255521003 1 0 0
50 6 7.5791231647 10.2102205318 17.0627760501 0 0 0
63 7 7.5791231647 11.6688234649 19.1255521003 0 0 0
338 4 5.052748776500001 10.2102205318 17.0627760501 1 0 0
350 1 6.3159359706 12.3981249315 17.0627760501 1 0 0
351 7 5.052748776500001 11.6688234649 19.1255521003 1 0 0
62 7 8.8423103588 12.3981249315 17.0627760501 0 0 0
122 7 10.1054975529 10.2102205318 17.0627760501 0 0 0
134 7 11.368684747 12.3981249315 17.0627760501 0 0 0
135 4 10.1054975529 11.6688234649 19.1255521003 0 0 0
4 4 1.2631871941 2.1879043997 21.1883281504 0 0 0
5 7 2.2247266754889163 1.1188588291474666 23.161344739942166 0 0 0
16 7 2.5263743882 4.3758087993 21.1883281504 0 0 0
17 7 3.6940715803039508 3.2412909098454636 23.318479480243084 0 0 0
64 7 0 0 21.1883281504 0 0 0
76 7 3.7895615823 2.1879043997 21.1883281504 0 0 0
136 7 2.5263743882 0 21.1883281504 0 0 0
293 7 11.46306221399033 0.943332837548557 23.096577084671814 0 0 0
304 5 0 4.3758087993 21.1883281504 1 0 0
305 7 1.1680125574270985 3.3864944053371984 23.13109543477776 1 0 0
77 6 4.895595789527555 1.0966843521913756 23.180485798970217 0 0 0
88 5 5.0527487765 4.3758087993 21.1883281504 0 0 0
89 7 6.124821945311647 4.037132973825723 23.4420566267676 0 0 0
148 7 6.3159359706 2.1879043997 21.1883281504 0 0 0
149 7 7.418282523888013 1.8468753435369571 23.29043504957876 0 0 0
160 7 7.5791231647 4.3758087993 21.1883281504 0 0 0
208 7 5.0527487765 0 21.1883281504 0 0 0
280 7 7.5791231647 0 21.1883281504 0 0 0
161 7 8.739809193237054 3.913825714548536 23.23217283623164 0 0 0
220 5 8.8423103588 2.1879043997 21.1883281504 0 0 0
221 1 8.877911342445364 15.049869299669718 23.45332213738279 0 -1 0
232 4 10.1054975529 4.3758087993 21.1883281504 0 0 0
233 4 11.109257796508375 3.631896680175584 23.07396539096192 0 0 0
292 7 11.368684747 2.1879043997 21.1883281504 0 0 0
352 7 10.1054975529 0 21.1883281504 0 0 0
28 4 3.7895615823 6.563713199 21.1883281504 0 0 0
245 7 0.2064946439908676 5.540804499224625 23.090141328156434 1 0 0
256 7 0 8.7516175987 21.1883281504 1 0 0
257 7 1.0434148578378926 9.342088395628098 23.246959440334944 1 0 0
316 7 1.2631871941000004 6.563713199 21.1883281504 1 0 0
317 7 2.1850289836021313 7.0286264730852235 23.41416023825851 1 0 0
328 3 2.5263743883000007 8.7516175987 21.1883281504 1 0 0
329 7 3.397526506074852 9.087684817530327 22.843989340780272 1 0 0
29 7 5.276755667400999 7.347358093319573 23.097452703422608 0 0 0
40 7 5.0527487765 8.7516175987 21.1883281504 0 0 0
41 7 6.232485915038681 9.47138681811013 23.14224038646906 0 0 0
100 7 6.3159359706 6.563713199 21.1883281504 0 0 0
101 7 7.545343107867709 6.175007433864509 23.2150351961276 0 0 0
112 3 7.5791231647 8.7516175987 21.1883281504 0 0 0
113 7 8.447563628305481 8.608079734928975 22.815677367598685 0 0 0
172 7 8.8423103588 6.563713199 21.1883281504 0 0 0
173 7 10.191557610043134 6.110505822231269 23.157247305581834 0 0 0
184 5 10.1054975529 8.7516175987 21.1883281504 0 0 0
185 7 11.192984502291106 9.053839786802815 23.185726013433168 0 0 0
244 7 11.368684747 6.563713199 21.1883281504 0 0 0
197 7 0.11099616313591826 11.555829245134268 22.970788507261574 1 0 0
209 7 1.3158957702857663 12.893951906673394 21.158790634250025 1 0 0
268 2 1.2631871941000004 10.9395219984 21.1883281504 1 0 0
269 7 2.4520164242813984 11.413753398629675 23.037322786385527 1 0 0
281 7 3.613074903308066 13.883899521323984 22.96760917207102 1 0 0
340 5 3.7895615823999993 10.9395219984 21.1883281504 1 0 0
52 7 6.3159359706 10.9395219984 21.1883281504 0 0 0
53 7 7.546642098929211 11.543556619342645 23.244941747836993 0 0 0
341 7 4.938693608623384 11.631461550073926 23.224997411523812 1 0 0
353 6 6.268764383760028 13.666545771376851 22.7211806432767 1 0 0
65 7 8.814690459165533 13.194961373243121 21.909901868059833 0 0 0
124 7 8.8423103588 10.9395219984 21.1883281504 0 0 0
125 6 10.155070104426176 11.270927058099021 23.124967613534515 0 0 0
137 7 11.207976137907288 13.585094154581402 22.741118240304214 0 0 0
196 4 11.368684747 10.9395219984 21.1883281504 0 0 0
6 4 0.9185736767811521 0.09612442300933059 24.787859018273085 0 0 0
7 7 0.9165088598637039 1.6894103383648313 26.906696237558435 0 0 0
18 7 2.35594053608626 2.4933114244967594 25.119084425439016 0 0 0
19 7 2.227288922798985 4.169241136705859 26.90847276210342 0 0 0
67 4 12.173417385848074 14.684170946534755 26.807935615558936 -1 -1 0
78 7 3.537045810384726 0.3066077294876746 25.14165917162998 0 0 0
79 6 3.856648492497642 2.2057141704960928 27.125872730853406 0 0 0
139 7 1.8785026772724203 14.567641483633784 26.955979609034756 0 -1 0
306 6 12.417908905922157 2.396121690197095 24.830578061758587 0 0 0
307 4 12.319820044550923 3.985520122559581 26.809384360403197 0 0 0
90 7 5.521404524396285 2.254226472311865 25.192141417145578 0 0 0
91 7 4.358317404443861 4.267030361279116 25.63635761507176 0 0 0
150 7 6.602685534944332 0.09044648569518479 24.75972487019433 0 0 0
151 2 5.404331048953118 0.582007541611456 26.373928831075965 0 0 0
162 7 7.746242336119826 3.2218557372100873 25.370823467477873 0 0 0
163 6 7.015709794560798 5.169362923135618 26.83021915336033 0 0 0
211 7 4.214529505314943 14.496910873609554 27.340210305534725 0 -1 0
283 7 6.641487250669458 14.24395019710852 27.101988220987415 0 -1 0
222 3 9.084709829079612 2.0182107133271607 26.45175388452569 0 0 0
223 7 7.220035460902015 1.4252805718150305 26.925645697120764 0 0 0
234 7 9.775543589426068 1.9779687254124383 24.65630961446476 0 0 0
235 4 9.746343187422823 3.8872099124245083 26.716428289791537 0 0 0
294 4 11.014415617817876 14.892317502197365 24.983870952252257 0 -1 0
295 7 11.06411331648402 1.7192694242195583 26.836158116537693 0 0 0
355 6 9.166347560971996 14.975498873119687 26.545084161069468 0 -1 0
30 5 3.9934480104116923 5.493486388552916 23.448898970325182 0 0 0
31 7 3.388444164920071 6.479216328569677 26.188147753462555 0 0 0
258 7 12.390879197454211 7.3859201385388635 24.303397794698387 0 0 0
259 7 12.17294923483642 8.485930896726556 26.31035108338029 0 0 0
270 7 1.0251312044817646 10.783025696083687 25.303734471112943 1 0 0
318 7 2.0017413949866047 4.963641544450705 24.673989621260393 1 0 0
319 7 0.7877181617605051 6.258755307297465 26.39610690027974 1 0 0
330 6 1.8872252148402235 8.451807674664874 25.433038179818727 1 0 0
331 3 3.5778654585399967 8.436050691844326 26.666005110702137 1 0 0
342 7 3.5721239168221484 10.796150022540512 25.24320244836086 1 0 0
42 7 4.676243912985083 8.50159079441927 25.10291386071305 0 0 0
43 4 4.864948870527019 9.71559221126216 27.43450012240722 0 0 0
54 6 6.145470973497328 10.552771685900524 25.28149610657171 0 0 0
102 7 5.85107583366892 6.040972636419792 24.963870781035684 0 0 0
103 7 5.826114525629297 7.354850298172893 27.06910619864577 0 0 0
114 4 7.266995289104046 8.039441641534111 25.0014619944893 0 0 0
115 4 7.40566392527944 9.376240216125344 27.055457462965922 0 0 0
126 7 8.714635400208897 10.107336562652815 24.89757167696172 0 0 0
174 6 8.946554183308558 5.586015866022808 25.167043410898152 0 0 0
175 7 8.525521505583345 7.248632382700555 26.985525515205225 0 0 0
186 7 9.936903844396173 7.985846233906645 24.966909775918698 0 0 0
187 7 9.890564517065307 9.488124510311517 26.97794979391821 0 0 0
198 7 11.246255099864639 10.543877109135996 25.24462326798669 0 0 0
246 7 11.525896206963104 5.009117817391475 24.94992218501221 0 0 0
247 7 10.880922324959643 6.466325871453065 26.671579981049366 0 0 0
210 7 12.20943546579072 12.879865443921574 24.905126305752255 0 0 0
271 7 0.6109406216943701 12.480833568574226 27.06129447753596 1 0 0
282 6 2.1854551211819784 13.048653361411302 24.8959739955535 1 0 0
343 7 3.0408276664325675 12.362394613852345 27.10511272280135 1 0 0
55 7 5.4364305808219875 12.09956106795375 27.067206052311292 0 0 0
66 1 7.299965297938917 13.055823781903921 25.134175892022064 0 0 0
354 7 4.835308526399204 13.331796034746489 25.0662164905301 1 0 0
127 7 8.164157085771421 11.620839683917115 26.741139218832515 0 0 0
138 7 9.619302347587658 12.870153022926822 24.808070305330073 0 0 0
199 6 10.643858142130622 12.305420873596667 27.01714272667686 0 0 0
8 6 2.4370227552241612 1.0612444633137779 28.785242058447153 0 0 0
9 7 1.2839329951877012 0.34980827054715274 30.816349173984182 0 0 0
20 2 2.856813601414908 3.667997195239634 28.80644493963268 0 0 0
21 7 2.255945032331953 2.6989841229709852 30.672720063621803 0 0 0
81 7 3.878469175193804 0.505711358537673 30.7515925479056 0 0 0
296 7 12.296207825722824 1.146159069977078 28.96616005156865 0 0 0
308 7 0.8644605539057931 3.3679824771391695 28.746453491433513 1 0 0
309 7 12.194929550074134 2.8026813788840537 30.698854865210482 0 0 0
80 4 5.506246823792943 0.838319138624995 28.740354877350793 0 0 0
92 7 6.034100087202258 3.2549578310486544 27.807425996255727 0 0 0
93 6 4.6511739396985785 2.878606686612451 29.876618022275334 0 0 0
152 7 7.78957028149645 0.12897589049729033 29.10411592863008 0 0 0
153 4 6.365369160087352 14.655692725452049 31.08698201840219 0 -1 0
165 7 7.166641565850334 2.415585756422889 29.8274344202274 0 0 0
164 7 8.283764630253229 4.134412522966974 28.69173963761937 0 0 0
224 7 9.223345339297705 1.898240509190897 28.412205721297017 0 0 0
225 7 8.854774123221805 14.109686086988871 30.868377193617537 0 -1 0
236 7 10.992404776228602 3.5912485320564094 28.734054046336656 0 0 0
237 7 9.517909465040345 3.0706916820798265 30.638595278852268 0 0 0
297 7 10.30558633363921 0.8700905847786237 30.435151920861887 0 0 0
33 7 3.4204502233383582 4.994541043766377 30.41337998817104 0 0 0
248 7 12.266276489590322 5.715610549978666 28.54318827911804 0 0 0
260 7 1.0310999055120504 7.963325265417943 28.24409924516807 1 0 0
261 7 12.557561788806224 7.2339855530961765 30.40528930943281 0 0 0
273 7 12.587842504799807 9.638666176787384 29.887637451383906 0 0 0
320 4 2.0230338729997865 5.813555064807788 28.55279431281618 1 0 0
321 7 0.9662890625006423 4.997490320382591 30.567696890652073 1 0 0
332 7 3.6107175658290838 7.64384698101442 28.40934067670672 1 0 0
333 7 2.330267543949202 7.171101984980645 30.553031598275194 1 0 0
345 7 2.334093060824007 9.434856009745385 29.774758995050885 1 0 0
32 7 4.428334834906439 5.096648321740461 28.154625460585713 0 0 0
44 7 6.500134895411966 8.545401181564978 29.096749854534902 0 0 0
45 7 4.960712228429701 6.958208498818653 30.42167195401347 0 0 0
57 7 4.588073397625771 9.332235829544175 29.93740558330441 0 0 0
104 7 7.2899249164439 6.346612728542082 28.956656451521546 0 0 0
105 7 6.213679552569463 4.785154882924737 30.412140357566084 0 0 0
117 7 7.611536772226908 7.3590885349885795 31.156751906465313 0 0 0
116 7 8.868290744060632 8.439494271278614 29.016073561976324 0 0 0
129 7 7.960086509568047 9.852380533927212 30.73347725862141 0 0 0
176 7 9.789353331117995 5.935546810718632 28.708539150144418 0 0 0
177 7 8.66774287812236 5.27616288490785 30.9075872016878 0 0 0
188 7 11.18575755586355 8.092093909473217 28.54756987696759 0 0 0
189 7 10.119268830984188 7.263502310337856 30.69511056563727 0 0 0
201 7 10.382397056116996 9.683219199917941 30.548343583160083 0 0 0
249 7 11.107925698030938 5.04406004929214 30.69443155721112 0 0 0
200 7 12.277586095120958 10.37184526220805 27.642498112557416 0 0 0
212 7 0.5016666518233944 13.98492482718074 28.989383746603956 1 0 0
213 7 11.583324580913803 12.035658858844167 29.325526679873725 0 0 0
272 7 2.3778471237559455 10.008050542854443 27.390051007955098 1 0 0
284 7 2.9383659447720887 13.758782203990554 29.272278191659627 1 0 0
285 6 1.4220116424263756 11.614016537778955 29.26869247220247 1 0 0
56 7 6.670793469905516 11.026711128693295 28.875029212834914 0 0 0
69 1 7.508354521541555 12.168878105826249 31.033274066813085 0 0 0
344 7 3.959894493573416 11.411124399983164 29.129324692453462 1 0 0
356 6 5.555573524631873 13.40058780620964 29.28815838557681 1 0 0
357 7 4.144098061897272 13.315201160665211 31.309589855592925 1 0 0
68 1 8.275086063352923 13.027894096664472 28.596185113356288 0 0 0
128 7 9.342533608971745 10.923640477874494 28.840918083586757 0 0 0
140 6 10.573919457664296 14.39734200527366 28.68130798473418 0 0 0
141 7 10.000385426528814 12.043158000290644 31.075823105046304 0 0 0
10 5 3.4602606989667355 1.9766328225173377 32.73042178077364 0 0 0
11 4 1.7232391118085237 1.0038243719371145 34.6854034127212 0 0 0
23 7 3.7716882150493816 3.5641763107821944 34.4677141599425 0 0 0
70 7 2.4579792152451336 14.831129321789016 32.79012635269499 0 -1 0
238 7 12.401144769036225 4.2648864194989535 32.60506488527916 0 0 0
298 7 0.9127627752071953 2.0223379803750565 32.6192315640937 0 0 0
299 7 12.534657116256382 14.995936354418468 33.07532059358374 0 -1 0
310 7 2.2801230559287897 4.24329675989334 32.529709784594395 0 0 0
311 7 1.2417193914955884 3.4264685531822203 34.54472185796108 1 0 0
358 2 12.107897335267188 0.8214621831553417 31.265361363599382 -1 0 0
22 7 4.747016275666961 4.004412902106399 32.20842771122119 0 0 0
82 7 5.8118862459028255 1.7017480246973429 31.675242182955625 0 0 0
83 7 4.398601387456534 1.2070920625615873 35.17743105272104 0 0 0
94 7 7.518205409490619 3.4954422772186713 32.21740997095983 0 0 0
95 7 6.156192168111507 4.45209680977276 34.01227486834023 0 0 0
142 7 4.842018047064535 15.043605351782817 33.063828343188774 0 -1 0
155 5 6.253384995284006 2.073239343719804 33.93245978622514 0 0 0
214 7 7.365585022243299 14.956721708234317 33.31427016990315 0 -1 0
154 7 8.244287027427914 1.202280422816666 31.58203060927919 0 0 0
166 5 9.868517106007111 4.022670633695202 32.787783032863416 0 0 0
167 7 8.904928268609524 1.7615386114531715 33.87398907479662 0 0 0
226 7 10.945832973574099 1.843487889274165 32.54884979920217 0 0 0
227 5 9.996615881714238 14.836628622903428 32.81314137617559 0 -1 0
239 4 11.547704815156893 3.047927051883921 34.382217622303415 0 0 0
286 7 11.661130361758342 13.925825333395695 31.05501473168981 0 -1 0
190 7 11.612814429081055 8.50876004615424 32.24129729661244 0 0 0
250 7 0.8474292870120009 6.555327799577688 32.571991888781845 1 0 0
251 7 12.35016548588819 5.591772641098667 34.64341734256287 0 0 0
262 7 1.1791430079799385 9.172100707754197 31.924690448252072 1 0 0
263 2 12.210936830602797 7.489498890292727 33.86222851151587 0 0 0
322 7 3.471919170705707 6.379247735686245 32.603544047848445 0 0 0
323 7 2.1613686833871215 5.590964764661936 34.557794163125656 1 0 0
335 6 2.087743600264152 8.08209499134418 34.20201921269412 1 0 0
34 7 5.883472101531049 6.332357251926332 32.596451657815045 0 0 0
35 6 4.593175895091231 5.992614107098825 35.00786335766652 0 0 0
46 7 5.852979776450729 8.863225775341856 31.898868187202694 0 0 0
47 7 4.711606898355249 8.215219794131235 33.913019550774536 0 0 0
107 1 8.083462141833605 3.7268307449477636 35.03601463932137 0 0 0
334 7 3.471769776917708 8.882276810350628 32.043016054254224 0 0 0
106 7 8.288444389039599 5.7985360641203 33.35571112441886 0 0 0
118 7 9.31167744359785 8.23701733185492 32.80110928404283 0 0 0
119 6 7.180726844826721 7.92134912001919 34.13437710750889 0 0 0
178 7 10.822147063107959 6.2383852089351155 32.81340345821668 0 0 0
179 7 10.044623782229449 4.9953015731421875 35.056661227077875 0 0 0
191 7 10.408166374802788 7.533739183711497 34.8967544275412 0 0 0
202 7 1.4611097859058217 13.164564015222762 31.20729794282229 1 0 0
203 6 12.379946179836006 10.030337158993774 33.999151048572315 0 0 0
215 6 1.0389492307312542 12.761227265780407 33.60743709192205 1 0 0
274 7 2.8375622859072465 11.182758738406868 31.489002518755527 1 0 0
275 4 2.2642247351946097 10.452425041713347 33.69543832498233 1 0 0
287 7 3.5342790484606734 12.647899640257084 33.45191481298961 1 0 0
59 7 7.37262183592505 10.612308677472056 33.05124460212554 0 0 0
346 7 5.390251384074332 11.202089476237573 31.14406390212402 0 0 0
347 4 4.800606583677188 10.636199473774875 33.39265457982731 1 0 0
359 7 6.043656799694623 12.828191917340874 32.98244248636732 1 0 0
58 3 7.6631958366537996 8.899190372183009 32.295889201499506 0 0 0
71 7 8.661813889834526 12.794697315705744 33.07562894674849 0 0 0
130 7 12.405669040729606 11.335390390462528 31.709998658072905 0 0 0
131 7 10.119475232530947 10.568637671573248 32.939200145548426 0 0 0
143 4 11.165883312529218 12.823092591928612 33.35923785818105 0 0 0
12 7 0.39952338780595664 14.37432375686116 35.420533307292736 0 -1 0
24 6 2.5302709641199144 2.288624551916966 36.352744516784696 0 0 0
84 7 3.1523994946193663 14.288831148905258 35.12573075337658 0 -1 0
312 7 12.606162240597536 2.2212934984796524 36.26316025512987 0 0 0
96 4 5.494904713931898 3.3597920476967165 36.166369295227 0 0 0
156 6 5.878281731781076 14.277331711323974 35.124362057139265 0 -1 0
168 6 7.31213996828623 1.1078125740472224 35.83286640222293 0 0 0
228 7 8.972745537109741 14.236572976943352 35.033723429083764 0 -1 0
240 3 9.333263907337694 0.8709928062690623 35.63637084690263 0 0 0
300 4 11.092070989608096 0.6941940639201915 34.86773663445635 0 0 0
36 7 3.253700768375524 4.66425290611585 36.55879130901053 0 0 0
264 7 0.09578116418698512 7.784975498414479 35.744629676457464 1 0 0
276 7 1.2262821691429322 9.883722343942269 35.942520884844676 1 0 0
324 7 0.8256174459135843 4.656873868746463 36.57462303353407 1 0 0
336 7 2.411029566829643 7.0358531942497065 36.48586157039419 1 0 0
348 7 3.7230663649506694 9.78700601420475 35.55415869925503 1 0 0
48 3 3.8503562965775577 7.906787683975072 35.67674498399306 0 0 0
60 7 6.293861875554327 10.05012148211795 35.18713552650569 0 0 0
108 7 7.120992260608477 6.009572284707862 35.60199128864094 0 0 0
120 7 5.6700762364916155 7.944502497980497 36.20568917275448 0 0 0
132 7 8.902176613895708 9.578367762129156 34.88706534487509 0 0 0
180 7 10.002382591967036 2.627077339666575 36.078539854877754 0 0 0
192 7 11.387768852279768 6.0153027387000995 36.80280473657075 0 0 0
204 7 11.125410857074783 9.731448728981968 35.97082793293619 0 0 0
252 2 11.533916273335963 4.143392161282457 36.232139385751815 0 0 0
216 7 12.41572572713643 11.91991267128102 35.61864406064484 0 0 0
288 7 2.3466212015651493 11.998564750568475 35.56785035410403 1 0 0
72 7 7.355860311476128 12.196428115387072 35.03346716083116 0 0 0
360 7 4.849963935377244 12.037271354622785 35.34400668496637 1 0 0
144 6 9.941049619162227 11.84638062722723 35.07953333582464 0 0 0

Velocities

1 0 0 0
13 0 0 0
25 0 0 0
73 0 0 0
85 0 0 0
313 0 0 0
97 0 0 0
145 0 0 0
157 0 0 0
169 0 0 0
217 0 0 0
229 0 0 0
241 0 0 0
289 0 0 0
301 0 0 0
37 0 0 0
265 0 0 0
325 0 0 0
337 0 0 0
49 0 0 0
109 0 0 0
121 0 0 0
181 0 0 0
193 0 0 0
253 0 0 0
277 0 0 0
349 0 0 0
61 0 0 0
133 0 0 0
205 0 0 0
2 0 0 0
3 0 0 0
14 0 0 0
15 0 0 0
75 0 0 0
290 0 0 0
302 0 0 0
303 0 0 0
74 0 0 0
86 0 0 0
87 0 0 0
146 0 0 0
147 0 0 0
159 0 0 0
158 0 0 0
218 0 0 0
219 0 0 0
230 0 0 0
231 0 0 0
291 0 0 0
27 0 0 0
242 0 0 0
254 0 0 0
255 0 0 0
267 0 0 0
314 0 0 0
315 0 0 0
326 0 0 0
327 0 0 0
339 0 0 0
26 0 0 0
38 0 0 0
39 0 0 0
51 0 0 0
98 0 0 0
99 0 0 0
111 0 0 0
110 0 0 0
123 0 0 0
170 0 0 0
171 0 0 0
182 0 0 0
183 0 0 0
195 0 0 0
243 0 0 0
194 0 0 0
206 0 0 0
207 0 0 0
266 0 0 0
278 0 0 0
279 0 0 0
50 0 0 0
63 0 0 0
338 0 0 0
350 0 0 0
351 0 0 0
62 0 0 0
122 0 0 0
134 0 0 0
135 0 0 0
4 0 0 0
5 0 0 0
16 0 0 0
17 0 0 0
64 0 0 0
76 0 0 0
136 0 0 0
293 0 0 0
304 0 0 0
305 0 0 0
77 0 0 0
88 0 0 0
89 0 0 0
148 0 0 0
149 0 0 0
160 0 0 0
208 0 0 0
280 0 0 0
161 0 0 0
220 0 0 0
221 0 0 0
232 0 0 0
233 0 0 0
292 0 0 0
352 0 0 0
28 0 0 0
245 0 0 0
256 0 0 0
257 0 0 0
316 0 0 0
317 0 0 0
328 0 0 0
329 0 0 0
29 0 0 0
40 0 0 0
41 0 0 0
100 0 0 0
101 0 0 0
112 0 0 0
113 0 0 0
172 0 0 0
173 0 0 0
184 0 0 0
185 0 0 0
244 0 0 0
197 0 0 0
209 0 0 0
268 0 0 0
269 0 0 0
281 0 0 0
340 0 0 0
52 0 0 0
53 0 0 0
341 0 0 0
353 0 0 0
65 0 0 0
124 0 0 0
125 0 0 0
137 0 0 0
196 0 0 0
6 0 0 0
7 0 0 0
18 0 0 0
19 0 0 0
67 0 0 0
78 0 0 0
79 0 0 0
139 0 0 0
306 0 0 0
307 0 0 0
90 0 0 0
91 0 0 0
150 0 0 0
151 0 0 0
162 0 0 0
163 0 0 0
211 0 0 0
283 0 0 0
222 0 0 0
223 0 0 0
234 0 0 0
235 0 0 0
294 0 0 0
295 0 0 0
355 0 0 0
30 0 0 0
31 0 0 0
258 0 0 0
259 0 0 0
270 0 0 0
318 0 0 0
319 0 0 0
330 0 0 0
331 0 0 0
342 0 0 0
42 0 0 0
43 0 0 0
54 0 0 0
102 0 0 0
103 0 0 0
114 0 0 0
115 0 0 0
126 0 0 0
174 0 0 0
175 0 0 0
186 0 0 0
187 0 0 0
198 0 0 0
246 0 0 0
247 0 0 0
210 0 0 0
271 0 0 0
282 0 0 0
343 0 0 0
55 0 0 0
66 0 0 0
354 0 0 0
127 0 0 0
138 0 0 0
199 0 0 0
8 0 0 0
9 0 0 0
20 0 0 0
21 0 0 0
81 0 0 0
296 0 0 0
308 0 0 0
309 0 0 0
80 0 0 0
92 0 0 0
93 0 0 0
152 0 0 0
153 0 0 0
165 0 0 0
164 0 0 0
224 0 0 0
225 0 0 0
236 0 0 0
237 0 0 0
297 0 0 0
33 0 0 0
248 0 0 0
260 0 0 0
261 0 0 0
273 0 0 0
320 0 0 0
321 0 0 0
332 0 0 0
333 0 0 0
345 0 0 0
32 0 0 0
44 0 0 0
45 0 0 0
57 0 0 0
104 0 0 0
105 0 0 0
117 0 0 0
116 0 0 0
129 0 0 0
176 0 0 0
177 0 0 0
188 0 0 0
189 0 0 0
201 0 0 0
249 0 0 0
200 0 0 0
212 0 0 0
213 0 0 0
272 0 0 0
284 0 0 0
285 0 0 0
56 0 0 0
69 0 0 0
344 0 0 0
356 0 0 0
357 0 0 0
68 0 0 0
128 0 0 0
140 0 0 0
141 0 0 0
10 0 0 0
11 0 0 0
23 0 0 0
70 0 0 0
238 0 0 0
298 0 0 0
299 0 0 0
310 0 0 0
311 0 0 0
358 0 0 0
22 0 0 0
82 0 0 0
83 0 0 0
94 0 0 0
95 0 0 0
142 0 0 0
155 0 0 0
214 0 0 0
154 0 0 0
166 0 0 0
167 0 0 0
226 0 0 0
227 0 0 0
239 0 0 0
286 0 0 0
190 0 0 0
250 0 0 0
251 0 0 0
262 0 0 0
263 0 0 0
322 0 0 0
323 0 0 0
335 0 0 0
34 0 0 0
35 0 0 0
46 0 0 0
47 0 0 0
107 0 0 0
334 0 0 0
106 0 0 0
118 0 0 0
119 0 0 0
178 0 0 0
179 0 0 0
191 0 0 0
202 0 0 0
203 0 0 0
215 0 0 0
274 0 0 0
275 0 0 0
287 0 0 0
59 0 0 0
346 0 0 0
347 0 0 0
359 0 0 0
58 0 0 0
71 0 0 0
130 0 0 0
131 0 0 0
143 0 0 0
12 0 0 0
24 0 0 0
84 0 0 0
312 0 0 0
96 0 0 0
156 0 0 0
168 0 0 0
228 0 0 0
240 0 0 0
300 0 0 0
36 0 0 0
264 0 0 0
276 0 0 0
324 0 0 0
336 0 0 0
348 0 0 0
48 0 0 0
60 0 0 0
108 0 0 0
120 0 0 0
132 0 0 0
180 0 0 0
192 0 0 0
204 0 0 0
252 0 0 0
216 0 0 0
288 0 0 0
72 0 0 0
360 0 0 0
144 0 0 0
