LAMMPS (11 Feb 2026 - Development - patch_11Feb2026-99-gb75dfcc930-modified)
KOKKOS mode with Kokkos version 5.0.2 is enabled
  using double precision
  using view layout = legacy
  will use up to 1 GPU(s) per node
  using 1 OpenMP thread(s) per MPI task
package kokkos
package kokkos newton on neigh half
# ═══════════════════════════════════════════════════════
# LAMMPS Surface Relaxation — Hastelloy N
# Protocol: freeze bottom layers → minimize → heat → NVT
# T = 300 K | boundary p p f
# ═══════════════════════════════════════════════════════

units          metal
atom_style     atomic
newton         on
boundary       p p f

read_data      /projects/westgroup/akinyemi.az/mace_lammps/MHI_Nickel/calculation/slabs/phase1_slab/slab_111.lammps
Reading data file ...
  orthogonal box = (0 0 0) to (12.631872 15.158246 52.690537)
  1 by 1 by 1 MPI processor grid
  reading atoms ...
  360 atoms
  read_data CPU = 0.026 seconds

restart        10000  /projects/westgroup/akinyemi.az/mace_lammps/MHI_Nickel/calculation/slabs/phase2_relax/restarts/surf_300K.*.restart

pair_style     mliap unified /projects/westgroup/akinyemi.az/mace_lammps/models/mace-mh-1.model-mliap_lammps.pt 0
pair_coeff     * * Al B C Cr Fe Mo Ni H

neighbor       2.0 bin
neigh_modify   every 1 delay 0 check yes

# ── Frozen layers (z ≤ 22.115 Å) ────────────────────────────────
region         frozen_reg    block  INF INF  INF INF  EDGE  22.115
group          frozen_atoms  region  frozen_reg
120 atoms in group frozen_atoms
group          free_atoms    subtract  all  frozen_atoms
240 atoms in group free_atoms

variable       frozen_count  equal  count(frozen_atoms)
variable       free_count    equal  count(free_atoms)
print "GROUPS: frozen=${frozen_count}  free=${free_count}"
GROUPS: frozen=120  free=240

fix            freeze  frozen_atoms  setforce  0.0  0.0  0.0

thermo         1000
thermo_style   custom  step  time  temp  pe  ke  press  lx  ly  lz

# ═══ PHASE 1: Minimization ═══════════════════════════════════════
print "### Phase 1: Surface minimization ###"
### Phase 1: Surface minimization ###

variable       z_top_before  equal  bound(free_atoms,zmax)
print "  Top layer z BEFORE minimize: ${z_top_before} Ang"
  Top layer z BEFORE minimize: 37.6905365514 Ang

dump           min_traj  free_atoms  custom  1000  /projects/westgroup/akinyemi.az/mace_lammps/MHI_Nickel/calculation/slabs/phase2_relax/relaxed_slab_min_traj.lammpstrj  id type x y z
dump_modify    min_traj  sort id

minimize       0.0  1e-06  10000  100000

CITE-CITE-CITE-CITE-CITE-CITE-CITE-CITE-CITE-CITE-CITE-CITE-CITE

Your simulation uses code contributions which should be cited:

- KOKKOS package: https://doi.org/10.1145/3731599.3767498

@inproceedings{Johansson25,
 author = {A. Johansson and E. Weinberg and C. Trott and M. McCarthy and S. Moore},
 title = {{LAMMPS-KOKKOS}: {P}erformance Portable Molecular Dynamics Across Exascale Architectures},
 year = 2025,
 booktitle = {Proceedings of the SC '25 Workshops of the International Conference for High Performance Computing,
  Networking, Storage and Analysis},
 pages = {1217–1232},
}

CITE-CITE-CITE-CITE-CITE-CITE-CITE-CITE-CITE-CITE-CITE-CITE-CITE

Neighbor list info ...
  update: every = 1 steps, delay = 0 steps, check = yes
  max neighbors/atom: 2000, page size: 100000
  master list distance cutoff = 8
  ghost atom cutoff = 8
  binsize = 8, bins = 2 2 7
  1 neighbor lists, perpetual/occasional/extra = 1 0 0
  (1) pair mliap/kk, perpetual
      attributes: full, newton on, kokkos_device
      pair build: full/bin/kk/device
      stencil: full/bin/3d
      bin: kk/device
WARNING: Fix MINIMIZE/kk not compatible with sending data in Kokkos communication (src/KOKKOS/comm_kokkos.cpp:842)
WARNING: Fix with atom-based arrays not compatible with sending data in Kokkos communication, switching to legacy exchange/border communication (src/KOKKOS/comm_kokkos.cpp:849)
WARNING: Fix MINIMIZE/kk not (yet) compatible with Kokkos sorting on device (src/KOKKOS/atom_kokkos.cpp:219)
WARNING: Fix with atom-based arrays not (yet) compatible with Kokkos sorting on device, switching to legacy host sorting (src/KOKKOS/atom_kokkos.cpp:225)
Per MPI rank memory allocation (min/avg/max) = 69.96 | 69.96 | 69.96 Mbytes
   Step          Time           Temp          PotEng         KinEng         Press            Lx             Ly             Lz      
         0   0              0             -2191.844       0             -34586.964      12.631872      15.158246      52.690537    
       553   0.553          0             -2248.5726      0             -19964.33       12.631872      15.158246      52.690537    
Loop time of 35.7092 on 1 procs for 553 steps with 360 atoms

97.2% CPU use with 1 MPI tasks x 1 OpenMP threads

Minimization stats:
  Stopping criterion = force tolerance
  Energy initial, next-to-last, final = 
     -2191.84399075988  -2248.57264257874  -2248.57264257874
  Force two-norm initial, final = 11.424693 9.97487e-07
  Force max component initial, final = 1.9917166 3.3298996e-07
  Final line search alpha, max atom move = 1 3.3298996e-07
  Iterations, force evaluations = 553 1039

MPI task timing breakdown:
Section |  min time  |  avg time  |  max time  |%varavg| %total
---------------------------------------------------------------
Pair    | 35.515     | 35.515     | 35.515     |   0.0 | 99.46
Neigh   | 0.0067357  | 0.0067357  | 0.0067357  |   0.0 |  0.02
Comm    | 0.025734   | 0.025734   | 0.025734   |   0.0 |  0.07
Output  | 0          | 0          | 0          |   0.0 |  0.00
Modify  | 0.02388    | 0.02388    | 0.02388    |   0.0 |  0.07
Other   |            | 0.1379     |            |       |  0.39

Nlocal:            360 ave         360 max         360 min
Histogram: 1 0 0 0 0 0 0 0 0 0
Nghost:           1333 ave        1333 max        1333 min
Histogram: 1 0 0 0 0 0 0 0 0 0
Neighs:              0 ave           0 max           0 min
Histogram: 1 0 0 0 0 0 0 0 0 0
FullNghs:        55630 ave       55630 max       55630 min
Histogram: 1 0 0 0 0 0 0 0 0 0

Total # of neighbors = 55630
Ave neighs/atom = 154.52778
Neighbor list builds = 12
Dangerous builds = 0

undump         min_traj

variable       z_top_after_min  equal  bound(free_atoms,zmax)
variable       dz_min           equal  v_z_top_before - v_z_top_after_min
print "  Top layer z AFTER minimize : ${z_top_after_min} Ang"
  Top layer z AFTER minimize : 36.8028047365707 Ang
print "  Surface contraction (min)  : ${dz_min} Ang"
  Surface contraction (min)  : 0 Ang
print "### Phase 1 complete ###"
### Phase 1 complete ###

write_restart  /projects/westgroup/akinyemi.az/mace_lammps/MHI_Nickel/calculation/slabs/phase2_relax/relaxed_slab_phase1_min.restart
System init for write_restart ...
write_data     /projects/westgroup/akinyemi.az/mace_lammps/MHI_Nickel/calculation/slabs/phase2_relax/relaxed_slab_phase1_min.lammps
System init for write_data ...

# ═══ PHASE 2: Heat to 300 K ═══════════════════════════════
print "### Phase 2: Heating to 300 K ###"
### Phase 2: Heating to 300 K ###

velocity       free_atoms  create  300.0  12345  mom yes  rot yes  dist gaussian
velocity       free_atoms  scale   300.0

timestep       0.0005

compute        surf_temp_heat  free_atoms  temp
thermo_modify  temp  surf_temp_heat
WARNING: Temperature for thermo pressure is not for group all (src/thermo.cpp:570)

fix            nve_heat   free_atoms  nve
fix            rescale    free_atoms  temp/rescale  10  300.0  300.0  10.0  1.0

dump           heat_traj  free_atoms  custom  1000  /projects/westgroup/akinyemi.az/mace_lammps/MHI_Nickel/calculation/slabs/phase2_relax/relaxed_slab_heat_traj.lammpstrj  id type x y z
dump_modify    heat_traj  sort id

run            10000
Per MPI rank memory allocation (min/avg/max) = 76.54 | 76.54 | 76.54 Mbytes
   Step          Time           Temp          PotEng         KinEng         Press            Lx             Ly             Lz      
       553   0.553          300           -2248.5726      9.2679524     -18983.139      12.631872      15.158246      52.690537    
      1000   0.7765         306.83552     -2239.0288      9.4791232     -18930.551      12.631872      15.158246      52.690537    
      2000   1.2765         309.2897      -2238.9336      9.5549407     -21247.297      12.631872      15.158246      52.690537    
      3000   1.7765         305.99448     -2240.1263      9.4531408     -16204.61       12.631872      15.158246      52.690537    
      4000   2.2765         300           -2240.2475      9.2679524     -20490.8        12.631872      15.158246      52.690537    
      5000   2.7765         309.98061     -2240.8827      9.5762851     -19123.102      12.631872      15.158246      52.690537    
      6000   3.2765         302.90293     -2241.1899      9.357633      -18116.642      12.631872      15.158246      52.690537    
      7000   3.7765         298.45839     -2241.8283      9.2203273     -18727.755      12.631872      15.158246      52.690537    
      8000   4.2765         300           -2241.8577      9.2679524     -11434.809      12.631872      15.158246      52.690537    
      9000   4.7765         290.13899     -2242.7918      8.9633145     -14790.133      12.631872      15.158246      52.690537    
     10000   5.2765         295.77063     -2243.6277      9.1372938     -12300.439      12.631872      15.158246      52.690537    
     10553   5.553          303.49305     -2243.7303      9.3758637     -15964.988      12.631872      15.158246      52.690537    
Loop time of 325.942 on 1 procs for 10000 steps with 360 atoms

Performance: 1.325 ns/day, 18.108 hours/ns, 30.680 timesteps/s, 11.045 katom-step/s
99.0% CPU use with 1 MPI tasks x 1 OpenMP threads

MPI task timing breakdown:
Section |  min time  |  avg time  |  max time  |%varavg| %total
---------------------------------------------------------------
Pair    | 324.71     | 324.71     | 324.71     |   0.0 | 99.62
Neigh   | 0.0066389  | 0.0066389  | 0.0066389  |   0.0 |  0.00
Comm    | 0.2792     | 0.2792     | 0.2792     |   0.0 |  0.09
Output  | 0.19053    | 0.19053    | 0.19053    |   0.0 |  0.06
Modify  | 0.41255    | 0.41255    | 0.41255    |   0.0 |  0.13
Other   |            | 0.3388     |            |       |  0.10

Nlocal:            360 ave         360 max         360 min
Histogram: 1 0 0 0 0 0 0 0 0 0
Nghost:           1327 ave        1327 max        1327 min
Histogram: 1 0 0 0 0 0 0 0 0 0
Neighs:              0 ave           0 max           0 min
Histogram: 1 0 0 0 0 0 0 0 0 0
FullNghs:        55692 ave       55692 max       55692 min
Histogram: 1 0 0 0 0 0 0 0 0 0

Total # of neighbors = 55692
Ave neighs/atom = 154.7
Neighbor list builds = 12
Dangerous builds = 0
undump         heat_traj
unfix          rescale
unfix          nve_heat
thermo_modify  temp  thermo_temp
uncompute      surf_temp_heat
print "### Phase 2 complete ###"
### Phase 2 complete ###

write_restart  /projects/westgroup/akinyemi.az/mace_lammps/MHI_Nickel/calculation/slabs/phase2_relax/relaxed_slab_phase2_heat.restart
System init for write_restart ...
write_data     /projects/westgroup/akinyemi.az/mace_lammps/MHI_Nickel/calculation/slabs/phase2_relax/relaxed_slab_phase2_heat.lammps
System init for write_data ...

# ═══ PHASE 3: NVT Equilibration at 300 K ══════════════════
print "### Phase 3: NVT equilibration at 300 K ###"
### Phase 3: NVT equilibration at 300 K ###

compute        surf_temp  free_atoms  temp
thermo_modify  temp  surf_temp
WARNING: Temperature for thermo pressure is not for group all (src/thermo.cpp:570)

fix            thermo_out  all  ave/time  1  1  1000                 c_surf_temp                 file  /projects/westgroup/akinyemi.az/mace_lammps/MHI_Nickel/calculation/slabs/phase2_relax/relax_thermo.txt  mode scalar

dump           surf_traj  free_atoms  custom  1000  /projects/westgroup/akinyemi.az/mace_lammps/MHI_Nickel/calculation/slabs/phase2_relax/relaxed_slab_nvt_traj.lammpstrj  id type x y z
dump_modify    surf_traj  sort id

fix            nvt_equil  free_atoms  nvt  temp  300.0  300.0  0.1
run            100000
Per MPI rank memory allocation (min/avg/max) = 76.66 | 76.66 | 76.66 Mbytes
   Step          Time           Temp          PotEng         KinEng         Press            Lx             Ly             Lz      
     10553   5.553          303.49305     -2243.7303      9.3758637     -15964.988      12.631872      15.158246      52.690537    
     11000   5.7765         304.07453     -2245.2122      9.3938275     -14567.732      12.631872      15.158246      52.690537    
     12000   6.2765         302.88147     -2246.7416      9.3569702     -13505.467      12.631872      15.158246      52.690537    
     13000   6.7765         288.53643     -2246.8189      8.9138063     -15344.334      12.631872      15.158246      52.690537    
     14000   7.2765         285.60967     -2245.313       8.8233893     -15014.623      12.631872      15.158246      52.690537    
     15000   7.7765         302.04697     -2245.708       9.3311896     -12131.253      12.631872      15.158246      52.690537    
     16000   8.2765         320.88263     -2245.9546      9.9130832     -15511.004      12.631872      15.158246      52.690537    
     17000   8.7765         313.13439     -2246.593       9.6737155     -12807.378      12.631872      15.158246      52.690537    
     18000   9.2765         295.26091     -2245.8337      9.1215469     -15398.13       12.631872      15.158246      52.690537    
     19000   9.7765         293.09521     -2245.9849      9.0546416     -12358.803      12.631872      15.158246      52.690537    
     20000   10.2765        309.4227      -2247.3158      9.5590496     -13678.666      12.631872      15.158246      52.690537    
     21000   10.7765        294.7473      -2247.135       9.1056798     -14582.949      12.631872      15.158246      52.690537    
     22000   11.2765        320.81252     -2246.9252      9.9109171     -14426.689      12.631872      15.158246      52.690537    
     23000   11.7765        268.5783      -2247.2253      8.2972365     -14413.603      12.631872      15.158246      52.690537    
     24000   12.2765        287.13627     -2247.3111      8.870551      -14522.201      12.631872      15.158246      52.690537    
     25000   12.7765        318.01242     -2247.098       9.8244132     -13704.587      12.631872      15.158246      52.690537    
     26000   13.2765        315.45768     -2246.6979      9.7454893     -14534.622      12.631872      15.158246      52.690537    
     27000   13.7765        311.24574     -2247.517       9.6153689     -15380.645      12.631872      15.158246      52.690537    
     28000   14.2765        323.94616     -2247.1649      10.007725     -13818.539      12.631872      15.158246      52.690537    
     29000   14.7765        316.26433     -2246.3882      9.7704091     -15037.373      12.631872      15.158246      52.690537    
     30000   15.2765        326.41815     -2246.8501      10.084093     -14900.397      12.631872      15.158246      52.690537    
     31000   15.7765        292.83492     -2246.6999      9.0466003     -13300.62       12.631872      15.158246      52.690537    
     32000   16.2765        306.66254     -2246.7064      9.4737795     -13665.804      12.631872      15.158246      52.690537    
     33000   16.7765        285.09221     -2246.4593      8.8074033     -12089.032      12.631872      15.158246      52.690537    
     34000   17.2765        298.21948     -2247.0017      9.2129465     -14777.275      12.631872      15.158246      52.690537    
     35000   17.7765        314.08587     -2247.7129      9.7031097     -14382.644      12.631872      15.158246      52.690537    
     36000   18.2765        328.02876     -2247.1862      10.13385      -12531.601      12.631872      15.158246      52.690537    
     37000   18.7765        336.86802     -2247.3754      10.406922     -13671.606      12.631872      15.158246      52.690537    
     38000   19.2765        278.90489     -2246.5468      8.6162574     -13606.09       12.631872      15.158246      52.690537    
     39000   19.7765        301.58384     -2247.5543      9.3168822     -16049.483      12.631872      15.158246      52.690537    
     40000   20.2765        280.08539     -2247.6365      8.6527268     -12921.719      12.631872      15.158246      52.690537    
     41000   20.7765        272.81042     -2247.7319      8.42798       -15807.589      12.631872      15.158246      52.690537    
     42000   21.2765        309.25303     -2247.1338      9.5538079     -14099.064      12.631872      15.158246      52.690537    
     43000   21.7765        295.27063     -2246.9838      9.1218473     -13273.896      12.631872      15.158246      52.690537    
     44000   22.2765        315.43802     -2246.8705      9.744882      -14998.282      12.631872      15.158246      52.690537    
     45000   22.7765        331.35427     -2247.0198      10.236585     -13796.765      12.631872      15.158246      52.690537    
     46000   23.2765        299.12122     -2246.8279      9.2408041     -17267.073      12.631872      15.158246      52.690537    
     47000   23.7765        299.82807     -2247.4221      9.262641      -13505.136      12.631872      15.158246      52.690537    
     48000   24.2765        280.51124     -2247.3489      8.6658827     -13395.886      12.631872      15.158246      52.690537    
     49000   24.7765        309.40304     -2247.5832      9.558442      -14878.257      12.631872      15.158246      52.690537    
     50000   25.2765        313.20417     -2246.9871      9.6758711     -12333.923      12.631872      15.158246      52.690537    
     51000   25.7765        315.98693     -2246.6737      9.7618395     -14518.674      12.631872      15.158246      52.690537    
     52000   26.2765        300.24766     -2247.5466      9.2756035     -14695.813      12.631872      15.158246      52.690537    
     53000   26.7765        285.35174     -2247.7263      8.8154211     -13109.228      12.631872      15.158246      52.690537    
     54000   27.2765        296.0434      -2247.4177      9.1457206     -15303.328      12.631872      15.158246      52.690537    
     55000   27.7765        301.52231     -2246.9037      9.3149814     -10056.687      12.631872      15.158246      52.690537    
     56000   28.2765        274.42806     -2247.1324      8.4779541     -16087.515      12.631872      15.158246      52.690537    
     57000   28.7765        289.55683     -2247.2931      8.9453298     -11750.046      12.631872      15.158246      52.690537    
     58000   29.2765        323.47748     -2247.0498      9.9932463     -15231.152      12.631872      15.158246      52.690537    
     59000   29.7765        285.51462     -2247.626       8.8204529     -14940.553      12.631872      15.158246      52.690537    
     60000   30.2765        287.82583     -2246.5795      8.8918537     -15264.776      12.631872      15.158246      52.690537    
     61000   30.7765        312.07387     -2246.4607      9.6409524     -13035.212      12.631872      15.158246      52.690537    
     62000   31.2765        310.53352     -2247.0693      9.5933662     -13024.425      12.631872      15.158246      52.690537    
     63000   31.7765        310.93931     -2247.2621      9.6059024     -15477.146      12.631872      15.158246      52.690537    
     64000   32.2765        301.73024     -2246.8897      9.3214051     -12621.894      12.631872      15.158246      52.690537    
     65000   32.7765        305.95219     -2247.4034      9.4518344     -14125.268      12.631872      15.158246      52.690537    
     66000   33.2765        301.77401     -2247.7444      9.3227571     -13344.445      12.631872      15.158246      52.690537    
     67000   33.7765        291.54241     -2246.0131      9.0066706     -13404.11       12.631872      15.158246      52.690537    
     68000   34.2765        313.07999     -2245.938       9.6720349     -13599.16       12.631872      15.158246      52.690537    
     69000   34.7765        313.85181     -2247.9556      9.6958787     -12905.785      12.631872      15.158246      52.690537    
     70000   35.2765        291.09307     -2247.3326      8.992789      -13960.446      12.631872      15.158246      52.690537    
     71000   35.7765        312.81758     -2246.6865      9.6639282     -11147.366      12.631872      15.158246      52.690537    
     72000   36.2765        298.72113     -2248.2666      9.228444      -12918.075      12.631872      15.158246      52.690537    
     73000   36.7765        291.30685     -2247.374       8.9993933     -11997.131      12.631872      15.158246      52.690537    
     74000   37.2765        265.35388     -2248.7478      8.1976239     -14581.159      12.631872      15.158246      52.690537    
     75000   37.7765        297.6271      -2247.5397      9.1946458     -12142.339      12.631872      15.158246      52.690537    
     76000   38.2765        321.23529     -2248.5297      9.9239778     -14000.18       12.631872      15.158246      52.690537    
     77000   38.7765        299.79678     -2249.0487      9.2616743     -11538.968      12.631872      15.158246      52.690537    
     78000   39.2765        275.76626     -2250.0248      8.5192952     -14536.931      12.631872      15.158246      52.690537    
     79000   39.7765        293.94944     -2250.6725      9.0810313     -10276.753      12.631872      15.158246      52.690537    
     80000   40.2765        311.58085     -2250.5335      9.6257217     -11582.27       12.631872      15.158246      52.690537    
     81000   40.7765        309.03943     -2250.5649      9.5472092     -14958.337      12.631872      15.158246      52.690537    
     82000   41.2765        287.68505     -2250.3994      8.8875044     -11386.688      12.631872      15.158246      52.690537    
     83000   41.7765        308.0314      -2250.0153      9.5160679     -13595.724      12.631872      15.158246      52.690537    
     84000   42.2765        298.22941     -2250.3073      9.2132531     -10436.059      12.631872      15.158246      52.690537    
     85000   42.7765        320.52202     -2250.4487      9.9019429     -11698.267      12.631872      15.158246      52.690537    
     86000   43.2765        292.46629     -2250.7444      9.0352121     -12674.755      12.631872      15.158246      52.690537    
     87000   43.7765        290.4877      -2250.7534      8.9740874     -11590.054      12.631872      15.158246      52.690537    
     88000   44.2765        305.69914     -2250.7828      9.444017      -10642.061      12.631872      15.158246      52.690537    
     89000   44.7765        293.47264     -2250.6532      9.0663015     -13758.656      12.631872      15.158246      52.690537    
     90000   45.2765        306.62202     -2252.0659      9.4725277     -12856.246      12.631872      15.158246      52.690537    
     91000   45.7765        310.41802     -2252.0113      9.589798      -10350.108      12.631872      15.158246      52.690537    
     92000   46.2765        310.54758     -2250.7015      9.5938006     -13673.753      12.631872      15.158246      52.690537    
     93000   46.7765        322.52698     -2251.1591      9.9638823     -10635.622      12.631872      15.158246      52.690537    
     94000   47.2765        272.2866      -2250.5855      8.4117973     -14422.774      12.631872      15.158246      52.690537    
     95000   47.7765        272.8559      -2250.6498      8.4293849     -10511.834      12.631872      15.158246      52.690537    
     96000   48.2765        286.34371     -2250.0752      8.8460664     -10922.214      12.631872      15.158246      52.690537    
     97000   48.7765        288.53164     -2250.49        8.9136584     -11704.567      12.631872      15.158246      52.690537    
     98000   49.2765        295.3212      -2251.3888      9.1234093     -13802.127      12.631872      15.158246      52.690537    
     99000   49.7765        276.18147     -2250.8811      8.5321225     -9977.8469      12.631872      15.158246      52.690537    
    100000   50.2765        286.25425     -2250.0785      8.8433025     -12276.169      12.631872      15.158246      52.690537    
    101000   50.7765        312.05457     -2251.0523      9.6403563     -11535.76       12.631872      15.158246      52.690537    
    102000   51.2765        294.85408     -2251.2121      9.1089785     -11265.174      12.631872      15.158246      52.690537    
    103000   51.7765        280.09794     -2251.0708      8.6531145     -13635.792      12.631872      15.158246      52.690537    
    104000   52.2765        288.66722     -2251.4662      8.9178467     -10361.218      12.631872      15.158246      52.690537    
    105000   52.7765        279.74741     -2251.6401      8.6422856     -14030.278      12.631872      15.158246      52.690537    
    106000   53.2765        309.19475     -2251.1451      9.5520073     -11715.538      12.631872      15.158246      52.690537    
    107000   53.7765        303.9441      -2252.7159      9.3897982     -11561.212      12.631872      15.158246      52.690537    
    108000   54.2765        303.49287     -2253.4952      9.3758584     -11113.066      12.631872      15.158246      52.690537    
    109000   54.7765        292.9467      -2253.0829      9.0500536     -14229.048      12.631872      15.158246      52.690537    
    110000   55.2765        322.64927     -2253.5068      9.9676604     -9912.4055      12.631872      15.158246      52.690537    
    110553   55.553         290.14971     -2253.9631      8.9636455     -11429.396      12.631872      15.158246      52.690537    
Loop time of 3276.89 on 1 procs for 100000 steps with 360 atoms

Performance: 1.318 ns/day, 18.205 hours/ns, 30.517 timesteps/s, 10.986 katom-step/s
99.0% CPU use with 1 MPI tasks x 1 OpenMP threads

MPI task timing breakdown:
Section |  min time  |  avg time  |  max time  |%varavg| %total
---------------------------------------------------------------
Pair    | 3229.1     | 3229.1     | 3229.1     |   0.0 | 98.54
Neigh   | 0.027495   | 0.027495   | 0.027495   |   0.0 |  0.00
Comm    | 2.8532     | 2.8532     | 2.8532     |   0.0 |  0.09
Output  | 1.0722     | 1.0722     | 1.0722     |   0.0 |  0.03
Modify  | 40.399     | 40.399     | 40.399     |   0.0 |  1.23
Other   |            | 3.434      |            |       |  0.10

Nlocal:            360 ave         360 max         360 min
Histogram: 1 0 0 0 0 0 0 0 0 0
Nghost:           1322 ave        1322 max        1322 min
Histogram: 1 0 0 0 0 0 0 0 0 0
Neighs:              0 ave           0 max           0 min
Histogram: 1 0 0 0 0 0 0 0 0 0
FullNghs:        56600 ave       56600 max       56600 min
Histogram: 1 0 0 0 0 0 0 0 0 0

Total # of neighbors = 56600
Ave neighs/atom = 157.22222
Neighbor list builds = 49
Dangerous builds = 0
unfix          nvt_equil
undump         surf_traj
unfix          thermo_out
print "### Phase 3 complete ###"
### Phase 3 complete ###

write_restart  /projects/westgroup/akinyemi.az/mace_lammps/MHI_Nickel/calculation/slabs/phase2_relax/relaxed_slab_phase3_nvt.restart
System init for write_restart ...
write_data     /projects/westgroup/akinyemi.az/mace_lammps/MHI_Nickel/calculation/slabs/phase2_relax/relaxed_slab_phase3_nvt.lammps
System init for write_data ...

# ═══ PHASE 4: Quench (CG minimization of NVT snapshot) ══════════
print "### Phase 4: Quench minimization ###"
### Phase 4: Quench minimization ###

variable       z_top_after_nvt  equal  bound(free_atoms,zmax)
print "  z top BEFORE quench: ${z_top_after_nvt} Ang"
  z top BEFORE quench: 36.215462106673 Ang

dump           quench_traj  free_atoms  custom  1000  /projects/westgroup/akinyemi.az/mace_lammps/MHI_Nickel/calculation/slabs/phase2_relax/relaxed_slab_phase4_quench_traj.lammpstrj  id type x y z
dump_modify    quench_traj  sort id

minimize       0.0  1e-06  10000  100000
WARNING: Fix MINIMIZE/kk not (yet) compatible with Kokkos sorting on device (src/KOKKOS/atom_kokkos.cpp:219)
WARNING: Fix with atom-based arrays not (yet) compatible with Kokkos sorting on device, switching to legacy host sorting (src/KOKKOS/atom_kokkos.cpp:225)
Per MPI rank memory allocation (min/avg/max) = 78.05 | 78.05 | 78.05 Mbytes
   Step          Time           Temp          PotEng         KinEng         Press            Lx             Ly             Lz      
    110553   55.553         290.14971     -2253.9631      8.9636455     -11429.396      12.631872      15.158246      52.690537    
    110940   55.7465        290.14971     -2262.9523      8.9636455     -12643.548      12.631872      15.158246      52.690537    
Loop time of 25.4222 on 1 procs for 387 steps with 360 atoms

98.6% CPU use with 1 MPI tasks x 1 OpenMP threads

Minimization stats:
  Stopping criterion = force tolerance
  Energy initial, next-to-last, final = 
     -2253.96310998003  -2262.95229175812  -2262.95229175812
  Force two-norm initial, final = 12.608747 9.8663168e-07
  Force max component initial, final = 1.6321105 2.9676799e-07
  Final line search alpha, max atom move = 1 2.9676799e-07
  Iterations, force evaluations = 387 773

MPI task timing breakdown:
Section |  min time  |  avg time  |  max time  |%varavg| %total
---------------------------------------------------------------
Pair    | 25.253     | 25.253     | 25.253     |   0.0 | 99.33
Neigh   | 0.00057202 | 0.00057202 | 0.00057202 |   0.0 |  0.00
Comm    | 0.02108    | 0.02108    | 0.02108    |   0.0 |  0.08
Output  | 0          | 0          | 0          |   0.0 |  0.00
Modify  | 0.01866    | 0.01866    | 0.01866    |   0.0 |  0.07
Other   |            | 0.1293     |            |       |  0.51

Nlocal:            360 ave         360 max         360 min
Histogram: 1 0 0 0 0 0 0 0 0 0
Nghost:           1323 ave        1323 max        1323 min
Histogram: 1 0 0 0 0 0 0 0 0 0
Neighs:              0 ave           0 max           0 min
Histogram: 1 0 0 0 0 0 0 0 0 0
FullNghs:        56772 ave       56772 max       56772 min
Histogram: 1 0 0 0 0 0 0 0 0 0

Total # of neighbors = 56772
Ave neighs/atom = 157.7
Neighbor list builds = 1
Dangerous builds = 0

undump         quench_traj
print "### Phase 4 complete ###"
### Phase 4 complete ###

# ═══ Results ═════════════════════════════════════════════════════
variable       z_top_final   equal  bound(free_atoms,zmax)
variable       pe_final_val  equal  pe

print "RELAXATION_RESULTS_START"
RELAXATION_RESULTS_START
print "  z_top_before_Ang       : ${z_top_before}"
  z_top_before_Ang       : 36.1231969888847
print "  z_top_after_min_Ang    : ${z_top_after_min}"
  z_top_after_min_Ang    : 36.1231969888847
print "  surface_contraction    : ${dz_min}"
  surface_contraction    : 0
print "  z_top_after_nvt_Ang    : ${z_top_after_nvt}"
  z_top_after_nvt_Ang    : 36.1231969888847
print "  z_top_after_quench_Ang : ${z_top_final}"
  z_top_after_quench_Ang : 36.1231969888847
print "  pe_final_eV            : ${pe_final_val}"
  pe_final_eV            : -2262.95229175812
print "RELAXATION_RESULTS_END"
RELAXATION_RESULTS_END

unfix          freeze
write_restart  /projects/westgroup/akinyemi.az/mace_lammps/MHI_Nickel/calculation/slabs/phase2_relax/relaxed_slab_phase4_quench.restart
System init for write_restart ...
write_data     /projects/westgroup/akinyemi.az/mace_lammps/MHI_Nickel/calculation/slabs/phase2_relax/relaxed_slab.lammps
System init for write_data ...
print "Relaxed slab written: /projects/westgroup/akinyemi.az/mace_lammps/MHI_Nickel/calculation/slabs/phase2_relax/relaxed_slab.lammps"
Relaxed slab written: /projects/westgroup/akinyemi.az/mace_lammps/MHI_Nickel/calculation/slabs/phase2_relax/relaxed_slab.lammps
Total wall time: 1:02:57
