LAMMPS data file via write_data, version 11 Feb 2026, timestep = 140, units = metal

362 atoms
8 atom types

0 12.447907776 xlo xhi
0 12.9362452296 ylo yhi
0 52.3600831054 zlo zhi

Masses

1 26.9815
2 10.811
3 12.011
4 51.9961
5 55.845
6 95.95999999999999
7 58.6934
8 1.008

Atoms # atomic/kk

1 7 1.1454887647 1.4119103196 14.1727134823 0 0 0
2 7 3.6091798862 1.0775950399 14.6663881768 0 0 0
3 5 6.0772850531 0.954497258 14.908653887 0 0 0
9 7 7.3911650039 3.162946519 14.9172264638 0 0 0
5 7 11.0504923559 1.2606576958 14.598406425 0 0 0
6 7 12.3725660878 3.463623031 14.8187348856 -1 0 0
10 7 9.9138053275 3.3980768202 14.7771477152 0 0 0
16 4 0.4701376227 7.820166877 14.7956783455 0 0 0
20 7 10.446209215 7.6773853607 14.1808203286 0 0 0
26 7 0.1288663036 12.2121391051 14.9065503328 0 0 0
27 7 2.4831127889 11.815928569 14.4599737125 0 0 0
23 7 6.9223598339 9.0132799281 14.7752783775 0 0 0
28 7 4.9604433454 11.7947072893 14.6033267484 0 0 0
29 6 7.4882084661 11.5001811281 14.9172801882 0 0 0
24 7 9.2120310339 9.7459848435 14.5383087074 0 0 0
25 7 11.7635949967 9.8821998282 14.786977583 0 0 0
30 7 10.0625190034 11.9528272794 14.7579148329 0 0 0
7 7 2.4283629065 3.2822450627 14.9881346894 0 0 0
31 6 0.1328031287 1.5743575848 16.5416308897 0 0 0
32 7 2.6055093131 1.6927909964 16.9116860087 0 0 0
36 7 1.2202560891 3.8636882475 17.0259254174 0 0 0
37 7 3.7110784212 3.8448338925 17.0531784654 0 0 0
56 2 1.914705669 0.32836720239999906 15.6053723877 0 1 0
8 7 4.9294553752 3.1348423061 15.0068982697 0 0 0
33 7 4.9862005742 1.67252633 16.9510996016 0 0 0
34 7 7.4108517445 1.7767126087 16.9761183371 0 0 0
38 5 6.1794154888 3.8675942272 16.9851841422 0 0 0
4 6 8.6413267943 1.0042858327 14.9969790163 0 0 0
35 7 9.9861892678 1.6700282838 16.9400599926 0 0 0
39 7 8.7314378433 3.8703950509 16.8582664891 0 0 0
40 7 11.1912731091 3.8144464499 16.9966305862 0 0 0
11 7 1.2355940608 5.5026431298 15.0767186508 0 0 0
12 7 3.7240530163 5.3238748181 15.0875103273 0 0 0
17 7 2.6535920405 7.5027748451 15.1497942055 0 0 0
42 7 2.4545341247 6.1351681199 17.1375401145 0 0 0
47 7 3.887313657 8.205412347 17.059486297 0 0 0
13 7 6.1794836242 5.3131655815 15.0304414802 0 0 0
18 7 5.0805180546 7.4864993095 15.0647231601 0 0 0
19 2 7.0605303707 7.0266184404 15.385622426 0 0 0
43 7 4.9533942811 5.9705257778 17.0908342653 0 0 0
44 7 7.4777944783 5.9481975345 17.0840538523 0 0 0
48 7 6.3474873574 8.062655935 17.0457573992 0 0 0
14 7 8.7049321287 5.6662899182 14.9617322912 0 0 0
15 6 11.1813378817 5.612124041 15.1809815429 0 0 0
41 7 12.442892639199998 6.0058690444 17.2227572666 -1 0 0
45 7 9.9241882319 6.0462121458 17.2492146194 0 0 0
49 7 8.7173557277 7.9296122675 16.0657435651 0 0 0
50 7 11.1861950752 7.998616419 16.4498688817 0 0 0
85 6 9.7882876899 8.4810320373 18.5368136299 0 0 0
21 2 1.1661812644 10.4860239746 15.2089673103 0 0 0
22 7 2.9706173798 9.8726452768 15.6411650762 0 0 0
46 7 0.795414954 9.3748925792 16.8709079261 0 0 0
52 7 1.3511135545 11.8722759487 16.9851012455 0 0 0
57 7 3.7546244599 12.4443607337 16.6057727813 0 0 0
87 1 3.665729271 10.7232420717 18.2616407096 0 0 0
53 7 5.3366454137 10.1296584158 16.3233309466 0 0 0
54 7 7.7343649026 10.0615025715 16.9428639453 0 0 0
58 6 6.3203117768 12.3744197155 16.9509109783 0 0 0
51 3 11.5204929953 9.3779108621 17.6583861976 -1 0 0
55 7 10.1860634909 10.2836276937 16.6776516331 0 0 0
59 7 8.8374627373 12.3887068049 16.9581011774 0 0 0
60 7 11.2436560404 12.4747099952 16.8789518155 0 0 0
61 6 0.0485164334 0.0063735538 18.9909010428 0 0 0
66 6 1.3937868998 2.1735075333 19.0495514763 0 0 0
67 5 3.8318307737 2.1774089647 19.073494443 0 0 0
91 4 1.3617531422 0.7566149023 21.2961667613 0 0 0
92 7 3.7539852971 0.7319595843 21.0512741759 0 0 0
96 7 0.0828491417 2.8046390237 21.1835039588 0 0 0
97 7 2.5934658034 2.8574404178 21.1953671164 0 0 0
63 5 4.957520038 0.0606560815 18.9577108038 0 0 0
64 7 7.4424202569 0.0898428093 19.0972319865 0 0 0
68 7 6.1956863184 2.1665541982 19.0760401558 0 0 0
74 6 7.5025658392 4.2930488092 19.0506011985 0 0 0
93 7 6.260566516 0.7271507652 21.1694380599 0 0 0
98 7 5.0264664892 2.8814125382 21.1495579901 0 0 0
99 5 7.4800701229 2.8227539453 21.1651173647 0 0 0
65 7 10.0025726809 0.0879005866 19.0920525763 0 0 0
69 7 8.7393044619 2.1616497846 18.9913278452 0 0 0
70 7 11.2878592715 2.2458345733 18.9500729362 0 0 0
94 7 8.7148037681 0.7211924515 21.2320027073 0 0 0
95 7 11.3053180847 0.678084637 21.1954767436 0 0 0
100 6 10.0317133433 2.7922061032 21.0509099319 0 0 0
72 7 2.4845898017 4.3965760651 19.1030476938 0 0 0
76 7 1.2008790266 6.4422873601 19.256068769 0 0 0
77 7 3.784702203 6.5149421218 19.161150493 0 0 0
82 6 2.3595915143 8.496655588 18.9114509164 0 0 0
101 7 1.2051488201 4.9939772703 21.2554937471 0 0 0
102 6 3.7305436427 5.0501339338 21.2257439367 0 0 0
107 7 2.4692736667 7.1804618195 21.2286489863 0 0 0
73 7 4.9767258102 4.3240944737 19.083129246 0 0 0
78 7 6.1972840932 6.5267860971 19.1358692558 0 0 0
103 7 6.2759618479 5.0547685341 21.1719339889 0 0 0
108 7 5.0124393069 7.2362995053 21.2227761916 0 0 0
109 7 7.4200857774 7.256279911 21.2610126297 0 0 0
71 1 12.384381269299999 4.3858072042 19.1822707577 -1 0 0
75 5 9.909486263 4.3130637524 19.0294843997 0 0 0
79 7 8.6263389279 6.4797195525 19.3192167185 0 0 0
80 7 11.1143243567 6.4282026878 19.3541503896 0 0 0
81 4 12.3434377247 8.4805640427 19.1966659005 -1 0 0
104 7 8.7416108042 5.0308018458 21.2396183528 0 0 0
105 3 10.084814452436872 4.37954927671009 22.284787635824483 0 0 0
106 7 12.4360138025 7.1044785977 21.3119334107 -1 0 0
110 7 9.8910938037 7.1736872078 21.2981339562 0 0 0
62 7 2.588251935 12.8619142834 19.0342742082 0 -1 0
86 7 1.2824485691 10.6979241478 19.1574392561 0 0 0
111 7 1.1803968843 9.297246223 21.1920510117 0 0 0
112 6 3.7023652841 9.3634289463 21.1390806223 0 0 0
116 1 0.037739456 11.4942994481 21.2937056893 0 0 0
117 7 2.4711494649 11.5360476797 21.1412532948 0 0 0
83 7 4.9469767378 8.7406771511 19.0793504621 0 0 0
84 7 7.3982270593 8.6474070803 19.0815809353 0 0 0
88 7 6.1632427861 10.8089778804 18.925915656 0 0 0
113 7 6.2147244044 9.4168985357 21.0311556163 0 0 0
118 7 4.964692632 11.5483935687 21.0384035582 0 0 0
119 4 7.4002762741 11.5438757954 21.0705972545 0 0 0
89 6 8.7320837203 10.8577564258 19.0343149764 0 0 0
90 4 11.272982912 10.8286089096 18.9346029402 0 0 0
114 7 8.7004877829 9.3236936667 20.9887083209 0 0 0
115 6 11.1097657727 9.2595762715 21.1715958888 0 0 0
120 7 9.9866369332 11.5240848583 21.1780515316 0 0 0
121 7 0.07809183081391133 1.381400341716657 23.30958604842938 0 0 0
122 7 2.5695673043001026 1.39323750634122 23.328953008881093 0 0 0
126 6 1.349083014197738 3.576076078364365 23.265473725230166 0 0 0
127 7 3.8447400506054707 3.5796193871752164 23.36125150399338 0 0 0
156 1 1.4736092823503308 2.119857129746473 25.51447537389084 0 0 0
157 7 3.9600361575979575 2.125919399624895 25.443387971785917 0 0 0
162 7 2.5928345160810897 4.251954645076562 25.427442806423098 0 0 0
123 7 4.986667941813632 1.4181933978597654 23.16196042508371 0 0 0
124 7 7.387991112347347 1.4891594705444613 23.486962917123385 0 0 0
128 7 6.297606633804747 3.653087247255266 23.183133815343997 0 0 0
153 7 5.191321522971261 0.06051595922133772 25.292680442155433 0 0 0
158 2 5.769803839342387 2.4464146115520067 24.628654341723536 0 0 0
163 7 5.111931161709588 4.2327176954713845 25.42123756328955 0 0 0
164 5 7.470816167974286 4.049443211437423 25.360326349088016 0 0 0
125 7 10.037049595172824 1.4155524041380494 23.354612426455578 0 0 0
129 7 8.74525541346226 3.5341086697369715 23.347665367864945 0 0 0
130 4 11.360685765508107 3.604488043768537 23.402498021551885 0 0 0
155 4 10.113274496071696 0.04920865730838632 25.557939467551705 0 0 0
159 7 8.863319853253245 2.0860730789357342 25.44812109459429 0 0 0
160 7 11.394522309810512 2.1421910138121714 25.42099780305048 0 0 0
165 7 10.058954375334839 4.204335593332041 25.413107837937567 0 0 0
131 7 0.06431687260998345 5.758456898517063 23.4036804416105 0 0 0
132 7 2.5361839177379437 5.786541641229905 23.359885773526766 0 0 0
136 7 1.2964323497570611 7.899966577777682 23.304137430573498 0 0 0
137 7 3.7701655941002095 7.967569653340661 23.27779137115832 0 0 0
161 4 0.10236278246438558 4.327243185216295 25.469136814053044 0 0 0
166 7 1.3310130213204032 6.401286185406342 25.429678084451645 0 0 0
167 7 3.8014202695996535 6.424865116229639 25.442693576400707 0 0 0
171 6 0.10228141758608403 8.599640759553855 25.42895556131777 0 0 0
172 7 2.615743010871574 8.59495358204477 25.375108641319898 0 0 0
133 6 5.058578725446215 5.845654714982971 23.38731457821111 0 0 0
134 7 7.552700837440101 5.764605053744422 23.315043562258605 0 0 0
138 7 6.30351612389348 7.982911162001281 23.341057676370113 0 0 0
168 7 6.358427546470622 6.38136571235722 25.43383585350141 0 0 0
173 7 5.0976404621208244 8.539859779306967 25.33230331912115 0 0 0
135 7 10.057269114108179 5.811092063939012 23.388529298891015 0 0 0
139 4 8.686977645426907 7.927916561263152 23.244472159238317 0 0 0
140 4 11.274712975100398 7.875665390974516 23.317978542824108 0 0 0
169 7 8.768537231431589 6.315998647514527 25.384865996347777 0 0 0
170 7 11.282179163732255 6.393381970235269 25.449326474589068 0 0 0
175 6 9.877346834737386 8.55182656543948 25.524723356974935 0 0 0
141 7 0.01264445088197392 10.053162793191555 23.343098798522636 0 0 0
142 7 2.488930208152063 10.091719103124067 23.254167287816472 0 0 0
146 7 1.2951187804482258 12.220821976147402 23.349917662744772 0 0 0
147 7 3.799316745506869 12.230044042926652 23.17977781189552 0 0 0
151 4 0.08521877738482153 12.860558018970554 25.41446134169144 0 -1 0
152 7 2.6475988723493447 12.929985785292233 25.372716922418828 0 -1 0
176 7 1.3348012175048105 10.784533724455866 25.43025311477802 0 0 0
177 6 3.872366473729253 10.802357298433495 25.273164943705424 0 0 0
143 7 5.047689691512387 10.090907848956425 23.181003724096357 0 0 0
144 7 7.498001901234008 10.074911313056472 22.920027815244833 0 0 0
148 4 6.205366717017771 12.256100835262684 23.185338067934186 0 0 0
154 7 7.59394015680086 12.927545556981045 25.4761174401886 0 -1 0
178 6 6.609509126634221 10.528235122432356 25.220894539013344 0 0 0
145 7 9.988000632599496 10.059544372251096 23.316199787399558 0 0 0
149 6 8.700499772629174 12.25803965965127 23.330528157989068 0 0 0
150 7 11.23947990593275 12.203437859110705 23.40532305937539 0 0 0
174 3 8.405719044108887 9.494142067485095 24.424284106907475 0 0 0
179 5 8.990442274629219 10.907027002459927 25.584228531684847 0 0 0
180 5 11.328191067769072 10.852032913957961 25.50567084067606 0 0 0
181 7 1.3841167858250927 0.6520295133381842 27.49569198794232 0 0 0
182 7 3.8713988113334152 0.6881652810914274 27.435656455789434 0 0 0
186 7 0.16569620707370358 2.8439707623606734 27.495641851876464 0 0 0
187 7 2.6554028399228997 2.839215341269813 27.56786474893739 0 0 0
211 7 0.2056436750048886 1.4320138035118413 29.592987342779608 0 0 0
212 7 2.709433247765814 1.3465662596190067 29.579867941370463 0 0 0
216 7 1.4065905646519958 3.541902019308413 29.59038394245447 0 0 0
217 4 3.8203569591689366 3.559667201394453 29.602094273577794 0 0 0
183 7 6.304900217283791 0.7000286180763888 27.574100319712713 0 0 0
188 7 5.07826381712044 2.8590485127043253 27.57907317977434 0 0 0
189 7 7.589919826347991 2.778424627643199 27.46659199375683 0 0 0
213 5 5.13136714972143 1.4122708441180893 29.604011193745258 0 0 0
214 7 7.608023437892028 1.3406140196219973 29.596893722759738 0 0 0
218 7 6.358791036322557 3.5224120208598806 29.549026592358707 0 0 0
184 7 8.88067742004679 0.7040454776513496 27.57124917366939 0 0 0
185 4 11.378192036860828 0.708285277021855 27.542078592224566 0 0 0
190 7 10.139726254208865 2.8173509494452174 27.49477731538316 0 0 0
215 7 10.12033881059049 1.3900057014547036 29.637194690286655 0 0 0
219 7 8.833786189281357 3.497452151266193 29.53593120974432 0 0 0
220 7 11.36444061141766 3.5452484904513266 29.528271689372197 0 0 0
191 7 1.3860560539051936 4.992730349189731 27.474183525113673 0 0 0
192 7 3.828974901868658 4.976099714934536 27.484768570062094 0 0 0
196 7 0.1311392962533677 7.143270612850544 27.500846294552552 0 0 0
197 7 2.574135482463204 7.17947716472494 27.476627028799633 0 0 0
221 7 0.1155488868655447 5.713407954658452 29.57454641268298 0 0 0
222 7 2.5865982144896433 5.71559167565921 29.552574571944053 0 0 0
226 7 1.3603196515397933 7.890565962316436 29.553183549502982 0 0 0
227 7 3.8567647082514545 7.90101743688376 29.469706982017197 0 0 0
193 7 6.364463712552462 4.960539829797687 27.416974956982777 0 0 0
198 7 5.097260103925735 7.159343255839197 27.413971391702713 0 0 0
199 7 7.615812988524981 7.1729488051701695 27.4528816849588 0 0 0
223 6 5.1486181114360425 5.707254711015881 29.49351879679935 0 0 0
224 7 7.638833219621993 5.722582352329909 29.587797851527665 0 0 0
228 7 6.389950263140022 7.898273400212488 29.496721000608655 0 0 0
194 6 8.842313948147929 4.981854106023509 27.497997035646545 0 0 0
195 7 11.355203125429643 4.979695317542358 27.513017616870606 0 0 0
200 7 10.118176755279508 7.142366336971833 27.544797103516384 0 0 0
225 7 10.095313904465119 5.725243049537609 29.61205562735496 0 0 0
229 7 8.840946392129387 7.86663678650497 29.532282935477483 0 0 0
230 7 11.364106681600886 7.917278221539866 29.527729631390283 0 0 0
201 5 1.3738152385409708 9.311620225202804 27.514927230822817 0 0 0
202 7 3.8673522775982017 9.307591221426403 27.37611183677607 0 0 0
206 4 0.18171030601697202 11.46378154442643 27.525264018587965 0 0 0
207 7 2.605416475700223 11.444092241858579 27.43765092620067 0 0 0
231 7 0.160767823010354 10.066331050140668 29.56892647938906 0 0 0
232 7 2.628947828138528 10.014524987357012 29.42650301633533 0 0 0
236 7 1.4668023584334589 12.171535778008021 29.554311502807323 0 0 0
203 7 6.3700169974103815 9.270553987600499 27.389698844725636 0 0 0
208 7 5.133078088393176 11.486153153508955 27.320918960351538 0 0 0
209 6 7.5770269676181075 11.509163300694723 27.643449495717945 0 0 0
233 7 5.145882972938339 10.040689317277389 29.32465264173993 0 0 0
234 7 7.596860906038724 10.073070851402873 29.66952859042753 0 0 0
238 7 6.206829653815841 12.221850299285489 29.683898188270128 0 0 0
204 7 8.833456940753123 9.35275435026225 27.628605836014884 0 0 0
205 7 11.339699314394066 9.401820965214156 27.548971275754962 0 0 0
210 7 10.14593592740617 11.539149750249312 27.587899294460893 0 0 0
235 7 10.080841511665472 10.165160395652084 29.605271528304282 0 0 0
239 4 8.873826935347171 12.24009403625248 29.7352942693848 0 0 0
240 7 11.391462760233741 12.25441638078518 29.56455111371868 0 0 0
237 3 4.031595234155514 0.27459487847044994 30.548696707569217 0 1 0
241 7 0.1959492688949349 0.0915220720215438 31.639205112462648 0 0 0
242 7 2.5659409404640163 0.13505588949865105 31.735207987505838 0 0 0
246 4 1.3422915456537643 2.235905869294534 31.661330201559608 0 0 0
247 7 3.875855659658815 2.147729668878297 31.642969116884906 0 0 0
248 7 6.402142957397876 2.1430224240456717 31.65339278326627 0 0 0
253 7 5.1080403949774205 4.3059816838007094 31.628478461160316 0 0 0
254 7 7.615767139280172 4.303285790516962 31.599185330836995 0 0 0
249 7 8.846053260283105 2.0943413889037377 31.68795544546444 0 0 0
250 7 11.379460534474113 2.1302661737927733 31.668155850356932 0 0 0
255 1 10.098768153821876 4.209358592383766 31.512776640614767 0 0 0
251 7 0.14316764173268298 4.31899215559602 31.653083285081586 0 0 0
252 7 2.6282193358495216 4.316597990397745 31.668403381869147 0 0 0
256 7 1.3251523916013348 6.497201939223799 31.635782923233254 0 0 0
257 6 3.787550138177954 6.498289549897786 31.66182223232829 0 0 0
286 7 0.08726704899005897 7.277198365535812 33.618182654705336 0 0 0
258 7 6.347238203988534 6.487831172215458 31.628754293133667 0 0 0
264 7 7.584261225207993 8.569226752534442 31.631020825597354 0 0 0
259 4 8.813710053821143 6.451561418816304 31.637956962927632 0 0 0
260 7 11.309087377660015 6.483337704440547 31.59507273400345 0 0 0
284 5 8.878831657745591 5.108631103406815 33.594811536701044 0 0 0
285 4 11.341798370750274 5.148608304232385 33.635505829990976 0 0 0
290 7 10.075658821044016 7.248975790316602 33.59928014526381 0 0 0
261 7 0.17364756952217733 8.704018899659568 31.64962200202898 0 0 0
262 7 2.6628747368450316 8.718704849585 31.531706569782372 0 0 0
266 7 1.5577358823076801 10.829076524993983 31.569922473513362 0 0 0
267 4 3.9150331772594593 11.26479902234479 30.855596798078167 0 0 0
292 7 3.9594225791441806 9.3700919999004 33.507620136654914 0 0 0
243 7 5.163940279621898 12.898052894519012 32.09560639542512 0 -1 0
244 7 7.622187107483348 12.929270655293163 31.713856613485287 0 -1 0
263 1 5.090813365304647 8.755659259620064 31.422880598607353 0 0 0
268 7 6.256597413453607 10.755457166765487 31.586269501487454 0 0 0
293 4 6.443727208140763 9.312934213410001 33.65615368645196 0 0 0
245 7 10.107533432533323 12.878714702777566 31.870375634650003 0 -1 0
265 6 10.097189443922337 8.67421708047704 31.547623589294925 0 0 0
269 7 8.771586169304303 10.794384471426016 31.754919677962093 0 0 0
270 7 11.424824009402688 10.89993355789991 31.615127363194937 0 0 0
296 3 11.070751781116892 11.823762436561337 33.33360280885136 -1 0 0
271 7 1.470710748023874 0.8958573224567379 33.770882633313164 0 0 0
272 7 3.9165358912448665 0.951572386879536 33.91437447720395 0 0 0
276 7 0.17422494442726244 2.9861730525737284 33.732966429048254 0 0 0
277 7 2.638882742419593 3.0747023623321015 33.78923450836811 0 0 0
301 7 0.1852184546909958 1.550578850080679 35.75284751932878 0 0 0
302 7 2.609112912744404 1.6622578006553688 35.848781689213745 0 0 0
306 4 1.4219232601412788 3.8297781603027166 35.95257370773985 0 0 0
307 7 3.993040240985502 3.7264458631586503 35.82775677062427 0 0 0
273 7 6.457920135657148 0.9656219570089717 33.89970977711756 0 0 0
278 1 5.2130446301252915 2.9933991723274778 33.7257929000311 0 0 0
279 7 7.726663023590677 3.0326462257109856 33.737151357038485 0 0 0
303 7 5.241352087513731 1.6593493661067409 35.924054082800644 0 0 0
304 4 7.752082233968418 1.6290355379010772 35.916318670592354 0 0 0
308 7 6.530299614187365 3.7049711454570997 35.80491130089632 0 0 0
274 7 8.834525008552818 0.8914695897623509 33.83806514158907 0 0 0
275 4 11.431643180988347 0.7849498821413102 33.72501166015764 0 0 0
280 7 10.202257608969072 2.9861050684558434 33.7235751144874 0 0 0
305 7 10.214410582478186 1.5387157461948724 35.738192042745084 0 0 0
309 7 9.023300468924074 3.65997912110683 35.795723185739554 0 0 0
310 4 11.608354975939303 3.9484401806737357 35.847544925343875 0 0 0
281 7 1.3194242485480132 5.18028963210347 33.86727925490509 0 0 0
282 4 3.8408355447535762 5.133855853659168 33.768244338750364 0 0 0
287 7 2.6296178253223554 7.284963941316511 33.743003117825 0 0 0
312 7 2.7354452297090295 5.792345283129218 35.791581997652784 0 0 0
316 7 1.211870155772019 7.598976356557411 35.778438867945326 0 0 0
317 7 3.9291284366159207 8.060863247261898 35.73450871918667 0 0 0
283 7 6.376731057602656 5.093788788681994 33.676354507640305 0 0 0
288 7 5.180743022163529 7.265367785904179 33.67100508632411 0 0 0
289 7 7.624348763468552 7.179018659423219 33.733598709617844 0 0 0
313 7 5.269716231784365 5.913151744807856 35.72418635376283 0 0 0
314 7 7.7201722036975475 5.818155149384424 35.77415776083131 0 0 0
318 4 6.54236497615039 8.106514314536414 35.82274715922336 0 0 0
311 2 12.366931014183084 6.001655892743849 35.32221364112227 -1 0 0
315 7 10.131519829286466 5.796473694145056 35.58545211806691 0 0 0
319 7 8.946704107880372 7.961274596312541 35.83010823795038 0 0 0
320 7 11.343193653751753 7.924960847485241 35.586398719853314 0 0 0
350 7 11.67873667939598 6.278155641009174 37.3037725332203 0 0 0
355 3 10.441860745367155 7.887283923928805 37.272152025068934 0 0 0
291 7 1.4640381930836155 9.42066733457536 33.72054371887732 0 0 0
297 6 3.0207875285896764 11.57096664113548 33.664832171104194 0 0 0
321 6 0.21109100879447898 10.051562756245417 35.89581135325224 0 0 0
322 7 2.6977441506623165 10.196272195860242 35.74917808535278 0 0 0
326 7 0.5036673496252645 11.645210065021784 33.67734578792132 0 0 0
327 6 3.9123724617568025 12.50620066870172 36.097669861716795 0 0 0
356 4 1.390609926786534 12.35766814298772 35.84518261908252 0 0 0
298 2 5.2004485048981275 12.283209013870659 34.2074436873501 0 0 0
299 7 6.99224302803144 11.572731293381823 33.685833294288535 0 0 0
323 6 5.230791355662001 10.243336408159495 35.58227013595717 0 0 0
324 7 7.901675415611356 10.345466135995444 35.70583431130965 0 0 0
328 7 6.468845016641855 12.518063611508818 35.92581190738584 0 0 0
294 7 8.763123852963993 9.280844504631608 33.69728678972626 0 0 0
295 6 11.259721974129539 9.692759626349636 33.75846124090709 0 0 0
300 7 9.381288645167094 11.53931875045217 34.17351874464261 0 0 0
325 7 10.240048689353031 9.830051525209997 37.02155377255949 0 0 0
329 3 9.526905563412772 11.40368445006475 36.197169453027826 0 0 0
330 4 11.266313614428775 12.065225457116657 35.58658108079945 0 0 0
332 7 2.479500569108688 0.10310144769721989 38.02918101324681 0 0 0
336 7 1.3356277364768012 2.192023716775159 37.826982633112436 0 0 0
337 7 3.869096931266259 2.19833166076686 37.85197745698469 0 0 0
341 7 0.21989973405979507 4.264203769763891 38.06113560625826 0 0 0
342 7 2.722548934185773 4.30107437498931 37.918472316516855 0 0 0
333 7 5.199170151168407 0.1617960138483725 38.113758749640084 0 0 0
334 7 7.637641721075167 0.08937005692660155 38.072243440443906 0 0 0
338 7 6.499315202429664 2.2530370917780744 37.887832292981585 0 0 0
339 7 8.99482218547343 2.175859583210811 37.90114732492051 0 0 0
340 7 11.377091964796985 2.2164018218673265 37.716777101330344 0 0 0
361 8 9.068831927642625 0.7426157979811188 38.8376799613116 0 0 0
346 7 1.5195330525560045 6.420570805217404 37.99071143247234 0 0 0
347 6 3.986671801749941 6.479830674987006 37.765863810753494 0 0 0
343 7 5.2746575892224135 4.379503988912999 37.858980115056625 0 0 0
344 7 7.825864193109806 4.419355956976945 37.89548604679642 0 0 0
348 6 6.644899518329583 6.695154922466264 37.861605951560314 0 0 0
362 8 6.49827005841945 5.062118513742337 38.851563028958815 0 0 0
345 4 10.222732569837778 4.3401159373323415 37.79161624849224 0 0 0
349 7 9.229978012103855 6.621083016126566 37.85811828950702 0 0 0
351 7 12.248671830614015 8.565605417816666 37.83501967913381 -1 0 0
352 6 2.4784010461686634 8.66946161010593 37.675271668142464 0 0 0
357 7 3.831136403173143 10.814107099700433 37.94372939928105 0 0 0
360 7 1.374334665992574 10.90760853803812 37.880486835153526 1 0 0
353 7 5.120730851377611 8.713510510703156 37.82658782997116 0 0 0
354 7 7.945072323642598 8.946323830972705 37.81199887673725 0 0 0
358 6 6.417548085781804 10.860938470832181 37.80735652115455 0 0 0
331 7 12.396393701590458 12.909212841050786 37.633112456062804 -1 -1 0
335 5 9.893354376310901 12.868120293925504 37.442336242785366 0 -1 0
359 2 8.575671536202583 11.155168626362968 37.40216643635732 0 0 0

Velocities

1 0 0 0
2 0 0 0
3 0 0 0
9 0 0 0
5 0 0 0
6 0 0 0
10 0 0 0
16 0 0 0
20 0 0 0
26 0 0 0
27 0 0 0
23 0 0 0
28 0 0 0
29 0 0 0
24 0 0 0
25 0 0 0
30 0 0 0
7 0 0 0
31 0 0 0
32 0 0 0
36 0 0 0
37 0 0 0
56 0 0 0
8 0 0 0
33 0 0 0
34 0 0 0
38 0 0 0
4 0 0 0
35 0 0 0
39 0 0 0
40 0 0 0
11 0 0 0
12 0 0 0
17 0 0 0
42 0 0 0
47 0 0 0
13 0 0 0
18 0 0 0
19 0 0 0
43 0 0 0
44 0 0 0
48 0 0 0
14 0 0 0
15 0 0 0
41 0 0 0
45 0 0 0
49 0 0 0
50 0 0 0
85 0 0 0
21 0 0 0
22 0 0 0
46 0 0 0
52 0 0 0
57 0 0 0
87 0 0 0
53 0 0 0
54 0 0 0
58 0 0 0
51 0 0 0
55 0 0 0
59 0 0 0
60 0 0 0
61 0 0 0
66 0 0 0
67 0 0 0
91 0 0 0
92 0 0 0
96 0 0 0
97 0 0 0
63 0 0 0
64 0 0 0
68 0 0 0
74 0 0 0
93 0 0 0
98 0 0 0
99 0 0 0
65 0 0 0
69 0 0 0
70 0 0 0
94 0 0 0
95 0 0 0
100 0 0 0
72 0 0 0
76 0 0 0
77 0 0 0
82 0 0 0
101 0 0 0
102 0 0 0
107 0 0 0
73 0 0 0
78 0 0 0
103 0 0 0
108 0 0 0
109 0 0 0
71 0 0 0
75 0 0 0
79 0 0 0
80 0 0 0
81 0 0 0
104 0 0 0
105 0 0 0
106 0 0 0
110 0 0 0
62 0 0 0
86 0 0 0
111 0 0 0
112 0 0 0
116 0 0 0
117 0 0 0
83 0 0 0
84 0 0 0
88 0 0 0
113 0 0 0
118 0 0 0
119 0 0 0
89 0 0 0
90 0 0 0
114 0 0 0
115 0 0 0
120 0 0 0
121 0 0 0
122 0 0 0
126 0 0 0
127 0 0 0
156 0 0 0
157 0 0 0
162 0 0 0
123 0 0 0
124 0 0 0
128 0 0 0
153 0 0 0
158 0 0 0
163 0 0 0
164 0 0 0
125 0 0 0
129 0 0 0
130 0 0 0
155 0 0 0
159 0 0 0
160 0 0 0
165 0 0 0
131 0 0 0
132 0 0 0
136 0 0 0
137 0 0 0
161 0 0 0
166 0 0 0
167 0 0 0
171 0 0 0
172 0 0 0
133 0 0 0
134 0 0 0
138 0 0 0
168 0 0 0
173 0 0 0
135 0 0 0
139 0 0 0
140 0 0 0
169 0 0 0
170 0 0 0
175 0 0 0
141 0 0 0
142 0 0 0
146 0 0 0
147 0 0 0
151 0 0 0
152 0 0 0
176 0 0 0
177 0 0 0
143 0 0 0
144 0 0 0
148 0 0 0
154 0 0 0
178 0 0 0
145 0 0 0
149 0 0 0
150 0 0 0
174 0 0 0
179 0 0 0
180 0 0 0
181 0 0 0
182 0 0 0
186 0 0 0
187 0 0 0
211 0 0 0
212 0 0 0
216 0 0 0
217 0 0 0
183 0 0 0
188 0 0 0
189 0 0 0
213 0 0 0
214 0 0 0
218 0 0 0
184 0 0 0
185 0 0 0
190 0 0 0
215 0 0 0
219 0 0 0
220 0 0 0
191 0 0 0
192 0 0 0
196 0 0 0
197 0 0 0
221 0 0 0
222 0 0 0
226 0 0 0
227 0 0 0
193 0 0 0
198 0 0 0
199 0 0 0
223 0 0 0
224 0 0 0
228 0 0 0
194 0 0 0
195 0 0 0
200 0 0 0
225 0 0 0
229 0 0 0
230 0 0 0
201 0 0 0
202 0 0 0
206 0 0 0
207 0 0 0
231 0 0 0
232 0 0 0
236 0 0 0
203 0 0 0
208 0 0 0
209 0 0 0
233 0 0 0
234 0 0 0
238 0 0 0
204 0 0 0
205 0 0 0
210 0 0 0
235 0 0 0
239 0 0 0
240 0 0 0
237 0 0 0
241 0 0 0
242 0 0 0
246 0 0 0
247 0 0 0
248 0 0 0
253 0 0 0
254 0 0 0
249 0 0 0
250 0 0 0
255 0 0 0
251 0 0 0
252 0 0 0
256 0 0 0
257 0 0 0
286 0 0 0
258 0 0 0
264 0 0 0
259 0 0 0
260 0 0 0
284 0 0 0
285 0 0 0
290 0 0 0
261 0 0 0
262 0 0 0
266 0 0 0
267 0 0 0
292 0 0 0
243 0 0 0
244 0 0 0
263 0 0 0
268 0 0 0
293 0 0 0
245 0 0 0
265 0 0 0
269 0 0 0
270 0 0 0
296 0 0 0
271 0 0 0
272 0 0 0
276 0 0 0
277 0 0 0
301 0 0 0
302 0 0 0
306 0 0 0
307 0 0 0
273 0 0 0
278 0 0 0
279 0 0 0
303 0 0 0
304 0 0 0
308 0 0 0
274 0 0 0
275 0 0 0
280 0 0 0
305 0 0 0
309 0 0 0
310 0 0 0
281 0 0 0
282 0 0 0
287 0 0 0
312 0 0 0
316 0 0 0
317 0 0 0
283 0 0 0
288 0 0 0
289 0 0 0
313 0 0 0
314 0 0 0
318 0 0 0
311 0 0 0
315 0 0 0
319 0 0 0
320 0 0 0
350 0 0 0
355 0 0 0
291 0 0 0
297 0 0 0
321 0 0 0
322 0 0 0
326 0 0 0
327 0 0 0
356 0 0 0
298 0 0 0
299 0 0 0
323 0 0 0
324 0 0 0
328 0 0 0
294 0 0 0
295 0 0 0
300 0 0 0
325 0 0 0
329 0 0 0
330 0 0 0
332 0 0 0
336 0 0 0
337 0 0 0
341 0 0 0
342 0 0 0
333 0 0 0
334 0 0 0
338 0 0 0
339 0 0 0
340 0 0 0
361 0 0 0
346 0 0 0
347 0 0 0
343 0 0 0
344 0 0 0
348 0 0 0
362 0 0 0
345 0 0 0
349 0 0 0
351 0 0 0
352 0 0 0
357 0 0 0
360 0 0 0
353 0 0 0
354 0 0 0
358 0 0 0
331 0 0 0
335 0 0 0
359 0 0 0
