LAMMPS data file via write_data, version 11 Feb 2026, timestep = 133, units = metal

362 atoms
8 atom types

0 12.447907776 xlo xhi
0 12.9362452296 ylo yhi
0 52.3600831054 zlo zhi

Masses

1 26.9815
2 10.811
3 12.011
4 51.9961
5 55.845
6 95.95999999999999
7 58.6934
8 1.008

Atoms # atomic/kk

1 7 1.1454887647 1.4119103196 14.1727134823 0 0 0
2 7 3.6091798862 1.0775950399 14.6663881768 0 0 0
3 5 6.0772850531 0.954497258 14.908653887 0 0 0
9 7 7.3911650039 3.162946519 14.9172264638 0 0 0
5 7 11.0504923559 1.2606576958 14.598406425 0 0 0
6 7 12.3725660878 3.463623031 14.8187348856 -1 0 0
10 7 9.9138053275 3.3980768202 14.7771477152 0 0 0
16 4 0.4701376227 7.820166877 14.7956783455 0 0 0
20 7 10.446209215 7.6773853607 14.1808203286 0 0 0
26 7 0.1288663036 12.2121391051 14.9065503328 0 0 0
27 7 2.4831127889 11.815928569 14.4599737125 0 0 0
23 7 6.9223598339 9.0132799281 14.7752783775 0 0 0
28 7 4.9604433454 11.7947072893 14.6033267484 0 0 0
29 6 7.4882084661 11.5001811281 14.9172801882 0 0 0
24 7 9.2120310339 9.7459848435 14.5383087074 0 0 0
25 7 11.7635949967 9.8821998282 14.786977583 0 0 0
30 7 10.0625190034 11.9528272794 14.7579148329 0 0 0
7 7 2.4283629065 3.2822450627 14.9881346894 0 0 0
31 6 0.1328031287 1.5743575848 16.5416308897 0 0 0
32 7 2.6055093131 1.6927909964 16.9116860087 0 0 0
36 7 1.2202560891 3.8636882475 17.0259254174 0 0 0
37 7 3.7110784212 3.8448338925 17.0531784654 0 0 0
56 2 1.914705669 0.32836720239999906 15.6053723877 0 1 0
8 7 4.9294553752 3.1348423061 15.0068982697 0 0 0
33 7 4.9862005742 1.67252633 16.9510996016 0 0 0
34 7 7.4108517445 1.7767126087 16.9761183371 0 0 0
38 5 6.1794154888 3.8675942272 16.9851841422 0 0 0
4 6 8.6413267943 1.0042858327 14.9969790163 0 0 0
35 7 9.9861892678 1.6700282838 16.9400599926 0 0 0
39 7 8.7314378433 3.8703950509 16.8582664891 0 0 0
40 7 11.1912731091 3.8144464499 16.9966305862 0 0 0
11 7 1.2355940608 5.5026431298 15.0767186508 0 0 0
12 7 3.7240530163 5.3238748181 15.0875103273 0 0 0
17 7 2.6535920405 7.5027748451 15.1497942055 0 0 0
42 7 2.4545341247 6.1351681199 17.1375401145 0 0 0
47 7 3.887313657 8.205412347 17.059486297 0 0 0
13 7 6.1794836242 5.3131655815 15.0304414802 0 0 0
18 7 5.0805180546 7.4864993095 15.0647231601 0 0 0
19 2 7.0605303707 7.0266184404 15.385622426 0 0 0
43 7 4.9533942811 5.9705257778 17.0908342653 0 0 0
44 7 7.4777944783 5.9481975345 17.0840538523 0 0 0
48 7 6.3474873574 8.062655935 17.0457573992 0 0 0
14 7 8.7049321287 5.6662899182 14.9617322912 0 0 0
15 6 11.1813378817 5.612124041 15.1809815429 0 0 0
41 7 12.442892639199998 6.0058690444 17.2227572666 -1 0 0
45 7 9.9241882319 6.0462121458 17.2492146194 0 0 0
49 7 8.7173557277 7.9296122675 16.0657435651 0 0 0
50 7 11.1861950752 7.998616419 16.4498688817 0 0 0
85 6 9.7882876899 8.4810320373 18.5368136299 0 0 0
21 2 1.1661812644 10.4860239746 15.2089673103 0 0 0
22 7 2.9706173798 9.8726452768 15.6411650762 0 0 0
46 7 0.795414954 9.3748925792 16.8709079261 0 0 0
52 7 1.3511135545 11.8722759487 16.9851012455 0 0 0
57 7 3.7546244599 12.4443607337 16.6057727813 0 0 0
87 1 3.665729271 10.7232420717 18.2616407096 0 0 0
53 7 5.3366454137 10.1296584158 16.3233309466 0 0 0
54 7 7.7343649026 10.0615025715 16.9428639453 0 0 0
58 6 6.3203117768 12.3744197155 16.9509109783 0 0 0
51 3 11.5204929953 9.3779108621 17.6583861976 -1 0 0
55 7 10.1860634909 10.2836276937 16.6776516331 0 0 0
59 7 8.8374627373 12.3887068049 16.9581011774 0 0 0
60 7 11.2436560404 12.4747099952 16.8789518155 0 0 0
61 6 0.0485164334 0.0063735538 18.9909010428 0 0 0
66 6 1.3937868998 2.1735075333 19.0495514763 0 0 0
67 5 3.8318307737 2.1774089647 19.073494443 0 0 0
91 4 1.3617531422 0.7566149023 21.2961667613 0 0 0
92 7 3.7539852971 0.7319595843 21.0512741759 0 0 0
96 7 0.0828491417 2.8046390237 21.1835039588 0 0 0
97 7 2.5934658034 2.8574404178 21.1953671164 0 0 0
63 5 4.957520038 0.0606560815 18.9577108038 0 0 0
64 7 7.4424202569 0.0898428093 19.0972319865 0 0 0
68 7 6.1956863184 2.1665541982 19.0760401558 0 0 0
74 6 7.5025658392 4.2930488092 19.0506011985 0 0 0
93 7 6.260566516 0.7271507652 21.1694380599 0 0 0
98 7 5.0264664892 2.8814125382 21.1495579901 0 0 0
99 5 7.4800701229 2.8227539453 21.1651173647 0 0 0
65 7 10.0025726809 0.0879005866 19.0920525763 0 0 0
69 7 8.7393044619 2.1616497846 18.9913278452 0 0 0
70 7 11.2878592715 2.2458345733 18.9500729362 0 0 0
94 7 8.7148037681 0.7211924515 21.2320027073 0 0 0
95 7 11.3053180847 0.678084637 21.1954767436 0 0 0
100 6 10.0317133433 2.7922061032 21.0509099319 0 0 0
72 7 2.4845898017 4.3965760651 19.1030476938 0 0 0
76 7 1.2008790266 6.4422873601 19.256068769 0 0 0
77 7 3.784702203 6.5149421218 19.161150493 0 0 0
82 6 2.3595915143 8.496655588 18.9114509164 0 0 0
101 7 1.2051488201 4.9939772703 21.2554937471 0 0 0
102 6 3.7305436427 5.0501339338 21.2257439367 0 0 0
107 7 2.4692736667 7.1804618195 21.2286489863 0 0 0
73 7 4.9767258102 4.3240944737 19.083129246 0 0 0
78 7 6.1972840932 6.5267860971 19.1358692558 0 0 0
103 7 6.2759618479 5.0547685341 21.1719339889 0 0 0
108 7 5.0124393069 7.2362995053 21.2227761916 0 0 0
109 7 7.4200857774 7.256279911 21.2610126297 0 0 0
71 1 12.384381269299999 4.3858072042 19.1822707577 -1 0 0
75 5 9.909486263 4.3130637524 19.0294843997 0 0 0
79 7 8.6263389279 6.4797195525 19.3192167185 0 0 0
80 7 11.1143243567 6.4282026878 19.3541503896 0 0 0
81 4 12.3434377247 8.4805640427 19.1966659005 -1 0 0
104 7 8.7416108042 5.0308018458 21.2396183528 0 0 0
105 3 10.084985089989594 4.379594999040343 22.284666671485166 0 0 0
106 7 12.4360138025 7.1044785977 21.3119334107 -1 0 0
110 7 9.8910938037 7.1736872078 21.2981339562 0 0 0
62 7 2.588251935 12.8619142834 19.0342742082 0 -1 0
86 7 1.2824485691 10.6979241478 19.1574392561 0 0 0
111 7 1.1803968843 9.297246223 21.1920510117 0 0 0
112 6 3.7023652841 9.3634289463 21.1390806223 0 0 0
116 1 0.037739456 11.4942994481 21.2937056893 0 0 0
117 7 2.4711494649 11.5360476797 21.1412532948 0 0 0
83 7 4.9469767378 8.7406771511 19.0793504621 0 0 0
84 7 7.3982270593 8.6474070803 19.0815809353 0 0 0
88 7 6.1632427861 10.8089778804 18.925915656 0 0 0
113 7 6.2147244044 9.4168985357 21.0311556163 0 0 0
118 7 4.964692632 11.5483935687 21.0384035582 0 0 0
119 4 7.4002762741 11.5438757954 21.0705972545 0 0 0
89 6 8.7320837203 10.8577564258 19.0343149764 0 0 0
90 4 11.272982912 10.8286089096 18.9346029402 0 0 0
114 7 8.7004877829 9.3236936667 20.9887083209 0 0 0
115 6 11.1097657727 9.2595762715 21.1715958888 0 0 0
120 7 9.9866369332 11.5240848583 21.1780515316 0 0 0
121 7 0.07812546738830069 1.3811606197940371 23.309699794785637 0 0 0
122 7 2.5695316904174903 1.3928034498200732 23.32919221326403 0 0 0
126 6 1.3491805913350818 3.575799725227617 23.26565816283473 0 0 0
127 7 3.844700202171713 3.5794389080465305 23.36165256756762 0 0 0
156 1 1.473445431316279 2.118959361562576 25.514541525500533 0 0 0
157 7 3.9598239832269733 2.125225411767925 25.443556073902826 0 0 0
162 7 2.5925577974250653 4.251257119171842 25.428502514665876 0 0 0
123 7 4.986470081449358 1.417897036774621 23.16206757691404 0 0 0
124 7 7.387918259188865 1.489436444844386 23.485191291608615 0 0 0
128 7 6.29751681930263 3.6533620053090687 23.183202000120165 0 0 0
153 7 5.1904568368927455 0.059328209865429 25.292655157233586 0 0 0
158 2 5.769091752717982 2.446916714576068 24.628214353388245 0 0 0
163 7 5.111586161293069 4.232618643087148 25.42164780272671 0 0 0
164 5 7.470797038079145 4.050793839923998 25.36037441418414 0 0 0
125 7 10.037160116628433 1.4157648144260804 23.354363040518187 0 0 0
129 7 8.745205549695484 3.5344821412992107 23.347508127384966 0 0 0
130 4 11.360818919969121 3.6045662165807713 23.40246165462362 0 0 0
155 4 10.112962604188146 0.0497677674613607 25.55691034710568 0 0 0
159 7 8.862696152476698 2.0866604526510026 25.44715297057797 0 0 0
160 7 11.394417906870556 2.1421671575789647 25.420744702897057 0 0 0
165 7 10.058953537720127 4.204566228857835 25.41277637944263 0 0 0
131 7 0.06464677971073078 5.758326528303748 23.403919489913196 0 0 0
132 7 2.536179949445525 5.78626905375327 23.360385753290878 0 0 0
136 7 1.296519031190319 7.899694312961894 23.304561243641835 0 0 0
137 7 3.7700448137099514 7.967454180448871 23.27805756494565 0 0 0
161 4 0.10264444011394586 4.326939429548794 25.469475582472633 0 0 0
166 7 1.3311098727862656 6.4005251677907715 25.430961951134357 0 0 0
167 7 3.8010903822841593 6.42427306902046 25.443525434744718 0 0 0
171 6 0.10243536718378096 8.599036446616848 25.429657684257204 0 0 0
172 7 2.615498620566491 8.594008651992752 25.375985223655576 0 0 0
133 6 5.058352325968764 5.845722134931002 23.3875286578701 0 0 0
134 7 7.5525189140941515 5.76477179084159 23.31496145595484 0 0 0
138 7 6.303475765978321 7.983045657879241 23.341497261481887 0 0 0
168 7 6.357986573004466 6.38109326260298 25.434067649574637 0 0 0
173 7 5.097168969641657 8.539195068299911 25.332863148440126 0 0 0
135 7 10.057492895867318 5.811215975409436 23.38827555270718 0 0 0
139 4 8.686940908176636 7.927635450749354 23.243902415011704 0 0 0
140 4 11.27520014893469 7.8755723577423575 23.317689416400963 0 0 0
169 7 8.76856392922113 6.316413634916866 25.384283923247033 0 0 0
170 7 11.282415454288943 6.393112445367779 25.449094369063307 0 0 0
175 6 9.878321667321709 8.552016437920313 25.523262411511155 0 0 0
141 7 0.012714635721256584 10.052874414166192 23.34353542965541 0 0 0
142 7 2.488758793857504 10.091423472866065 23.254485773184776 0 0 0
146 7 1.294923899023562 12.220476569896112 23.350307866117202 0 0 0
147 7 3.7991135033116405 12.22955473868794 23.18012420565734 0 0 0
151 4 0.084868098052939 12.859920847665776 25.415093435808938 0 -1 0
152 7 2.647293225614071 12.929100451769006 25.37332251233024 0 -1 0
176 7 1.334789744950638 10.78389964651932 25.43121100792835 0 0 0
177 6 3.8719257148955055 10.801288175002306 25.273815394067075 0 0 0
143 7 5.047471626310163 10.09080263705456 23.18122033319073 0 0 0
144 7 7.497945857224343 10.075084787756428 22.91977035624277 0 0 0
148 4 6.205123638251615 12.25602403158811 23.18533874996985 0 0 0
154 7 7.593273038744479 12.928227554305925 25.473560098271157 0 -1 0
178 6 6.609537149218407 10.52713177884907 25.220593659683466 0 0 0
145 7 9.987998517668126 10.059457549519916 23.315465645188855 0 0 0
149 6 8.700510192189316 12.258341541552305 23.32924495391854 0 0 0
150 7 11.239413096778655 12.203233050239943 23.40540513688937 0 0 0
174 3 8.40558801266796 9.493201837377494 24.42358430148766 0 0 0
179 5 8.990839594741008 10.907926565969055 25.581091132352814 0 0 0
180 5 11.328578732127626 10.851671386869418 25.506145508757633 0 0 0
181 7 1.3838968097348234 0.6505104040905457 27.4962354687311 0 0 0
182 7 3.8705914404953243 0.6878322182247156 27.43646544745114 0 0 0
186 7 0.16575556792306423 2.843769415868505 27.49512738731983 0 0 0
187 7 2.6545511868409255 2.838114741474935 27.568637799337747 0 0 0
211 7 0.20439438010492136 1.43121859560765 29.59087107599198 0 0 0
212 7 2.7056023301726673 1.3456705431363536 29.58218186407646 0 0 0
216 7 1.406070755744247 3.5405326913196573 29.592608208507844 0 0 0
217 4 3.819369019501918 3.558190134565607 29.601150110408444 0 0 0
183 7 6.304175900731417 0.7006733912180473 27.57199744730962 0 0 0
188 7 5.077578435428622 2.8589128577083063 27.578070787279533 0 0 0
189 7 7.589648575387084 2.779288567386129 27.465886295150533 0 0 0
213 5 5.13008612977893 1.4115267820632615 29.602433844124096 0 0 0
214 7 7.607779622080467 1.3414598706988852 29.594920720214425 0 0 0
218 7 6.357807541980107 3.5225822766349912 29.547256882522554 0 0 0
184 7 8.880190217983625 0.7046950262354097 27.56920707439784 0 0 0
185 4 11.378119409611934 0.7080035227246423 27.541900136113814 0 0 0
190 7 10.139506353791003 2.8176550981159254 27.493830926820575 0 0 0
215 7 10.118971801556148 1.389533060719683 29.635046045950524 0 0 0
219 7 8.834099694862225 3.4989008164404196 29.535209182385888 0 0 0
220 7 11.364212427586484 3.5457783446083107 29.5262178503298 0 0 0
191 7 1.3859502188327881 4.992158706494083 27.476582634901803 0 0 0
192 7 3.828104300483233 4.975624569974475 27.486114317296057 0 0 0
196 7 0.13090132607258703 7.142688630377013 27.50204475804629 0 0 0
197 7 2.573701473579645 7.178437657287842 27.47905232037042 0 0 0
221 7 0.11503331068836851 5.712479460333385 29.57709109346027 0 0 0
222 7 2.586543988918604 5.714725141776068 29.557030396740995 0 0 0
226 7 1.3584984459793525 7.88892836252767 29.555886947338397 0 0 0
227 7 3.8550877406062205 7.898812187221885 29.47358767900538 0 0 0
193 7 6.363595811222868 4.96103340568708 27.41776498552004 0 0 0
198 7 5.096348096247862 7.158763345517147 27.415089801332698 0 0 0
199 7 7.6149603576714835 7.173685595499891 27.451418112860814 0 0 0
223 6 5.146666690350345 5.7068412243517885 29.495547589262223 0 0 0
224 7 7.637892780616025 5.724408019316196 29.58570075917204 0 0 0
228 7 6.387509433830578 7.898499841458753 29.495732133249177 0 0 0
194 6 8.842131397299568 4.9827229167021265 27.4975599296219 0 0 0
195 7 11.355222116384601 4.98001785658709 27.512665015676752 0 0 0
200 7 10.118212087550264 7.142821539297062 27.543615298844752 0 0 0
225 7 10.09606671890299 5.72802325587717 29.611624357905853 0 0 0
229 7 8.839898319275092 7.868913262126819 29.52796411120487 0 0 0
230 7 11.363600889428712 7.915319811509788 29.529592589239236 0 0 0
201 5 1.373275683646168 9.310616274845191 27.51624341994384 0 0 0
202 7 3.866536310998669 9.306050884261357 27.37729403919938 0 0 0
206 4 0.18188938338593919 11.462256329824179 27.52712456458073 0 0 0
207 7 2.6055832362914275 11.442577899070612 27.43914037337081 0 0 0
231 7 0.15967707557685465 10.063811925246812 29.571680244591242 0 0 0
232 7 2.627775734304195 10.011164054644208 29.42807958751809 0 0 0
236 7 1.4682653911208239 12.168802313274416 29.555648443123385 0 0 0
203 7 6.369075876357606 9.27087264314735 27.3897428320249 0 0 0
208 7 5.132418422671397 11.48575903763878 27.32106331896405 0 0 0
209 6 7.576943620233087 11.510395624175999 27.63930502213006 0 0 0
233 7 5.143515174764258 10.040458525434389 29.32442931378834 0 0 0
234 7 7.595327427638393 10.07387596684964 29.663967939977788 0 0 0
238 7 6.207967085425871 12.22210767936894 29.68006136939589 0 0 0
204 7 8.833037330203792 9.35388425598456 27.624792517451525 0 0 0
205 7 11.339721707072838 9.40102727793662 27.549882917953013 0 0 0
210 7 10.145793858893619 11.5392616626366 27.58625621508075 0 0 0
235 7 10.079493024536673 10.164755488345987 29.603388237717013 0 0 0
239 4 8.873162234061022 12.239930069571702 29.732481919182085 0 0 0
240 7 11.390944135300314 12.25310002575778 29.56389288405401 0 0 0
237 3 4.027049938180653 0.28161153325857324 30.5532618196857 0 1 0
241 7 0.19691823656723587 0.08950495783128164 31.63392680989074 0 0 0
242 7 2.56578252846005 0.12934742091095516 31.742928266102123 0 0 0
246 4 1.3400164070782499 2.2331620075398466 31.667356043558886 0 0 0
247 7 3.8752819130825946 2.1434001620908676 31.641983359605018 0 0 0
248 7 6.401942764442387 2.142680589593371 31.650271511943366 0 0 0
253 7 5.106027155373725 4.303307026382428 31.626809204241543 0 0 0
254 7 7.615290023861143 4.304857619943482 31.595290232928438 0 0 0
249 7 8.846696096841528 2.097454528127752 31.687189262925976 0 0 0
250 7 11.378678543599753 2.1316699436681406 31.661524687614776 0 0 0
255 1 10.103602521287714 4.214881475993552 31.509982012852603 0 0 0
251 7 0.14405030398465826 4.318195338653767 31.656000964471822 0 0 0
252 7 2.6298974927942007 4.313122965213594 31.66975792269892 0 0 0
256 7 1.325077764152299 6.496975525773741 31.63829230129385 0 0 0
257 6 3.7870024333320482 6.496630139344384 31.671138493700724 0 0 0
286 7 0.09739605293277993 7.270348433981064 33.63410713685061 0 0 0
258 7 6.344060765642397 6.490050453271809 31.627346789820905 0 0 0
264 7 7.5828903574098145 8.572428406045608 31.623617726445538 0 0 0
259 4 8.813179810522334 6.45512283972907 31.63276549860225 0 0 0
260 7 11.310968916178096 6.482004933362653 31.602982205824457 0 0 0
284 5 8.880229882344594 5.111484051160831 33.576862350931556 0 0 0
285 4 11.35144668532682 5.14791871875711 33.65122699307765 0 0 0
290 7 10.07906760934492 7.2502153307902315 33.59980438482954 0 0 0
261 7 0.1707217710410769 8.700353106816 31.65799951852574 0 0 0
262 7 2.658985558562851 8.714213252626946 31.534554892922845 0 0 0
266 7 1.5571731889408218 10.825176195984318 31.569934392635446 0 0 0
267 4 3.9123228578292824 11.26826072498445 30.85056682476204 0 0 0
292 7 3.9546094818592294 9.36152146290029 33.51135681759795 0 0 0
243 7 5.16588153929443 12.89658993109734 32.092704363839864 0 -1 0
244 7 7.622817155662881 12.931357152936254 31.711194489732847 0 -1 0
263 1 5.087561955708009 8.75685929055867 31.423969216940094 0 0 0
268 7 6.254851638463538 10.755990822221039 31.58069592423708 0 0 0
293 4 6.448591441536332 9.315444753941449 33.650451923791394 0 0 0
245 7 10.10535240386592 12.878242551454317 31.868683612411242 0 -1 0
265 6 10.095369512636045 8.67312813234977 31.5459024182159 0 0 0
269 7 8.76866765575901 10.793347216458255 31.750781658393176 0 0 0
270 7 11.42192253502727 10.897174879407322 31.615483318158212 0 0 0
296 3 11.066694673031058 11.827311738344967 33.328489157888704 -1 0 0
271 7 1.4724046868198226 0.893788218237778 33.774626222293975 0 0 0
272 7 3.9187322021902142 0.9492136571529454 33.91282217508976 0 0 0
276 7 0.17510175982555107 2.9865908064108604 33.7352720800921 0 0 0
277 7 2.6403130481593013 3.0721174241173963 33.79475209204991 0 0 0
301 7 0.18717578477021943 1.5416617634199625 35.752810380456374 0 0 0
302 7 2.6117856864927025 1.66481255569425 35.853196063470044 0 0 0
306 4 1.3925998219662328 3.830373793061674 35.94375672103179 0 0 0
307 7 3.9858366005774717 3.7238650007341114 35.831782437742774 0 0 0
273 7 6.456273193735048 0.9640699928672312 33.90362594279991 0 0 0
278 1 5.212540228880551 2.9906588989752256 33.72680235474874 0 0 0
279 7 7.720702319306511 3.0344687278852445 33.735104720972146 0 0 0
303 7 5.239223766012317 1.658289328223758 35.940032229293045 0 0 0
304 4 7.755518158477761 1.6218955428657253 35.925620613143074 0 0 0
308 7 6.516712539915836 3.7032262272209513 35.80794962109309 0 0 0
274 7 8.83341990338754 0.8917726648112699 33.842049585505535 0 0 0
275 4 11.436901851041195 0.7930028565520908 33.71067769846499 0 0 0
280 7 10.200502678543481 2.9962288076014856 33.71420812746509 0 0 0
305 7 10.223064784844485 1.5668655825134667 35.71948004130039 0 0 0
309 7 9.003380886986555 3.663718581335903 35.78880115257095 0 0 0
310 4 11.56186238694293 3.9217576498764455 35.87588564722283 0 0 0
281 7 1.32738785407729 5.175171306517098 33.85499622287819 0 0 0
282 4 3.8446424724249892 5.132046420069588 33.778271558013834 0 0 0
287 7 2.633323494030987 7.282553799047852 33.75762980397868 0 0 0
312 7 2.7202789563780767 5.78230421124618 35.799417998774295 0 0 0
316 7 1.230724276840577 7.614985618608599 35.80552704498078 0 0 0
317 7 3.9230441269851286 8.035981001632026 35.74939918308159 0 0 0
283 7 6.369674650580237 5.093195862524056 33.67008143117731 0 0 0
288 7 5.182978700496366 7.264083122451635 33.68096898238999 0 0 0
289 7 7.625838383364961 7.183828791060038 33.71716594066973 0 0 0
313 7 5.241951425220989 5.905156402984269 35.735990557695615 0 0 0
314 7 7.69841485550083 5.808404790029131 35.7344932788541 0 0 0
318 4 6.538811612295379 8.111799908716979 35.83179624095918 0 0 0
311 2 12.398505933433507 5.986067689460473 35.334120299982246 -1 0 0
315 7 10.121625722051563 5.794691163725345 35.57988278738631 0 0 0
319 7 8.948880103130998 7.9468043154884045 35.84120976261173 0 0 0
320 7 11.353074412357751 7.9171167283814965 35.59237414524579 0 0 0
350 7 11.667755328144864 6.2582838281617805 37.291611724626506 0 0 0
355 3 10.432239168185536 7.895211446306726 37.267163998438846 0 0 0
291 7 1.4637372715030668 9.418073988665324 33.730453741263176 0 0 0
297 6 3.0127047594276495 11.561135722126746 33.679786569010616 0 0 0
321 6 0.20244909651456924 10.05865669680039 35.9017202542203 0 0 0
322 7 2.6868600639074227 10.156976070946701 35.76342720263842 0 0 0
326 7 0.49865041311231156 11.644483572791135 33.67303679536747 0 0 0
327 6 3.906156555577267 12.49848140650394 36.07962517617135 0 0 0
356 4 1.3907330791915073 12.344392994715562 35.83900301102727 0 0 0
298 2 5.199375982535822 12.27272490067769 34.19274838952807 0 0 0
299 7 6.994681015793991 11.572113772761163 33.67802800453872 0 0 0
323 6 5.227169308202531 10.233879998122347 35.56646639164278 0 0 0
324 7 7.9092281280550125 10.344318058434931 35.708897912818934 0 0 0
328 7 6.458967224252877 12.505214452348612 35.91563825937595 0 0 0
294 7 8.76577505500493 9.27690404915513 33.697044072701686 0 0 0
295 6 11.26214029779795 9.691074688110314 33.763251415135045 0 0 0
300 7 9.376025215792902 11.535354019881781 34.16167898383936 0 0 0
325 7 10.250507712001985 9.833523745005639 37.01004391611055 0 0 0
329 3 9.527045317384719 11.398885718732116 36.18884619478873 0 0 0
330 4 11.25506213231433 12.075644174934501 35.56507693728477 0 0 0
332 7 2.4773639832454735 0.08446711210431891 38.02210691951186 0 0 0
336 7 1.3295212315675027 2.171721766752521 37.826194759508965 0 0 0
337 7 3.8649846916298576 2.181970450034376 37.86192864935238 0 0 0
341 7 0.2061894771256194 4.232623278263815 38.069826912089304 0 0 0
342 7 2.706487338517824 4.2790689863743765 37.904545174149675 0 0 0
333 7 5.2018722254188585 0.1479359668615753 38.10328992956776 0 0 0
334 7 7.6453294446244575 0.06594182361990594 38.00543952093211 0 0 0
338 7 6.524980085522513 2.256048413879016 37.90094768947148 0 0 0
339 7 8.986234299460088 2.182672597667657 37.86224935364387 0 0 0
340 7 11.359789709453949 2.1813305682460618 37.719624173309015 0 0 0
346 7 1.485912167971357 6.388936477451551 37.988756685934625 0 0 0
347 6 3.9472446013333338 6.459934070529263 37.826270814131426 0 0 0
361 8 3.9497813933113077 7.987747538982854 38.95978426243011 0 0 0
343 7 5.297372355074216 4.406208843766288 37.82112628451013 0 0 0
344 7 7.8197171379967525 4.417801941270584 37.88111119310219 0 0 0
348 6 6.642094698082717 6.661822688568767 37.803586567809496 0 0 0
345 4 10.213914719869555 4.329933708180942 37.83178573603601 0 0 0
349 7 9.254315922344192 6.640138937376636 37.92740311317185 0 0 0
351 7 12.253131297166993 8.563082371730392 37.83023781637562 -1 0 0
362 8 8.9452047494333 5.285820208038758 38.852222300716406 0 0 0
352 6 2.504846628899642 8.6424602129797 37.74911049834441 0 0 0
357 7 3.8339203438189635 10.816654422318985 37.92084843368228 0 0 0
360 7 1.3810043823178957 10.882344482564278 37.87742283050493 1 0 0
353 7 5.137112489204687 8.719669519631122 37.8717909881866 0 0 0
354 7 7.949608899684291 8.940747707525244 37.81968056600417 0 0 0
358 6 6.4215643024965035 10.850669453592996 37.789101880642 0 0 0
331 7 12.387471344327714 12.879268246059622 37.62093528806201 -1 -1 0
335 5 9.903774710117638 12.913231258078634 37.37643052493616 0 -1 0
359 2 8.597471282533625 11.180648143981983 37.41025580112992 0 0 0

Velocities

1 0 0 0
2 0 0 0
3 0 0 0
9 0 0 0
5 0 0 0
6 0 0 0
10 0 0 0
16 0 0 0
20 0 0 0
26 0 0 0
27 0 0 0
23 0 0 0
28 0 0 0
29 0 0 0
24 0 0 0
25 0 0 0
30 0 0 0
7 0 0 0
31 0 0 0
32 0 0 0
36 0 0 0
37 0 0 0
56 0 0 0
8 0 0 0
33 0 0 0
34 0 0 0
38 0 0 0
4 0 0 0
35 0 0 0
39 0 0 0
40 0 0 0
11 0 0 0
12 0 0 0
17 0 0 0
42 0 0 0
47 0 0 0
13 0 0 0
18 0 0 0
19 0 0 0
43 0 0 0
44 0 0 0
48 0 0 0
14 0 0 0
15 0 0 0
41 0 0 0
45 0 0 0
49 0 0 0
50 0 0 0
85 0 0 0
21 0 0 0
22 0 0 0
46 0 0 0
52 0 0 0
57 0 0 0
87 0 0 0
53 0 0 0
54 0 0 0
58 0 0 0
51 0 0 0
55 0 0 0
59 0 0 0
60 0 0 0
61 0 0 0
66 0 0 0
67 0 0 0
91 0 0 0
92 0 0 0
96 0 0 0
97 0 0 0
63 0 0 0
64 0 0 0
68 0 0 0
74 0 0 0
93 0 0 0
98 0 0 0
99 0 0 0
65 0 0 0
69 0 0 0
70 0 0 0
94 0 0 0
95 0 0 0
100 0 0 0
72 0 0 0
76 0 0 0
77 0 0 0
82 0 0 0
101 0 0 0
102 0 0 0
107 0 0 0
73 0 0 0
78 0 0 0
103 0 0 0
108 0 0 0
109 0 0 0
71 0 0 0
75 0 0 0
79 0 0 0
80 0 0 0
81 0 0 0
104 0 0 0
105 0 0 0
106 0 0 0
110 0 0 0
62 0 0 0
86 0 0 0
111 0 0 0
112 0 0 0
116 0 0 0
117 0 0 0
83 0 0 0
84 0 0 0
88 0 0 0
113 0 0 0
118 0 0 0
119 0 0 0
89 0 0 0
90 0 0 0
114 0 0 0
115 0 0 0
120 0 0 0
121 0 0 0
122 0 0 0
126 0 0 0
127 0 0 0
156 0 0 0
157 0 0 0
162 0 0 0
123 0 0 0
124 0 0 0
128 0 0 0
153 0 0 0
158 0 0 0
163 0 0 0
164 0 0 0
125 0 0 0
129 0 0 0
130 0 0 0
155 0 0 0
159 0 0 0
160 0 0 0
165 0 0 0
131 0 0 0
132 0 0 0
136 0 0 0
137 0 0 0
161 0 0 0
166 0 0 0
167 0 0 0
171 0 0 0
172 0 0 0
133 0 0 0
134 0 0 0
138 0 0 0
168 0 0 0
173 0 0 0
135 0 0 0
139 0 0 0
140 0 0 0
169 0 0 0
170 0 0 0
175 0 0 0
141 0 0 0
142 0 0 0
146 0 0 0
147 0 0 0
151 0 0 0
152 0 0 0
176 0 0 0
177 0 0 0
143 0 0 0
144 0 0 0
148 0 0 0
154 0 0 0
178 0 0 0
145 0 0 0
149 0 0 0
150 0 0 0
174 0 0 0
179 0 0 0
180 0 0 0
181 0 0 0
182 0 0 0
186 0 0 0
187 0 0 0
211 0 0 0
212 0 0 0
216 0 0 0
217 0 0 0
183 0 0 0
188 0 0 0
189 0 0 0
213 0 0 0
214 0 0 0
218 0 0 0
184 0 0 0
185 0 0 0
190 0 0 0
215 0 0 0
219 0 0 0
220 0 0 0
191 0 0 0
192 0 0 0
196 0 0 0
197 0 0 0
221 0 0 0
222 0 0 0
226 0 0 0
227 0 0 0
193 0 0 0
198 0 0 0
199 0 0 0
223 0 0 0
224 0 0 0
228 0 0 0
194 0 0 0
195 0 0 0
200 0 0 0
225 0 0 0
229 0 0 0
230 0 0 0
201 0 0 0
202 0 0 0
206 0 0 0
207 0 0 0
231 0 0 0
232 0 0 0
236 0 0 0
203 0 0 0
208 0 0 0
209 0 0 0
233 0 0 0
234 0 0 0
238 0 0 0
204 0 0 0
205 0 0 0
210 0 0 0
235 0 0 0
239 0 0 0
240 0 0 0
237 0 0 0
241 0 0 0
242 0 0 0
246 0 0 0
247 0 0 0
248 0 0 0
253 0 0 0
254 0 0 0
249 0 0 0
250 0 0 0
255 0 0 0
251 0 0 0
252 0 0 0
256 0 0 0
257 0 0 0
286 0 0 0
258 0 0 0
264 0 0 0
259 0 0 0
260 0 0 0
284 0 0 0
285 0 0 0
290 0 0 0
261 0 0 0
262 0 0 0
266 0 0 0
267 0 0 0
292 0 0 0
243 0 0 0
244 0 0 0
263 0 0 0
268 0 0 0
293 0 0 0
245 0 0 0
265 0 0 0
269 0 0 0
270 0 0 0
296 0 0 0
271 0 0 0
272 0 0 0
276 0 0 0
277 0 0 0
301 0 0 0
302 0 0 0
306 0 0 0
307 0 0 0
273 0 0 0
278 0 0 0
279 0 0 0
303 0 0 0
304 0 0 0
308 0 0 0
274 0 0 0
275 0 0 0
280 0 0 0
305 0 0 0
309 0 0 0
310 0 0 0
281 0 0 0
282 0 0 0
287 0 0 0
312 0 0 0
316 0 0 0
317 0 0 0
283 0 0 0
288 0 0 0
289 0 0 0
313 0 0 0
314 0 0 0
318 0 0 0
311 0 0 0
315 0 0 0
319 0 0 0
320 0 0 0
350 0 0 0
355 0 0 0
291 0 0 0
297 0 0 0
321 0 0 0
322 0 0 0
326 0 0 0
327 0 0 0
356 0 0 0
298 0 0 0
299 0 0 0
323 0 0 0
324 0 0 0
328 0 0 0
294 0 0 0
295 0 0 0
300 0 0 0
325 0 0 0
329 0 0 0
330 0 0 0
332 0 0 0
336 0 0 0
337 0 0 0
341 0 0 0
342 0 0 0
333 0 0 0
334 0 0 0
338 0 0 0
339 0 0 0
340 0 0 0
346 0 0 0
347 0 0 0
361 0 0 0
343 0 0 0
344 0 0 0
348 0 0 0
345 0 0 0
349 0 0 0
351 0 0 0
362 0 0 0
352 0 0 0
357 0 0 0
360 0 0 0
353 0 0 0
354 0 0 0
358 0 0 0
331 0 0 0
335 0 0 0
359 0 0 0
