LAMMPS data file via write_data, version 11 Feb 2026, timestep = 134, units = metal

362 atoms
8 atom types

0 12.447907776 xlo xhi
0 12.9362452296 ylo yhi
0 52.3600831054 zlo zhi

Masses

1 26.9815
2 10.811
3 12.011
4 51.9961
5 55.845
6 95.95999999999999
7 58.6934
8 1.008

Atoms # atomic/kk

1 7 1.1497425844 1.4144291198 14.1719979085 0 0 0
2 7 3.6134687145 1.0800467879 14.6656212437 0 0 0
3 5 6.0815886619 0.9569444931 14.9079465101 0 0 0
9 7 7.3954709878 3.1653816956 14.9165633718 0 0 0
5 7 11.0547564448 1.2631455811 14.5977267469 0 0 0
6 7 12.3768259844 3.466109773 14.8180276734 -1 0 0
10 7 9.9180716954 3.4005463942 14.7764912213 0 0 0
16 4 0.4744295382 7.8226831776 14.7949356288 0 0 0
20 7 10.4505041057 7.6798324646 14.1800469501 0 0 0
26 7 0.1331167084 12.2146332404 14.9057766073 0 0 0
27 7 2.4873797396 11.8183947458 14.4592042762 0 0 0
23 7 6.9266134788 9.0157719158 14.7745963284 0 0 0
28 7 4.9647374426 11.7971628958 14.602642409 0 0 0
29 6 7.4924961157 11.5026151494 14.9166242995 0 0 0
24 7 9.2163032891 9.7484361665 14.5374967052 0 0 0
25 7 11.7678442713 9.8846864877 14.786174169 0 0 0
30 7 10.0667758176 11.9552914272 14.757184991 0 0 0
7 7 2.4326605698 3.2847729455 14.9872775365 0 0 0
31 6 0.1370685033 1.5768251166 16.5409528459 0 0 0
32 7 2.609799181 1.695311649 16.9108417606 0 0 0
36 7 1.2245322607 3.8662226514 17.0250583843 0 0 0
37 7 3.7153748501 3.8473247158 17.0523498386 0 0 0
56 2 1.9189723599 0.33084736130000003 15.6045903178 0 1 0
8 7 4.9337581363 3.1373027548 15.0061374648 0 0 0
33 7 4.9904912465 1.6750001137 16.9503411318 0 0 0
34 7 7.4151563942 1.7791585102 16.9754753984 0 0 0
38 5 6.1837345251 3.8700430528 16.9844835293 0 0 0
4 6 8.6456161979 1.0067342063 14.9963399852 0 0 0
35 7 9.9904525802 1.6724837965 16.9394330368 0 0 0
39 7 8.7357186923 3.8728485041 16.8576333175 0 0 0
40 7 11.1955345255 3.8169207873 16.9959574416 0 0 0
11 7 1.2398711842 5.5051792815 15.0758691519 0 0 0
12 7 3.7283490145 5.3263903199 15.0866907709 0 0 0
17 7 2.6579083374 7.5053439282 15.1489485754 0 0 0
42 7 2.4588164731 6.1376717082 17.1366667934 0 0 0
47 7 3.8916673081 8.2078082659 17.0586478724 0 0 0
13 7 6.1838130694 5.3155787921 15.0297182962 0 0 0
18 7 5.0848667121 7.4888750582 15.0639197999 0 0 0
19 2 7.0648360032 7.0290503333 15.3848938711 0 0 0
43 7 4.9577202127 5.9729617473 17.0900603592 0 0 0
44 7 7.4821104613 5.9506618606 17.083374682 0 0 0
48 7 6.3517966691 8.0650997957 17.0450086588 0 0 0
14 7 8.7092193576 5.6687248297 14.9610395757 0 0 0
15 6 11.1856037548 5.6145957277 15.1802713774 0 0 0
41 7 12.4471711936 6.008396389 17.2219733868 -1 0 0
45 7 9.9284767185 6.0486621934 17.248553061 0 0 0
49 7 8.7216424076 7.9320761402 16.0649625125 0 0 0
50 7 11.1904412725 8.0010967525 16.4490949671 0 0 0
85 6 9.7924519849 8.4834882941 18.5359623763 0 0 0
21 2 1.1704220354 10.4885279669 15.2082105369 0 0 0
22 7 2.9748319952 9.8752519564 15.6406784464 0 0 0
46 7 0.799569627 9.3774555759 16.8701348744 0 0 0
52 7 1.3553308909 11.874830441 16.9843399516 0 0 0
57 7 3.7588701805 12.4468104353 16.6050476392 0 0 0
87 1 3.6700706715 10.7258804526 18.2611606787 0 0 0
53 7 5.3409190981 10.1321486111 16.3227167594 0 0 0
54 7 7.738634248 10.0639445907 16.9422222866 0 0 0
58 6 6.324598403 12.3768997915 16.9502337736 0 0 0
51 3 11.5246613632 9.3804098021 17.6576166708 -1 0 0
55 7 10.1902802494 10.2861158537 16.6768642345 0 0 0
59 7 8.8417287328 12.3911615771 16.9574660891 0 0 0
60 7 11.2479122514 12.4771716689 16.878211375 0 0 0
61 6 0.0527017033 0.0089065881 18.9901813448 0 0 0
66 6 1.3979632263 2.1760740248 19.0486428377 0 0 0
67 5 3.8360612202 2.1799463238 19.0726429075 0 0 0
91 4 1.3659414355 0.7591550663 21.2953314418 0 0 0
92 7 3.7582348313 0.7345000373 21.0504209071 0 0 0
96 7 0.0870213404 2.8071541535 21.1826954604 0 0 0
97 7 2.5976821626 2.8599755801 21.1943844394 0 0 0
63 5 4.961770923 0.0631852196 18.9569407682 0 0 0
64 7 7.4466866643 0.0923032347 19.0966095755 0 0 0
68 7 6.1999465948 2.1690387216 19.075325693 0 0 0
74 6 7.5068417395 4.2955105964 19.0499735031 0 0 0
93 7 6.2648083061 0.7296382035 21.1687202545 0 0 0
98 7 5.0307084051 2.8839245556 21.1487605341 0 0 0
99 5 7.4843073441 2.8251628317 21.1645743864 0 0 0
65 7 10.0067906371 0.0903551821 19.0914557807 0 0 0
69 7 8.7435549052 2.1641093334 18.9907564244 0 0 0
70 7 11.292023484 2.2483556153 18.9494682525 0 0 0
94 7 8.719020184 0.7235952946 21.2315540182 0 0 0
95 7 11.3095260819 0.6805453101 21.1948570105 0 0 0
100 6 10.0358923279 2.7946241203 21.0504018358 0 0 0
72 7 2.4888364967 4.399127424 19.102146419 0 0 0
76 7 1.2051520298 6.4448593796 19.2552077089 0 0 0
77 7 3.788965515 6.5174885994 19.1602759879 0 0 0
82 6 2.3638515492 8.4992215655 18.9104847269 0 0 0
101 7 1.2093939915 4.9965184419 21.2545513951 0 0 0
102 6 3.7347872191 5.0526652518 21.2248300042 0 0 0
107 7 2.4735498236 7.1830291345 21.2277194893 0 0 0
73 7 4.9809929092 4.3265890736 19.0823350046 0 0 0
78 7 6.2015672642 6.5292243836 19.1351564436 0 0 0
103 7 6.2802159067 5.0571876721 21.1712673534 0 0 0
108 7 5.0166982783 7.2387865717 21.2219468223 0 0 0
109 7 7.4243397829 7.2586553356 21.2603968591 0 0 0
71 1 12.388627158599999 4.3883715676 19.1814266081 -1 0 0
75 5 9.9137295111 4.315548833 19.0289145472 0 0 0
79 7 8.6306455217 6.4821666009 19.3186500677 0 0 0
80 7 11.1185625877 6.4307617978 19.353482346 0 0 0
81 4 12.3476916673 8.4830854356 19.1958443102 -1 0 0
104 7 8.7458214416 5.0332000682 21.2390931737 0 0 0
105 3 10.089290401104904 4.382056652103529 22.28399214456206 0 0 0
106 7 12.440321558299999 7.1070326106 21.3111075372 -1 0 0
110 7 9.8953778702 7.1760212619 21.2976777965 0 0 0
62 7 2.5924532143 12.864527762000002 19.033453496 0 -1 0
86 7 1.2866785527 10.7004771797 19.1566095298 0 0 0
111 7 1.1846665904 9.2997931012 21.1911611317 0 0 0
112 6 3.7066301461 9.3659637719 21.1382030997 0 0 0
116 1 0.041962507 11.4967726941 21.2929159587 0 0 0
117 7 2.4753961852 11.5386071438 21.1403847135 0 0 0
83 7 4.9512654343 8.7431684175 19.0785252367 0 0 0
84 7 7.4024763088 8.6498206961 19.0808953029 0 0 0
88 7 6.1675483126 10.8114586083 18.9252304338 0 0 0
113 7 6.2190025033 9.419338967 21.0304275954 0 0 0
118 7 4.9689634221 11.5508955698 21.0375810651 0 0 0
119 4 7.4045377363 11.5463122735 21.0699835669 0 0 0
89 6 8.7363364151 10.8601869287 19.0337011767 0 0 0
90 4 11.2772029232 10.8310890744 18.9338598023 0 0 0
114 7 8.7047484128 9.3260368273 20.988037477 0 0 0
115 6 11.1139967077 9.261991403 21.1708079289 0 0 0
120 7 9.9908573263 11.526507989 21.1774539872 0 0 0
121 7 0.08243928252747454 1.383750048681415 23.308929700441656 0 0 0
122 7 2.573835220569423 1.3955444926316838 23.32843939535049 0 0 0
126 6 1.3534730349133484 3.578375798207423 23.264664841878137 0 0 0
127 7 3.8489935166717344 3.5820063415592514 23.360510769826632 0 0 0
156 1 1.4780912831272803 2.1221255502696557 25.514160813155232 0 0 0
157 7 3.964346676177454 2.128388222537832 25.443039451147545 0 0 0
162 7 2.597092785504477 4.2542196493234385 25.426868646655738 0 0 0
123 7 4.9907972863165 1.4206097029328952 23.161179532531072 0 0 0
124 7 7.392253092667385 1.491753819524376 23.485439278230427 0 0 0
128 7 6.3018477922252965 3.655636834096726 23.182431089512054 0 0 0
153 7 5.195307847098301 0.06301571093685569 25.292045224041303 0 0 0
158 2 5.773885651222039 2.448839438026244 24.6276893646404 0 0 0
163 7 5.116225179720115 4.235179966946184 25.420363099929432 0 0 0
164 5 7.475303503445052 4.052785998325991 25.359282266692578 0 0 0
125 7 10.041411424346128 1.4180858386303632 23.35395903755529 0 0 0
129 7 8.749552842302306 3.5367125296284256 23.346773290959305 0 0 0
130 4 11.365196172286963 3.6068728459641224 23.4015554867918 0 0 0
155 4 10.117441999445075 0.05228947220018127 25.557257567954412 0 0 0
159 7 8.86747365655955 2.0891321331779378 25.446960277696 0 0 0
160 7 11.399048454606854 2.1446539575765478 25.420266578753072 0 0 0
165 7 10.063633566300007 4.206991529974764 25.41161010908159 0 0 0
131 7 0.06880281491399252 5.760841961536883 23.402891879411225 0 0 0
132 7 2.540409136290205 5.788952161046785 23.359117407311476 0 0 0
136 7 1.3006782743220284 7.902437302549085 23.30360094550547 0 0 0
137 7 3.774312140595128 7.9700819455123515 23.277028275579692 0 0 0
161 4 0.10694515852616379 4.329573335993581 25.468343929716525 0 0 0
166 7 1.3353481157519618 6.4036067243094 25.429272098690447 0 0 0
167 7 3.80556961820522 6.427282246401547 25.441935005789926 0 0 0
171 6 0.10662474681721051 8.602119534868647 25.428921277774744 0 0 0
172 7 2.6198877573373482 8.59732105342857 25.374694542756153 0 0 0
133 6 5.062679806257499 5.848129891670691 23.386366250831152 0 0 0
134 7 7.556944113799039 5.767214928031793 23.31400924495122 0 0 0
138 7 6.30766080485794 7.985467471767763 23.340259087299383 0 0 0
168 7 6.362598101482428 6.384041447107638 25.432448492481253 0 0 0
173 7 5.10172669087327 8.542515414233362 25.331488383163975 0 0 0
135 7 10.061872619110353 5.813652977313116 23.387479466190698 0 0 0
139 4 8.69127668318319 7.930573982017268 23.243638071030023 0 0 0
140 4 11.27930692564644 7.878189982081444 23.317291703579688 0 0 0
169 7 8.773103979882094 6.319017105519532 25.383041712802708 0 0 0
170 7 11.286728990131014 6.395881081885567 25.448379226965717 0 0 0
175 6 9.882032348063987 8.554826146765993 25.523563505859062 0 0 0
141 7 0.01702169479637702 10.0556176973772 23.34276565668272 0 0 0
142 7 2.4931132041215025 10.094185257714804 23.253603143080177 0 0 0
146 7 1.2993466288574909 12.223213588048768 23.349548095055887 0 0 0
147 7 3.8034813813760144 12.232433369777965 23.17917876376591 0 0 0
151 4 0.08953151591410274 12.86297700285443 25.414474406480533 0 -1 0
152 7 2.6518673372775634 12.932372283389165 25.372685371674997 0 -1 0
176 7 1.339108494834139 10.786986444089349 25.430445821593395 0 0 0
177 6 3.8764308532989076 10.804762383571665 25.272758117282784 0 0 0
143 7 5.051785418756102 10.093455203869926 23.18033304413073 0 0 0
144 7 7.5021899676388415 10.077404970784889 22.919148949565887 0 0 0
148 4 6.209505443015689 12.258665674858808 23.184574330581384 0 0 0
154 7 7.597957200168653 12.930937290763934 25.474543325086792 0 -1 0
178 6 6.613877250993508 10.531002931884622 25.21982091638465 0 0 0
145 7 9.992488271387053 10.06214415031049 23.31525881826167 0 0 0
149 6 8.704802653224169 12.260570338710114 23.32958461494292 0 0 0
150 7 11.243831021797817 12.205904508589963 23.405047272585456 0 0 0
174 3 8.410238335993801 9.49702078391302 24.423266819568624 0 0 0
179 5 8.994982329499617 10.910363188486631 25.58265644595468 0 0 0
180 5 11.332703095483609 10.85470150423199 25.505909002146122 0 0 0
181 7 1.388454531262465 0.6540347014647808 27.49618927846355 0 0 0
182 7 3.875339951209827 0.691037985891974 27.435978148821473 0 0 0
186 7 0.17018083754211288 2.846063541336614 27.495045414306247 0 0 0
187 7 2.6594426198520162 2.8412903487797636 27.56807700146316 0 0 0
211 7 0.20962127072212874 1.433526744352328 29.592940337831276 0 0 0
212 7 2.7124475069062397 1.348789161340603 29.581670825094704 0 0 0
216 7 1.4105108284049046 3.5435482422354108 29.59067099109729 0 0 0
217 4 3.824424103371213 3.561346560987541 29.602121430474693 0 0 0
183 7 6.308606805869943 0.7034157274617003 27.573148353901516 0 0 0
188 7 5.082186475107022 2.862017622580876 27.578536063317262 0 0 0
189 7 7.593851038392082 2.781638405561859 27.465282464026913 0 0 0
213 5 5.134955672726913 1.4151587114035598 29.604037801657665 0 0 0
214 7 7.611815023020373 1.344089227563799 29.596036730024387 0 0 0
218 7 6.362724707149627 3.5253249213279223 29.54785041968905 0 0 0
184 7 8.884610975773096 0.7074808250741609 27.570025862658134 0 0 0
185 4 11.382587728289213 0.7107013065692388 27.54198183164409 0 0 0
190 7 10.144170909976255 2.8200839070491144 27.49331217108643 0 0 0
215 7 10.124345656810135 1.3925083575162103 29.63584267425582 0 0 0
219 7 8.838619460531737 3.5006211182360905 29.533651749998324 0 0 0
220 7 11.369122860564493 3.547166970781964 29.527089226663886 0 0 0
191 7 1.3902542369094033 4.994839121766131 27.474000187682964 0 0 0
192 7 3.832749021720681 4.978324866719763 27.483991683882607 0 0 0
196 7 0.13552245851191563 7.145521139423066 27.500773858566127 0 0 0
197 7 2.578210113920626 7.18169879673398 27.47639453786328 0 0 0
221 7 0.1197985899993619 5.715169839839212 29.574833607422132 0 0 0
222 7 2.5905734010645642 5.717494748521773 29.552630106655947 0 0 0
226 7 1.364160089581911 7.892547570210131 29.553763544338413 0 0 0
227 7 3.860475797518943 7.903047994084959 29.469485368990636 0 0 0
193 7 6.368538967324806 4.96365355000887 27.41564297350147 0 0 0
198 7 5.101255132311556 7.161804698749219 27.412839824250163 0 0 0
199 7 7.620306564037808 7.176714410457056 27.44970722612445 0 0 0
223 6 5.151890029759916 5.709150003463008 29.49245202558423 0 0 0
224 7 7.642953157503173 5.726605365424776 29.583276412009116 0 0 0
228 7 6.393197761109144 7.901487896798571 29.493153908660364 0 0 0
194 6 8.846758495415344 4.984836249769464 27.495598531856068 0 0 0
195 7 11.359831594524659 4.981987706777238 27.511896109842446 0 0 0
200 7 10.122907590928758 7.145148655422977 27.543280900281598 0 0 0
225 7 10.100385375155522 5.727912081264517 29.609997349916238 0 0 0
229 7 8.845426783298146 7.870650036594583 29.528535176393248 0 0 0
230 7 11.368483761410719 7.91903748668664 29.527981710236844 0 0 0
201 5 1.3779359839610064 9.313990598431815 27.51543379952234 0 0 0
202 7 3.871213959923343 9.309969800808052 27.37571795192207 0 0 0
206 4 0.1861582071919805 11.465881926512042 27.5263352568336 0 0 0
207 7 2.609731703961633 11.446419479774564 27.43818902085602 0 0 0
231 7 0.16463760172446928 10.068019466326248 29.570678689256503 0 0 0
232 7 2.6329182093426997 10.01642691182122 29.427021100710217 0 0 0
236 7 1.4713946668088187 12.173193914458945 29.555732948364536 0 0 0
203 7 6.373751814522665 9.274020975319994 27.388393638371742 0 0 0
208 7 5.136923034435404 11.489190540944804 27.320271425820383 0 0 0
209 6 7.581050492778668 11.513053523700956 27.641024029302258 0 0 0
233 7 5.149139903534092 10.044122875266327 29.323739589228197 0 0 0
234 7 7.600208315887389 10.077068286844337 29.665872276304164 0 0 0
238 7 6.211199383835012 12.225222191748493 29.682237746899997 0 0 0
204 7 8.83770729287411 9.356681773028708 27.62615989300242 0 0 0
205 7 11.344127333020658 9.40435934173073 27.549245222563695 0 0 0
210 7 10.150106659362027 11.542305930193798 27.587300272416975 0 0 0
235 7 10.08466577655337 10.168171338181583 29.60429193411811 0 0 0
239 4 8.877404382529646 12.243785179440566 29.733942431515068 0 0 0
240 7 11.395483087902939 12.256377781251402 29.565236383043253 0 0 0
237 3 4.034505031647425 0.2813886190001191 30.552964753738955 0 1 0
241 7 0.1995519053431229 0.09304178664206786 31.639995073526972 0 0 0
242 7 2.569664195315561 0.1359258168063301 31.739483892200475 0 0 0
246 4 1.3456183880901031 2.237002461245519 31.662912242173018 0 0 0
247 7 3.880188380706815 2.148662974537375 31.64534788304832 0 0 0
248 7 6.405125890996825 2.1459834345575874 31.6530097396298 0 0 0
253 7 5.111100118418802 4.307896955499396 31.628767452149678 0 0 0
254 7 7.620629694388933 4.306950729359638 31.59357863389804 0 0 0
249 7 8.849917125776075 2.097530180133363 31.685954463103982 0 0 0
250 7 11.383228901030934 2.1313864179795226 31.666827349693676 0 0 0
255 1 10.105310236859468 4.212072399897458 31.51092187317045 0 0 0
251 7 0.14755759446265043 4.320171159952763 31.654096714531608 0 0 0
252 7 2.6328785417341103 4.317340990110716 31.667801965103873 0 0 0
256 7 1.329439313616739 6.499477071439599 31.636111341785607 0 0 0
257 6 3.791023101186259 6.50036851869877 31.662407658142236 0 0 0
286 7 0.09571483796737285 7.276677466165802 33.62279415055735 0 0 0
258 7 6.350742986884097 6.491820973198685 31.6236126497284 0 0 0
264 7 7.588584942511198 8.573900879290244 31.623696209560546 0 0 0
259 4 8.819749337780307 6.45519063073017 31.630936045248134 0 0 0
260 7 11.314176035511998 6.4848632958954715 31.59655266676544 0 0 0
284 5 8.88680196927726 5.111374595141093 33.585204891314895 0 0 0
285 4 11.348767792971318 5.149976249337355 33.63934220756296 0 0 0
290 7 10.082206443805436 7.252260714501357 33.59754320456199 0 0 0
261 7 0.1774209640283169 8.705265934442895 31.653260422625365 0 0 0
262 7 2.666180720808257 8.720066266809162 31.53222405277474 0 0 0
266 7 1.56267220213092 10.830437126532038 31.57132864730104 0 0 0
267 4 3.9187651628458715 11.269632328309477 30.85390640755552 0 0 0
292 7 3.9620458718810636 9.371261043517329 33.50878694363112 0 0 0
243 7 5.167580291897265 12.89964762808242 32.09796038948027 0 -1 0
244 7 7.6252284627565885 12.93299947601389 31.713561911086913 0 -1 0
263 1 5.09382578709843 8.75871803065549 31.421555899869773 0 0 0
268 7 6.260806913193359 10.75909041473872 31.584345907327684 0 0 0
293 4 6.446709886323537 9.31820072093392 33.65051026325827 0 0 0
245 7 10.110633668661773 12.880677448939048 31.870038386951496 0 -1 0
265 6 10.101545563011891 8.677144905352684 31.54606094146483 0 0 0
269 7 8.775079165160815 10.798208761451354 31.75105101975928 0 0 0
270 7 11.428106539997492 10.901071607515625 31.61701227565792 0 0 0
296 3 11.074484982243005 11.824329025173126 33.33390922480892 -1 0 0
271 7 1.473672715226417 0.8971663151718156 33.77323639174401 0 0 0
272 7 3.920569047909096 0.9523836803601695 33.91843702544491 0 0 0
276 7 0.17544773640249475 2.9859434956923265 33.734638930239 0 0 0
277 7 2.6423512328134775 3.0756461518704787 33.79111601195674 0 0 0
301 7 0.18592647227648504 1.5443956039263522 35.75424552041133 0 0 0
302 7 2.611769920975443 1.6635887672677232 35.85263557500757 0 0 0
306 4 1.4104717872126116 3.8300642541995042 35.946309690605425 0 0 0
307 7 3.9883292674756614 3.7296409954007594 35.831174507727525 0 0 0
273 7 6.458623655159889 0.969423458658199 33.9021605608466 0 0 0
278 1 5.2167081184508515 2.9986507326811025 33.7325046726314 0 0 0
279 7 7.726740564322574 3.0375750524547067 33.73091888633897 0 0 0
303 7 5.241389659751396 1.6667256664339576 35.929877236246924 0 0 0
304 4 7.748107665700856 1.639227272962525 35.917330454971726 0 0 0
308 7 6.530049535449715 3.7136112137111477 35.79938128726884 0 0 0
274 7 8.83423786623038 0.8947130595844459 33.83799102381828 0 0 0
275 4 11.432436442050014 0.7863618090134415 33.72527598924198 0 0 0
280 7 10.204316166278176 2.986861586944048 33.72082845547211 0 0 0
305 7 10.214426613583953 1.5420924597180836 35.74050527950226 0 0 0
309 7 9.019492506548726 3.6618592135789525 35.785490950459135 0 0 0
310 4 11.601974468392507 3.9460160408954486 35.85348618312001 0 0 0
281 7 1.3256774681099657 5.179755094881033 33.8589097820131 0 0 0
282 4 3.8418237780571793 5.13861279880881 33.77047088674311 0 0 0
287 7 2.6371559204263364 7.286967688088395 33.747679349848916 0 0 0
312 7 2.726101615220318 5.7954059678235925 35.794359020433234 0 0 0
316 7 1.2228344737564043 7.611344191912481 35.78502222181197 0 0 0
317 7 3.941367770598764 8.044828437039538 35.742515358326955 0 0 0
283 7 6.38246989660171 5.098997582298257 33.66937269515904 0 0 0
288 7 5.185293997950316 7.268455058164998 33.66984854773932 0 0 0
289 7 7.630894768118392 7.183667671515749 33.71702741110014 0 0 0
313 7 5.263392397964617 5.905599642178833 35.721254858341766 0 0 0
314 7 7.7204456935855825 5.823870661277298 35.75044284865438 0 0 0
318 4 6.551376260786141 8.101909555219587 35.81017021198694 0 0 0
311 2 12.381532824846193 6.00045623842549 35.325580960213685 -1 0 0
315 7 10.129349829732863 5.79881252555047 35.58351345343518 0 0 0
319 7 8.954689693341964 7.971148736630048 35.814471289775746 0 0 0
320 7 11.351943461216957 7.92092668983383 35.589490840600696 0 0 0
350 7 11.674402153596274 6.273026132202235 37.303564463704696 0 0 0
355 3 10.442321208418996 7.890042921677807 37.27249002456409 0 0 0
291 7 1.4685830201658023 9.422170729573164 33.72418731513075 0 0 0
297 6 3.022847605505315 11.571501895816422 33.671121271380436 0 0 0
321 6 0.2163597813976162 10.052643619253066 35.90214564975388 0 0 0
322 7 2.7052798447590507 10.186194350630865 35.7566116132891 0 0 0
326 7 0.506912029306578 11.646600313950731 33.67741051242507 0 0 0
327 6 3.9171711285430595 12.504971937766978 36.10102839614106 0 0 0
356 4 1.3984863342742784 12.353438901161795 35.846112477104256 0 0 0
298 2 5.203981081116796 12.282737459318579 34.209631531174914 0 0 0
299 7 6.99636489649321 11.577554935175435 33.686160625299486 0 0 0
323 6 5.236547257813421 10.240026098580486 35.58165368962141 0 0 0
324 7 7.906386049361605 10.346475136096101 35.70446405561261 0 0 0
328 7 6.46906983573266 12.522287630708341 35.92660889147868 0 0 0
294 7 8.765818647897039 9.285969516710901 33.6909975850746 0 0 0
295 6 11.265376244156116 9.692978300470072 33.76255135997297 0 0 0
300 7 9.384793112919196 11.542472149493962 34.17292925406584 0 0 0
325 7 10.249004504070998 9.83305681904742 37.02207953279823 0 0 0
329 3 9.531510042270677 11.401670290085494 36.19325476375403 0 0 0
330 4 11.27106155118822 12.067246626362218 35.585357219221216 0 0 0
335 5 9.901988578610581 12.86117466836659 37.443399792254915 0 -1 0
332 7 2.4843269288782777 0.09986371150626613 38.03257005671364 0 0 0
336 7 1.3380243249762962 2.1885148134710826 37.82776414275545 0 0 0
337 7 3.87159121161645 2.1936291338758616 37.85866846461865 0 0 0
341 7 0.21492808184998313 4.25965895326625 38.06721439404801 0 0 0
342 7 2.7102109222510626 4.296529125257329 37.907253395749265 0 0 0
333 7 5.20768682108284 0.1625088811572089 38.11626302474165 0 0 0
334 7 7.645702265875739 0.08235867299642168 38.06833692243903 0 0 0
338 7 6.511358063333405 2.2550693826933363 37.89150552409015 0 0 0
339 7 8.999731203755184 2.166835051260802 37.898845205095746 0 0 0
340 7 11.379547277603633 2.210810734348099 37.72057674793235 0 0 0
362 8 9.077630568395742 0.7308926488388592 38.83786760815636 0 0 0
346 7 1.510508885183358 6.4272019972374554 37.98224140396346 0 0 0
347 6 3.9798378277965294 6.463370970046231 37.79464012891869 0 0 0
343 7 5.297357806853833 4.352743493223109 37.85220498380879 0 0 0
344 7 7.8320930705821565 4.434552978472317 37.8399151159578 0 0 0
348 6 6.6389426840217745 6.663670241719268 37.84310716628262 0 0 0
361 8 5.368519731266223 5.717388563878023 38.943176668875736 0 0 0
345 4 10.213514340313758 4.3420457207655945 37.79971041654141 0 0 0
349 7 9.222362150656448 6.624099383584404 37.846598257175664 0 0 0
351 7 12.249229685834162 8.56183100124161 37.83615068037326 -1 0 0
352 6 2.5014787748105847 8.66133906874469 37.686144062225026 0 0 0
357 7 3.844207855966354 10.814130784555916 37.949222383989785 0 0 0
360 7 1.3878966555800518 10.89977070910479 37.88225038502846 1 0 0
353 7 5.133949106904745 8.709608642660665 37.81980314307369 0 0 0
354 7 7.951051452149979 8.941156077153138 37.80168430355958 0 0 0
358 6 6.428690359314531 10.858621320277116 37.805256171931774 0 0 0
331 7 12.402714451826588 12.900761127712645 37.63401464710176 -1 -1 0
359 2 8.590839985958981 11.141676141140229 37.40622449186046 0 0 0

Velocities

1 0 0 0
2 0 0 0
3 0 0 0
9 0 0 0
5 0 0 0
6 0 0 0
10 0 0 0
16 0 0 0
20 0 0 0
26 0 0 0
27 0 0 0
23 0 0 0
28 0 0 0
29 0 0 0
24 0 0 0
25 0 0 0
30 0 0 0
7 0 0 0
31 0 0 0
32 0 0 0
36 0 0 0
37 0 0 0
56 0 0 0
8 0 0 0
33 0 0 0
34 0 0 0
38 0 0 0
4 0 0 0
35 0 0 0
39 0 0 0
40 0 0 0
11 0 0 0
12 0 0 0
17 0 0 0
42 0 0 0
47 0 0 0
13 0 0 0
18 0 0 0
19 0 0 0
43 0 0 0
44 0 0 0
48 0 0 0
14 0 0 0
15 0 0 0
41 0 0 0
45 0 0 0
49 0 0 0
50 0 0 0
85 0 0 0
21 0 0 0
22 0 0 0
46 0 0 0
52 0 0 0
57 0 0 0
87 0 0 0
53 0 0 0
54 0 0 0
58 0 0 0
51 0 0 0
55 0 0 0
59 0 0 0
60 0 0 0
61 0 0 0
66 0 0 0
67 0 0 0
91 0 0 0
92 0 0 0
96 0 0 0
97 0 0 0
63 0 0 0
64 0 0 0
68 0 0 0
74 0 0 0
93 0 0 0
98 0 0 0
99 0 0 0
65 0 0 0
69 0 0 0
70 0 0 0
94 0 0 0
95 0 0 0
100 0 0 0
72 0 0 0
76 0 0 0
77 0 0 0
82 0 0 0
101 0 0 0
102 0 0 0
107 0 0 0
73 0 0 0
78 0 0 0
103 0 0 0
108 0 0 0
109 0 0 0
71 0 0 0
75 0 0 0
79 0 0 0
80 0 0 0
81 0 0 0
104 0 0 0
105 0 0 0
106 0 0 0
110 0 0 0
62 0 0 0
86 0 0 0
111 0 0 0
112 0 0 0
116 0 0 0
117 0 0 0
83 0 0 0
84 0 0 0
88 0 0 0
113 0 0 0
118 0 0 0
119 0 0 0
89 0 0 0
90 0 0 0
114 0 0 0
115 0 0 0
120 0 0 0
121 0 0 0
122 0 0 0
126 0 0 0
127 0 0 0
156 0 0 0
157 0 0 0
162 0 0 0
123 0 0 0
124 0 0 0
128 0 0 0
153 0 0 0
158 0 0 0
163 0 0 0
164 0 0 0
125 0 0 0
129 0 0 0
130 0 0 0
155 0 0 0
159 0 0 0
160 0 0 0
165 0 0 0
131 0 0 0
132 0 0 0
136 0 0 0
137 0 0 0
161 0 0 0
166 0 0 0
167 0 0 0
171 0 0 0
172 0 0 0
133 0 0 0
134 0 0 0
138 0 0 0
168 0 0 0
173 0 0 0
135 0 0 0
139 0 0 0
140 0 0 0
169 0 0 0
170 0 0 0
175 0 0 0
141 0 0 0
142 0 0 0
146 0 0 0
147 0 0 0
151 0 0 0
152 0 0 0
176 0 0 0
177 0 0 0
143 0 0 0
144 0 0 0
148 0 0 0
154 0 0 0
178 0 0 0
145 0 0 0
149 0 0 0
150 0 0 0
174 0 0 0
179 0 0 0
180 0 0 0
181 0 0 0
182 0 0 0
186 0 0 0
187 0 0 0
211 0 0 0
212 0 0 0
216 0 0 0
217 0 0 0
183 0 0 0
188 0 0 0
189 0 0 0
213 0 0 0
214 0 0 0
218 0 0 0
184 0 0 0
185 0 0 0
190 0 0 0
215 0 0 0
219 0 0 0
220 0 0 0
191 0 0 0
192 0 0 0
196 0 0 0
197 0 0 0
221 0 0 0
222 0 0 0
226 0 0 0
227 0 0 0
193 0 0 0
198 0 0 0
199 0 0 0
223 0 0 0
224 0 0 0
228 0 0 0
194 0 0 0
195 0 0 0
200 0 0 0
225 0 0 0
229 0 0 0
230 0 0 0
201 0 0 0
202 0 0 0
206 0 0 0
207 0 0 0
231 0 0 0
232 0 0 0
236 0 0 0
203 0 0 0
208 0 0 0
209 0 0 0
233 0 0 0
234 0 0 0
238 0 0 0
204 0 0 0
205 0 0 0
210 0 0 0
235 0 0 0
239 0 0 0
240 0 0 0
237 0 0 0
241 0 0 0
242 0 0 0
246 0 0 0
247 0 0 0
248 0 0 0
253 0 0 0
254 0 0 0
249 0 0 0
250 0 0 0
255 0 0 0
251 0 0 0
252 0 0 0
256 0 0 0
257 0 0 0
286 0 0 0
258 0 0 0
264 0 0 0
259 0 0 0
260 0 0 0
284 0 0 0
285 0 0 0
290 0 0 0
261 0 0 0
262 0 0 0
266 0 0 0
267 0 0 0
292 0 0 0
243 0 0 0
244 0 0 0
263 0 0 0
268 0 0 0
293 0 0 0
245 0 0 0
265 0 0 0
269 0 0 0
270 0 0 0
296 0 0 0
271 0 0 0
272 0 0 0
276 0 0 0
277 0 0 0
301 0 0 0
302 0 0 0
306 0 0 0
307 0 0 0
273 0 0 0
278 0 0 0
279 0 0 0
303 0 0 0
304 0 0 0
308 0 0 0
274 0 0 0
275 0 0 0
280 0 0 0
305 0 0 0
309 0 0 0
310 0 0 0
281 0 0 0
282 0 0 0
287 0 0 0
312 0 0 0
316 0 0 0
317 0 0 0
283 0 0 0
288 0 0 0
289 0 0 0
313 0 0 0
314 0 0 0
318 0 0 0
311 0 0 0
315 0 0 0
319 0 0 0
320 0 0 0
350 0 0 0
355 0 0 0
291 0 0 0
297 0 0 0
321 0 0 0
322 0 0 0
326 0 0 0
327 0 0 0
356 0 0 0
298 0 0 0
299 0 0 0
323 0 0 0
324 0 0 0
328 0 0 0
294 0 0 0
295 0 0 0
300 0 0 0
325 0 0 0
329 0 0 0
330 0 0 0
335 0 0 0
332 0 0 0
336 0 0 0
337 0 0 0
341 0 0 0
342 0 0 0
333 0 0 0
334 0 0 0
338 0 0 0
339 0 0 0
340 0 0 0
362 0 0 0
346 0 0 0
347 0 0 0
343 0 0 0
344 0 0 0
348 0 0 0
361 0 0 0
345 0 0 0
349 0 0 0
351 0 0 0
352 0 0 0
357 0 0 0
360 0 0 0
353 0 0 0
354 0 0 0
358 0 0 0
331 0 0 0
359 0 0 0
