T=600K Start: Sat Apr 25 07:46:39 PM EDT 2026
LAMMPS (11 Feb 2026 - Development - patch_11Feb2026-99-gb75dfcc930-modified)
KOKKOS mode with Kokkos version 5.0.2 is enabled
  using double precision
  using view layout = legacy
  will use up to 1 GPU(s) per node
  using 1 OpenMP thread(s) per MPI task
Reading data file ...
  orthogonal box = (0 0 0) to (17.854319 17.854319 17.854319)
  1 by 1 by 1 MPI processor grid
  reading atoms ...
  501 atoms
  read_data CPU = 0.010 seconds
/home/akinyemi.az/miniforge3/envs/mace-lammps/lib/python3.11/site-packages/e3nn/o3/_wigner.py:10: FutureWarning: You are using `torch.load` with `weights_only=False` (the current default value), which uses the default pickle module implicitly. It is possible to construct malicious pickle data which will execute arbitrary code during unpickling (See https://github.com/pytorch/pytorch/blob/main/SECURITY.md#untrusted-models for more details). In a future release, the default value for `weights_only` will be flipped to `True`. This limits the functions that could be executed during unpickling. Arbitrary objects will no longer be allowed to be loaded via this mode unless they are explicitly allowlisted by the user via `torch.serialization.add_safe_globals`. We recommend you start setting `weights_only=True` for any use case where you don't have full control of the loaded file. Please open an issue on GitHub for any issues related to this experimental feature.
  _Jd, _W3j_flat, _W3j_indices = torch.load(os.path.join(os.path.dirname(__file__), 'constants.pt'))
1 atoms in group H_atom
500 atoms in group metal
### Phase 1: Equilibration 250 ps at 600 K ###

CITE-CITE-CITE-CITE-CITE-CITE-CITE-CITE-CITE-CITE-CITE-CITE-CITE

Your simulation uses code contributions which should be cited:
- KOKKOS package: https://doi.org/10.1145/3731599.3767498
The log file lists these citations in BibTeX format.

CITE-CITE-CITE-CITE-CITE-CITE-CITE-CITE-CITE-CITE-CITE-CITE-CITE

Neighbor list info ...
  update: every = 1 steps, delay = 0 steps, check = yes
  max neighbors/atom: 2000, page size: 100000
  master list distance cutoff = 7
  ghost atom cutoff = 7
  binsize = 7, bins = 3 3 3
  1 neighbor lists, perpetual/occasional/extra = 1 0 0
  (1) pair mliap/kk, perpetual
      attributes: full, newton on, kokkos_device
      pair build: full/bin/kk/device
      stencil: full/bin/3d
      bin: kk/device
Setting up Verlet run ...
  Unit style    : metal
  Current step  : 0
  Time step     : 0.0005
Per MPI rank memory allocation (min/avg/max) = 81.36 | 81.36 | 81.36 Mbytes
   Step          Temp          PotEng         KinEng         TotEng         Press          Volume    
         0   600           -3367.5969      38.778044     -3328.8189      8894.7844      5691.5412    
      1000   582.71356     -3330.4879      37.66082      -3292.8271      41011.399      5691.5412    
      2000   564.68798     -3330.2851      36.495825     -3293.7893      42331.302      5691.5412    
      3000   610.59004     -3329.533       39.462479     -3290.0705      38631.087      5691.5412    
      4000   644.61329     -3330.2678      41.661404     -3288.6064      44744.547      5691.5412    
      5000   628.17147     -3330.1164      40.598767     -3289.5176      44566.58       5691.5412    
      6000   626.79109     -3332.6047      40.509554     -3292.0951      39733.498      5691.5412    
      7000   618.76323     -3332.1975      39.990712     -3292.2068      42018.412      5691.5412    
      8000   612.68014     -3328.8255      39.597562     -3289.2279      43491.143      5691.5412    
      9000   574.32328     -3328.8625      37.118555     -3291.744       45045.882      5691.5412    
     10000   602.23358     -3333.2424      38.9224       -3294.32        41465.285      5691.5412    
     11000   634.64369     -3332.3484      41.017068     -3291.3314      41993.441      5691.5412    
     12000   595.55873     -3331.1773      38.491004     -3292.6863      43917.468      5691.5412    
     13000   576.5417      -3331.521       37.261932     -3294.259       43543.144      5691.5412    
     14000   575.08819     -3332.941       37.167992     -3295.773       41031.548      5691.5412    
     15000   589.44694     -3333.4968      38.095999     -3295.4008      42488.219      5691.5412    
     16000   604.95477     -3331.9247      39.098271     -3292.8264      45085.409      5691.5412    
     17000   596.13445     -3333.8599      38.528212     -3295.3317      44845.429      5691.5412    
     18000   605.90156     -3333.1565      39.159462     -3293.997       41740.502      5691.5412    
     19000   603.32558     -3330.548       38.992976     -3291.555       46569.994      5691.5412    
     20000   583.31592     -3332.3832      37.69975      -3294.6835      42685.785      5691.5412    
     21000   577.30191     -3332.8194      37.311064     -3295.5083      44247.117      5691.5412    
     22000   572.64488     -3334.4623      37.01008      -3297.4523      41572.554      5691.5412    
     23000   572.85582     -3333.1117      37.023713     -3296.0879      41759.724      5691.5412    
     24000   612.95142     -3332.403       39.615095     -3292.7879      43701.433      5691.5412    
     25000   622.78619     -3332.7984      40.250716     -3292.5477      43104.103      5691.5412    
     26000   593.88277     -3334.5792      38.382687     -3296.1965      43840.125      5691.5412    
     27000   595.46644     -3335.4604      38.485039     -3296.9754      39994.372      5691.5412    
     28000   600.75212     -3333.4647      38.826653     -3294.638       44089.823      5691.5412    
     29000   595.36218     -3331.8668      38.478301     -3293.3885      47061.444      5691.5412    
     30000   603.06036     -3332.0092      38.975835     -3293.0334      41324.949      5691.5412    
     31000   581.40559     -3332.5342      37.576286     -3294.9579      41202.099      5691.5412    
     32000   618.02019     -3332.8103      39.942689     -3292.8676      45552.616      5691.5412    
     33000   627.0418      -3329.9576      40.525757     -3289.4319      47926.197      5691.5412    
     34000   611.59734     -3333.7582      39.527581     -3294.2306      43360.74       5691.5412    
     35000   603.86544     -3334.3996      39.027867     -3295.3718      39133.389      5691.5412    
     36000   573.78761     -3333.8586      37.083935     -3296.7746      43841.426      5691.5412    
     37000   573.74394     -3333.887       37.081112     -3296.8059      40281.807      5691.5412    
     38000   606.01719     -3331.9767      39.166935     -3292.8098      45156.872      5691.5412    
     39000   652.3716      -3332.9587      42.162824     -3290.7958      40750.87       5691.5412    
     40000   632.9086      -3335.2577      40.904929     -3294.3528      37603.728      5691.5412    
     41000   585.54334     -3333.3454      37.843709     -3295.5017      42351.632      5691.5412    
     42000   628.60198     -3335.8712      40.626591     -3295.2446      41874.36       5691.5412    
     43000   604.85469     -3332.2906      39.091802     -3293.1988      47266.667      5691.5412    
     44000   589.78202     -3332.1779      38.117655     -3294.0602      41838.729      5691.5412    
     45000   576.14289     -3332.9433      37.236157     -3295.7072      39913.785      5691.5412    
     46000   625.62961     -3332.3484      40.434487     -3291.9139      43099.078      5691.5412    
     47000   632.90455     -3332.0109      40.904667     -3291.1063      42826.584      5691.5412    
     48000   578.03677     -3329.7668      37.358558     -3292.4083      44067.414      5691.5412    
     49000   592.61428     -3332.4841      38.300704     -3294.1833      42707.799      5691.5412    
     50000   566.22399     -3333.4624      36.595097     -3296.8673      41576.4        5691.5412    
     51000   589.13122     -3334.9574      38.075593     -3296.8818      39929.53       5691.5412    
     52000   604.85194     -3334.0035      39.091625     -3294.9118      39817.437      5691.5412    
     53000   599.52513     -3331.8857      38.747353     -3293.1383      43421.767      5691.5412    
     54000   622.57812     -3331.7428      40.237269     -3291.5056      43164.445      5691.5412    
     55000   596.76313     -3332.6047      38.568844     -3294.0359      38609.348      5691.5412    
     56000   597.31252     -3332.8883      38.604352     -3294.2839      42401.813      5691.5412    
     57000   602.9372      -3333.7685      38.967875     -3294.8006      40352.593      5691.5412    
     58000   598.08224     -3332.8809      38.654098     -3294.2268      40464.728      5691.5412    
     59000   630.65257     -3332.8511      40.759121     -3292.092       41575.748      5691.5412    
     60000   598.47704     -3330.2126      38.679614     -3291.533       45534.884      5691.5412    
     61000   607.00277     -3333.2293      39.230633     -3293.9986      43124.752      5691.5412    
     62000   596.00898     -3333.4221      38.520104     -3294.902       42140.879      5691.5412    
     63000   601.95786     -3331.2522      38.90458      -3292.3476      43706.335      5691.5412    
     64000   656.02843     -3333.9403      42.399165     -3291.5411      39714.905      5691.5412    
     65000   597.7888      -3332.6851      38.635133     -3294.0499      39350.96       5691.5412    
     66000   574.27365     -3333.3507      37.115348     -3296.2354      41453.486      5691.5412    
     67000   605.22604     -3332.4819      39.115803     -3293.3661      39101.361      5691.5412    
     68000   584.40731     -3332.2999      37.770287     -3294.5296      41169.589      5691.5412    
     69000   574.25024     -3334.5621      37.113834     -3297.4483      36768.646      5691.5412    
     70000   576.71986     -3333.4694      37.273446     -3296.196       40725.279      5691.5412    
     71000   613.01548     -3335.3256      39.619235     -3295.7064      39620.553      5691.5412    
     72000   595.72046     -3333.7532      38.501457     -3295.2517      42653.637      5691.5412    
     73000   591.9132      -3332.2938      38.255393     -3294.0385      41975.39       5691.5412    
     74000   612.8875      -3334.0242      39.610964     -3294.4132      41074.118      5691.5412    
     75000   596.65019     -3335.1095      38.561545     -3296.5479      38557.024      5691.5412    
     76000   603.8166      -3334.1501      39.024711     -3295.1254      41512.15       5691.5412    
     77000   638.64619     -3333.3481      41.275749     -3292.0724      42090.18       5691.5412    
     78000   603.73018     -3332.8293      39.019125     -3293.8101      41575.755      5691.5412    
     79000   587.29        -3333.5894      37.956596     -3295.6328      41331.317      5691.5412    
     80000   616.6833      -3333.034       39.856286     -3293.1778      42623.056      5691.5412    
     81000   589.69524     -3333.4136      38.112046     -3295.3016      41865.835      5691.5412    
     82000   599.26001     -3331.2029      38.730218     -3292.4726      43443.435      5691.5412    
     83000   632.67672     -3332.5511      40.889942     -3291.6612      40772.103      5691.5412    
     84000   597.79352     -3331.3624      38.635439     -3292.7269      44579.408      5691.5412    
     85000   608.69339     -3333.2728      39.339898     -3293.9329      42625.795      5691.5412    
     86000   580.14281     -3335.7807      37.494672     -3298.2861      40276.123      5691.5412    
     87000   593.43286     -3334.1802      38.353609     -3295.8266      39602.424      5691.5412    
     88000   612.10059     -3331.9516      39.560105     -3292.3915      41712.834      5691.5412    
     89000   616.28163     -3333.423       39.830326     -3293.5927      38522.87       5691.5412    
     90000   565.49224     -3332.0763      36.547805     -3295.5285      39275.086      5691.5412    
     91000   571.02557     -3333.9741      36.905424     -3297.0687      40857.974      5691.5412    
     92000   609.50926     -3333.6386      39.392627     -3294.246       45157.525      5691.5412    
     93000   606.42399     -3330.6998      39.193226     -3291.5066      42153.004      5691.5412    
     94000   611.12668     -3329.7574      39.497162     -3290.2602      44690.672      5691.5412    
     95000   599.33323     -3334.0248      38.73495      -3295.2898      42588.258      5691.5412    
     96000   587.41925     -3334.4565      37.964949     -3296.4915      42229.922      5691.5412    
     97000   605.35472     -3336.9097      39.124119     -3297.7856      38996.186      5691.5412    
     98000   601.61651     -3334.0864      38.882519     -3295.2039      42352.18       5691.5412    
     99000   596.80682     -3332.1305      38.571668     -3293.5588      44673.759      5691.5412    
    100000   621.65046     -3333.4011      40.177314     -3293.2238      43257.795      5691.5412    
    101000   577.62198     -3331.4641      37.33175      -3294.1323      43139.721      5691.5412    
    102000   600.7436      -3337.3421      38.826103     -3298.516       40014.891      5691.5412    
    103000   564.65698     -3331.9847      36.493822     -3295.4909      44374.457      5691.5412    
    104000   585.82927     -3334.0408      37.862188     -3296.1786      42020.901      5691.5412    
    105000   642.06067     -3330.8344      41.496427     -3289.338       46835.042      5691.5412    
    106000   577.9878      -3334.6533      37.355393     -3297.2979      44037.581      5691.5412    
    107000   573.34974     -3333.4974      37.055636     -3296.4418      44615.902      5691.5412    
    108000   623.76537     -3331.5156      40.314001     -3291.2016      47188.006      5691.5412    
    109000   591.02412     -3331.2339      38.197932     -3293.0359      44225.753      5691.5412    
    110000   597.2761      -3333.9141      38.601998     -3295.3121      43618.191      5691.5412    
    111000   608.24929     -3334.7761      39.311196     -3295.4649      43610.857      5691.5412    
    112000   605.66921     -3332.5784      39.144445     -3293.4339      42209.723      5691.5412    
    113000   586.34213     -3333.2449      37.895334     -3295.3496      46972.195      5691.5412    
    114000   583.66527     -3335.4914      37.722329     -3297.7691      43258.456      5691.5412    
    115000   577.90611     -3333.1727      37.350114     -3295.8226      45033.492      5691.5412    
    116000   627.70494     -3331.4622      40.568616     -3290.8936      45556.849      5691.5412    
    117000   596.54294     -3332.4618      38.554613     -3293.9072      42492.128      5691.5412    
    118000   596.41795     -3334.524       38.546535     -3295.9775      40898.739      5691.5412    
    119000   582.76813     -3334.2618      37.664347     -3296.5974      43269.95       5691.5412    
    120000   630.97771     -3334.7437      40.780135     -3293.9635      43215.088      5691.5412    
    121000   622.15023     -3333.1483      40.209615     -3292.9387      44726.553      5691.5412    
    122000   602.62969     -3333.4365      38.948        -3294.4885      42561.187      5691.5412    
    123000   594.31716     -3336.2964      38.410761     -3297.8857      39308.808      5691.5412    
    124000   582.38073     -3337.2007      37.639309     -3299.5614      39590.151      5691.5412    
    125000   620.70926     -3337.6576      40.116485     -3297.5411      41243.12       5691.5412    
    126000   618.80208     -3335.605       39.993223     -3295.6118      38173.625      5691.5412    
    127000   583.59348     -3333.9751      37.717689     -3296.2574      41875.651      5691.5412    
    128000   571.91478     -3335.7458      36.962894     -3298.7829      40931.96       5691.5412    
    129000   559.47783     -3333.3324      36.159093     -3297.1733      43838.211      5691.5412    
    130000   602.79275     -3333.5506      38.958539     -3294.592       43072.859      5691.5412    
    131000   619.4583      -3336.4708      40.035635     -3296.4352      39122.009      5691.5412    
    132000   603.62427     -3336.8035      39.012281     -3297.7913      42908.457      5691.5412    
    133000   627.61094     -3333.5472      40.562541     -3292.9846      41319.174      5691.5412    
    134000   625.3889      -3335.6658      40.41893      -3295.2469      39338.838      5691.5412    
    135000   592.13469     -3335.5113      38.269708     -3297.2415      37254.111      5691.5412    
    136000   611.51944     -3337.3189      39.522546     -3297.7963      39145.277      5691.5412    
    137000   594.49405     -3337.0044      38.422194     -3298.5822      39483.947      5691.5412    
    138000   610.43566     -3335.7869      39.452501     -3296.3344      39514.521      5691.5412    
    139000   620.36892     -3335.6903      40.094488     -3295.5958      41357.932      5691.5412    
    140000   571.07038     -3332.8856      36.90832      -3295.9773      40551.709      5691.5412    
    141000   605.41742     -3335.7044      39.128172     -3296.5762      40985.212      5691.5412    
    142000   576.38241     -3333.8076      37.251637     -3296.5559      43059.77       5691.5412    
    143000   610.13396     -3332.4728      39.433002     -3293.0398      43339.42       5691.5412    
    144000   596.12172     -3336.5144      38.52739      -3297.987       37757.879      5691.5412    
    145000   583.32677     -3335.345       37.700452     -3297.6445      41740.656      5691.5412    
    146000   605.54044     -3334.9359      39.136122     -3295.7998      42913.468      5691.5412    
    147000   603.8094      -3334.3879      39.024245     -3295.3637      40153.747      5691.5412    
    148000   605.19345     -3331.5847      39.113697     -3292.471       41796.596      5691.5412    
    149000   619.36994     -3334.2417      40.029924     -3294.2117      40635.321      5691.5412    
    150000   606.09993     -3335.0033      39.172283     -3295.831       37526.496      5691.5412    
    151000   587.41329     -3335.9958      37.964563     -3298.0312      35116.724      5691.5412    
    152000   609.01221     -3336.6969      39.360503     -3297.3364      38152.092      5691.5412    
    153000   615.69689     -3334.1306      39.792535     -3294.3381      42683.563      5691.5412    
    154000   615.33056     -3333.7395      39.768859     -3293.9707      42213.21       5691.5412    
    155000   606.58499     -3335.5248      39.203632     -3296.3212      39896.074      5691.5412    
    156000   588.80876     -3335.0049      38.054753     -3296.9501      38263.066      5691.5412    
    157000   645.14869     -3334.7603      41.696006     -3293.0643      38961.386      5691.5412    
    158000   627.30196     -3332.4709      40.542571     -3291.9283      44253.985      5691.5412    
    159000   601.87564     -3333.4221      38.899266     -3294.5228      42828.868      5691.5412    
    160000   589.7216      -3334.72        38.11375      -3296.6063      39589.93       5691.5412    
    161000   582.07421     -3335.174       37.619498     -3297.5545      38752.689      5691.5412    
    162000   620.80142     -3334.4092      40.122441     -3294.2868      38720.71       5691.5412    
    163000   618.30137     -3334.2292      39.960862     -3294.2683      41653.881      5691.5412    
    164000   652.67256     -3337.626       42.182275     -3295.4437      39156.458      5691.5412    
    165000   591.32592     -3335.5939      38.217437     -3297.3764      43492.855      5691.5412    
    166000   591.37883     -3337.1084      38.220857     -3298.8875      42289.02       5691.5412    
    167000   561.67965     -3336.2759      36.301396     -3299.9745      39315.13       5691.5412    
    168000   608.79158     -3333.9221      39.346244     -3294.5759      43427.457      5691.5412    
    169000   627.79105     -3336.1176      40.574181     -3295.5434      43919.831      5691.5412    
    170000   568.35977     -3334.4976      36.733133     -3297.7645      41469.12       5691.5412    
    171000   591.19226     -3338.603       38.208799     -3300.3942      41522.891      5691.5412    
    172000   580.64343     -3335.7632      37.527027     -3298.2362      40182.679      5691.5412    
    173000   624.73608     -3335.1104      40.376738     -3294.7337      40246.134      5691.5412    
    174000   613.31893     -3333.4492      39.638847     -3293.8104      47691.384      5691.5412    
    175000   633.62184     -3337.1423      40.951025     -3296.1913      39722.644      5691.5412    
    176000   548.59483     -3336.1532      35.455723     -3300.6975      41563.844      5691.5412    
    177000   586.41206     -3336.4076      37.899854     -3298.5078      42801.242      5691.5412    
    178000   608.31957     -3336.3137      39.315738     -3296.998       42676.101      5691.5412    
    179000   607.9642      -3334.1898      39.29277      -3294.897       43393.377      5691.5412    
    180000   620.9851      -3333.0718      40.134312     -3292.9375      42282.723      5691.5412    
    181000   571.33901     -3333.4078      36.925682     -3296.4821      40681.555      5691.5412    
    182000   596.06635     -3332.7322      38.523811     -3294.2084      44614.963      5691.5412    
    183000   602.7792      -3335.2779      38.957663     -3296.3202      42540.628      5691.5412    
    184000   590.40771     -3337.4177      38.158093     -3299.2596      40042.644      5691.5412    
    185000   569.17478     -3333.5941      36.785807     -3296.8083      41605.043      5691.5412    
    186000   609.43108     -3334.5918      39.387575     -3295.2043      41859.902      5691.5412    
    187000   620.74468     -3336.2272      40.118774     -3296.1085      40329.18       5691.5412    
    188000   583.21192     -3334.5957      37.693029     -3296.9027      38822.955      5691.5412    
    189000   595.65946     -3335.8623      38.497514     -3297.3648      40529.664      5691.5412    
    190000   621.72615     -3337.1844      40.182206     -3297.0021      40473.878      5691.5412    
    191000   630.11945     -3335.1849      40.724666     -3294.4602      43142.391      5691.5412    
    192000   594.60064     -3333.7159      38.429083     -3295.2869      43644.313      5691.5412    
    193000   594.81258     -3338.9429      38.44278      -3300.5002      39281.724      5691.5412    
    194000   582.11795     -3335.4334      37.622325     -3297.8111      40406.31       5691.5412    
    195000   583.66404     -3334.8671      37.722249     -3297.1449      42564.76       5691.5412    
    196000   567.6418      -3333.9831      36.68673      -3297.2964      43100.202      5691.5412    
    197000   602.95455     -3334.113       38.968996     -3295.144       40493.856      5691.5412    
    198000   621.75366     -3332.9256      40.183984     -3292.7416      42222.167      5691.5412    
    199000   597.43767     -3335.1421      38.61244      -3296.5297      39738.705      5691.5412    
    200000   605.18737     -3337.1242      39.113303     -3298.0109      41816.712      5691.5412    
    201000   564.21656     -3335.9443      36.465357     -3299.4789      40173.22       5691.5412    
    202000   609.82224     -3334.9087      39.412856     -3295.4958      38035.346      5691.5412    
    203000   648.72357     -3335.036       41.927051     -3293.1089      41017.438      5691.5412    
    204000   616.36647     -3335.5045      39.83581      -3295.6687      39791.201      5691.5412    
    205000   608.51756     -3336.5711      39.328534     -3297.2426      39335.419      5691.5412    
    206000   589.37553     -3335.5297      38.091383     -3297.4383      39829.067      5691.5412    
    207000   630.62978     -3335.3649      40.757648     -3294.6073      41650.103      5691.5412    
    208000   588.46158     -3333.0249      38.032315     -3294.9926      41765.365      5691.5412    
    209000   572.22424     -3333.9957      36.982894     -3297.0128      43797.221      5691.5412    
    210000   582.52697     -3333.1165      37.64876      -3295.4678      43982.586      5691.5412    
    211000   611.19301     -3333.122       39.501449     -3293.6205      45915.072      5691.5412    
    212000   597.1594      -3335.6761      38.594455     -3297.0816      38692.289      5691.5412    
    213000   595.54347     -3337.7641      38.490017     -3299.2741      37967.8        5691.5412    
    214000   573.85852     -3336.5924      37.088518     -3299.5038      36965.608      5691.5412    
    215000   600.94076     -3335.5851      38.838845     -3296.7463      38111.142      5691.5412    
    216000   599.56569     -3334.0813      38.749974     -3295.3313      41230.064      5691.5412    
    217000   585.5239      -3335.3329      37.842452     -3297.4904      39647.243      5691.5412    
    218000   603.58211     -3336.3597      39.009555     -3297.3502      38712.555      5691.5412    
    219000   638.7287      -3336.1111      41.281082     -3294.83        39711.449      5691.5412    
    220000   620.70394     -3333.492       40.116141     -3293.3759      42290.234      5691.5412    
    221000   616.07445     -3335.4629      39.816937     -3295.646       39189.85       5691.5412    
    222000   601.68467     -3336.704       38.886924     -3297.8171      40118.913      5691.5412    
    223000   601.58057     -3337.003       38.880196     -3298.1228      37053.395      5691.5412    
    224000   551.72334     -3336.3007      35.65792      -3300.6428      38339.38       5691.5412    
    225000   597.43491     -3335.6316      38.612261     -3297.0193      39126.78       5691.5412    
    226000   590.39978     -3334.0602      38.15758      -3295.9027      42247.802      5691.5412    
    227000   603.29597     -3337.0553      38.991062     -3298.0643      38018.787      5691.5412    
    228000   612.10928     -3335.3848      39.560667     -3295.8241      38099.645      5691.5412    
    229000   626.26946     -3334.0843      40.47584      -3293.6084      39074.979      5691.5412    
    230000   625.70507     -3335.2805      40.439364     -3294.8412      39352.876      5691.5412    
    231000   585.6523      -3336.349       37.850751     -3298.4983      39891.727      5691.5412    
    232000   652.66891     -3337.281       42.182039     -3295.0989      39628.75       5691.5412    
    233000   589.25923     -3333.9159      38.083867     -3295.8321      43231.22       5691.5412    
    234000   600.46811     -3335.0417      38.808298     -3296.2334      39555.323      5691.5412    
    235000   627.21929     -3335.9056      40.537228     -3295.3684      40450.549      5691.5412    
    236000   626.66291     -3335.9678      40.501269     -3295.4665      39229.781      5691.5412    
    237000   592.40113     -3336.0941      38.286928     -3297.8071      39232.029      5691.5412    
    238000   608.49269     -3337.3569      39.326927     -3298.03        39295.84       5691.5412    
    239000   596.19546     -3334.3151      38.532156     -3295.7829      40617.853      5691.5412    
    240000   619.01278     -3334.8561      40.006841     -3294.8493      41512.145      5691.5412    
    241000   586.02441     -3335.0863      37.8748       -3297.2115      37943.26       5691.5412    
    242000   587.7889      -3338.9957      37.988839     -3301.0069      35169.639      5691.5412    
    243000   594.11804     -3336.4737      38.397892     -3298.0758      37056.457      5691.5412    
    244000   599.59633     -3334.0606      38.751954     -3295.3086      40667.879      5691.5412    
    245000   611.52682     -3336.6488      39.523023     -3297.1257      40880.336      5691.5412    
    246000   620.06018     -3335.7553      40.074535     -3295.6807      40309.509      5691.5412    
    247000   652.45387     -3333.6876      42.168141     -3291.5195      40612.958      5691.5412    
    248000   578.21353     -3333.8938      37.369982     -3296.5238      43723.763      5691.5412    
    249000   583.2009      -3332.6349      37.692317     -3294.9426      44001.253      5691.5412    
    250000   580.23929     -3334.9625      37.500907     -3297.4616      38701.086      5691.5412    
    251000   603.84982     -3336.263       39.026858     -3297.2362      38562.223      5691.5412    
    252000   595.39058     -3333.7498      38.480136     -3295.2697      41548.874      5691.5412    
    253000   612.95788     -3332.305       39.615512     -3292.6895      40253.891      5691.5412    
    254000   608.90541     -3336.2038      39.353601     -3296.8502      37970.136      5691.5412    
    255000   593.75607     -3336.1658      38.374498     -3297.7913      38471.661      5691.5412    
    256000   599.18886     -3336.3754      38.725619     -3297.6498      38739.183      5691.5412    
    257000   611.82015     -3334.2718      39.541981     -3294.7298      42094.581      5691.5412    
    258000   623.47007     -3336.2826      40.294916     -3295.9876      38359.099      5691.5412    
    259000   576.40056     -3335.4487      37.25281      -3298.1959      39831.362      5691.5412    
    260000   609.44115     -3337.1555      39.388226     -3297.7673      37410.061      5691.5412    
    261000   616.19576     -3336.2107      39.824777     -3296.386       37946.815      5691.5412    
    262000   579.1013      -3336.7757      37.427359     -3299.3483      41046.338      5691.5412    
    263000   570.79886     -3337.2172      36.890772     -3300.3265      36358.69       5691.5412    
    264000   606.26988     -3336.6236      39.183266     -3297.4403      39567.3        5691.5412    
    265000   597.06949     -3334.5335      38.588644     -3295.9449      41050.519      5691.5412    
    266000   606.98168     -3335.7484      39.22927      -3296.5191      42564.706      5691.5412    
    267000   586.04386     -3335.7171      37.876057     -3297.8411      40168.895      5691.5412    
    268000   592.38704     -3336.4086      38.286017     -3298.1226      39783.835      5691.5412    
    269000   607.36328     -3337.3486      39.253933     -3298.0946      38402.558      5691.5412    
    270000   594.68712     -3335.7085      38.434672     -3297.2738      40836.824      5691.5412    
    271000   588.67256     -3336.0985      38.04595      -3298.0526      39956.022      5691.5412    
    272000   578.50217     -3337.7968      37.388637     -3300.4082      36945.933      5691.5412    
    273000   597.09315     -3337.385       38.590174     -3298.7949      40927.825      5691.5412    
    274000   621.30898     -3336.0513      40.155245     -3295.8961      39027.452      5691.5412    
    275000   592.85361     -3335.7065      38.316172     -3297.3904      38204.96       5691.5412    
    276000   550.41298     -3336.6056      35.573231     -3301.0323      36633.045      5691.5412    
    277000   593.94616     -3338.4193      38.386783     -3300.0325      38528.702      5691.5412    
    278000   593.61293     -3337.1121      38.365247     -3298.7468      41147.183      5691.5412    
    279000   604.57126     -3333.7953      39.073485     -3294.7218      39085.512      5691.5412    
    280000   604.86231     -3332.1154      39.092295     -3293.0231      43759.527      5691.5412    
    281000   596.50233     -3337.5514      38.551989     -3298.9994      39331.401      5691.5412    
    282000   566.03595     -3335.9885      36.582944     -3299.4055      41246.429      5691.5412    
    283000   581.00663     -3332.6147      37.5505       -3295.0642      41764.407      5691.5412    
    284000   611.27679     -3335.0509      39.506863     -3295.544       40495.683      5691.5412    
    285000   626.8103      -3338.5732      40.510795     -3298.0624      40106.677      5691.5412    
    286000   616.77016     -3337.4762      39.8619       -3297.6143      40111.939      5691.5412    
    287000   611.62726     -3335.9579      39.529514     -3296.4284      39377.781      5691.5412    
    288000   595.19893     -3334.0255      38.46775      -3295.5578      41975.338      5691.5412    
    289000   606.95452     -3332.4316      39.227515     -3293.2041      42908.864      5691.5412    
    290000   613.42833     -3335.3928      39.645918     -3295.7469      39130.893      5691.5412    
    291000   603.66179     -3336.7504      39.014705     -3297.7357      41333.875      5691.5412    
    292000   599.40644     -3336.7903      38.739681     -3298.0506      35389.771      5691.5412    
    293000   632.40326     -3335.8614      40.872269     -3294.9891      40372.596      5691.5412    
    294000   619.74147     -3335.3789      40.053936     -3295.325       40235.704      5691.5412    
    295000   622.94065     -3337.3761      40.260699     -3297.1154      38548.947      5691.5412    
    296000   598.17185     -3334.8992      38.65989      -3296.2394      37232.603      5691.5412    
    297000   596.4505      -3337.2268      38.548639     -3298.6781      38999.887      5691.5412    
    298000   613.80605     -3338.3335      39.67033      -3298.6632      39556.494      5691.5412    
    299000   613.10846     -3336.1375      39.625244     -3296.5123      39043.35       5691.5412    
    300000   608.61062     -3333.3119      39.334548     -3293.9773      41006.134      5691.5412    
    301000   609.31106     -3337.0721      39.379818     -3297.6923      36170.824      5691.5412    
    302000   594.01997     -3336.7628      38.391554     -3298.3713      38146.189      5691.5412    
    303000   635.45032     -3336.7678      41.0692       -3295.6986      39539.355      5691.5412    
    304000   602.93019     -3332.5097      38.967422     -3293.5423      44449.896      5691.5412    
    305000   633.16206     -3336.059       40.92131      -3295.1377      42876.344      5691.5412    
    306000   590.47479     -3335.8262      38.162428     -3297.6638      40532.561      5691.5412    
    307000   576.8454      -3336.2959      37.28156      -3299.0144      41343.649      5691.5412    
    308000   605.42194     -3337.9919      39.128464     -3298.8634      38097.133      5691.5412    
    309000   601.69305     -3335.4707      38.887465     -3296.5832      43134.069      5691.5412    
    310000   615.08784     -3336.0734      39.753172     -3296.3202      40696.339      5691.5412    
    311000   608.3794      -3335.4184      39.319605     -3296.0988      40172.055      5691.5412    
    312000   586.06712     -3338.2494      37.87756      -3300.3719      35883.992      5691.5412    
    313000   590.8151      -3338.1696      38.184423     -3299.9852      36722.525      5691.5412    
    314000   583.09776     -3334.8817      37.68565      -3297.1961      37505.188      5691.5412    
    315000   579.66737     -3337.2002      37.463944     -3299.7362      39090.921      5691.5412    
    316000   607.51044     -3338.5704      39.263444     -3299.307       35856.016      5691.5412    
    317000   588.10987     -3333.8717      38.009584     -3295.8621      43450.459      5691.5412    
    318000   632.95703     -3338.0079      40.908059     -3297.0999      37588.479      5691.5412    
    319000   593.7374      -3336.8715      38.373291     -3298.4982      37260.794      5691.5412    
    320000   577.87919     -3334.8434      37.348374     -3297.495       41417.598      5691.5412    
    321000   623.36431     -3333.9768      40.288081     -3293.6887      39652.077      5691.5412    
    322000   591.06663     -3333.9749      38.200679     -3295.7742      40388.072      5691.5412    
    323000   622.84766     -3335.7583      40.25469      -3295.5036      39466.996      5691.5412    
    324000   616.84819     -3334.0083      39.866943     -3294.1414      42244.334      5691.5412    
    325000   612.36772     -3335.9096      39.57737      -3296.3322      40758.848      5691.5412    
    326000   592.1857      -3336.1359      38.273005     -3297.8629      38398.593      5691.5412    
    327000   595.73447     -3336.9346      38.502362     -3298.4322      39348.342      5691.5412    
    328000   592.70769     -3335.0386      38.306741     -3296.7319      43462.947      5691.5412    
    329000   632.79914     -3335.2239      40.897854     -3294.326       41247.012      5691.5412    
    330000   594.38831     -3335.5475      38.41536      -3297.1321      40216.894      5691.5412    
    331000   589.90259     -3337.3608      38.125447     -3299.2354      39171.278      5691.5412    
    332000   607.31953     -3335.9134      39.251105     -3296.6623      41100.689      5691.5412    
    333000   613.45444     -3334.1562      39.647605     -3294.5086      41124.097      5691.5412    
    334000   580.54489     -3335.1537      37.520658     -3297.633       40744.225      5691.5412    
    335000   574.61077     -3335.4188      37.137136     -3298.2817      42111.038      5691.5412    
    336000   572.97781     -3335.9548      37.031597     -3298.9232      40026.368      5691.5412    
    337000   607.19225     -3336.8258      39.242879     -3297.583       38366.758      5691.5412    
    338000   613.7374      -3335.6063      39.665893     -3295.9404      40924.466      5691.5412    
    339000   587.47334     -3338.9014      37.968445     -3300.9329      38166.547      5691.5412    
    340000   587.94672     -3338.6841      37.999039     -3300.6851      37298.041      5691.5412    
    341000   609.2684      -3336.9301      39.377061     -3297.5531      39989.496      5691.5412    
    342000   605.97916     -3335.1899      39.164477     -3296.0254      41973.012      5691.5412    
    343000   602.10074     -3335.6311      38.913815     -3296.7173      42355.407      5691.5412    
    344000   607.98791     -3338.6199      39.294303     -3299.3256      38572.182      5691.5412    
    345000   611.58513     -3335.9209      39.526791     -3296.3941      38619.184      5691.5412    
    346000   575.99602     -3332.3001      37.226665     -3295.0735      42891.711      5691.5412    
    347000   607.95475     -3335.6831      39.29216      -3296.3909      40498.819      5691.5412    
    348000   599.15476     -3336.7859      38.723415     -3298.0625      42005.826      5691.5412    
    349000   645.6954      -3336.5486      41.73134      -3294.8173      39651.777      5691.5412    
    350000   626.98641     -3335.8094      40.522177     -3295.2872      40938.511      5691.5412    
    351000   615.13748     -3336.5754      39.75638      -3296.819       38835.342      5691.5412    
    352000   619.59051     -3338.8155      40.04418      -3298.7714      39413.234      5691.5412    
    353000   593.32576     -3336.9927      38.346687     -3298.646       39929.143      5691.5412    
    354000   603.62108     -3335.3169      39.012074     -3296.3048      40118.447      5691.5412    
    355000   552.19382     -3337.496       35.688327     -3301.8077      38354.131      5691.5412    
    356000   580.07281     -3337.3136      37.490148     -3299.8234      38812.763      5691.5412    
    357000   608.08063     -3336.8758      39.300295     -3297.5755      36993.341      5691.5412    
    358000   598.42426     -3334.2505      38.676203     -3295.5742      41837.317      5691.5412    
    359000   612.63227     -3335.4823      39.594468     -3295.8879      40240.16       5691.5412    
    360000   623.5427      -3335.4085      40.29961      -3295.1089      40268.999      5691.5412    
    361000   586.99844     -3337.2759      37.937752     -3299.3381      37554.918      5691.5412    
    362000   599.29233     -3334.3012      38.732307     -3295.5689      41006.201      5691.5412    
    363000   606.3007      -3337.0634      39.185258     -3297.8781      37073.265      5691.5412    
    364000   607.43095     -3336.609       39.258307     -3297.3507      38137.717      5691.5412    
    365000   630.98595     -3336.112       40.780668     -3295.3314      39206.508      5691.5412    
    366000   585.19052     -3337.0148      37.820906     -3299.1939      37754.377      5691.5412    
    367000   565.49        -3335.1954      36.54766      -3298.6477      39900.66       5691.5412    
    368000   638.80096     -3337.4427      41.285753     -3296.157       37967.882      5691.5412    
    369000   632.92987     -3334.3142      40.906303     -3293.4079      39820.708      5691.5412    
    370000   615.22157     -3339.0077      39.761814     -3299.2458      33584.185      5691.5412    
    371000   593.91062     -3338.2901      38.384486     -3299.9056      32720.481      5691.5412    
    372000   572.33545     -3337.8836      36.990082     -3300.8935      35412.269      5691.5412    
    373000   624.03459     -3337.5605      40.331401     -3297.2291      37173.022      5691.5412    
    374000   610.99967     -3336.3613      39.488953     -3296.8723      36627.846      5691.5412    
    375000   596.73294     -3336.6276      38.566893     -3298.0607      38468.785      5691.5412    
    376000   609.01996     -3335.7496      39.361004     -3296.3886      41112.828      5691.5412    
    377000   579.6747      -3335.8651      37.464418     -3298.4007      39010.526      5691.5412    
    378000   589.49095     -3337.9698      38.098843     -3299.8709      35540.082      5691.5412    
    379000   605.50802     -3338.603       39.134027     -3299.469       33562.274      5691.5412    
    380000   633.64797     -3338.1197      40.952715     -3297.167       34589.472      5691.5412    
    381000   623.48941     -3336.4036      40.296166     -3296.1074      39143.532      5691.5412    
    382000   628.6676      -3333.8118      40.630833     -3293.181       40371.724      5691.5412    
    383000   607.78602     -3337.279       39.281255     -3297.9978      39527.98       5691.5412    
    384000   624.94452     -3338.7512      40.390209     -3298.361       36159.175      5691.5412    
    385000   583.24806     -3336.0774      37.695364     -3298.382       36956.865      5691.5412    
    386000   624.56636     -3336.9016      40.365769     -3296.5358      35815.318      5691.5412    
    387000   610.85738     -3336.9609      39.479757     -3297.4811      38380.855      5691.5412    
    388000   627.61456     -3339.0053      40.562774     -3298.4426      36795.14       5691.5412    
    389000   610.17661     -3338.4737      39.435759     -3299.0379      35707.51       5691.5412    
    390000   580.51479     -3333.4887      37.518713     -3295.97        40561.992      5691.5412    
    391000   617.98087     -3335.7747      39.940149     -3295.8346      37714.552      5691.5412    
    392000   590.54656     -3333.38        38.167067     -3295.213       36154.591      5691.5412    
    393000   601.85815     -3336.2995      38.898136     -3297.4014      38606.408      5691.5412    
    394000   582.43248     -3336.2114      37.642653     -3298.5687      36951.579      5691.5412    
    395000   593.81275     -3337.2552      38.378161     -3298.8771      33288.389      5691.5412    
    396000   635.91836     -3334.4194      41.099449     -3293.3199      37136.554      5691.5412    
    397000   613.84637     -3333.2312      39.672935     -3293.5582      39000.007      5691.5412    
    398000   613.28067     -3335.9871      39.636374     -3296.3508      37853.526      5691.5412    
    399000   613.51723     -3337.0081      39.651663     -3297.3564      38748.519      5691.5412    
    400000   592.56598     -3338.6129      38.297582     -3300.3153      36204.025      5691.5412    
    401000   585.18635     -3338.3604      37.820636     -3300.5398      35566.023      5691.5412    
    402000   605.59398     -3335.889       39.139583     -3296.7495      38789.483      5691.5412    
    403000   590.35917     -3334.1742      38.154956     -3296.0192      42963.397      5691.5412    
    404000   616.34755     -3334.953       39.834587     -3295.1184      40479.394      5691.5412    
    405000   601.38166     -3336.2957      38.867341     -3297.4284      38891.911      5691.5412    
    406000   619.82557     -3338.3661      40.059371     -3298.3067      36304.876      5691.5412    
    407000   605.0728      -3337.4145      39.105899     -3298.3086      35565.31       5691.5412    
    408000   625.44901     -3336.8113      40.422815     -3296.3884      39379.488      5691.5412    
    409000   623.63268     -3337.3297      40.305426     -3297.0243      37113.603      5691.5412    
    410000   617.27282     -3336.0675      39.894387     -3296.1731      38941.7        5691.5412    
    411000   622.17926     -3337.5921      40.211491     -3297.3806      38425.418      5691.5412    
    412000   591.29675     -3339.1066      38.215552     -3300.891       35836.689      5691.5412    
    413000   568.97012     -3335.8144      36.77258      -3299.0418      40324.033      5691.5412    
    414000   635.49756     -3336.5217      41.072254     -3295.4494      40452.643      5691.5412    
    415000   648.63526     -3336.8203      41.921344     -3294.899       41036.844      5691.5412    
    416000   553.10128     -3340.2423      35.746976     -3304.4953      33259.122      5691.5412    
    417000   604.76069     -3335.8514      39.085727     -3296.7657      37950.414      5691.5412    
    418000   596.60679     -3336.4732      38.55874      -3297.9145      38910.136      5691.5412    
    419000   581.36041     -3337.7838      37.573365     -3300.2104      40131.469      5691.5412    
    420000   619.68924     -3338.1153      40.05056      -3298.0647      41346.37       5691.5412    
    421000   613.02892     -3335.905       39.620103     -3296.2849      40570.339      5691.5412    
    422000   592.66881     -3336.9653      38.304228     -3298.6611      37932.66       5691.5412    
    423000   559.09281     -3335.7788      36.134209     -3299.6446      40659.829      5691.5412    
    424000   568.42667     -3334.5681      36.737457     -3297.8306      42393.397      5691.5412    
    425000   627.68505     -3337.6985      40.56733      -3297.1312      39191.613      5691.5412    
    426000   579.6111      -3338.0033      37.460307     -3300.543       41374.948      5691.5412    
    427000   607.0683      -3337.8853      39.234868     -3298.6505      39000.241      5691.5412    
    428000   598.36741     -3334.4112      38.672529     -3295.7387      39712.168      5691.5412    
    429000   617.03521     -3334.1316      39.87903      -3294.2525      42292.278      5691.5412    
    430000   609.67438     -3336.6072      39.403299     -3297.2039      41876.411      5691.5412    
    431000   575.45836     -3337.5733      37.191915     -3300.3814      39001.815      5691.5412    
    432000   613.11403     -3337.9561      39.625604     -3298.3305      39271.434      5691.5412    
    433000   594.29958     -3334.5218      38.409625     -3296.1122      43332.43       5691.5412    
    434000   649.44744     -3338.194       41.973835     -3296.2202      39337.004      5691.5412    
    435000   606.27174     -3335.9005      39.183387     -3296.7171      38620.826      5691.5412    
    436000   588.61234     -3335.8238      38.042058     -3297.7817      39330.41       5691.5412    
    437000   571.07298     -3337.2775      36.908488     -3300.369       37847.546      5691.5412    
    438000   567.49638     -3337.2023      36.677332     -3300.525       38558.924      5691.5412    
    439000   601.19764     -3337.6965      38.855447     -3298.8411      38090.146      5691.5412    
    440000   590.42911     -3335.2603      38.159476     -3297.1008      40752.788      5691.5412    
    441000   605.93198     -3336.6331      39.161428     -3297.4717      37883.249      5691.5412    
    442000   580.67337     -3335.9924      37.528962     -3298.4635      37425.076      5691.5412    
    443000   662.35236     -3337.0964      42.807881     -3294.2885      39784.602      5691.5412    
    444000   652.8577      -3336.0633      42.19424      -3293.8691      40740.693      5691.5412    
    445000   609.35922     -3335.5636      39.382931     -3296.1806      38190.917      5691.5412    
    446000   564.46703     -3335.1731      36.481545     -3298.6915      39162.78       5691.5412    
    447000   571.29228     -3337.9233      36.922662     -3301.0006      33380.738      5691.5412    
    448000   556.50485     -3336.8583      35.966949     -3300.8913      37922.321      5691.5412    
    449000   595.32232     -3337.3987      38.475725     -3298.923       37452.331      5691.5412    
    450000   585.53342     -3334.8619      37.843067     -3297.0188      38610.948      5691.5412    
    451000   576.66764     -3335.5664      37.270072     -3298.2963      37607.083      5691.5412    
    452000   612.63408     -3338.7416      39.594585     -3299.1471      34388.879      5691.5412    
    453000   627.97582     -3338.8045      40.586123     -3298.2184      35930.022      5691.5412    
    454000   573.78708     -3333.4659      37.083901     -3296.382       39308.985      5691.5412    
    455000   655.76798     -3337.8042      42.382332     -3295.4219      37800.545      5691.5412    
    456000   636.16923     -3336.3307      41.115664     -3295.215       42588.335      5691.5412    
    457000   595.80015     -3334.953       38.506607     -3296.4464      41124.275      5691.5412    
    458000   591.02909     -3338.8422      38.198253     -3300.6439      38001.016      5691.5412    
    459000   604.37905     -3338.5828      39.061062     -3299.5217      37864.296      5691.5412    
    460000   585.4585      -3337.1977      37.838226     -3299.3595      38289.452      5691.5412    
    461000   601.05983     -3335.7083      38.846541     -3296.8617      41980.323      5691.5412    
    462000   604.84527     -3336.0225      39.091194     -3296.9313      41262.28       5691.5412    
    463000   609.78402     -3335.544       39.410385     -3296.1336      37682.581      5691.5412    
    464000   559.39462     -3335.2393      36.153715     -3299.0856      41061.618      5691.5412    
    465000   597.76874     -3337.1114      38.633837     -3298.4775      39640.653      5691.5412    
    466000   624.05104     -3337.7927      40.332464     -3297.4602      35725.011      5691.5412    
    467000   586.79871     -3338.0272      37.924843     -3300.1023      34966.139      5691.5412    
    468000   587.43145     -3337.4721      37.965737     -3299.5063      39789.057      5691.5412    
    469000   566.49843     -3337.2767      36.612835     -3300.6639      38823.216      5691.5412    
    470000   631.96132     -3332.3015      40.843706     -3291.4578      42113.305      5691.5412    
    471000   572.31858     -3336.9773      36.988991     -3299.9884      36449.062      5691.5412    
    472000   585.4954      -3336.5639      37.84061      -3298.7232      39281.255      5691.5412    
    473000   619.99357     -3334.8692      40.070229     -3294.799       42067.284      5691.5412    
    474000   619.32593     -3335.2116      40.02708      -3295.1846      40155.408      5691.5412    
    475000   596.98554     -3337.3962      38.583219     -3298.813       38138.202      5691.5412    
    476000   569.65303     -3337.8712      36.816716     -3301.0545      36935.604      5691.5412    
    477000   586.77929     -3336.5261      37.923588     -3298.6025      38430.181      5691.5412    
    478000   570.45814     -3333.7989      36.868751     -3296.9302      43517.975      5691.5412    
    479000   576.52995     -3338.9945      37.261172     -3301.7334      38469.84       5691.5412    
    480000   589.06377     -3336.3764      38.071234     -3298.3052      40852.917      5691.5412    
    481000   613.99617     -3337.2274      39.682617     -3297.5448      39137.911      5691.5412    
    482000   597.57412     -3336.934       38.621259     -3298.3127      35799.79       5691.5412    
    483000   561.97382     -3338.8305      36.320409     -3302.5101      36846.887      5691.5412    
    484000   591.96144     -3337.1667      38.258511     -3298.9082      34371.727      5691.5412    
    485000   615.2262      -3336.7767      39.762114     -3297.0146      38738.616      5691.5412    
    486000   597.51651     -3336.0747      38.617535     -3297.4572      40037.825      5691.5412    
    487000   587.65584     -3338.6426      37.98024      -3300.6623      39878.938      5691.5412    
    488000   582.98093     -3336.0141      37.6781       -3298.336       38761.055      5691.5412    
    489000   622.67819     -3336.8294      40.243737     -3296.5857      38848.66       5691.5412    
    490000   600.35478     -3336.8951      38.800973     -3298.0941      39732.89       5691.5412    
    491000   585.04672     -3337.6184      37.811612     -3299.8068      38371.766      5691.5412    
    492000   553.18471     -3338.9331      35.752368     -3303.1808      37302.669      5691.5412    
    493000   581.06027     -3335.46        37.553968     -3297.906       41454.617      5691.5412    
    494000   630.55587     -3336.999       40.752871     -3296.2461      39577.602      5691.5412    
    495000   570.29175     -3339.5589      36.857997     -3302.7009      35166.962      5691.5412    
    496000   639.3132      -3336.9223      41.318858     -3295.6034      41923.085      5691.5412    
    497000   613.30433     -3335.7776      39.637903     -3296.1397      42244.427      5691.5412    
    498000   560.5678      -3339.2156      36.229537     -3302.986       34670.885      5691.5412    
    499000   606.97469     -3336.0306      39.228818     -3296.8018      39917.922      5691.5412    
    500000   635.04873     -3336.1496      41.043246     -3295.1064      39295.628      5691.5412    
Loop time of 15582.2 on 1 procs for 500000 steps with 501 atoms

Performance: 1.386 ns/day, 17.314 hours/ns, 32.088 timesteps/s, 16.076 katom-step/s
99.1% CPU use with 1 MPI tasks x 1 OpenMP threads

MPI task timing breakdown:
Section |  min time  |  avg time  |  max time  |%varavg| %total
---------------------------------------------------------------
Pair    | 15512      | 15512      | 15512      |   0.0 | 99.55
Neigh   | 0.75885    | 0.75885    | 0.75885    |   0.0 |  0.00
Comm    | 20.992     | 20.992     | 20.992     |   0.0 |  0.13
Output  | 0.98616    | 0.98616    | 0.98616    |   0.0 |  0.01
Modify  | 26.518     | 26.518     | 26.518     |   0.0 |  0.17
Other   |            | 20.64      |            |       |  0.13

Nlocal:            501 ave         501 max         501 min
Histogram: 1 0 0 0 0 0 0 0 0 0
Nghost:           2133 ave        2133 max        2133 min
Histogram: 1 0 0 0 0 0 0 0 0 0
Neighs:              0 ave           0 max           0 min
Histogram: 1 0 0 0 0 0 0 0 0 0
FullNghs:        66144 ave       66144 max       66144 min
Histogram: 1 0 0 0 0 0 0 0 0 0

Total # of neighbors = 66144
Ave neighs/atom = 132.02395
Neighbor list builds = 1826
Dangerous builds = 0
### Phase 2: Production 750 ps at 600 K ###
Setting up Verlet run ...
  Unit style    : metal
  Current step  : 500000
  Time step     : 0.0005
WARNING: Fix STORE/ATOM not compatible with sending data in Kokkos communication (src/KOKKOS/comm_kokkos.cpp:842)
WARNING: Fix with atom-based arrays not compatible with sending data in Kokkos communication, switching to legacy exchange/border communication (src/KOKKOS/comm_kokkos.cpp:849)
WARNING: Fix STORE/ATOM not (yet) compatible with Kokkos sorting on device (src/KOKKOS/atom_kokkos.cpp:219)
WARNING: Fix with atom-based arrays not (yet) compatible with Kokkos sorting on device, switching to legacy host sorting (src/KOKKOS/atom_kokkos.cpp:225)
Per MPI rank memory allocation (min/avg/max) = 89.61 | 89.61 | 89.61 Mbytes
   Step          Temp          PotEng         KinEng         TotEng         Press          Volume    
    500000   635.04873     -3336.1496      41.043246     -3295.1064      39295.628      5691.5412    
    501000   602.5504      -3336.9735      38.942876     -3298.0306      39356.839      5691.5412    
    502000   607.39249     -3335.903       39.25582      -3296.6472      42267.992      5691.5412    
    503000   589.70873     -3343.2925      38.112918     -3305.1796      32854.564      5691.5412    
    504000   626.89152     -3337.3115      40.516044     -3296.7954      35411.642      5691.5412    
    505000   625.47529     -3337.6901      40.424513     -3297.2656      39195.635      5691.5412    
    506000   620.81151     -3337.5084      40.123093     -3297.3853      34634.135      5691.5412    
    507000   583.61324     -3338.3329      37.718966     -3300.614       37374.147      5691.5412    
    508000   603.7058      -3338.5707      39.01755      -3299.5531      37324.482      5691.5412    
    509000   584.20682     -3338.2178      37.757329     -3300.4605      39935.008      5691.5412    
    510000   639.58075     -3339.2623      41.33615      -3297.9262      41659.026      5691.5412    
    511000   642.72795     -3337.2187      41.539554     -3295.6791      39137.152      5691.5412    
    512000   587.12914     -3332.7638      37.946199     -3294.8176      43688.721      5691.5412    
    513000   603.03308     -3337.364       38.974072     -3298.3899      37683.54       5691.5412    
    514000   590.22106     -3337.5911      38.14603      -3299.4451      40464.944      5691.5412    
    515000   577.94587     -3336.9845      37.352684     -3299.6318      38935.557      5691.5412    
    516000   610.16861     -3334.3773      39.435241     -3294.942       42410.771      5691.5412    
    517000   589.62198     -3334.2725      38.107311     -3296.1652      40509.6        5691.5412    
    518000   606.75376     -3336.1708      39.21454      -3296.9562      37847.603      5691.5412    
    519000   566.27281     -3336.4232      36.598253     -3299.8249      40940.707      5691.5412    
    520000   565.69254     -3338.7029      36.56075      -3302.1421      36880.234      5691.5412    
    521000   579.4982      -3337.4663      37.453011     -3300.0133      40501.189      5691.5412    
    522000   611.31501     -3337.3761      39.509333     -3297.8668      39870.278      5691.5412    
    523000   662.72449     -3335.1004      42.831932     -3292.2685      39155.846      5691.5412    
    524000   607.83355     -3339.4057      39.284326     -3300.1214      35112.102      5691.5412    
    525000   613.48764     -3338.327       39.64975      -3298.6772      38394.258      5691.5412    
    526000   614.10587     -3336.0076      39.689707     -3296.3179      40173.674      5691.5412    
    527000   646.02531     -3335.6002      41.752662     -3293.8475      43279.3        5691.5412    
    528000   574.50875     -3336.4139      37.130542     -3299.2833      40457.628      5691.5412    
    529000   594.6824      -3338.245       38.434367     -3299.8106      37658.721      5691.5412    
    530000   628.55726     -3336.5485      40.623701     -3295.9248      39203.533      5691.5412    
    531000   621.36528     -3337.2659      40.158883     -3297.1071      41063.005      5691.5412    
    532000   560.04613     -3336.2109      36.195822     -3300.0151      41608.82       5691.5412    
    533000   585.52215     -3339.0992      37.842339     -3301.2569      35828.255      5691.5412    
    534000   579.73304     -3335.7737      37.468188     -3298.3055      38687.563      5691.5412    
    535000   627.80755     -3337.3137      40.575248     -3296.7384      40392.099      5691.5412    
    536000   609.75572     -3334.056       39.408556     -3294.6474      40658.785      5691.5412    
    537000   622.09564     -3339.5779      40.206087     -3299.3718      34937.684      5691.5412    
    538000   617.22608     -3338.9964      39.891366     -3299.105       38046.933      5691.5412    
    539000   610.68835     -3336.9307      39.468832     -3297.4619      38074.951      5691.5412    
    540000   651.64538     -3336.1842      42.115888     -3294.0683      43032.933      5691.5412    
    541000   630.79737     -3336.9842      40.76848      -3296.2157      37824.738      5691.5412    
    542000   622.93024     -3338.0409      40.260026     -3297.7809      37127.08       5691.5412    
    543000   590.73624     -3336.8662      38.179326     -3298.6869      39137.122      5691.5412    
    544000   601.24405     -3337.7836      38.858447     -3298.9252      38386.739      5691.5412    
    545000   627.31682     -3337.3517      40.543532     -3296.8082      42064.618      5691.5412    
    546000   626.08121     -3334.9806      40.463674     -3294.5169      43031.18       5691.5412    
    547000   593.86076     -3336.2618      38.381264     -3297.8806      39096.502      5691.5412    
    548000   592.09155     -3339.281       38.26692      -3301.0141      35653.391      5691.5412    
    549000   578.62939     -3337.3637      37.396859     -3299.9669      40952.645      5691.5412    
    550000   603.1598      -3337.0189      38.982261     -3298.0367      39303.581      5691.5412    
    551000   601.60925     -3334.9574      38.88205      -3296.0753      41786.863      5691.5412    
    552000   592.21311     -3336.5432      38.274777     -3298.2684      38310.155      5691.5412    
    553000   587.87413     -3337.8974      37.994347     -3299.9031      39693.999      5691.5412    
    554000   603.7668      -3335.492       39.021492     -3296.4705      41857.843      5691.5412    
    555000   616.79844     -3335.6043      39.863728     -3295.7405      40708.743      5691.5412    
    556000   626.16455     -3338.8818      40.469061     -3298.4127      39292.459      5691.5412    
    557000   622.42151     -3333.7359      40.227147     -3293.5087      41927.45       5691.5412    
    558000   595.24342     -3335.3425      38.470625     -3296.8719      41956.985      5691.5412    
    559000   604.87182     -3337.9772      39.092909     -3298.8843      39558.536      5691.5412    
    560000   596.56456     -3337.9603      38.556011     -3299.4043      39333.77       5691.5412    
    561000   585.85634     -3336.4388      37.863938     -3298.5749      39633.707      5691.5412    
    562000   601.00577     -3336.8776      38.843046     -3298.0345      39609.205      5691.5412    
    563000   654.08188     -3339.2176      42.273359     -3296.9443      38441.347      5691.5412    
    564000   631.4552      -3338.7123      40.810995     -3297.9013      36799.35       5691.5412    
    565000   589.14625     -3338.094       38.076565     -3300.0174      39693.163      5691.5412    
    566000   568.21152     -3337.3236      36.723552     -3300.6001      36297.135      5691.5412    
    567000   595.93239     -3337.6923      38.515154     -3299.1772      37084.68       5691.5412    
    568000   619.48962     -3338.6739      40.037659     -3298.6363      38720.583      5691.5412    
    569000   570.73344     -3337.9179      36.886543     -3301.0314      38152.988      5691.5412    
    570000   604.10666     -3337.1415      39.043457     -3298.098       40312.998      5691.5412    
    571000   573.05829     -3338.3276      37.036799     -3301.2908      39700.777      5691.5412    
    572000   594.20319     -3338.8854      38.403395     -3300.482       34685.154      5691.5412    
    573000   588.98922     -3337.2794      38.066416     -3299.2129      40174.694      5691.5412    
    574000   633.71591     -3335.9073      40.957105     -3294.9502      41500.657      5691.5412    
    575000   624.08496     -3335.2417      40.334656     -3294.9071      39854.821      5691.5412    
    576000   588.74285     -3338.4397      38.050493     -3300.3892      38960.604      5691.5412    
    577000   584.64057     -3337.4117      37.785362     -3299.6263      37383.959      5691.5412    
    578000   617.91708     -3337.7854      39.936026     -3297.8493      37973.877      5691.5412    
    579000   588.59511     -3335.1156      38.040945     -3297.0746      42388.392      5691.5412    
    580000   618.00236     -3335.7738      39.941537     -3295.8323      41608.469      5691.5412    
    581000   611.80702     -3337.6469      39.541132     -3298.1058      37267.429      5691.5412    
    582000   562.74157     -3335.5419      36.370028     -3299.1718      40577.514      5691.5412    
    583000   611.56726     -3338.4336      39.525637     -3298.908       37937.788      5691.5412    
    584000   620.56975     -3336.889       40.107468     -3296.7815      41724.786      5691.5412    
    585000   627.7749      -3337.0151      40.573137     -3296.442       43121.096      5691.5412    
    586000   592.75283     -3337.2728      38.309658     -3298.9631      38308.412      5691.5412    
    587000   602.9814      -3339.8521      38.970731     -3300.8814      39025.313      5691.5412    
    588000   570.72925     -3335.3023      36.886273     -3298.416       41090.758      5691.5412    
    589000   575.17818     -3338.9217      37.173807     -3301.7479      37555.326      5691.5412    
    590000   605.53996     -3338.5986      39.136092     -3299.4625      38040.225      5691.5412    
    591000   599.71419     -3337.3102      38.759572     -3298.5506      41140.84       5691.5412    
    592000   650.52603     -3336.9985      42.043545     -3294.955       39652.141      5691.5412    
    593000   601.48218     -3338.1811      38.873837     -3299.3073      36410.309      5691.5412    
    594000   587.36097     -3338.5261      37.961182     -3300.5649      38783.026      5691.5412    
    595000   605.1406      -3338.8366      39.110281     -3299.7263      38176.436      5691.5412    
    596000   617.53153     -3338.0337      39.911108     -3298.1226      40660.126      5691.5412    
    597000   606.51377     -3337.1186      39.199029     -3297.9195      38667.257      5691.5412    
    598000   569.34953     -3337.7883      36.797101     -3300.9912      41088.157      5691.5412    
    599000   626.27856     -3338.7806      40.476429     -3298.3042      38258.388      5691.5412    
    600000   605.15796     -3335.3178      39.111403     -3296.2064      42486.726      5691.5412    
    601000   597.17308     -3335.6267      38.595339     -3297.0313      42246.012      5691.5412    
    602000   587.94463     -3337.3229      37.998904     -3299.324       40381.168      5691.5412    
    603000   590.20031     -3338.9131      38.144689     -3300.7684      38318.512      5691.5412    
    604000   634.56029     -3338.6635      41.011677     -3297.6518      39311.689      5691.5412    
    605000   592.63395     -3335.7657      38.301975     -3297.4637      41827.244      5691.5412    
    606000   567.91255     -3335.747       36.704229     -3299.0427      42993.369      5691.5412    
    607000   617.93786     -3338.6624      39.937368     -3298.725       37874.573      5691.5412    
    608000   610.81945     -3337.3134      39.477305     -3297.8361      40655.79       5691.5412    
    609000   641.95325     -3337.1525      41.489485     -3295.663       39922.144      5691.5412    
    610000   623.0513      -3338.5807      40.267851     -3298.3128      38754.289      5691.5412    
    611000   627.06482     -3335.3166      40.527245     -3294.7893      43720.347      5691.5412    
    612000   657.08817     -3336.5691      42.467656     -3294.1015      43470.405      5691.5412    
    613000   613.90589     -3337.5566      39.676782     -3297.8798      37388.852      5691.5412    
    614000   605.72856     -3338.8343      39.148281     -3299.686       37415.618      5691.5412    
    615000   602.54302     -3336.5453      38.942399     -3297.6029      39110.174      5691.5412    
    616000   626.63472     -3334.6608      40.499447     -3294.1614      40582.407      5691.5412    
    617000   582.78504     -3333.4924      37.665439     -3295.827       39474.488      5691.5412    
    618000   592.4751      -3337.1213      38.291709     -3298.8296      37745.503      5691.5412    
    619000   601.96075     -3339.0617      38.904767     -3300.1569      39700.384      5691.5412    
    620000   613.57022     -3336.263       39.655088     -3296.6079      38223.921      5691.5412    
    621000   588.02457     -3332.8873      38.004071     -3294.8833      39417.578      5691.5412    
    622000   622.50366     -3337.2716      40.232456     -3297.0392      36654.575      5691.5412    
    623000   544.62212     -3335.4801      35.198967     -3300.2811      42061.576      5691.5412    
    624000   600.70355     -3337.4304      38.823514     -3298.6069      39631.19       5691.5412    
    625000   598.58042     -3336.6506      38.686296     -3297.9643      39892.975      5691.5412    
    626000   628.48636     -3334.7348      40.619119     -3294.1157      44025.723      5691.5412    
    627000   594.08015     -3335.2766      38.395443     -3296.8812      39560.636      5691.5412    
    628000   579.47284     -3336.3799      37.451372     -3298.9285      38764.055      5691.5412    
    629000   544.59696     -3337.1935      35.197341     -3301.9961      38923.262      5691.5412    
    630000   605.9493      -3340.261       39.162547     -3301.0985      37183.304      5691.5412    
    631000   608.81084     -3337.6805      39.347489     -3298.333       40397.868      5691.5412    
    632000   624.89992     -3336.6929      40.387327     -3296.3056      43545.239      5691.5412    
    633000   586.51846     -3335.0629      37.906731     -3297.1562      40849.511      5691.5412    
    634000   575.74203     -3336.1283      37.210249     -3298.9181      43008.554      5691.5412    
    635000   611.49705     -3335.293       39.521099     -3295.7719      41461.388      5691.5412    
    636000   606.41481     -3341.5878      39.192633     -3302.3951      36916.035      5691.5412    
    637000   599.08954     -3339.3524      38.719201     -3300.6332      38320.093      5691.5412    
    638000   600.27844     -3336.3744      38.796039     -3297.5784      39937.534      5691.5412    
    639000   612.14087     -3337.6419      39.562709     -3298.0792      38738.781      5691.5412    
    640000   564.85025     -3337.655       36.506313     -3301.1487      40368.464      5691.5412    
    641000   583.65473     -3337.4399      37.721648     -3299.7183      40443.375      5691.5412    
    642000   587.0459      -3338.2337      37.940819     -3300.2929      38355.578      5691.5412    
    643000   676.52594     -3335.9747      43.723921     -3292.2508      38407.333      5691.5412    
    644000   603.19368     -3336.0987      38.984451     -3297.1142      38647.832      5691.5412    
    645000   590.09778     -3338.6083      38.138062     -3300.4703      36187.744      5691.5412    
    646000   557.89638     -3338.8331      36.056884     -3302.7762      37594.618      5691.5412    
    647000   623.51581     -3336.305       40.297872     -3296.0071      37695.811      5691.5412    
    648000   603.7221      -3335.9293      39.018603     -3296.9107      41764.782      5691.5412    
    649000   603.05682     -3336.9155      38.975606     -3297.9399      41692.488      5691.5412    
    650000   591.35415     -3339.4734      38.219262     -3301.2541      34928.664      5691.5412    
    651000   568.13323     -3337.4804      36.718492     -3300.7619      38893.64       5691.5412    
    652000   601.66395     -3339.0884      38.885585     -3300.2028      38630.796      5691.5412    
    653000   610.51657     -3336.387       39.45773      -3296.9293      40739.776      5691.5412    
    654000   605.69735     -3336.8279      39.146264     -3297.6816      40672.638      5691.5412    
    655000   593.41457     -3336.9534      38.352427     -3298.601       38024.678      5691.5412    
    656000   600.4825      -3335.8393      38.809228     -3297.0301      38650.105      5691.5412    
    657000   589.95785     -3337.5458      38.129018     -3299.4168      38075.674      5691.5412    
    658000   607.23438     -3338.7772      39.245602     -3299.5316      37635.172      5691.5412    
    659000   574.47306     -3337.2909      37.128235     -3300.1627      36677.985      5691.5412    
    660000   602.43148     -3338.4642      38.93519      -3299.529       37166.92       5691.5412    
    661000   626.84835     -3337.041       40.513254     -3296.5278      39970.843      5691.5412    
    662000   603.76721     -3334.3891      39.021519     -3295.3676      43200.537      5691.5412    
    663000   646.41486     -3338.7511      41.777839     -3296.9733      38792.68       5691.5412    
    664000   578.26537     -3335.9527      37.373333     -3298.5794      39196.389      5691.5412    
    665000   597.35082     -3338.4118      38.606827     -3299.805       36755.909      5691.5412    
    666000   591.31973     -3335.4281      38.217037     -3297.211       41157.328      5691.5412    
    667000   625.77833     -3335.8079      40.444099     -3295.3638      39605.969      5691.5412    
    668000   624.7144      -3338.2109      40.375337     -3297.8355      37250.877      5691.5412    
    669000   582.82145     -3338.4956      37.667792     -3300.8278      39006.659      5691.5412    
    670000   585.04981     -3337.1266      37.811812     -3299.3148      40625.036      5691.5412    
    671000   580.14963     -3335.733       37.495113     -3298.2379      38857.122      5691.5412    
    672000   624.78966     -3335.9511      40.380201     -3295.5709      37642.538      5691.5412    
    673000   651.24519     -3335.4406      42.090024     -3293.3505      42444.411      5691.5412    
    674000   577.66244     -3336.8869      37.334365     -3299.5526      40112.095      5691.5412    
    675000   598.55956     -3337.2109      38.684948     -3298.5259      40931.985      5691.5412    
    676000   634.41077     -3335.9313      41.002014     -3294.9293      40133.1        5691.5412    
    677000   634.98061     -3337.2001      41.038843     -3296.1612      41679.419      5691.5412    
    678000   609.20091     -3337.6618      39.372699     -3298.2891      41917.331      5691.5412    
    679000   590.5274      -3336.6641      38.165828     -3298.4983      40970.92       5691.5412    
    680000   631.55841     -3337.1641      40.817666     -3296.3465      40486.675      5691.5412    
    681000   568.19464     -3339.7644      36.722461     -3303.0419      36486.634      5691.5412    
    682000   570.84823     -3337.5259      36.893963     -3300.6319      41104.69       5691.5412    
    683000   597.8491      -3336.1696      38.63903      -3297.5305      40263.874      5691.5412    
    684000   606.88184     -3335.9135      39.222818     -3296.6907      38208.546      5691.5412    
    685000   586.09469     -3337.2771      37.879342     -3299.3978      40086.473      5691.5412    
    686000   587.65686     -3337.8531      37.980305     -3299.8728      35744.075      5691.5412    
    687000   607.50667     -3339.3031      39.2632       -3300.0399      37179.491      5691.5412    
    688000   604.86417     -3338.0138      39.092415     -3298.9214      39510.264      5691.5412    
    689000   639.55304     -3336.4882      41.33436      -3295.1538      39399.508      5691.5412    
    690000   623.76273     -3335.1215      40.313831     -3294.8076      41591.089      5691.5412    
    691000   611.06123     -3336.2836      39.492932     -3296.7907      41271.513      5691.5412    
    692000   593.9167      -3338.3024      38.384879     -3299.9175      35846.909      5691.5412    
    693000   583.73136     -3337.6396      37.7266       -3299.913       38388.563      5691.5412    
    694000   584.27627     -3337.1932      37.761818     -3299.4314      41364.43       5691.5412    
    695000   605.51286     -3335.0866      39.13434      -3295.9522      43799.485      5691.5412    
    696000   611.58164     -3335.4405      39.526566     -3295.914       41446.994      5691.5412    
    697000   617.36908     -3338.7206      39.900608     -3298.82        37068.539      5691.5412    
    698000   588.7815      -3336.5724      38.052991     -3298.5194      40746.395      5691.5412    
    699000   586.83464     -3338.0771      37.927165     -3300.1499      38064.633      5691.5412    
    700000   641.76571     -3336.0643      41.477364     -3294.5869      43520.777      5691.5412    
    701000   624.654       -3338.6735      40.371433     -3298.3021      36919.469      5691.5412    
    702000   587.90607     -3337.9016      37.996412     -3299.9052      37061.071      5691.5412    
    703000   635.78344     -3334.8278      41.09073      -3293.737       41884.538      5691.5412    
    704000   624.26778     -3338.5376      40.346472     -3298.1912      37433.948      5691.5412    
    705000   601.48345     -3338.3205      38.873919     -3299.4465      36015.603      5691.5412    
    706000   560.18385     -3337.7961      36.204723     -3301.5914      39764.405      5691.5412    
    707000   580.57679     -3336.0127      37.52272      -3298.49        37181.051      5691.5412    
    708000   605.42378     -3337.6858      39.128583     -3298.5572      40094.816      5691.5412    
    709000   661.51462     -3335.643       42.753738     -3292.8892      39637.972      5691.5412    
    710000   620.96888     -3336.8619      40.133263     -3296.7286      41659.455      5691.5412    
    711000   597.21156     -3337.1236      38.597826     -3298.5257      40517.71       5691.5412    
    712000   581.75128     -3338.1608      37.598627     -3300.5621      37112.135      5691.5412    
    713000   569.42004     -3335.2692      36.801659     -3298.4675      42516.658      5691.5412    
    714000   585.7913      -3335.7851      37.859734     -3297.9254      37703.02       5691.5412    
    715000   577.30728     -3339.8821      37.311411     -3302.5707      38298.577      5691.5412    
    716000   613.16716     -3337.5079      39.629038     -3297.8788      39958.554      5691.5412    
    717000   634.33813     -3337.7432      40.997319     -3296.7459      39555.83       5691.5412    
    718000   607.2906      -3337.7141      39.249235     -3298.4649      38292.111      5691.5412    
    719000   584.70684     -3338.3565      37.789645     -3300.5668      36505.946      5691.5412    
    720000   569.89251     -3338.5736      36.832194     -3301.7414      36759.821      5691.5412    
    721000   579.11865     -3337.3325      37.428481     -3299.904       39797.949      5691.5412    
    722000   628.98508     -3336.9934      40.651351     -3296.342       41571.632      5691.5412    
    723000   598.19929     -3333.8697      38.661664     -3295.2081      41898.909      5691.5412    
    724000   618.26035     -3335.7347      39.958211     -3295.7765      41125.451      5691.5412    
    725000   586.63394     -3336.8315      37.914194     -3298.9173      40355.977      5691.5412    
    726000   595.71583     -3336.4945      38.501158     -3297.9934      39344.444      5691.5412    
    727000   626.45824     -3335.2917      40.488041     -3294.8037      45272.329      5691.5412    
    728000   621.15156     -3336.1252      40.14507      -3295.9801      41496.893      5691.5412    
    729000   618.9929      -3339.3547      40.005556     -3299.3491      36830.472      5691.5412    
    730000   620.77501     -3338.8389      40.120734     -3298.7182      39101.878      5691.5412    
    731000   620.86328     -3336.7509      40.126439     -3296.6245      41889.094      5691.5412    
    732000   619.61258     -3337.8491      40.045606     -3297.8034      41442.828      5691.5412    
    733000   542.31985     -3337.9512      35.050171     -3302.9011      39675.443      5691.5412    
    734000   620.14607     -3337.2349      40.080085     -3297.1548      44757.007      5691.5412    
    735000   599.37844     -3336.2596      38.737872     -3297.5217      42638.874      5691.5412    
    736000   585.48811     -3337.1432      37.840139     -3299.3031      40877.562      5691.5412    
    737000   550.4751      -3338.2863      35.577246     -3302.709       39100.041      5691.5412    
    738000   602.24806     -3337.5674      38.923336     -3298.6441      39483.243      5691.5412    
    739000   606.20432     -3337.0911      39.179029     -3297.9121      37910.826      5691.5412    
    740000   599.95221     -3336.8153      38.774955     -3298.0404      38307.63       5691.5412    
    741000   609.57479     -3338.4272      39.396863     -3299.0303      38127.281      5691.5412    
    742000   615.26964     -3339.5288      39.764921     -3299.7639      36053.913      5691.5412    
    743000   644.56938     -3337.785       41.658566     -3296.1265      38854.562      5691.5412    
    744000   621.22394     -3338.9858      40.149748     -3298.8361      39935.131      5691.5412    
    745000   589.32983     -3338.2218      38.08843      -3300.1334      39633.653      5691.5412    
    746000   597.67265     -3336.6099      38.627627     -3297.9823      41675.088      5691.5412    
    747000   607.37928     -3335.687       39.254967     -3296.432       39994.873      5691.5412    
    748000   589.32732     -3335.9871      38.088267     -3297.8989      38153.871      5691.5412    
    749000   580.34889     -3337.5388      37.507991     -3300.0308      39724.022      5691.5412    
    750000   617.2886      -3340.7666      39.895407     -3300.8711      39002.244      5691.5412    
    751000   599.63494     -3337.0089      38.754449     -3298.2544      41906.263      5691.5412    
    752000   621.24579     -3337.9534      40.151161     -3297.8023      38133.328      5691.5412    
    753000   577.73084     -3336.9553      37.338786     -3299.6165      40689.449      5691.5412    
    754000   570.70324     -3339.8232      36.884592     -3302.9386      37822.78       5691.5412    
    755000   585.25851     -3334.8779      37.8253       -3297.0526      42205.068      5691.5412    
    756000   602.40515     -3335.1239      38.933488     -3296.1904      42478.427      5691.5412    
    757000   604.38889     -3337.6783      39.061698     -3298.6166      38115.989      5691.5412    
    758000   591.89822     -3335.3719      38.254425     -3297.1175      37688.791      5691.5412    
    759000   608.92122     -3333.0082      39.354622     -3293.6535      43752.726      5691.5412    
    760000   566.13917     -3336.7069      36.589616     -3300.1173      37877.016      5691.5412    
    761000   572.05993     -3334.4783      36.972275     -3297.506       41517.337      5691.5412    
    762000   608.43941     -3338.4652      39.323483     -3299.1417      39290.44       5691.5412    
    763000   576.83902     -3339.3673      37.281148     -3302.0861      39548.192      5691.5412    
    764000   578.78161     -3337.6461      37.406698     -3300.2394      38734.509      5691.5412    
    765000   564.80982     -3336.5808      36.503699     -3300.0771      39677.716      5691.5412    
    766000   600.94893     -3337.0031      38.839373     -3298.1637      41016.393      5691.5412    
    767000   612.86629     -3338.1856      39.609593     -3298.576       38379.752      5691.5412    
    768000   624.65689     -3337.8253      40.37162      -3297.4537      39762.902      5691.5412    
    769000   597.50602     -3338.1079      38.616857     -3299.491       39915.912      5691.5412    
    770000   603.71171     -3337.851       39.017931     -3298.8331      38814.202      5691.5412    
    771000   581.60329     -3336.86        37.589063     -3299.2709      42389.989      5691.5412    
    772000   612.89249     -3336.5716      39.611286     -3296.9604      38597.871      5691.5412    
    773000   588.85402     -3334.7858      38.057678     -3296.7281      42130.682      5691.5412    
    774000   581.31168     -3336.8071      37.570216     -3299.2369      40725.304      5691.5412    
    775000   615.781       -3339.4956      39.797971     -3299.6976      39117.693      5691.5412    
    776000   626.97567     -3337.8241      40.521483     -3297.3026      40230.833      5691.5412    
    777000   622.4287      -3335.7776      40.227612     -3295.55        41629.521      5691.5412    
    778000   588.12128     -3336.6256      38.010321     -3298.6153      38855.613      5691.5412    
    779000   598.55011     -3337.9174      38.684337     -3299.233       43616.942      5691.5412    
    780000   577.53233     -3337.6536      37.325956     -3300.3276      38779.615      5691.5412    
    781000   607.89017     -3335.4213      39.287986     -3296.1333      38881.638      5691.5412    
    782000   571.28611     -3334.3155      36.922263     -3297.3932      41699.155      5691.5412    
    783000   598.55604     -3339.0551      38.68472      -3300.3704      36031.573      5691.5412    
    784000   589.30325     -3336.5704      38.086712     -3298.4837      42741.689      5691.5412    
    785000   597.00551     -3339.376       38.584509     -3300.7915      38993.062      5691.5412    
    786000   634.58963     -3339.6683      41.013574     -3298.6547      39551.421      5691.5412    
    787000   605.20527     -3335.6708      39.11446      -3296.5563      40370.089      5691.5412    
    788000   602.86591     -3338.1602      38.963267     -3299.197       38779.707      5691.5412    
    789000   554.4552      -3336.3823      35.83448      -3300.5479      40244.671      5691.5412    
    790000   648.88606     -3339.4542      41.937553     -3297.5167      37821.275      5691.5412    
    791000   591.46745     -3336.5886      38.226584     -3298.362       42821.584      5691.5412    
    792000   580.42524     -3337.8457      37.512925     -3300.3328      37150.904      5691.5412    
    793000   552.94696     -3337.1349      35.737002     -3301.3979      37332.41       5691.5412    
    794000   600.23481     -3338.3063      38.793219     -3299.5131      41203.015      5691.5412    
    795000   613.53506     -3337.2549      39.652815     -3297.6021      38719.99       5691.5412    
    796000   593.22834     -3337.4914      38.340391     -3299.151       42133.929      5691.5412    
    797000   594.32308     -3336.6893      38.411144     -3298.2781      43034.9        5691.5412    
    798000   620.77377     -3339.3837      40.120654     -3299.263       38556.392      5691.5412    
    799000   580.68085     -3336.2148      37.529445     -3298.6853      39873.561      5691.5412    
    800000   650.37166     -3337.3279      42.033567     -3295.2943      42050.66       5691.5412    
    801000   643.92214     -3336.2607      41.616734     -3294.644       43120.176      5691.5412    
    802000   640.53554     -3337.6448      41.397859     -3296.247       38782.184      5691.5412    
    803000   627.11621     -3337.8949      40.530566     -3297.3643      39199.712      5691.5412    
    804000   627.76648     -3339.3221      40.572593     -3298.7495      36756.612      5691.5412    
    805000   626.12869     -3336.3859      40.466742     -3295.9191      40653.858      5691.5412    
    806000   599.39256     -3335.9138      38.738785     -3297.1751      41706.337      5691.5412    
    807000   595.12555     -3337.5421      38.463007     -3299.0791      43540.354      5691.5412    
    808000   587.1973      -3339.4559      37.950604     -3301.5053      35112.908      5691.5412    
    809000   587.5963      -3338.7473      37.976392     -3300.7709      36964.468      5691.5412    
    810000   571.98758     -3335.5199      36.967598     -3298.5523      39140.068      5691.5412    
    811000   600.73146     -3336.0697      38.825318     -3297.2443      40592.449      5691.5412    
    812000   619.37333     -3334.2293      40.030143     -3294.1992      40195.421      5691.5412    
    813000   605.23624     -3337.8918      39.116462     -3298.7753      41121.197      5691.5412    
    814000   557.81202     -3337.184       36.051431     -3301.1326      39016.254      5691.5412    
    815000   607.66879     -3338.8428      39.273678     -3299.5691      38234.858      5691.5412    
    816000   591.77975     -3337.105       38.246768     -3298.8582      40080.888      5691.5412    
    817000   606.09076     -3335.0982      39.17169      -3295.9265      42496.961      5691.5412    
    818000   578.48209     -3335.8535      37.387339     -3298.4662      41382.697      5691.5412    
    819000   594.81457     -3340.4287      38.442909     -3301.9858      38829.928      5691.5412    
    820000   596.86642     -3338.9505      38.57552      -3300.375       38313.59       5691.5412    
    821000   593.1901      -3336.0349      38.337919     -3297.697       40113.617      5691.5412    
    822000   606.073       -3338.4752      39.170542     -3299.3046      40193.954      5691.5412    
    823000   573.27031     -3336.7185      37.050502     -3299.668       41722.907      5691.5412    
    824000   621.6553      -3337.0297      40.177627     -3296.8521      42742.096      5691.5412    
    825000   628.71342     -3337.2258      40.633794     -3296.592       37753.485      5691.5412    
    826000   605.98509     -3335.7539      39.16486      -3296.589       42361.797      5691.5412    
    827000   596.39932     -3340.6796      38.545331     -3302.1343      37326.74       5691.5412    
    828000   582.337       -3336.953       37.636483     -3299.3165      41462.081      5691.5412    
    829000   581.86927     -3335.8016      37.606253     -3298.1953      41669.718      5691.5412    
    830000   622.67106     -3336.2877      40.243275     -3296.0444      43317.654      5691.5412    
    831000   590.39383     -3335.3201      38.157196     -3297.1629      43788.912      5691.5412    
    832000   558.25433     -3336.3382      36.080018     -3300.2581      40982.079      5691.5412    
    833000   626.60335     -3339.8479      40.49742      -3299.3505      41086.569      5691.5412    
    834000   622.72598     -3337.6657      40.246825     -3297.4189      39650.942      5691.5412    
    835000   620.02625     -3335.903       40.072341     -3295.8306      42198.079      5691.5412    
    836000   608.1549      -3337.2083      39.305095     -3297.9032      39824.89       5691.5412    
    837000   584.61085     -3337.0562      37.783442     -3299.2728      40062.636      5691.5412    
    838000   615.80822     -3336.2068      39.79973      -3296.4071      41023.493      5691.5412    
    839000   616.47446     -3336.8956      39.842789     -3297.0528      45739.471      5691.5412    
    840000   596.43125     -3336.2647      38.547395     -3297.7174      42158.28       5691.5412    
    841000   563.445       -3338.059       36.415491     -3301.6435      43295.654      5691.5412    
    842000   608.13594     -3334.4757      39.30387      -3295.1719      42894.846      5691.5412    
    843000   620.1079      -3338.9642      40.077618     -3298.8865      40764.712      5691.5412    
    844000   630.06884     -3337.9982      40.721395     -3297.2768      39776.992      5691.5412    
    845000   607.57969     -3336.1539      39.267919     -3296.8859      41519.592      5691.5412    
    846000   602.34916     -3338.1044      38.92987      -3299.1745      41935.201      5691.5412    
    847000   605.57413     -3336.3228      39.1383       -3297.1845      42298.14       5691.5412    
    848000   600.30865     -3336.3668      38.797991     -3297.5688      42001.843      5691.5412    
    849000   566.59667     -3337.7891      36.619184     -3301.17        38021.829      5691.5412    
    850000   585.96895     -3339.2944      37.871216     -3301.4232      37374.443      5691.5412    
    851000   590.23066     -3337.9472      38.14665      -3299.8005      38701.05       5691.5412    
    852000   606.93344     -3337.7852      39.226152     -3298.559       37476.968      5691.5412    
    853000   622.62573     -3336.9577      40.240346     -3296.7173      39978.054      5691.5412    
    854000   643.79143     -3336.0493      41.608287     -3294.441       41092.343      5691.5412    
    855000   604.44567     -3336.5904      39.065367     -3297.525       40388.202      5691.5412    
    856000   588.44787     -3337.127       38.031429     -3299.0956      41011.526      5691.5412    
    857000   562.35967     -3336.6642      36.345346     -3300.3188      41506.058      5691.5412    
    858000   577.05769     -3336.8117      37.29528      -3299.5164      41224.077      5691.5412    
    859000   616.29996     -3337.1988      39.831511     -3297.3673      40010.778      5691.5412    
    860000   595.03307     -3334.5828      38.45703      -3296.1258      39077.159      5691.5412    
    861000   585.61682     -3336.7516      37.848457     -3298.9032      40337.856      5691.5412    
    862000   590.15944     -3336.7862      38.142047     -3298.6441      38953.36       5691.5412    
    863000   609.36762     -3339.6297      39.383473     -3300.2462      35744.443      5691.5412    
    864000   626.06734     -3338.0934      40.462777     -3297.6306      39560.504      5691.5412    
    865000   634.11148     -3336.6648      40.982671     -3295.6821      38840.781      5691.5412    
    866000   604.93589     -3336.8754      39.097051     -3297.7783      40819.705      5691.5412    
    867000   590.07265     -3336.909       38.136438     -3298.7726      43635.964      5691.5412    
    868000   620.75619     -3336.6313      40.119518     -3296.5118      42330.066      5691.5412    
    869000   595.23771     -3334.6913      38.470257     -3296.221       40025.059      5691.5412    
    870000   616.44548     -3336.9946      39.840916     -3297.1537      40366.033      5691.5412    
    871000   612.8569      -3339.5027      39.608986     -3299.8937      37052.017      5691.5412    
    872000   579.10465     -3339.5065      37.427576     -3302.079       36183.979      5691.5412    
    873000   601.74271     -3337.5723      38.890675     -3298.6816      37745.97       5691.5412    
    874000   630.42423     -3336.6193      40.744364     -3295.8749      42459.293      5691.5412    
    875000   585.30713     -3336.6311      37.828442     -3298.8027      38089.355      5691.5412    
    876000   596.67046     -3338.5721      38.562855     -3300.0092      35526.453      5691.5412    
    877000   612.93742     -3334.99        39.61419      -3295.3758      40710.928      5691.5412    
    878000   609.932       -3335.4565      39.41995      -3296.0365      39650.432      5691.5412    
    879000   576.81263     -3337.3628      37.279442     -3300.0834      41739.439      5691.5412    
    880000   608.52721     -3339.355       39.329158     -3300.0259      36723.866      5691.5412    
    881000   587.31836     -3339.9456      37.958428     -3301.9872      38104.947      5691.5412    
    882000   613.44478     -3338.5176      39.646981     -3298.8706      39276.537      5691.5412    
    883000   605.58008     -3336.8155      39.138684     -3297.6768      39692.55       5691.5412    
    884000   606.99724     -3335.6767      39.230275     -3296.4464      41877.677      5691.5412    
    885000   580.02117     -3337.8416      37.48681      -3300.3548      37951.274      5691.5412    
    886000   558.53771     -3337.005       36.098333     -3300.9066      39137.91       5691.5412    
    887000   597.88847     -3335.8596      38.641575     -3297.218       39018.637      5691.5412    
    888000   597.57138     -3337.1907      38.621082     -3298.5696      39868.331      5691.5412    
    889000   632.14304     -3334.908       40.85545      -3294.0525      41499.573      5691.5412    
    890000   627.78313     -3336.6193      40.573669     -3296.0457      37876.968      5691.5412    
    891000   577.93297     -3335.6956      37.35185      -3298.3437      38125.685      5691.5412    
    892000   561.94455     -3339.0727      36.318517     -3302.7541      38600.362      5691.5412    
    893000   589.53281     -3337.5971      38.101548     -3299.4955      39802.894      5691.5412    
    894000   586.35765     -3335.9912      37.896337     -3298.0949      38651.372      5691.5412    
    895000   624.70442     -3337.0744      40.374692     -3296.6997      40977.058      5691.5412    
    896000   590.64677     -3337.6396      38.173543     -3299.4661      42033.672      5691.5412    
    897000   551.21741     -3337.6031      35.625221     -3301.9778      38194.516      5691.5412    
    898000   586.07584     -3338.9683      37.878124     -3301.0902      37729.857      5691.5412    
    899000   607.78411     -3337.1696      39.281131     -3297.8885      38937.389      5691.5412    
    900000   603.77094     -3336.3316      39.021759     -3297.3098      39390.25       5691.5412    
    901000   598.08445     -3335.2036      38.654242     -3296.5493      43016.957      5691.5412    
    902000   602.58018     -3335.0769      38.9448       -3296.1321      42739.991      5691.5412    
    903000   562.873       -3336.0528      36.378523     -3299.6743      39250.982      5691.5412    
    904000   545.96012     -3335.6019      35.285442     -3300.3165      39318.719      5691.5412    
    905000   576.45571     -3339.0356      37.256374     -3301.7792      38264.562      5691.5412    
    906000   622.83012     -3338.4529      40.253556     -3298.1993      38133.74       5691.5412    
    907000   595.88206     -3334.1754      38.5119       -3295.6635      42049.582      5691.5412    
    908000   585.64846     -3335.7108      37.850502     -3297.8603      39904.811      5691.5412    
    909000   594.14493     -3334.7956      38.39963      -3296.396       40812.099      5691.5412    
    910000   594.10913     -3337.4941      38.397316     -3299.0968      37924.251      5691.5412    
    911000   609.17393     -3338.0696      39.370955     -3298.6986      40285.882      5691.5412    
    912000   600.25362     -3334.5054      38.794435     -3295.711       41631.697      5691.5412    
    913000   619.63772     -3335.8275      40.047231     -3295.7803      40343.383      5691.5412    
    914000   588.85889     -3334.7852      38.057993     -3296.7272      40323.421      5691.5412    
    915000   604.20632     -3337.5054      39.049899     -3298.4555      37670.292      5691.5412    
    916000   570.58026     -3340.9292      36.876644     -3304.0525      33081.105      5691.5412    
    917000   612.6771      -3336.8769      39.597365     -3297.2795      38675.013      5691.5412    
    918000   627.13693     -3338.0563      40.531905     -3297.5244      42497.273      5691.5412    
    919000   611.64257     -3335.1971      39.530504     -3295.6666      42188.122      5691.5412    
    920000   611.02794     -3336.3801      39.49078      -3296.8894      40565.681      5691.5412    
    921000   582.28384     -3336.7358      37.633047     -3299.1028      38414.496      5691.5412    
    922000   607.63376     -3338.7259      39.271414     -3299.4545      38675.22       5691.5412    
    923000   586.70088     -3336.11        37.91852      -3298.1914      38299.003      5691.5412    
    924000   610.1018      -3336.0554      39.430923     -3296.6245      40124.306      5691.5412    
    925000   605.924       -3337.0993      39.160912     -3297.9384      40961.222      5691.5412    
    926000   581.70083     -3337.2424      37.595367     -3299.647       38652.03       5691.5412    
    927000   592.20425     -3336.0298      38.274204     -3297.7556      40064.776      5691.5412    
    928000   623.37308     -3337.0697      40.288647     -3296.781       39971.255      5691.5412    
    929000   603.85072     -3339.332       39.026916     -3300.305       37656.844      5691.5412    
    930000   553.68506     -3337.6556      35.784705     -3301.8709      38344.033      5691.5412    
    931000   625.24926     -3338.136       40.409905     -3297.7261      36290.882      5691.5412    
    932000   629.47033     -3337.1777      40.682713     -3296.4949      41878.886      5691.5412    
    933000   551.26424     -3338.0027      35.628248     -3302.3745      37543.226      5691.5412    
    934000   568.14863     -3337.9643      36.719487     -3301.2448      39588.486      5691.5412    
    935000   617.56765     -3336.7876      39.913442     -3296.8741      37902.474      5691.5412    
    936000   589.22524     -3336.813       38.08167      -3298.7313      42303.148      5691.5412    
    937000   601.45358     -3337.7697      38.871988     -3298.8978      39761.121      5691.5412    
    938000   601.65257     -3337.2204      38.884849     -3298.3356      37621.749      5691.5412    
    939000   667.74843     -3337.5632      43.156629     -3294.4066      37481.851      5691.5412    
    940000   632.22515     -3336.2886      40.860758     -3295.4278      39680.023      5691.5412    
    941000   614.23644     -3337.1306      39.698146     -3297.4324      37573.532      5691.5412    
    942000   587.21754     -3337.7306      37.951912     -3299.7787      41253.513      5691.5412    
    943000   564.89291     -3337.9264      36.50907      -3301.4173      37202.07       5691.5412    
    944000   593.94318     -3335.6795      38.386591     -3297.2929      43919.053      5691.5412    
    945000   588.7206      -3337.6535      38.049055     -3299.6044      41447.747      5691.5412    
    946000   600.20096     -3339.5509      38.791032     -3300.7599      37655.153      5691.5412    
    947000   586.54872     -3335.2794      37.908686     -3297.3707      36240.252      5691.5412    
    948000   607.77038     -3335.7166      39.280244     -3296.4364      37728.818      5691.5412    
    949000   613.86236     -3338.0918      39.673969     -3298.4178      39232.021      5691.5412    
    950000   602.16261     -3338.0881      38.917813     -3299.1703      38045.329      5691.5412    
    951000   581.03906     -3339.8542      37.552596     -3302.3016      36773.571      5691.5412    
    952000   597.36731     -3336.3024      38.607893     -3297.6945      40572.32       5691.5412    
    953000   612.37971     -3337.8921      39.578145     -3298.314       39851.846      5691.5412    
    954000   605.46821     -3337.9785      39.131455     -3298.8471      39224.617      5691.5412    
    955000   604.50365     -3338.2495      39.069114     -3299.1804      38981.903      5691.5412    
    956000   608.47546     -3338.2036      39.325813     -3298.8778      37355.517      5691.5412    
    957000   563.38425     -3335.4162      36.411565     -3299.0046      40777.526      5691.5412    
    958000   673.47629     -3334.9699      43.526822     -3291.4431      44019.166      5691.5412    
    959000   582.87433     -3338.5568      37.67121      -3300.8856      38079.231      5691.5412    
    960000   583.13964     -3336.7203      37.688357     -3299.0319      41402.824      5691.5412    
    961000   626.40208     -3334.5414      40.484412     -3294.057       39675.16       5691.5412    
    962000   628.18925     -3336.8415      40.599917     -3296.2416      39393.226      5691.5412    
    963000   582.19983     -3336.0439      37.627617     -3298.4163      40840.376      5691.5412    
    964000   594.95813     -3337.9306      38.452187     -3299.4785      35559.701      5691.5412    
    965000   601.01307     -3335.8232      38.843518     -3296.9796      42588.36       5691.5412    
    966000   568.79247     -3334.2158      36.761099     -3297.4547      43456.99       5691.5412    
    967000   618.63937     -3337.6355      39.982707     -3297.6528      38514.589      5691.5412    
    968000   603.01053     -3336.5781      38.972614     -3297.6055      40441.535      5691.5412    
    969000   577.31082     -3337.5782      37.31164      -3300.2666      37147.269      5691.5412    
    970000   556.5847      -3338.4758      35.97211      -3302.5036      37390.992      5691.5412    
    971000   602.68224     -3337.0672      38.951397     -3298.1158      40589.81       5691.5412    
    972000   610.04187     -3334.8911      39.42705      -3295.464       41211.66       5691.5412    
    973000   627.27086     -3337.7337      40.540561     -3297.1931      38483.006      5691.5412    
    974000   639.13853     -3337.583       41.307569     -3296.2755      39454.273      5691.5412    
    975000   608.61576     -3337.7458      39.334881     -3298.4109      38875.323      5691.5412    
    976000   568.72965     -3337.5093      36.757038     -3300.7523      40014.776      5691.5412    
    977000   579.79753     -3338.6643      37.472356     -3301.1919      39208.901      5691.5412    
    978000   610.96063     -3335.4515      39.48643      -3295.965       42607.651      5691.5412    
    979000   594.07173     -3336.4529      38.394899     -3298.058       42011.235      5691.5412    
    980000   605.1011      -3336.9031      39.107728     -3297.7953      41180.818      5691.5412    
    981000   613.36151     -3335.3223      39.641599     -3295.6807      42917.029      5691.5412    
    982000   589.94275     -3336.3407      38.128043     -3298.2127      41601.601      5691.5412    
    983000   585.21812     -3337.9549      37.822689     -3300.1322      40441.308      5691.5412    
    984000   591.52767     -3337.679       38.230476     -3299.4485      38164.864      5691.5412    
    985000   605.59388     -3334.8932      39.139576     -3295.7536      40403.117      5691.5412    
    986000   634.37451     -3335.4762      40.99967      -3294.4765      41484.109      5691.5412    
    987000   593.57932     -3334.6157      38.363074     -3296.2526      41952.117      5691.5412    
    988000   569.35406     -3336.4929      36.797394     -3299.6955      40418.629      5691.5412    
    989000   564.62555     -3338.1226      36.49179      -3301.6308      38573.009      5691.5412    
    990000   568.71599     -3337.0053      36.756156     -3300.2491      39287.775      5691.5412    
    991000   589.63829     -3335.6784      38.108366     -3297.57        40321.83       5691.5412    
    992000   636.22901     -3335.3725      41.119527     -3294.2529      38032.083      5691.5412    
    993000   589.18193     -3336.0535      38.078871     -3297.9746      41265.1        5691.5412    
    994000   596.83234     -3337.9969      38.573317     -3299.4235      37442.706      5691.5412    
    995000   583.98429     -3338.7883      37.742947     -3301.0454      39347.833      5691.5412    
    996000   589.04857     -3339.5813      38.070252     -3301.511       36772.019      5691.5412    
    997000   574.55923     -3335.2905      37.133804     -3298.1567      40744.126      5691.5412    
    998000   621.62721     -3337.8654      40.175812     -3297.6896      37549.925      5691.5412    
    999000   572.35567     -3336.044       36.991389     -3299.0526      40291.731      5691.5412    
   1000000   576.98671     -3338.9853      37.290693     -3301.6946      38346.275      5691.5412    
   1001000   625.05911     -3338.1951      40.397615     -3297.7975      42827.904      5691.5412    
   1002000   591.94184     -3335.2659      38.257244     -3297.0086      41611.905      5691.5412    
   1003000   626.64266     -3337.4701      40.49996      -3296.9702      42784.061      5691.5412    
   1004000   539.69864     -3339.2594      34.880763     -3304.3787      38385.484      5691.5412    
   1005000   588.20199     -3335.8399      38.015537     -3297.8243      38134.954      5691.5412    
   1006000   639.70692     -3337.0669      41.344304     -3295.7226      39711.176      5691.5412    
   1007000   586.05166     -3336.9842      37.876561     -3299.1076      36901.399      5691.5412    
   1008000   613.67105     -3339.5455      39.661605     -3299.8838      38513.279      5691.5412    
   1009000   599.42005     -3337.5597      38.740561     -3298.8191      41199.27       5691.5412    
   1010000   593.73265     -3334.5901      38.372984     -3296.2171      41769.588      5691.5412    
   1011000   622.17002     -3338.1487      40.210894     -3297.9378      35679.817      5691.5412    
   1012000   618.86525     -3335.298       39.997306     -3295.3007      39451.866      5691.5412    
   1013000   605.59646     -3335.699       39.139743     -3296.5593      39472.653      5691.5412    
   1014000   604.22773     -3336.9434      39.051282     -3297.8921      39762.87       5691.5412    
   1015000   596.95564     -3338.5902      38.581286     -3300.0089      39179.719      5691.5412    
   1016000   598.12382     -3337.3928      38.656786     -3298.736       39987.238      5691.5412    
   1017000   589.57659     -3337.7904      38.104378     -3299.686       39658.013      5691.5412    
   1018000   578.34796     -3336.3749      37.37867      -3298.9962      39632.585      5691.5412    
   1019000   604.75092     -3335.2373      39.085096     -3296.1522      42626.741      5691.5412    
   1020000   642.36144     -3337.33        41.515867     -3295.8141      41051.054      5691.5412    
   1021000   568.65728     -3336.1097      36.752361     -3299.3573      39656.506      5691.5412    
   1022000   637.74963     -3335.9786      41.217805     -3294.7608      41452.619      5691.5412    
   1023000   622.67398     -3335.553       40.243465     -3295.3095      38815.61       5691.5412    
   1024000   579.79946     -3335.7135      37.472481     -3298.241       42054.586      5691.5412    
   1025000   619.87819     -3336.1702      40.062773     -3296.1075      40185.961      5691.5412    
   1026000   566.68642     -3339.22        36.624985     -3302.595       40019.907      5691.5412    
   1027000   600.99663     -3338.8427      38.842456     -3300.0003      39506.25       5691.5412    
   1028000   569.96447     -3335.7384      36.836845     -3298.9015      40931.945      5691.5412    
   1029000   626.39033     -3337.3465      40.483652     -3296.8629      41984.082      5691.5412    
   1030000   583.46797     -3335.8091      37.709577     -3298.0995      40000.192      5691.5412    
   1031000   585.81283     -3336.1712      37.861125     -3298.3101      41539.831      5691.5412    
   1032000   600.18994     -3337.674       38.79032      -3298.8837      40003.125      5691.5412    
   1033000   575.43014     -3336.5558      37.190092     -3299.3657      40735.272      5691.5412    
   1034000   609.98825     -3336.9527      39.423585     -3297.5291      40631.703      5691.5412    
   1035000   627.19082     -3336.8672      40.535388     -3296.3318      41305.319      5691.5412    
   1036000   606.44314     -3339.4647      39.194464     -3300.2702      35810.84       5691.5412    
   1037000   606.15114     -3336.6635      39.175592     -3297.4879      39024.465      5691.5412    
   1038000   592.11166     -3336.26        38.268219     -3297.9918      41342.535      5691.5412    
   1039000   597.97722     -3338.2109      38.647311     -3299.5636      41214.74       5691.5412    
   1040000   584.88322     -3339.2549      37.801045     -3301.4539      38602.107      5691.5412    
   1041000   601.72741     -3338.8689      38.889686     -3299.9793      37569.333      5691.5412    
   1042000   625.99834     -3337.5582      40.458318     -3297.0999      41886.69       5691.5412    
   1043000   608.71743     -3335.8812      39.341452     -3296.5397      43308.872      5691.5412    
   1044000   630.48793     -3335.9509      40.74848      -3295.2024      40573.509      5691.5412    
   1045000   616.03739     -3338.1013      39.814541     -3298.2867      40670.177      5691.5412    
   1046000   559.02047     -3335.2194      36.129533     -3299.0899      41462.773      5691.5412    
   1047000   603.38685     -3336.0746      38.996936     -3297.0777      40322.738      5691.5412    
   1048000   631.04751     -3336.7543      40.784646     -3295.9697      37313.945      5691.5412    
   1049000   583.39672     -3337.0958      37.704972     -3299.3909      39859.027      5691.5412    
   1050000   600.61182     -3337.7231      38.817585     -3298.9055      38422.171      5691.5412    
   1051000   606.1564      -3337.116       39.175932     -3297.94        40458.537      5691.5412    
   1052000   606.68114     -3334.8846      39.209846     -3295.6748      39590.246      5691.5412    
   1053000   554.99764     -3338.0042      35.869537     -3302.1346      40233.128      5691.5412    
   1054000   604.13861     -3338.4825      39.045522     -3299.437       38916.078      5691.5412    
   1055000   592.18782     -3336.0198      38.273142     -3297.7467      39905.254      5691.5412    
   1056000   579.14489     -3338.2012      37.430176     -3300.771       38673.799      5691.5412    
   1057000   591.81862     -3337.6249      38.24928      -3299.3757      42289.161      5691.5412    
   1058000   621.37196     -3335.9049      40.159315     -3295.7456      41474.734      5691.5412    
   1059000   619.77068     -3336.3542      40.055824     -3296.2983      41414.354      5691.5412    
   1060000   592.90547     -3338.86        38.319523     -3300.5405      38049.883      5691.5412    
   1061000   565.89744     -3336.9337      36.573993     -3300.3597      39667.072      5691.5412    
   1062000   592.297       -3335.9658      38.280198     -3297.6856      41219.196      5691.5412    
   1063000   626.89773     -3338.9608      40.516446     -3298.4444      42172.175      5691.5412    
   1064000   589.97418     -3339.9275      38.130074     -3301.7974      36551.19       5691.5412    
   1065000   559.87318     -3335.4057      36.184644     -3299.221       41758.083      5691.5412    
   1066000   553.5991      -3334.2114      35.77915      -3298.4322      44076.996      5691.5412    
   1067000   594.78781     -3336.1016      38.44118      -3297.6604      39980.7        5691.5412    
   1068000   609.65278     -3338.123       39.401903     -3298.7211      38718.484      5691.5412    
   1069000   587.7204      -3339.6591      37.984412     -3301.6747      37513.407      5691.5412    
   1070000   611.11528     -3339.191       39.496425     -3299.6945      38708.399      5691.5412    
   1071000   630.51392     -3338.726       40.750161     -3297.9758      37878.809      5691.5412    
   1072000   617.85459     -3336.4036      39.931987     -3296.4716      37848.78       5691.5412    
   1073000   629.77314     -3335.356       40.702284     -3294.6537      42267.522      5691.5412    
   1074000   595.92345     -3335.9991      38.514576     -3297.4845      39500.618      5691.5412    
   1075000   587.71259     -3336.6331      37.983907     -3298.6492      42321.985      5691.5412    
   1076000   565.64336     -3337.6606      36.557571     -3301.1031      40239.468      5691.5412    
   1077000   592.90648     -3337.4564      38.319589     -3299.1368      40445.747      5691.5412    
   1078000   625.95869     -3337.3853      40.455755     -3296.9295      37350.291      5691.5412    
   1079000   594.59553     -3336.3923      38.428752     -3297.9635      39498.697      5691.5412    
   1080000   577.65534     -3336.5553      37.333906     -3299.2214      40156.143      5691.5412    
   1081000   599.99442     -3336.5786      38.777683     -3297.8009      39575.174      5691.5412    
   1082000   634.31196     -3335.5416      40.995628     -3294.546       44326.671      5691.5412    
   1083000   580.80167     -3337.331       37.537254     -3299.7938      40993.402      5691.5412    
   1084000   607.38672     -3337.573       39.255448     -3298.3175      39952.843      5691.5412    
   1085000   621.12163     -3334.3301      40.143136     -3294.187       42359.744      5691.5412    
   1086000   575.41881     -3337.7871      37.189359     -3300.5977      37137.947      5691.5412    
   1087000   577.75502     -3337.1498      37.340349     -3299.8094      39329.944      5691.5412    
   1088000   609.63784     -3338.0462      39.400938     -3298.6452      40093.849      5691.5412    
   1089000   601.86949     -3336.7463      38.898868     -3297.8474      41208.108      5691.5412    
   1090000   604.61421     -3337.8368      39.07626      -3298.7605      38937.369      5691.5412    
   1091000   608.13638     -3338.2038      39.303898     -3298.8999      38850.434      5691.5412    
   1092000   617.29985     -3339.6519      39.896134     -3299.7558      38819.683      5691.5412    
   1093000   600.34775     -3337.5492      38.800519     -3298.7487      35631.236      5691.5412    
   1094000   617.85835     -3334.1766      39.93223      -3294.2444      44401.736      5691.5412    
   1095000   621.24156     -3335.3943      40.150887     -3295.2435      41290.553      5691.5412    
   1096000   563.66025     -3334.6091      36.429403     -3298.1797      40978.417      5691.5412    
   1097000   588.52707     -3338.3289      38.036547     -3300.2923      39720.076      5691.5412    
   1098000   601.97375     -3337.8197      38.905607     -3298.9141      43199.01       5691.5412    
   1099000   591.97034     -3335.5389      38.259086     -3297.2798      43127.654      5691.5412    
   1100000   617.32363     -3335.7512      39.897671     -3295.8535      39175.947      5691.5412    
   1101000   581.86515     -3336.362       37.605987     -3298.756       39577.176      5691.5412    
   1102000   592.1945      -3338.5165      38.273574     -3300.2429      41364.833      5691.5412    
   1103000   579.73306     -3338.1866      37.46819      -3300.7184      36982.167      5691.5412    
   1104000   604.48838     -3338.0545      39.068128     -3298.9864      39659.229      5691.5412    
   1105000   614.46351     -3338.1782      39.712822     -3298.4654      41807.372      5691.5412    
   1106000   603.01857     -3336.8704      38.973134     -3297.8973      43237.548      5691.5412    
   1107000   605.93895     -3338.251       39.161878     -3299.0891      41392.487      5691.5412    
   1108000   529.36728     -3338.4151      34.213046     -3304.2021      38265.883      5691.5412    
   1109000   616.41315     -3339.2488      39.838826     -3299.41        39842.88       5691.5412    
   1110000   642.18675     -3337.817       41.504576     -3296.3124      38875.988      5691.5412    
   1111000   600.03848     -3336.9799      38.78053      -3298.1994      40316.262      5691.5412    
   1112000   593.79654     -3341.7399      38.377114     -3303.3628      36718.408      5691.5412    
   1113000   572.27045     -3336.5755      36.985881     -3299.5896      38213.42       5691.5412    
   1114000   604.26031     -3337.4078      39.053388     -3298.3544      39689.787      5691.5412    
   1115000   613.55686     -3335.9201      39.654224     -3296.2659      41965.656      5691.5412    
   1116000   617.53935     -3338.1404      39.911613     -3298.2288      41849.135      5691.5412    
   1117000   608.06561     -3339.0895      39.299324     -3299.7901      39170.48       5691.5412    
   1118000   601.25025     -3335.6408      38.858847     -3296.7819      39577.361      5691.5412    
   1119000   602.86688     -3333.3008      38.96333      -3294.3375      43713.404      5691.5412    
   1120000   614.77813     -3337.3561      39.733155     -3297.623       44160.976      5691.5412    
   1121000   611.46409     -3338.4228      39.518968     -3298.9038      39054.623      5691.5412    
   1122000   595.50197     -3339.3422      38.487335     -3300.8549      37989.515      5691.5412    
   1123000   597.61827     -3337.5782      38.624112     -3298.954       38904.833      5691.5412    
   1124000   618.80447     -3336.4349      39.993378     -3296.4415      42186.562      5691.5412    
   1125000   602.35        -3336.521       38.929924     -3297.5911      42047.064      5691.5412    
   1126000   576.40573     -3335.4467      37.253144     -3298.1936      43163.128      5691.5412    
   1127000   579.7052      -3338.9929      37.466389     -3301.5265      36925.113      5691.5412    
   1128000   609.35833     -3339.6574      39.382873     -3300.2746      39307.802      5691.5412    
   1129000   592.66006     -3338.892       38.303662     -3300.5883      38887.664      5691.5412    
   1130000   658.12333     -3335.2476      42.534558     -3292.713       41669.637      5691.5412    
   1131000   609.63231     -3338.3398      39.400581     -3298.9393      37174.77       5691.5412    
   1132000   595.4913      -3337.5516      38.486646     -3299.065       43496.901      5691.5412    
   1133000   633.96469     -3336.823       40.973184     -3295.8499      42326.219      5691.5412    
   1134000   621.80565     -3335.1062      40.187344     -3294.9189      44076.61       5691.5412    
   1135000   585.68442     -3338.1525      37.852827     -3300.2997      43570.197      5691.5412    
   1136000   596.52357     -3337.5013      38.553361     -3298.9479      38251.874      5691.5412    
   1137000   618.84625     -3336.6799      39.996078     -3296.6839      42032.3        5691.5412    
   1138000   657.73615     -3336.7119      42.509535     -3294.2023      40681.644      5691.5412    
   1139000   604.18927     -3338.7449      39.048796     -3299.6961      40213.068      5691.5412    
   1140000   599.69904     -3339.356       38.758592     -3300.5974      39103.542      5691.5412    
   1141000   607.77419     -3337.0042      39.28049      -3297.7237      39931.644      5691.5412    
   1142000   585.61114     -3339.808       37.84809      -3301.9599      41352.489      5691.5412    
   1143000   619.13892     -3340.8495      40.014993     -3300.8345      36599.407      5691.5412    
   1144000   613.63704     -3338.0329      39.659406     -3298.3735      40692.801      5691.5412    
   1145000   605.4566      -3337.7573      39.130704     -3298.6266      40936.515      5691.5412    
   1146000   599.42558     -3338.9801      38.740918     -3300.2392      38950.987      5691.5412    
   1147000   605.44882     -3338.0281      39.130201     -3298.8979      38523.955      5691.5412    
   1148000   623.05852     -3336.3538      40.268318     -3296.0854      41703.832      5691.5412    
   1149000   626.8831      -3337.9567      40.5155       -3297.4412      41489.55       5691.5412    
   1150000   598.0143      -3338.482       38.649708     -3299.8323      39410.305      5691.5412    
   1151000   615.68588     -3338.6884      39.791823     -3298.8965      38608.336      5691.5412    
   1152000   617.68236     -3338.6143      39.920856     -3298.6934      38506.24       5691.5412    
   1153000   642.8363      -3335.4885      41.546556     -3293.9419      42749.157      5691.5412    
   1154000   596.03042     -3335.3512      38.521489     -3296.8297      38635.51       5691.5412    
   1155000   595.9433      -3337.1645      38.515858     -3298.6486      41193.486      5691.5412    
   1156000   628.48094     -3339.3691      40.618769     -3298.7503      39191.384      5691.5412    
   1157000   598.44404     -3335.1919      38.677482     -3296.5144      41663.377      5691.5412    
   1158000   633.23206     -3338.4532      40.925834     -3297.5273      39201.536      5691.5412    
   1159000   572.53823     -3338.4572      37.003187     -3301.454       41303.084      5691.5412    
   1160000   573.31738     -3336.7606      37.053544     -3299.7071      42647.41       5691.5412    
   1161000   624.22707     -3336.3734      40.343841     -3296.0296      40347.895      5691.5412    
   1162000   627.42537     -3337.6792      40.550547     -3297.1286      43079.935      5691.5412    
   1163000   601.90694     -3339.588       38.901289     -3300.6867      37759.047      5691.5412    
   1164000   582.9739      -3337.6554      37.677645     -3299.9778      40419.075      5691.5412    
   1165000   635.33782     -3337.2214      41.06193      -3296.1594      43738.173      5691.5412    
   1166000   625.05747     -3336.6399      40.39751      -3296.2423      41283.18       5691.5412    
   1167000   604.05539     -3337.8589      39.040144     -3298.8187      39958.227      5691.5412    
   1168000   612.79379     -3338.3374      39.604907     -3298.7325      38580.439      5691.5412    
   1169000   618.75862     -3336.3709      39.990415     -3296.3805      41392.701      5691.5412    
   1170000   647.63686     -3338.7407      41.856817     -3296.8839      39601.962      5691.5412    
   1171000   603.40812     -3337.7498      38.99831      -3298.7515      38826.428      5691.5412    
   1172000   574.18138     -3337.5549      37.109384     -3300.4455      41482.684      5691.5412    
   1173000   626.53256     -3338.7549      40.492845     -3298.262       39846.444      5691.5412    
   1174000   602.13876     -3335.0888      38.916272     -3296.1726      42943.31       5691.5412    
   1175000   637.91867     -3337.584       41.22873      -3296.3553      36432.019      5691.5412    
   1176000   599.27611     -3342.0409      38.731259     -3303.3096      35881.823      5691.5412    
   1177000   599.27063     -3339.4993      38.730905     -3300.7684      38987.495      5691.5412    
   1178000   593.01535     -3337.2494      38.326625     -3298.9227      40186.758      5691.5412    
   1179000   584.56305     -3335.7319      37.780353     -3297.9516      43448.036      5691.5412    
   1180000   621.74968     -3338.3204      40.183727     -3298.1366      39301.48       5691.5412    
   1181000   583.65137     -3339.1977      37.72143      -3301.4763      41218.544      5691.5412    
   1182000   586.34518     -3336.91        37.895531     -3299.0144      40843.2        5691.5412    
   1183000   603.78496     -3336.9468      39.022666     -3297.9241      40764.592      5691.5412    
   1184000   599.8733      -3335.2651      38.769855     -3296.4953      42168.592      5691.5412    
   1185000   616.85722     -3334.2906      39.867527     -3294.4231      43742.607      5691.5412    
   1186000   581.15428     -3336.8773      37.560043     -3299.3173      36705.368      5691.5412    
   1187000   600.96385     -3340.0549      38.840337     -3301.2145      39603.985      5691.5412    
   1188000   574.20165     -3336.6143      37.110694     -3299.5036      40042.442      5691.5412    
   1189000   639.27112     -3337.9108      41.316139     -3296.5947      41534.701      5691.5412    
   1190000   593.93387     -3338.2704      38.385989     -3299.8844      43511.223      5691.5412    
   1191000   617.82628     -3336.2025      39.930158     -3296.2723      42261.445      5691.5412    
   1192000   697.05899     -3339.0901      45.050973     -3294.0392      40909.327      5691.5412    
   1193000   612.56237     -3339.7348      39.58995      -3300.1449      41190.69       5691.5412    
   1194000   586.23265     -3339.2786      37.888259     -3301.3903      37700.819      5691.5412    
   1195000   590.9858      -3340.526       38.195455     -3302.3306      38661.081      5691.5412    
   1196000   599.23882     -3338.3192      38.728848     -3299.5903      37339.496      5691.5412    
   1197000   585.69911     -3336.3707      37.853776     -3298.5169      42881.762      5691.5412    
   1198000   596.81714     -3338.6541      38.572335     -3300.0818      38968.724      5691.5412    
   1199000   579.30456     -3339.8993      37.440496     -3302.4588      36891.936      5691.5412    
   1200000   594.1515      -3338.7075      38.400054     -3300.3075      36876.262      5691.5412    
   1201000   625.61152     -3338.0269      40.433318     -3297.5936      40674.893      5691.5412    
   1202000   586.46478     -3337.3657      37.903261     -3299.4625      40676.842      5691.5412    
   1203000   574.92225     -3335.9984      37.157267     -3298.8411      42768.055      5691.5412    
   1204000   596.47448     -3339.9746      38.550189     -3301.4244      37505.546      5691.5412    
   1205000   586.25272     -3339.9708      37.889556     -3302.0812      37390.619      5691.5412    
   1206000   602.7379      -3337.2391      38.954994     -3298.2841      38160.123      5691.5412    
   1207000   598.76273     -3337.6212      38.698079     -3298.9232      42717.916      5691.5412    
   1208000   573.02602     -3339.6816      37.034713     -3302.6469      38703.118      5691.5412    
   1209000   556.37016     -3338.0246      35.958244     -3302.0664      38445.352      5691.5412    
   1210000   571.05008     -3337.7077      36.907008     -3300.8007      41861.366      5691.5412    
   1211000   598.71022     -3337.8792      38.694685     -3299.1846      38590.837      5691.5412    
   1212000   579.83813     -3338.6971      37.47498      -3301.2221      39474.528      5691.5412    
   1213000   562.63274     -3339.2351      36.362994     -3302.8721      35818.836      5691.5412    
   1214000   564.37946     -3338.1877      36.475885     -3301.7118      39240.782      5691.5412    
   1215000   598.07846     -3336.9704      38.653854     -3298.3166      43583.364      5691.5412    
   1216000   552.64905     -3336.6588      35.717748     -3300.9411      39691.982      5691.5412    
   1217000   580.86027     -3340.0936      37.541041     -3302.5526      39826.198      5691.5412    
   1218000   601.65082     -3339.6587      38.884736     -3300.7739      39149.555      5691.5412    
   1219000   559.80147     -3335.2769      36.180009     -3299.0969      40768.812      5691.5412    
   1220000   594.77551     -3337.4981      38.440384     -3299.0577      37641.726      5691.5412    
   1221000   568.23183     -3338.7956      36.724864     -3302.0708      40637.16       5691.5412    
   1222000   648.06455     -3340.6272      41.884459     -3298.7428      40006.595      5691.5412    
   1223000   623.00114     -3337.7796      40.264609     -3297.515       40680.166      5691.5412    
   1224000   611.30462     -3340.1796      39.508662     -3300.6709      41903.338      5691.5412    
   1225000   610.87135     -3340.7485      39.48066      -3301.2679      37744.776      5691.5412    
   1226000   550.58383     -3337.4392      35.584273     -3301.8549      39417.455      5691.5412    
   1227000   592.5855      -3337.4192      38.298844     -3299.1204      41556.463      5691.5412    
   1228000   642.84318     -3337.0766      41.547002     -3295.5296      46370.377      5691.5412    
   1229000   635.53078     -3338.8171      41.0744       -3297.7427      40580.557      5691.5412    
   1230000   588.13807     -3337.8156      38.011406     -3299.8042      39926.345      5691.5412    
   1231000   598.76245     -3339.2283      38.698061     -3300.5302      41148.066      5691.5412    
   1232000   622.59665     -3338.6535      40.238467     -3298.415       37103.978      5691.5412    
   1233000   632.84917     -3338.2684      40.901088     -3297.3673      40801.156      5691.5412    
   1234000   644.86242     -3337.4878      41.677505     -3295.8103      41308.563      5691.5412    
   1235000   614.25503     -3337.3902      39.699347     -3297.6908      41106.815      5691.5412    
   1236000   600.9618      -3339.5572      38.840205     -3300.717       39662.509      5691.5412    
   1237000   605.42413     -3340.3364      39.128605     -3301.2078      36754.204      5691.5412    
   1238000   583.00083     -3338.8718      37.679386     -3301.1924      41056.124      5691.5412    
   1239000   596.02989     -3337.9696      38.521455     -3299.4482      42808.957      5691.5412    
   1240000   596.50918     -3339.4935      38.552432     -3300.9411      37415.216      5691.5412    
   1241000   599.09388     -3341.4049      38.719481     -3302.6854      38172.407      5691.5412    
   1242000   596.862       -3339.1045      38.575234     -3300.5293      35310.332      5691.5412    
   1243000   615.83351     -3338.5784      39.801365     -3298.777       41822.352      5691.5412    
   1244000   622.02495     -3338.8483      40.201518     -3298.6468      41433.393      5691.5412    
   1245000   618.91124     -3338.6257      40.000278     -3298.6254      39310.466      5691.5412    
   1246000   591.39414     -3338.4786      38.221846     -3300.2567      39652.353      5691.5412    
   1247000   566.62225     -3337.2909      36.620837     -3300.6701      40606.027      5691.5412    
   1248000   613.90868     -3337.4494      39.676963     -3297.7725      40131.57       5691.5412    
   1249000   589.00442     -3337.7898      38.067399     -3299.7224      40542.138      5691.5412    
   1250000   575.20474     -3340.9332      37.175524     -3303.7576      33538.121      5691.5412    
   1251000   597.1179      -3339.9793      38.591773     -3301.3876      35547.745      5691.5412    
   1252000   642.30958     -3341.1545      41.512515     -3299.642       35726.314      5691.5412    
   1253000   637.72284     -3338.995       41.216073     -3297.7789      40408.234      5691.5412    
   1254000   627.84786     -3335.9781      40.577853     -3295.4002      42933.082      5691.5412    
   1255000   616.05        -3336.8231      39.815356     -3297.0078      43160.023      5691.5412    
   1256000   602.57493     -3337.4334      38.944461     -3298.4889      38517.654      5691.5412    
   1257000   584.20073     -3338.0283      37.756935     -3300.2714      36652.35       5691.5412    
   1258000   561.73752     -3339.3927      36.305137     -3303.0876      41655.897      5691.5412    
   1259000   602.861       -3340.9221      38.96295      -3301.9592      37000.921      5691.5412    
   1260000   598.7497      -3339.7608      38.697236     -3301.0636      39797.35       5691.5412    
   1261000   592.0386      -3338.2769      38.263498     -3300.0134      38092.429      5691.5412    
   1262000   590.7681      -3339.1539      38.181385     -3300.9725      38063.851      5691.5412    
   1263000   572.33125     -3339.2042      36.98981      -3302.2144      38235.912      5691.5412    
   1264000   647.78107     -3335.2029      41.866138     -3293.3368      41984.357      5691.5412    
   1265000   603.48559     -3338.2719      39.003318     -3299.2685      39402.224      5691.5412    
   1266000   597.6244      -3340.3974      38.624508     -3301.7729      34508.083      5691.5412    
   1267000   576.41933     -3340.4054      37.254023     -3303.1514      38832.874      5691.5412    
   1268000   625.15123     -3339.995       40.403569     -3299.5914      37326.437      5691.5412    
   1269000   615.38078     -3338.4355      39.772104     -3298.6634      39679.746      5691.5412    
   1270000   580.09049     -3340.1412      37.49129      -3302.6499      36961.648      5691.5412    
   1271000   588.48947     -3341.0931      38.034117     -3303.059       34640.195      5691.5412    
   1272000   576.19734     -3336.6743      37.239676     -3299.4346      40299.343      5691.5412    
   1273000   608.12306     -3337.1748      39.303037     -3297.8718      40293.577      5691.5412    
   1274000   629.71967     -3339.5617      40.698828     -3298.8628      37555.703      5691.5412    
   1275000   581.476       -3336.699       37.580836     -3299.1181      38402.475      5691.5412    
   1276000   579.05512     -3338.2084      37.424375     -3300.784       39157.879      5691.5412    
   1277000   620.19557     -3342.7122      40.083284     -3302.6289      35504.281      5691.5412    
   1278000   570.36125     -3340.2445      36.862489     -3303.382       35933.493      5691.5412    
   1279000   610.75323     -3338.8663      39.473026     -3299.3933      42332.252      5691.5412    
   1280000   601.39623     -3336.0048      38.868282     -3297.1365      40460.658      5691.5412    
   1281000   604.03296     -3337.9329      39.038694     -3298.8942      41106.687      5691.5412    
   1282000   590.82045     -3337.8867      38.184769     -3299.7019      42101.538      5691.5412    
   1283000   593.99102     -3336.0184      38.389683     -3297.6287      41483.573      5691.5412    
   1284000   582.65573     -3338.897       37.657082     -3301.2399      38581.34       5691.5412    
   1285000   578.92725     -3336.6784      37.41611      -3299.2622      43354.583      5691.5412    
   1286000   617.79073     -3338.2426      39.92786      -3298.3148      39304.589      5691.5412    
   1287000   580.34342     -3337.9822      37.507637     -3300.4746      42510.229      5691.5412    
   1288000   575.43332     -3338.0945      37.190297     -3300.9042      41754.557      5691.5412    
   1289000   595.46709     -3335.8335      38.485081     -3297.3484      42675.063      5691.5412    
   1290000   654.10251     -3339.1076      42.274693     -3296.833       40814.067      5691.5412    
   1291000   614.74016     -3337.2549      39.730701     -3297.5242      42698.661      5691.5412    
   1292000   580.22021     -3338.9401      37.499674     -3301.4405      37786.807      5691.5412    
   1293000   596.11799     -3338.7309      38.527149     -3300.2038      38143.929      5691.5412    
   1294000   595.92122     -3337.6836      38.514432     -3299.1692      39504.52       5691.5412    
   1295000   613.67094     -3337.08        39.661597     -3297.4184      40053.242      5691.5412    
   1296000   571.20094     -3337.068       36.916758     -3300.1512      38692.732      5691.5412    
   1297000   603.34784     -3341.0434      38.994415     -3302.049       33879.721      5691.5412    
   1298000   601.81367     -3341.5702      38.895261     -3302.675       35832.975      5691.5412    
   1299000   602.87781     -3336.9683      38.964037     -3298.0043      40882.952      5691.5412    
   1300000   639.63897     -3339.0023      41.339913     -3297.6624      40367.497      5691.5412    
   1301000   588.00977     -3342.0438      38.003114     -3304.0407      34410.799      5691.5412    
   1302000   603.76918     -3338.1579      39.021646     -3299.1363      37420.623      5691.5412    
   1303000   622.4875      -3338.1822      40.231412     -3297.9508      37315.586      5691.5412    
   1304000   567.05276     -3335.9911      36.648661     -3299.3425      39259.629      5691.5412    
   1305000   574.3194      -3335.7933      37.118304     -3298.6749      39932.512      5691.5412    
   1306000   625.33339     -3337.7688      40.415342     -3297.3534      39078.718      5691.5412    
   1307000   657.0654      -3338.0876      42.466184     -3295.6215      41066.373      5691.5412    
   1308000   588.6515      -3336.0443      38.044589     -3297.9997      42240.578      5691.5412    
   1309000   576.62748     -3338.7615      37.267476     -3301.494       40527.633      5691.5412    
   1310000   562.88761     -3338.2522      36.379467     -3301.8728      38971.913      5691.5412    
   1311000   617.22184     -3336.3739      39.891092     -3296.4828      40084.389      5691.5412    
   1312000   629.33376     -3336.9369      40.673887     -3296.263       39236.446      5691.5412    
   1313000   613.85129     -3337.6542      39.673254     -3297.9809      38424.748      5691.5412    
   1314000   569.539       -3337.6669      36.809347     -3300.8575      39472.057      5691.5412    
   1315000   613.55827     -3341.3895      39.654315     -3301.7352      35831.53       5691.5412    
   1316000   578.6041      -3338.06        37.395225     -3300.6647      39215.333      5691.5412    
   1317000   595.45947     -3336.6028      38.484588     -3298.1182      40200.928      5691.5412    
   1318000   672.41971     -3339.2218      43.458535     -3295.7633      39778.233      5691.5412    
   1319000   574.18901     -3337.0513      37.109878     -3299.9414      39110.548      5691.5412    
   1320000   586.3589      -3338.3428      37.896418     -3300.4463      36529.97       5691.5412    
   1321000   607.65544     -3339.1286      39.272815     -3299.8558      40401.119      5691.5412    
   1322000   616.95629     -3338.263       39.87393      -3298.389       38094.837      5691.5412    
   1323000   630.75332     -3339.8387      40.765633     -3299.0731      40703.531      5691.5412    
   1324000   600.74958     -3337.4568      38.826489     -3298.6303      40744.095      5691.5412    
   1325000   584.44455     -3340.8874      37.772694     -3303.1147      37895.631      5691.5412    
   1326000   582.39985     -3339.313       37.640545     -3301.6725      39827.05       5691.5412    
   1327000   621.5507      -3339.596       40.170867     -3299.4251      38375.694      5691.5412    
   1328000   581.60225     -3337.1339      37.588996     -3299.5449      40878.718      5691.5412    
   1329000   624.99161     -3337.0568      40.393253     -3296.6636      41616.875      5691.5412    
   1330000   582.42549     -3337.6011      37.642201     -3299.9589      38882.972      5691.5412    
   1331000   612.17146     -3340.4289      39.564686     -3300.8642      36960.338      5691.5412    
   1332000   647.21479     -3342.4483      41.829539     -3300.6188      36839.708      5691.5412    
   1333000   620.99469     -3338.9578      40.134932     -3298.8229      41948.546      5691.5412    
   1334000   593.46011     -3336.8958      38.35537      -3298.5405      41650.632      5691.5412    
   1335000   605.24726     -3338.8245      39.117175     -3299.7074      38677.476      5691.5412    
   1336000   578.50745     -3338.2798      37.388979     -3300.8908      40377.174      5691.5412    
   1337000   589.5152      -3338.5512      38.10041      -3300.4508      40990.797      5691.5412    
   1338000   611.83923     -3337.7456      39.543214     -3298.2023      45113.784      5691.5412    
   1339000   627.1057      -3336.328       40.529887     -3295.7981      43841.995      5691.5412    
   1340000   581.94173     -3337.0292      37.610936     -3299.4182      40414.075      5691.5412    
   1341000   553.79005     -3337.0658      35.791491     -3301.2743      41103.39       5691.5412    
   1342000   557.71792     -3339.0726      36.04535      -3303.0272      38915.273      5691.5412    
   1343000   579.37581     -3337.3124      37.445101     -3299.8673      40953.666      5691.5412    
   1344000   584.9707      -3336.9456      37.806699     -3299.1389      42918.61       5691.5412    
   1345000   629.86739     -3340.3073      40.708375     -3299.5989      40150.321      5691.5412    
   1346000   584.66018     -3340.0193      37.78663      -3302.2327      39792.892      5691.5412    
   1347000   606.09624     -3339.2688      39.172044     -3300.0967      39629.229      5691.5412    
   1348000   581.44714     -3336.867       37.578971     -3299.288       40091.982      5691.5412    
   1349000   591.51332     -3338.5228      38.229549     -3300.2932      38268.755      5691.5412    
   1350000   559.15369     -3340.2608      36.138143     -3304.1226      36435.444      5691.5412    
   1351000   569.40886     -3339.0529      36.800936     -3302.2519      38369.952      5691.5412    
   1352000   579.64053     -3336.679       37.46221      -3299.2168      40655.547      5691.5412    
   1353000   614.01478     -3338.1093      39.68382      -3298.4255      37502.923      5691.5412    
   1354000   601.40651     -3337.8527      38.868946     -3298.9838      39359.786      5691.5412    
   1355000   599.1473      -3338.9195      38.722933     -3300.1965      36677.712      5691.5412    
   1356000   581.54752     -3337.7788      37.585459     -3300.1934      35503.88       5691.5412    
   1357000   601.50552     -3339.629       38.875345     -3300.7537      39613.413      5691.5412    
   1358000   614.13829     -3338.0366      39.691802     -3298.3448      41949.173      5691.5412    
   1359000   656.06536     -3338.2343      42.401552     -3295.8328      40387.975      5691.5412    
   1360000   619.40869     -3336.2499      40.032429     -3296.2174      41395.413      5691.5412    
   1361000   585.56462     -3337.8371      37.845084     -3299.992       39933.216      5691.5412    
   1362000   593.81346     -3338.3242      38.378207     -3299.946       38131.58       5691.5412    
   1363000   625.57758     -3337.6612      40.431124     -3297.2301      39910.16       5691.5412    
   1364000   583.93319     -3337.2474      37.739644     -3299.5078      39968.105      5691.5412    
   1365000   600.88949     -3338.6845      38.835531     -3299.8489      41882.468      5691.5412    
   1366000   598.15888     -3340.3662      38.659052     -3301.7071      39916.905      5691.5412    
   1367000   606.26153     -3338.6831      39.182727     -3299.5004      36939.134      5691.5412    
   1368000   634.42583     -3338.1643      41.002987     -3297.1613      41562.694      5691.5412    
   1369000   588.0239      -3337.4868      38.004027     -3299.4828      40018.141      5691.5412    
   1370000   610.47429     -3338.3011      39.454997     -3298.8461      39859.826      5691.5412    
   1371000   597.60617     -3339.3535      38.62333      -3300.7302      40522.691      5691.5412    
   1372000   607.86038     -3340.7912      39.28606      -3301.5051      38089.99       5691.5412    
   1373000   571.01829     -3338.6224      36.904954     -3301.7174      38516.737      5691.5412    
   1374000   621.27059     -3337.8854      40.152764     -3297.7326      42262.779      5691.5412    
   1375000   597.89001     -3337.4559      38.641675     -3298.8143      40520.719      5691.5412    
   1376000   608.91207     -3340.3948      39.354031     -3301.0407      35059.825      5691.5412    
   1377000   603.02878     -3336.0382      38.973794     -3297.0644      40955.85       5691.5412    
   1378000   603.47128     -3340.032       39.002392     -3301.0296      40204.06       5691.5412    
   1379000   592.55276     -3340.4018      38.296728     -3302.105       38459.286      5691.5412    
   1380000   592.08713     -3341.0873      38.266634     -3302.8206      37012.378      5691.5412    
   1381000   579.29526     -3337.5763      37.439895     -3300.1364      38621.32       5691.5412    
   1382000   566.48157     -3337.4513      36.611745     -3300.8395      40868.367      5691.5412    
   1383000   593.4         -3337.1241      38.351485     -3298.7726      41679.139      5691.5412    
   1384000   606.11619     -3336.6393      39.173333     -3297.466       41291.16       5691.5412    
   1385000   580.43671     -3339.695       37.513667     -3302.1814      42401.574      5691.5412    
   1386000   592.91572     -3339.5962      38.320186     -3301.276       38024.697      5691.5412    
   1387000   568.43721     -3338.9666      36.738138     -3302.2285      39289.366      5691.5412    
   1388000   598.07604     -3340.3945      38.653698     -3301.7408      37108.906      5691.5412    
   1389000   614.44682     -3339.0122      39.711743     -3299.3005      42958.163      5691.5412    
   1390000   608.03343     -3336.9042      39.297244     -3297.607       44624.127      5691.5412    
   1391000   594.47949     -3339.5184      38.421253     -3301.0972      39891.208      5691.5412    
   1392000   575.1868      -3338.6035      37.174365     -3301.4292      38599.03       5691.5412    
   1393000   588.87111     -3337.903       38.058783     -3299.8442      41717.285      5691.5412    
   1394000   624.89781     -3338.1521      40.387191     -3297.7649      39565.823      5691.5412    
   1395000   623.39687     -3339.987       40.290185     -3299.6968      39865.999      5691.5412    
   1396000   612.79269     -3340.5566      39.604836     -3300.9517      37324.634      5691.5412    
   1397000   603.3466      -3338.4096      38.994334     -3299.4153      39251.199      5691.5412    
   1398000   624.80047     -3336.5045      40.3809       -3296.1236      42218.149      5691.5412    
   1399000   605.16823     -3338.6827      39.112067     -3299.5707      41211.235      5691.5412    
   1400000   584.62396     -3340.0916      37.784289     -3302.3073      40634.542      5691.5412    
   1401000   597.7509      -3339.126       38.632684     -3300.4933      40292.691      5691.5412    
   1402000   628.11018     -3335.9254      40.594807     -3295.3306      42469.203      5691.5412    
   1403000   590.77201     -3336.4806      38.181638     -3298.2989      40967.374      5691.5412    
   1404000   592.58529     -3338.5551      38.29883      -3300.2563      40757.32       5691.5412    
   1405000   613.06876     -3340.3979      39.622679     -3300.7752      40049.875      5691.5412    
   1406000   600.04497     -3337.2792      38.78095      -3298.4983      40588.217      5691.5412    
   1407000   570.30936     -3338.4097      36.859135     -3301.5505      39902.684      5691.5412    
   1408000   611.18962     -3340.8658      39.501229     -3301.3645      37063.087      5691.5412    
   1409000   592.68562     -3340.5079      38.305314     -3302.2026      36518.226      5691.5412    
   1410000   619.12986     -3339.1599      40.014408     -3299.1455      41563.356      5691.5412    
   1411000   596.83887     -3339.4811      38.573739     -3300.9074      44190.647      5691.5412    
   1412000   578.64422     -3338.5421      37.397818     -3301.1443      40868.158      5691.5412    
   1413000   592.89606     -3335.8904      38.318916     -3297.5714      41377.754      5691.5412    
   1414000   625.51417     -3336.4792      40.427026     -3296.0522      45089.436      5691.5412    
   1415000   619.89406     -3339.2297      40.063798     -3299.1659      40518.171      5691.5412    
   1416000   575.43531     -3337.6736      37.190426     -3300.4831      43827.756      5691.5412    
   1417000   601.46095     -3336.877       38.872465     -3298.0045      43022.415      5691.5412    
   1418000   573.52027     -3333.8137      37.066657     -3296.747       42534.124      5691.5412    
   1419000   585.92387     -3340.1575      37.868302     -3302.2892      38468.089      5691.5412    
   1420000   593.6625      -3338.3094      38.36845      -3299.9409      41042.938      5691.5412    
   1421000   596.0546      -3337.3288      38.523052     -3298.8058      43436.199      5691.5412    
   1422000   582.71341     -3338.7887      37.66081      -3301.1278      38082.318      5691.5412    
   1423000   620.31794     -3340.292       40.091193     -3300.2008      39005.185      5691.5412    
   1424000   621.75791     -3338.2875      40.184258     -3298.1033      39946.291      5691.5412    
   1425000   602.85993     -3338.5787      38.962881     -3299.6158      41982.23       5691.5412    
   1426000   591.58726     -3340.728       38.234328     -3302.4937      39265.711      5691.5412    
   1427000   604.52387     -3340.8352      39.070421     -3301.7647      37196.981      5691.5412    
   1428000   585.18778     -3339.2781      37.820729     -3301.4573      40909.886      5691.5412    
   1429000   595.67903     -3337.4807      38.498779     -3298.9819      44439.437      5691.5412    
   1430000   592.2562      -3338.8383      38.277561     -3300.5607      43037.439      5691.5412    
   1431000   566.99666     -3338.8867      36.645036     -3302.2417      40596.284      5691.5412    
   1432000   602.59486     -3340.9269      38.945749     -3301.9811      39544.484      5691.5412    
   1433000   612.71956     -3339.0731      39.60011      -3299.473       38408.859      5691.5412    
   1434000   570.69704     -3337.8622      36.884191     -3300.978       41983.679      5691.5412    
   1435000   581.28595     -3339.4916      37.568553     -3301.923       37938.469      5691.5412    
   1436000   625.6503      -3334.4246      40.435824     -3293.9888      44694.387      5691.5412    
   1437000   601.92636     -3338.4385      38.902544     -3299.5359      40384.725      5691.5412    
   1438000   623.56055     -3338.3329      40.300764     -3298.0321      42977.412      5691.5412    
   1439000   598.45306     -3339.4674      38.678065     -3300.7894      42182.945      5691.5412    
   1440000   591.26506     -3340.4288      38.213503     -3302.2153      38228.02       5691.5412    
   1441000   548.29617     -3337.5308      35.436421     -3302.0943      42320.946      5691.5412    
   1442000   616.87079     -3338.2859      39.868404     -3298.4175      40098.037      5691.5412    
   1443000   621.18721     -3340.2938      40.147374     -3300.1464      41855.239      5691.5412    
   1444000   615.48951     -3340.9486      39.779131     -3301.1694      39391.878      5691.5412    
   1445000   567.38171     -3342.906       36.669921     -3306.2361      35217.836      5691.5412    
   1446000   624.09514     -3339.2457      40.335314     -3298.9104      39241.025      5691.5412    
   1447000   591.94946     -3337.8761      38.257737     -3299.6183      41204.308      5691.5412    
   1448000   617.49563     -3338.1999      39.908787     -3298.2911      42862.06       5691.5412    
   1449000   609.38588     -3340.0964      39.384654     -3300.7117      41512.595      5691.5412    
   1450000   627.80972     -3342.3632      40.575388     -3301.7878      35284.883      5691.5412    
   1451000   611.81733     -3339.0225      39.541798     -3299.4807      37811.557      5691.5412    
   1452000   585.88081     -3339.2697      37.865519     -3301.4042      41055.283      5691.5412    
   1453000   578.47408     -3341.6955      37.386822     -3304.3087      38175.78       5691.5412    
   1454000   577.21919     -3339.4341      37.305718     -3302.1284      39181.708      5691.5412    
   1455000   584.04402     -3337.7533      37.746807     -3300.0065      42290.021      5691.5412    
   1456000   581.9674      -3339.6115      37.612595     -3301.9989      40657.801      5691.5412    
   1457000   628.90022     -3339.4575      40.645867     -3298.8116      39300.46       5691.5412    
   1458000   644.45829     -3338.7993      41.651386     -3297.1479      38457.258      5691.5412    
   1459000   606.16493     -3337.7483      39.176483     -3298.5718      41777.392      5691.5412    
   1460000   611.45873     -3340.3424      39.518622     -3300.8238      38795.469      5691.5412    
   1461000   621.64525     -3338.2696      40.176978     -3298.0926      44160.82       5691.5412    
   1462000   608.3332      -3336.5436      39.316619     -3297.227       43486.896      5691.5412    
   1463000   580.04245     -3337.6278      37.488186     -3300.1396      40668.102      5691.5412    
   1464000   575.97386     -3338.3166      37.225233     -3301.0914      44040.29       5691.5412    
   1465000   621.51411     -3338.9329      40.168502     -3298.7644      37883.545      5691.5412    
   1466000   598.8718      -3337.5932      38.705128     -3298.8881      40979.325      5691.5412    
   1467000   598.41157     -3337.2984      38.675383     -3298.6231      44191.587      5691.5412    
   1468000   606.60201     -3339.4601      39.204732     -3300.2554      40325.997      5691.5412    
   1469000   592.90459     -3340.3162      38.319467     -3301.9967      41569.521      5691.5412    
   1470000   590.11424     -3339.4836      38.139126     -3301.3445      42184.253      5691.5412    
   1471000   632.55766     -3338.1728      40.882247     -3297.2906      43225.594      5691.5412    
   1472000   641.42081     -3337.8288      41.455073     -3296.3738      42779.998      5691.5412    
   1473000   603.80669     -3337.5443      39.02407      -3298.5202      40816.099      5691.5412    
   1474000   603.91365     -3338.6133      39.030983     -3299.5823      42930.246      5691.5412    
   1475000   597.44776     -3340.8075      38.613092     -3302.1944      41260.369      5691.5412    
   1476000   578.60173     -3340.6746      37.395072     -3303.2795      40274.629      5691.5412    
   1477000   570.729       -3337.3665      36.886256     -3300.4803      44636.674      5691.5412    
   1478000   593.17713     -3336.9188      38.337081     -3298.5817      41106.957      5691.5412    
   1479000   641.62045     -3340.5384      41.467976     -3299.0704      42185.509      5691.5412    
   1480000   614.43158     -3339.5232      39.710758     -3299.8125      42120.591      5691.5412    
   1481000   567.60564     -3337.8767      36.684394     -3301.1923      42165.596      5691.5412    
   1482000   588.08405     -3339.448       38.007915     -3301.44        41314.547      5691.5412    
   1483000   642.97435     -3335.978       41.555479     -3294.4225      41835.011      5691.5412    
   1484000   597.99302     -3336.5213      38.648332     -3297.8729      41547.786      5691.5412    
   1485000   569.04507     -3338.0978      36.777424     -3301.3204      42493.919      5691.5412    
   1486000   594.67158     -3337.639       38.433667     -3299.2053      40510.095      5691.5412    
   1487000   612.17316     -3338.926       39.564796     -3299.3612      40334.437      5691.5412    
   1488000   592.57153     -3338.1667      38.297941     -3299.8688      39969.998      5691.5412    
   1489000   607.35616     -3340.8146      39.253473     -3301.5611      41914.597      5691.5412    
   1490000   591.77406     -3339.4011      38.2464       -3301.1547      42673.02       5691.5412    
   1491000   574.45215     -3337.4014      37.126884     -3300.2745      38874.476      5691.5412    
   1492000   652.26119     -3340.0604      42.155688     -3297.9048      38486.059      5691.5412    
   1493000   592.33108     -3338.7988      38.282401     -3300.5164      41837.807      5691.5412    
   1494000   594.58658     -3342.3909      38.428174     -3303.9628      37597.857      5691.5412    
   1495000   619.95257     -3340.5177      40.06758      -3300.4502      38885.145      5691.5412    
   1496000   603.67567     -3338.0852      39.015602     -3299.0696      40452.209      5691.5412    
   1497000   633.99779     -3338.6277      40.975323     -3297.6524      43730.128      5691.5412    
   1498000   626.52061     -3336.3155      40.492072     -3295.8234      41872.283      5691.5412    
   1499000   582.14633     -3338.5138      37.624159     -3300.8896      39910.481      5691.5412    
   1500000   571.34355     -3338.988       36.925975     -3302.062       39292.397      5691.5412    
   1501000   574.40726     -3338.663       37.123983     -3301.539       38347.725      5691.5412    
   1502000   598.25322     -3338.8375      38.665149     -3300.1723      41303.783      5691.5412    
   1503000   593.16287     -3337.4714      38.336159     -3299.1352      42466.561      5691.5412    
   1504000   601.39379     -3338.1884      38.868124     -3299.3203      41593.023      5691.5412    
   1505000   591.69642     -3338.4371      38.241382     -3300.1957      40629.887      5691.5412    
   1506000   557.09156     -3337.9223      36.004868     -3301.9174      43323.61       5691.5412    
   1507000   609.39555     -3338.5424      39.385278     -3299.1571      37694.014      5691.5412    
   1508000   651.17644     -3338.8543      42.085581     -3296.7688      41261.129      5691.5412    
   1509000   630.7323      -3338.4402      40.764274     -3297.6759      40782.127      5691.5412    
   1510000   605.42298     -3339.2906      39.128531     -3300.1621      38730.034      5691.5412    
   1511000   594.69794     -3340.4451      38.435371     -3302.0098      39457.287      5691.5412    
   1512000   597.99362     -3339.4945      38.648371     -3300.8461      37034.069      5691.5412    
   1513000   582.04459     -3337.835       37.617584     -3300.2174      40036.617      5691.5412    
   1514000   611.89628     -3341.486       39.546901     -3301.9391      38429.626      5691.5412    
   1515000   593.26343     -3337.6436      38.342658     -3299.301       42000.058      5691.5412    
   1516000   635.72026     -3338.545       41.086646     -3297.4583      39442.747      5691.5412    
   1517000   597.87839     -3337.7749      38.640924     -3299.134       40521.436      5691.5412    
   1518000   581.34132     -3339.3631      37.572132     -3301.791       40398.494      5691.5412    
   1519000   627.22082     -3340.2634      40.537327     -3299.726       39905.946      5691.5412    
   1520000   603.29863     -3336.9187      38.991234     -3297.9275      44577.023      5691.5412    
   1521000   621.92831     -3335.9761      40.195272     -3295.7808      41369.56       5691.5412    
   1522000   613.46599     -3339.0337      39.648352     -3299.3854      41351.888      5691.5412    
   1523000   572.06772     -3336.9103      36.972779     -3299.9375      40653.659      5691.5412    
   1524000   592.80614     -3338.8239      38.313104     -3300.5108      38836.907      5691.5412    
   1525000   542.55517     -3339.273       35.06538      -3304.2076      40602.249      5691.5412    
   1526000   613.15134     -3339.8117      39.628015     -3300.1837      39051.219      5691.5412    
   1527000   579.17413     -3337.8331      37.432066     -3300.4011      41052.596      5691.5412    
   1528000   596.24144     -3340.9205      38.535128     -3302.3854      39515.433      5691.5412    
   1529000   586.54155     -3339.4442      37.908223     -3301.536       38481.361      5691.5412    
   1530000   592.85766     -3337.0562      38.316434     -3298.7398      43607.868      5691.5412    
   1531000   628.54674     -3337.8413      40.623021     -3297.2182      42463.422      5691.5412    
   1532000   602.06502     -3337.8292      38.911506     -3298.9176      41449.338      5691.5412    
   1533000   601.26538     -3340.2574      38.859825     -3301.3975      37513.999      5691.5412    
   1534000   650.02709     -3341.3559      42.011298     -3299.3446      37965.579      5691.5412    
   1535000   623.26412     -3336.7795      40.281606     -3296.4979      42653.989      5691.5412    
   1536000   600.90829     -3335.2331      38.836746     -3296.3963      43082.508      5691.5412    
   1537000   576.95635     -3337.3945      37.288731     -3300.1058      38270.376      5691.5412    
   1538000   574.92958     -3337.7878      37.15774      -3300.63        40903.308      5691.5412    
   1539000   610.52827     -3337.1964      39.458487     -3297.738       42138.109      5691.5412    
   1540000   618.00598     -3336.4877      39.941771     -3296.546       38458.019      5691.5412    
   1541000   593.16558     -3339.0189      38.336334     -3300.6825      40761.26       5691.5412    
   1542000   585.1742      -3340.2187      37.819851     -3302.3989      41248.461      5691.5412    
   1543000   609.3919      -3338.8932      39.385043     -3299.5082      39503.771      5691.5412    
   1544000   607.89031     -3340.198       39.287995     -3300.91        38521.688      5691.5412    
   1545000   584.86589     -3339.7807      37.799925     -3301.9808      40122.444      5691.5412    
   1546000   573.05311     -3337.4087      37.036464     -3300.3722      42593.168      5691.5412    
   1547000   583.78769     -3336.7288      37.730241     -3298.9985      42955.894      5691.5412    
   1548000   593.33179     -3338.8388      38.347076     -3300.4917      41258.708      5691.5412    
   1549000   568.35304     -3340.0417      36.732698     -3303.309       41865.759      5691.5412    
   1550000   584.38658     -3340.6304      37.768947     -3302.8615      39691.218      5691.5412    
   1551000   597.32626     -3338.1829      38.605239     -3299.5776      39843.192      5691.5412    
   1552000   618.27066     -3337.3367      39.958877     -3297.3778      43084.815      5691.5412    
   1553000   654.22354     -3338.5575      42.282515     -3296.275       39319.045      5691.5412    
   1554000   563.58465     -3338.2308      36.424517     -3301.8063      41782.503      5691.5412    
   1555000   597.29998     -3337.6848      38.603541     -3299.0813      41872.177      5691.5412    
   1556000   587.67385     -3336.2944      37.981403     -3298.313       43399.247      5691.5412    
   1557000   563.83806     -3337.7567      36.440895     -3301.3158      38603.98       5691.5412    
   1558000   613.11661     -3336.9562      39.625771     -3297.3304      43231.095      5691.5412    
   1559000   623.36129     -3340.9377      40.287885     -3300.6498      38887.012      5691.5412    
   1560000   611.99283     -3336.6475      39.553141     -3297.0944      44922.586      5691.5412    
   1561000   604.10295     -3339.3535      39.043217     -3300.3103      35063.605      5691.5412    
   1562000   574.66864     -3339.2658      37.140876     -3302.1249      38289.055      5691.5412    
   1563000   604.57006     -3338.7176      39.073407     -3299.6442      38343.825      5691.5412    
   1564000   599.16546     -3338.5765      38.724107     -3299.8524      41563.876      5691.5412    
   1565000   635.64217     -3337.6758      41.0816       -3296.5942      39958.888      5691.5412    
   1566000   582.33325     -3336.347       37.63624      -3298.7108      41860.178      5691.5412    
   1567000   594.4335      -3336.3676      38.41828      -3297.9493      42957.88       5691.5412    
   1568000   590.89371     -3339.6979      38.189504     -3301.5084      39649.679      5691.5412    
   1569000   585.9939      -3338.0648      37.872828     -3300.192       40469.002      5691.5412    
   1570000   620.50918     -3336.6131      40.103553     -3296.5096      46241.051      5691.5412    
   1571000   622.74384     -3337.228       40.24798      -3296.98        41365.816      5691.5412    
   1572000   616.89129     -3337.5222      39.869729     -3297.6525      42618.016      5691.5412    
   1573000   605.11418     -3337.6082      39.108573     -3298.4996      41079.903      5691.5412    
   1574000   572.1788      -3338.9371      36.979957     -3301.9571      40463.479      5691.5412    
   1575000   579.37359     -3341.7571      37.444957     -3304.3122      35709.201      5691.5412    
   1576000   590.97994     -3339.3154      38.195077     -3301.1203      40062.168      5691.5412    
   1577000   606.41378     -3337.1916      39.192567     -3297.999       41099          5691.5412    
   1578000   608.8134      -3336.1848      39.347654     -3296.8372      40662.167      5691.5412    
   1579000   610.64153     -3336.443       39.465807     -3296.9772      41423.526      5691.5412    
   1580000   596.78974     -3338.6846      38.570564     -3300.1141      44170.105      5691.5412    
   1581000   598.201       -3338.8479      38.661774     -3300.1861      40018.901      5691.5412    
   1582000   606.71166     -3336.3827      39.211818     -3297.1709      42257.854      5691.5412    
   1583000   595.48876     -3338.1064      38.486482     -3299.62        40653.915      5691.5412    
   1584000   597.71208     -3339.3375      38.630175     -3300.7073      40508.408      5691.5412    
   1585000   614.99489     -3338.7513      39.747164     -3299.0041      42621.613      5691.5412    
   1586000   604.46571     -3336.686       39.066663     -3297.6193      44689.315      5691.5412    
   1587000   607.69494     -3339.5906      39.275368     -3300.3153      38831.288      5691.5412    
   1588000   589.93034     -3339.5436      38.127241     -3301.4163      38634.52       5691.5412    
   1589000   595.03853     -3339.6899      38.457383     -3301.2325      40261.412      5691.5412    
   1590000   617.71386     -3338.5713      39.922892     -3298.6484      42097.293      5691.5412    
   1591000   621.11739     -3337.5977      40.142862     -3297.4548      39991.886      5691.5412    
   1592000   613.34264     -3337.46        39.640379     -3297.8196      40743.423      5691.5412    
   1593000   577.47056     -3338.298       37.321964     -3300.976       42718.467      5691.5412    
   1594000   608.46756     -3339.5489      39.325302     -3300.2236      39435.524      5691.5412    
   1595000   582.79992     -3337.8874      37.666401     -3300.221       41203.737      5691.5412    
   1596000   570.81387     -3340.3214      36.891742     -3303.4297      40217.997      5691.5412    
   1597000   572.56552     -3338.9748      37.004951     -3301.9698      40921.594      5691.5412    
   1598000   632.09011     -3340.1328      40.852029     -3299.2808      43964.624      5691.5412    
   1599000   614.88239     -3337.7921      39.739894     -3298.0522      44163.103      5691.5412    
   1600000   612.83928     -3339.7739      39.607847     -3300.1661      40845.441      5691.5412    
   1601000   620.24518     -3339.3524      40.086491     -3299.2659      41966.723      5691.5412    
   1602000   576.54495     -3336.8905      37.262142     -3299.6284      40780.631      5691.5412    
   1603000   567.95196     -3338.4905      36.706776     -3301.7837      40261.118      5691.5412    
   1604000   547.82752     -3339.482       35.406133     -3304.0759      37067.772      5691.5412    
   1605000   576.03155     -3339.4366      37.228961     -3302.2076      41845.581      5691.5412    
   1606000   566.4386      -3337.8596      36.608968     -3301.2507      43308.128      5691.5412    
   1607000   617.10456     -3338.4291      39.883512     -3298.5455      38374.265      5691.5412    
   1608000   610.40792     -3340.4986      39.450708     -3301.0479      37851.418      5691.5412    
   1609000   594.66047     -3340.1247      38.432949     -3301.6917      41174.818      5691.5412    
   1610000   603.28612     -3338.0458      38.990425     -3299.0553      37865.665      5691.5412    
   1611000   638.26627     -3338.8624      41.251196     -3297.6112      39081.977      5691.5412    
   1612000   641.9435      -3337.0115      41.488855     -3295.5227      42661.672      5691.5412    
   1613000   575.40452     -3339.2743      37.188436     -3302.0858      38917          5691.5412    
   1614000   613.42818     -3339.6508      39.645908     -3300.0049      36704.396      5691.5412    
   1615000   610.51876     -3337.5946      39.457872     -3298.1368      39840.767      5691.5412    
   1616000   641.05852     -3336.9431      41.431659     -3295.5114      38814.358      5691.5412    
   1617000   632.3682      -3340.9302      40.870003     -3300.0602      40793.393      5691.5412    
   1618000   627.59175     -3340.9255      40.5613       -3300.3642      37665.818      5691.5412    
   1619000   602.80418     -3337.7367      38.959278     -3298.7774      39809.438      5691.5412    
   1620000   633.06841     -3339.6202      40.915258     -3298.705       39551.634      5691.5412    
   1621000   593.93425     -3339.4942      38.386014     -3301.1082      36032.674      5691.5412    
   1622000   546.50867     -3339.335       35.320895     -3304.0141      38930.413      5691.5412    
   1623000   623.60018     -3338.1379      40.303325     -3297.8345      45409.8        5691.5412    
   1624000   596.16436     -3340.1267      38.530146     -3301.5965      37605.686      5691.5412    
   1625000   585.68175     -3339.464       37.852654     -3301.6114      41025.114      5691.5412    
   1626000   585.71638     -3338.4122      37.854892     -3300.5573      42304.95       5691.5412    
   1627000   574.66595     -3336.284       37.140702     -3299.1433      41758.624      5691.5412    
   1628000   611.01302     -3337.4523      39.489816     -3297.9625      44270.011      5691.5412    
   1629000   595.08099     -3338.6766      38.460127     -3300.2165      43198.656      5691.5412    
   1630000   573.01409     -3339.5883      37.033942     -3302.5543      35985.396      5691.5412    
   1631000   575.62383     -3339.5271      37.20261      -3302.3245      37364.494      5691.5412    
   1632000   595.40693     -3338.7245      38.481193     -3300.2433      40101.563      5691.5412    
   1633000   594.04528     -3337.3369      38.393189     -3298.9437      40286.499      5691.5412    
   1634000   601.8023      -3337.0698      38.894526     -3298.1753      44425.619      5691.5412    
   1635000   610.93978     -3337.3495      39.485082     -3297.8644      44884.707      5691.5412    
   1636000   614.46377     -3338.673       39.712838     -3298.9602      38465.716      5691.5412    
   1637000   609.47904     -3341.0849      39.390674     -3301.6942      36016.973      5691.5412    
   1638000   601.50157     -3340.5263      38.87509      -3301.6512      39838.199      5691.5412    
   1639000   600.6701      -3337.8519      38.821352     -3299.0305      39808.927      5691.5412    
   1640000   620.93483     -3338.1547      40.131063     -3298.0236      40774.624      5691.5412    
   1641000   603.78727     -3340.0345      39.022815     -3301.0117      38108.064      5691.5412    
   1642000   566.08686     -3338.8933      36.586235     -3302.307       39642.388      5691.5412    
   1643000   631.89982     -3337.4403      40.839731     -3296.6006      42886.76       5691.5412    
   1644000   648.69426     -3338.8074      41.925157     -3296.8822      41095.473      5691.5412    
   1645000   577.74559     -3341.8112      37.339739     -3304.4715      38856.202      5691.5412    
   1646000   602.48367     -3341.4264      38.938564     -3302.4879      37463.277      5691.5412    
   1647000   574.41684     -3338.5177      37.124602     -3301.3931      42442.517      5691.5412    
   1648000   617.0973      -3338.2316      39.883043     -3298.3485      40726.608      5691.5412    
   1649000   628.12277     -3339.6653      40.59562      -3299.0697      40471.997      5691.5412    
   1650000   595.47678     -3339.5056      38.485708     -3301.0199      38490.617      5691.5412    
   1651000   597.77354     -3337.3575      38.634147     -3298.7234      38053.333      5691.5412    
   1652000   597.74648     -3338.0989      38.632398     -3299.4665      37540.279      5691.5412    
   1653000   574.47078     -3339.2343      37.128088     -3302.1063      39971.315      5691.5412    
   1654000   599.21941     -3339.2109      38.727594     -3300.4833      39006.699      5691.5412    
   1655000   617.6229      -3336.6845      39.917013     -3296.7675      43143.556      5691.5412    
   1656000   582.09863     -3339.8974      37.621077     -3302.2764      39349.25       5691.5412    
   1657000   579.22878     -3336.7894      37.435598     -3299.3538      41206.865      5691.5412    
   1658000   605.87552     -3338.2664      39.157779     -3299.1086      42583.24       5691.5412    
   1659000   578.8334      -3339.9541      37.410045     -3302.544       39820.781      5691.5412    
   1660000   555.80657     -3339.5373      35.921819     -3303.6154      40417.242      5691.5412    
   1661000   570.98944     -3338.1602      36.903089     -3301.2571      41681.865      5691.5412    
   1662000   616.83967     -3338.7093      39.866393     -3298.8429      39675.322      5691.5412    
   1663000   606.0969      -3339.5331      39.172087     -3300.361       37533.785      5691.5412    
   1664000   555.31469     -3338.1585      35.890029     -3302.2685      42524.8        5691.5412    
   1665000   628.93925     -3339.4601      40.648389     -3298.8117      38467.636      5691.5412    
   1666000   529.95356     -3338.7641      34.250937     -3304.5132      36205.345      5691.5412    
   1667000   578.1558      -3339.3304      37.366251     -3301.9642      37953.539      5691.5412    
   1668000   593.10425     -3338.7405      38.332371     -3300.4081      41414.524      5691.5412    
   1669000   621.19119     -3336.8586      40.147632     -3296.7109      43255.125      5691.5412    
   1670000   661.92177     -3340.1658      42.780052     -3297.3857      38023.09       5691.5412    
   1671000   609.95704     -3339.1714      39.421568     -3299.7498      37909.145      5691.5412    
   1672000   591.12808     -3340.0498      38.204651     -3301.8451      36996.45       5691.5412    
   1673000   592.44259     -3337.6073      38.289608     -3299.3177      42355.36       5691.5412    
   1674000   630.96607     -3337.7828      40.779383     -3297.0034      42557.542      5691.5412    
   1675000   604.66434     -3338.942       39.0795       -3299.8625      38116.935      5691.5412    
   1676000   603.76662     -3340.0533      39.02148      -3301.0318      38464.855      5691.5412    
   1677000   598.44202     -3340.0524      38.677351     -3301.375       37652.796      5691.5412    
   1678000   619.60696     -3338.7446      40.045243     -3298.6994      39449.823      5691.5412    
   1679000   613.67373     -3336.5139      39.661778     -3296.8521      39991.023      5691.5412    
   1680000   611.31915     -3340.3201      39.509601     -3300.8105      36871.653      5691.5412    
   1681000   599.65981     -3339.5194      38.756057     -3300.7633      39114.725      5691.5412    
   1682000   589.49773     -3337.7517      38.099281     -3299.6524      42494.618      5691.5412    
   1683000   628.7729      -3336.9121      40.637638     -3296.2744      41309.17       5691.5412    
   1684000   623.25714     -3341.0386      40.281154     -3300.7574      38057.87       5691.5412    
   1685000   596.22089     -3339.493       38.533799     -3300.9592      39655.018      5691.5412    
   1686000   621.56081     -3337.2133      40.17152      -3297.0418      40450.247      5691.5412    
   1687000   620.81468     -3337.4902      40.123298     -3297.3669      40932.795      5691.5412    
   1688000   616.73241     -3341.2215      39.85946      -3301.3621      36146.947      5691.5412    
   1689000   581.28317     -3340.1843      37.568374     -3302.616       39510.526      5691.5412    
   1690000   600.92329     -3338.1904      38.837716     -3299.3527      40015.549      5691.5412    
   1691000   599.03129     -3337.9019      38.715436     -3299.1865      38235.331      5691.5412    
   1692000   585.58269     -3338.069       37.846252     -3300.2227      39618.654      5691.5412    
   1693000   584.50013     -3340.8839      37.776286     -3303.1076      38325.066      5691.5412    
   1694000   585.42895     -3339.9111      37.836315     -3302.0748      39925.9        5691.5412    
   1695000   582.62964     -3338.4049      37.655396     -3300.7495      40163.383      5691.5412    
   1696000   637.93001     -3338.8767      41.229463     -3297.6472      40394.505      5691.5412    
   1697000   643.10375     -3336.9113      41.563842     -3295.3474      38929.99       5691.5412    
   1698000   577.53247     -3335.952       37.325965     -3298.6261      41148.557      5691.5412    
   1699000   575.76586     -3338.6436      37.211789     -3301.4318      38399.32       5691.5412    
   1700000   582.57345     -3340.2916      37.651764     -3302.6398      39882.335      5691.5412    
   1701000   555.24963     -3340.8234      35.885824     -3304.9375      38074.7        5691.5412    
   1702000   591.6265      -3338.3871      38.236864     -3300.1503      40585.554      5691.5412    
   1703000   591.49787     -3338.4078      38.22855      -3300.1792      38203.409      5691.5412    
   1704000   600.90248     -3339.0967      38.836371     -3300.2603      38469.083      5691.5412    
   1705000   611.02137     -3336.731       39.490356     -3297.2406      41186.204      5691.5412    
   1706000   615.56154     -3337.8199      39.783787     -3298.0361      38036.225      5691.5412    
   1707000   603.32504     -3339.981       38.992941     -3300.9881      36486.246      5691.5412    
   1708000   622.02974     -3342.1099      40.201827     -3301.9081      35714.414      5691.5412    
   1709000   566.9575      -3340.7496      36.642504     -3304.1071      41789.226      5691.5412    
   1710000   633.25164     -3339.4309      40.9271       -3298.5038      41587.078      5691.5412    
   1711000   589.59407     -3337.0285      38.105507     -3298.923       40889.767      5691.5412    
   1712000   623.12969     -3335.7496      40.272917     -3295.4767      40442.861      5691.5412    
   1713000   604.53122     -3338.48        39.070896     -3299.4091      41032.401      5691.5412    
   1714000   590.8737      -3339.2698      38.18821      -3301.0816      39351.386      5691.5412    
   1715000   610.80494     -3339.5879      39.476368     -3300.1116      37815.663      5691.5412    
   1716000   616.30361     -3336.5252      39.831747     -3296.6934      44913.183      5691.5412    
   1717000   596.99379     -3336.7534      38.583752     -3298.1696      37103.592      5691.5412    
   1718000   579.67163     -3340.7002      37.46422      -3303.2359      36614.342      5691.5412    
   1719000   591.99021     -3340.1541      38.260371     -3301.8937      37227.721      5691.5412    
   1720000   584.49773     -3336.7501      37.776131     -3298.9739      38410.171      5691.5412    
   1721000   560.14917     -3339.0849      36.202481     -3302.8824      38326.166      5691.5412    
   1722000   606.0827      -3338.4583      39.171169     -3299.2871      37728.056      5691.5412    
   1723000   624.78976     -3339.1643      40.380208     -3298.7841      40738.271      5691.5412    
   1724000   622.84063     -3336.8836      40.254235     -3296.6294      41541.489      5691.5412    
   1725000   612.6641      -3337.7878      39.596525     -3298.1913      37448.83       5691.5412    
   1726000   590.10988     -3339.1467      38.138844     -3301.0079      40255.007      5691.5412    
   1727000   590.17469     -3338.5033      38.143033     -3300.3603      40223.971      5691.5412    
   1728000   599.2439      -3335.1048      38.729177     -3296.3756      40942.05       5691.5412    
   1729000   614.29755     -3338.1053      39.702095     -3298.4032      40932.962      5691.5412    
   1730000   590.67819     -3342.2222      38.175574     -3304.0466      39063.655      5691.5412    
   1731000   576.74711     -3340.1944      37.275208     -3302.9192      35476.795      5691.5412    
   1732000   614.42261     -3340.3895      39.710178     -3300.6793      39522.353      5691.5412    
   1733000   606.05595     -3339.3373      39.16944      -3300.1679      40716.046      5691.5412    
   1734000   611.66531     -3337.7167      39.531973     -3298.1847      40711.117      5691.5412    
   1735000   633.21651     -3337.848       40.924829     -3296.9231      41752.036      5691.5412    
   1736000   581.77408     -3342.2211      37.600101     -3304.621       37462.32       5691.5412    
   1737000   581.20291     -3339.367       37.563186     -3301.8038      38357.813      5691.5412    
   1738000   612.24174     -3337.1501      39.569228     -3297.5809      41841.123      5691.5412    
   1739000   584.56345     -3338.6366      37.780378     -3300.8562      39319.488      5691.5412    
   1740000   582.10202     -3339.0858      37.621296     -3301.4645      37182.023      5691.5412    
   1741000   641.89672     -3339.9805      41.485832     -3298.4947      38808.315      5691.5412    
   1742000   608.96592     -3338.615       39.357512     -3299.2575      40947.25       5691.5412    
   1743000   577.35607     -3337.9247      37.314565     -3300.6102      39299.881      5691.5412    
   1744000   585.68213     -3340.7882      37.852679     -3302.9355      38046.366      5691.5412    
   1745000   562.17929     -3339.5719      36.333688     -3303.2382      40733.041      5691.5412    
   1746000   614.03175     -3338.2792      39.684916     -3298.5943      38697.78       5691.5412    
   1747000   648.41622     -3339.6439      41.907187     -3297.7367      39221.329      5691.5412    
   1748000   615.65832     -3336.6907      39.790042     -3296.9007      43194.958      5691.5412    
   1749000   617.6603      -3337.7175      39.91943      -3297.7981      41961.571      5691.5412    
   1750000   585.52313     -3338.6537      37.842403     -3300.8113      39895.874      5691.5412    
   1751000   602.07997     -3339.2613      38.912472     -3300.3488      39752.271      5691.5412    
   1752000   600.11558     -3338.3952      38.785513     -3299.6097      40860.53       5691.5412    
   1753000   604.62768     -3335.1325      39.077131     -3296.0554      42135.921      5691.5412    
   1754000   583.1038      -3339.7043      37.686041     -3302.0182      36960.846      5691.5412    
   1755000   596.06991     -3339.2403      38.524042     -3300.7162      41690.462      5691.5412    
   1756000   635.70378     -3339.1613      41.085581     -3298.0757      41556.566      5691.5412    
   1757000   563.66866     -3337.1588      36.429946     -3300.7289      38895.713      5691.5412    
   1758000   620.57995     -3338.2626      40.108127     -3298.1545      40981.33       5691.5412    
   1759000   613.95555     -3338.057       39.679992     -3298.377       38616.094      5691.5412    
   1760000   602.88218     -3338.4982      38.964319     -3299.5339      43497.882      5691.5412    
   1761000   598.48927     -3337.8208      38.680405     -3299.1404      38333.551      5691.5412    
   1762000   598.45619     -3339.3549      38.678267     -3300.6767      41047.393      5691.5412    
   1763000   600.42095     -3338.6641      38.80525      -3299.8589      39010.809      5691.5412    
   1764000   591.18591     -3338.8278      38.208388     -3300.6194      39410.053      5691.5412    
   1765000   621.85036     -3337.5847      40.190234     -3297.3945      40652.567      5691.5412    
   1766000   586.43074     -3338.6308      37.901061     -3300.7298      42553.321      5691.5412    
   1767000   599.07482     -3340.7122      38.718249     -3301.994       36967.045      5691.5412    
   1768000   594.41954     -3338.6799      38.417378     -3300.2625      37971.723      5691.5412    
   1769000   643.91219     -3337.2035      41.616092     -3295.5874      41617.096      5691.5412    
   1770000   606.51447     -3339.0126      39.199074     -3299.8135      40360.187      5691.5412    
   1771000   576.40296     -3340.337       37.252965     -3303.0841      37865.823      5691.5412    
   1772000   581.08655     -3338.0021      37.555666     -3300.4464      40117.871      5691.5412    
   1773000   596.41936     -3335.3933      38.546626     -3296.8467      42349.032      5691.5412    
   1774000   621.05884     -3338.3487      40.139078     -3298.2096      38757.642      5691.5412    
   1775000   603.47128     -3338.6308      39.002393     -3299.6284      36867.626      5691.5412    
   1776000   595.79985     -3339.2809      38.506588     -3300.7743      39657.874      5691.5412    
   1777000   571.19785     -3338.0048      36.916558     -3301.0883      39065.061      5691.5412    
   1778000   599.47762     -3336.0114      38.744282     -3297.2671      40852.951      5691.5412    
   1779000   647.40889     -3337.7168      41.842083     -3295.8747      43091.773      5691.5412    
   1780000   602.65812     -3338.3486      38.949838     -3299.3988      41210.099      5691.5412    
   1781000   616.45157     -3340.0926      39.84131      -3300.2513      36620.6        5691.5412    
   1782000   606.93813     -3338.0342      39.226455     -3298.8078      41416.671      5691.5412    
   1783000   615.07278     -3336.6989      39.752198     -3296.9467      43175.208      5691.5412    
   1784000   595.17528     -3338.5302      38.466222     -3300.064       40719.637      5691.5412    
   1785000   588.58564     -3338.1824      38.040333     -3300.1421      40868.247      5691.5412    
   1786000   570.7977      -3336.4118      36.890697     -3299.5211      40820.411      5691.5412    
   1787000   578.08116     -3338.7513      37.361427     -3301.3898      39620.657      5691.5412    
   1788000   597.91836     -3339.5301      38.643507     -3300.8866      36979.102      5691.5412    
   1789000   590.00449     -3338.9879      38.132033     -3300.8559      37025.572      5691.5412    
   1790000   601.77493     -3339.6053      38.892757     -3300.7125      42414.892      5691.5412    
   1791000   633.9892      -3338.1481      40.974768     -3297.1733      41340.791      5691.5412    
   1792000   621.26359     -3337.2917      40.152311     -3297.1394      39382.372      5691.5412    
   1793000   574.28283     -3338.6569      37.115941     -3301.5409      38361.801      5691.5412    
   1794000   613.47369     -3341.9292      39.648849     -3302.2804      35850.404      5691.5412    
   1795000   583.46423     -3337.9419      37.709335     -3300.2326      40195.3        5691.5412    
   1796000   649.70416     -3340.4724      41.990427     -3298.4819      37914.182      5691.5412    
   1797000   580.4105      -3337.9158      37.511973     -3300.4038      39269.35       5691.5412    
   1798000   596.33877     -3341.1908      38.541418     -3302.6493      36024.531      5691.5412    
   1799000   578.24134     -3338.7147      37.37178      -3301.3429      40098.745      5691.5412    
   1800000   615.38005     -3338.6054      39.772057     -3298.8334      39800.864      5691.5412    
   1801000   578.24425     -3338.2714      37.371968     -3300.8994      37611.631      5691.5412    
   1802000   608.6158      -3339.8139      39.334883     -3300.479       39712.205      5691.5412    
   1803000   588.70202     -3337.3932      38.047854     -3299.3453      41733.054      5691.5412    
   1804000   608.10745     -3337.3934      39.302029     -3298.0913      42207.454      5691.5412    
   1805000   618.52295     -3339.285       39.975183     -3299.3098      42202.679      5691.5412    
   1806000   605.04999     -3340.998       39.104424     -3301.8936      38476.209      5691.5412    
   1807000   600.9895      -3342.0236      38.841995     -3303.1816      35709.162      5691.5412    
   1808000   561.80954     -3338.5536      36.309791     -3302.2438      41436.824      5691.5412    
   1809000   631.9932      -3340.2246      40.845766     -3299.3789      41767.011      5691.5412    
   1810000   595.36757     -3338.5509      38.478649     -3300.0723      39960.076      5691.5412    
   1811000   574.76451     -3339.7572      37.147072     -3302.6101      36929.749      5691.5412    
   1812000   589.66817     -3339.7577      38.110296     -3301.6474      41104.425      5691.5412    
   1813000   594.36026     -3337.5511      38.413547     -3299.1375      40708.225      5691.5412    
   1814000   628.04055     -3338.5233      40.590307     -3297.933       40792.612      5691.5412    
   1815000   547.35894     -3338.4026      35.375848     -3303.0268      38065.519      5691.5412    
   1816000   554.67351     -3338.8628      35.848589     -3303.0142      39458.119      5691.5412    
   1817000   587.92739     -3339.6909      37.99779      -3301.6931      39018.459      5691.5412    
   1818000   606.99573     -3338.9908      39.230178     -3299.7607      40634.789      5691.5412    
   1819000   623.50833     -3337.1585      40.297389     -3296.8611      42964.061      5691.5412    
   1820000   615.64521     -3338.6637      39.789195     -3298.8745      39594.331      5691.5412    
   1821000   585.22091     -3338.8531      37.82287      -3301.0302      39360.229      5691.5412    
   1822000   615.03079     -3340.5048      39.749485     -3300.7553      37632.09       5691.5412    
   1823000   612.99718     -3339.0516      39.618052     -3299.4336      39210.911      5691.5412    
   1824000   593.5068      -3338.0593      38.358388     -3299.7009      40299.593      5691.5412    
   1825000   606.81607     -3340.7912      39.218567     -3301.5727      39515.396      5691.5412    
   1826000   570.19189     -3341.6651      36.851543     -3304.8135      36299.832      5691.5412    
   1827000   603.41752     -3340.4337      38.998918     -3301.4347      36623.608      5691.5412    
   1828000   624.518       -3339.4304      40.362644     -3299.0678      42146.295      5691.5412    
   1829000   601.79803     -3340.6627      38.89425      -3301.7684      40815.54       5691.5412    
   1830000   622.81555     -3339.2057      40.252614     -3298.9531      39467.715      5691.5412    
   1831000   583.87683     -3339.2993      37.736002     -3301.5633      37784.708      5691.5412    
   1832000   599.93056     -3339.5161      38.773555     -3300.7425      37630.407      5691.5412    
   1833000   616.31196     -3337.6654      39.832287     -3297.8331      41363.768      5691.5412    
   1834000   611.352       -3335.322       39.511724     -3295.8103      42860.983      5691.5412    
   1835000   607.90752     -3339.9587      39.289107     -3300.6696      37269.587      5691.5412    
   1836000   578.80192     -3339.6         37.40801      -3302.192       33908.311      5691.5412    
   1837000   561.18049     -3338.8081      36.269136     -3302.539       36309.268      5691.5412    
   1838000   588.08331     -3338.8626      38.007867     -3300.8547      38901.569      5691.5412    
   1839000   617.9726      -3338.941       39.939614     -3299.0014      40098.008      5691.5412    
   1840000   590.12302     -3337.8129      38.139693     -3299.6733      40817.487      5691.5412    
   1841000   566.95636     -3341.6025      36.64243      -3304.9601      36427.403      5691.5412    
   1842000   595.76624     -3340.9849      38.504415     -3302.4805      34856.207      5691.5412    
   1843000   593.10276     -3340.2254      38.332275     -3301.8932      41031.658      5691.5412    
   1844000   593.95982     -3338.392       38.387666     -3300.0043      40595.747      5691.5412    
   1845000   604.87104     -3337.5642      39.092859     -3298.4713      39124.393      5691.5412    
   1846000   659.68487     -3336.7583      42.635481     -3294.1229      45227.801      5691.5412    
   1847000   605.7565      -3339.7167      39.150086     -3300.5666      37133.404      5691.5412    
   1848000   586.13469     -3341.434       37.881927     -3303.552       35942.544      5691.5412    
   1849000   598.17391     -3340.6158      38.660023     -3301.9558      37556.91       5691.5412    
   1850000   593.53556     -3339.1104      38.360246     -3300.7502      38935.371      5691.5412    
   1851000   586.48272     -3337.8789      37.90442      -3299.9745      40613.05       5691.5412    
   1852000   590.85118     -3336.3337      38.186755     -3298.147       38609.862      5691.5412    
   1853000   598.83999     -3337.7283      38.703072     -3299.0253      40905.613      5691.5412    
   1854000   611.1123      -3341.2093      39.496232     -3301.7131      38136.912      5691.5412    
   1855000   633.06379     -3341.1574      40.914958     -3300.2425      37809.546      5691.5412    
   1856000   612.18758     -3338.7091      39.565728     -3299.1433      41991.829      5691.5412    
   1857000   627.90267     -3338.2241      40.581395     -3297.6427      40732.876      5691.5412    
   1858000   595.72805     -3337.8253      38.501947     -3299.3233      38988.233      5691.5412    
   1859000   600.96943     -3341.1026      38.840698     -3302.2619      35248.858      5691.5412    
   1860000   590.3073      -3339.5128      38.151604     -3301.3612      40971.812      5691.5412    
   1861000   572.51098     -3336.7176      37.001426     -3299.7162      41332.432      5691.5412    
   1862000   620.21979     -3336.0683      40.08485      -3295.9835      43600.63       5691.5412    
   1863000   617.77001     -3337.586       39.926521     -3297.6595      41024.904      5691.5412    
   1864000   610.06258     -3339.1284      39.428389     -3299.7         38568.755      5691.5412    
   1865000   571.05491     -3339.2862      36.90732      -3302.3789      38040.921      5691.5412    
   1866000   619.73832     -3340.6137      40.053733     -3300.56        38926.231      5691.5412    
   1867000   562.71109     -3339.0952      36.368059     -3302.7272      37573.594      5691.5412    
   1868000   596.38466     -3339.0522      38.544384     -3300.5078      39212.481      5691.5412    
   1869000   610.32105     -3339.2561      39.445094     -3299.811       38430.857      5691.5412    
   1870000   608.6305      -3339.5097      39.335834     -3300.1738      36781.429      5691.5412    
   1871000   578.56082     -3338.5451      37.392428     -3301.1527      36677.434      5691.5412    
   1872000   583.40622     -3339.8994      37.705587     -3302.1939      40221.248      5691.5412    
   1873000   631.90246     -3340.3403      40.839902     -3299.5004      38007.508      5691.5412    
   1874000   625.28535     -3339.8954      40.412237     -3299.4832      36414.171      5691.5412    
   1875000   597.97537     -3339.4642      38.647191     -3300.817       41869.464      5691.5412    
   1876000   593.38858     -3337.7339      38.350747     -3299.3831      39739.792      5691.5412    
   1877000   632.12055     -3339.628       40.853997     -3298.774       40019.441      5691.5412    
   1878000   597.78545     -3337.8635      38.634917     -3299.2286      39604.116      5691.5412    
   1879000   580.58229     -3338.8732      37.523076     -3301.3502      38954.558      5691.5412    
   1880000   581.9586      -3338.1254      37.612026     -3300.5134      39299.91       5691.5412    
   1881000   602.45303     -3337.7605      38.936583     -3298.8239      43355.043      5691.5412    
   1882000   620.41841     -3338.1745      40.097687     -3298.0768      40326.501      5691.5412    
   1883000   577.19426     -3338.5859      37.304107     -3301.2818      38169.573      5691.5412    
   1884000   572.38956     -3337.9839      36.993579     -3300.9904      38130.636      5691.5412    
   1885000   579.49587     -3338.1031      37.45286      -3300.6503      41360.657      5691.5412    
   1886000   593.86967     -3338.1474      38.38184      -3299.7655      41207.019      5691.5412    
   1887000   579.1619      -3337.1881      37.431276     -3299.7568      39691.665      5691.5412    
   1888000   582.17773     -3338.0565      37.626189     -3300.4303      41753.918      5691.5412    
   1889000   646.94621     -3340.1111      41.81218      -3298.2989      40178.552      5691.5412    
   1890000   606.35137     -3336.5262      39.188533     -3297.3377      41023.015      5691.5412    
   1891000   611.27134     -3339.8219      39.506511     -3300.3154      37071.157      5691.5412    
   1892000   621.4445      -3340.2141      40.164003     -3300.0501      40279.775      5691.5412    
   1893000   658.37181     -3340.3158      42.550618     -3297.7652      39884.991      5691.5412    
   1894000   620.82292     -3336.0496      40.12383      -3295.9257      44496.762      5691.5412    
   1895000   590.35555     -3338.5735      38.154722     -3300.4188      42105.176      5691.5412    
   1896000   586.09565     -3339.5977      37.879404     -3301.7183      38858.822      5691.5412    
   1897000   569.38195     -3340.8149      36.799197     -3304.0157      38805.654      5691.5412    
   1898000   574.37415     -3339.6202      37.121843     -3302.4983      39345.695      5691.5412    
   1899000   562.74812     -3336.3908      36.370452     -3300.0203      41577.054      5691.5412    
   1900000   649.85088     -3339.354       41.99991      -3297.3541      38655.882      5691.5412    
   1901000   611.83016     -3338.7849      39.542628     -3299.2422      38912.382      5691.5412    
   1902000   584.9539      -3339.6135      37.805613     -3301.8079      39491.225      5691.5412    
   1903000   584.68071     -3339.1221      37.787957     -3301.3341      40607.533      5691.5412    
   1904000   579.5179      -3337.1227      37.454284     -3299.6684      39131.13       5691.5412    
   1905000   586.05449     -3337.6927      37.876744     -3299.816       42002.719      5691.5412    
   1906000   586.93827     -3339.408       37.933863     -3301.4742      38396.66       5691.5412    
   1907000   582.35381     -3340.3637      37.637569     -3302.7261      34947.414      5691.5412    
   1908000   578.7798      -3340.4884      37.40658      -3303.0819      36315.496      5691.5412    
   1909000   599.12758     -3338.0294      38.721659     -3299.3078      40318.372      5691.5412    
   1910000   592.18411     -3337.9017      38.272902     -3299.6288      43010.212      5691.5412    
   1911000   598.43357     -3340.3975      38.676805     -3301.7207      37541.955      5691.5412    
   1912000   578.45212     -3338.9782      37.385403     -3301.5928      38233.014      5691.5412    
   1913000   605.21124     -3336.3442      39.114847     -3297.2294      41107.852      5691.5412    
   1914000   619.37627     -3337.3348      40.030333     -3297.3045      42477.451      5691.5412    
   1915000   606.33332     -3337.5899      39.187366     -3298.4025      38320.66       5691.5412    
   1916000   620.02705     -3341.2611      40.072393     -3301.1887      38583.698      5691.5412    
   1917000   564.31466     -3339.858       36.471697     -3303.3863      38204.661      5691.5412    
   1918000   558.93039     -3338.384       36.123711     -3302.2603      41715.707      5691.5412    
   1919000   603.58352     -3339.1299      39.009646     -3300.1202      38123.253      5691.5412    
   1920000   635.00286     -3339.539       41.040281     -3298.4987      39428.481      5691.5412    
   1921000   642.6621      -3337.9274      41.535298     -3296.3921      39309.665      5691.5412    
   1922000   599.13276     -3338.2363      38.721994     -3299.5144      40344.349      5691.5412    
   1923000   610.71354     -3336.8705      39.47046      -3297.4001      40027.726      5691.5412    
   1924000   594.9504      -3337.7381      38.451687     -3299.2864      38465.744      5691.5412    
   1925000   587.41958     -3338.3245      37.96497      -3300.3595      38497.848      5691.5412    
   1926000   586.10103     -3339.6968      37.879752     -3301.817       39363.44       5691.5412    
   1927000   574.65042     -3340.626       37.139698     -3303.4863      39707.627      5691.5412    
   1928000   601.74117     -3339.9848      38.890576     -3301.0942      38611.848      5691.5412    
   1929000   612.57589     -3340.2602      39.590824     -3300.6694      36441.284      5691.5412    
   1930000   645.38899     -3337.4264      41.711537     -3295.7149      41670.813      5691.5412    
   1931000   623.70862     -3340.0512      40.310334     -3299.7409      39060.045      5691.5412    
   1932000   601.68616     -3339.3086      38.88702      -3300.4216      38656.244      5691.5412    
   1933000   637.81567     -3339.4964      41.222073     -3298.2743      39983.068      5691.5412    
   1934000   647.3005      -3338.9547      41.835078     -3297.1196      41159.748      5691.5412    
   1935000   610.40631     -3338.2598      39.450604     -3298.8092      38719.508      5691.5412    
   1936000   596.74735     -3340.9708      38.567825     -3302.4029      36336.866      5691.5412    
   1937000   560.75754     -3337.5506      36.2418       -3301.3088      40833.19       5691.5412    
   1938000   615.61057     -3340.0487      39.786956     -3300.2617      37312.615      5691.5412    
   1939000   603.78951     -3336.7008      39.02296      -3297.6778      40768.542      5691.5412    
   1940000   638.08311     -3339.1294      41.239358     -3297.8901      38615.612      5691.5412    
   1941000   603.94632     -3339.8749      39.033095     -3300.8418      38528.461      5691.5412    
   1942000   579.67542     -3338.1881      37.464464     -3300.7237      41005.584      5691.5412    
   1943000   604.87181     -3338.8099      39.092909     -3299.717       41902.865      5691.5412    
   1944000   653.69002     -3337.1758      42.248033     -3294.9277      39956.989      5691.5412    
   1945000   600.48976     -3338.8868      38.809697     -3300.0771      42642.476      5691.5412    
   1946000   586.11739     -3340.8036      37.880809     -3302.9228      35773.84       5691.5412    
   1947000   590.07104     -3341.6757      38.136334     -3303.5393      35101.383      5691.5412    
   1948000   617.43389     -3338.3826      39.904797     -3298.4779      38592.286      5691.5412    
   1949000   622.87245     -3338.5845      40.256292     -3298.3282      38457.676      5691.5412    
   1950000   619.8641      -3338.3151      40.061862     -3298.2533      43044.508      5691.5412    
   1951000   578.44693     -3338.8021      37.385067     -3301.4171      42085.069      5691.5412    
   1952000   593.35227     -3337.5494      38.3484       -3299.201       39941.083      5691.5412    
   1953000   602.21807     -3340.0962      38.921397     -3301.1748      38790.052      5691.5412    
   1954000   601.49684     -3339.0048      38.874784     -3300.13        39056.332      5691.5412    
   1955000   593.62758     -3338.0346      38.366194     -3299.6684      41217.049      5691.5412    
   1956000   600.73924     -3336.4283      38.82582      -3297.6025      40552.814      5691.5412    
   1957000   573.8656      -3341.8496      37.088976     -3304.7606      32905.253      5691.5412    
   1958000   595.8851      -3338.1851      38.512097     -3299.673       39140.981      5691.5412    
   1959000   596.77571     -3337.5541      38.569658     -3298.9844      37340.451      5691.5412    
   1960000   600.12583     -3340.1063      38.786176     -3301.3201      35440.362      5691.5412    
   1961000   578.67935     -3340.6768      37.400088     -3303.2767      34209.234      5691.5412    
   1962000   585.33267     -3338.9732      37.830093     -3301.1431      40350.884      5691.5412    
   1963000   605.62724     -3338.2902      39.141732     -3299.1485      38978.864      5691.5412    
   1964000   608.28862     -3339.327       39.313737     -3300.0133      37443.25       5691.5412    
   1965000   586.93909     -3340.8423      37.933916     -3302.9084      36770.001      5691.5412    
   1966000   597.5541      -3338.5182      38.619965     -3299.8982      39700.855      5691.5412    
   1967000   587.6632      -3337.5478      37.980715     -3299.5671      37192.436      5691.5412    
   1968000   555.09127     -3337.0829      35.875589     -3301.2073      40344.691      5691.5412    
   1969000   554.81915     -3340.078       35.858002     -3304.22        38568.38       5691.5412    
   1970000   636.45807     -3338.9967      41.134331     -3297.8624      39426.895      5691.5412    
   1971000   608.39258     -3336.2996      39.320457     -3296.9792      43402.396      5691.5412    
   1972000   611.42104     -3337.9421      39.516186     -3298.4259      39724.415      5691.5412    
   1973000   605.29516     -3339.5365      39.12027      -3300.4162      36981.688      5691.5412    
   1974000   615.71265     -3337.7549      39.793553     -3297.9613      40316.572      5691.5412    
   1975000   620.18554     -3337.9083      40.082636     -3297.8256      37968.966      5691.5412    
   1976000   611.64408     -3337.9451      39.530601     -3298.4145      36246.365      5691.5412    
   1977000   578.34011     -3339.3827      37.378164     -3302.0045      34973.014      5691.5412    
   1978000   578.02102     -3341.4879      37.35754      -3304.1303      34672.112      5691.5412    
   1979000   592.18024     -3336.295       38.272652     -3298.0224      42882.722      5691.5412    
   1980000   607.824       -3336.5369      39.283709     -3297.2532      43532.946      5691.5412    
   1981000   622.3127      -3338.0702      40.220115     -3297.85        38816.69       5691.5412    
   1982000   591.73255     -3338.8987      38.243718     -3300.655       39815.546      5691.5412    
   1983000   573.29572     -3338.2463      37.052144     -3301.1942      38494.106      5691.5412    
   1984000   629.88395     -3336.3036      40.709446     -3295.5942      40927.5        5691.5412    
   1985000   624.96341     -3337.7971      40.391431     -3297.4057      39755.124      5691.5412    
   1986000   597.19345     -3338.4788      38.596656     -3299.8822      37474.781      5691.5412    
   1987000   585.17464     -3338.9468      37.819879     -3301.1269      35958.602      5691.5412    
   1988000   612.80499     -3338.7537      39.605631     -3299.148       36839.009      5691.5412    
   1989000   649.20232     -3338.9932      41.957993     -3297.0352      37294.77       5691.5412    
   1990000   594.9884      -3338.2566      38.454143     -3299.8025      38905.501      5691.5412    
   1991000   623.62802     -3339.5086      40.305124     -3299.2035      36951.362      5691.5412    
   1992000   584.34741     -3337.9356      37.766415     -3300.1692      37661.031      5691.5412    
   1993000   584.66628     -3338.5636      37.787024     -3300.7766      37068.412      5691.5412    
   1994000   585.64571     -3339.5106      37.850325     -3301.6603      35312.772      5691.5412    
   1995000   575.06078     -3338.7282      37.16622      -3301.562       37892.409      5691.5412    
   1996000   607.86637     -3338.4013      39.286447     -3299.1149      37337.011      5691.5412    
   1997000   651.62691     -3340.6033      42.114694     -3298.4886      34436.255      5691.5412    
   1998000   581.21974     -3340.8541      37.564274     -3303.2898      38626.084      5691.5412    
   1999000   585.86669     -3339.2919      37.864607     -3301.4273      38741.685      5691.5412    
   2000000   606.87466     -3337.7213      39.222353     -3298.499       39809.71       5691.5412    
Loop time of 46640.1 on 1 procs for 1500000 steps with 501 atoms

Performance: 1.389 ns/day, 17.274 hours/ns, 32.161 timesteps/s, 16.113 katom-step/s
99.1% CPU use with 1 MPI tasks x 1 OpenMP threads

MPI task timing breakdown:
Section |  min time  |  avg time  |  max time  |%varavg| %total
---------------------------------------------------------------
Pair    | 45029      | 45029      | 45029      |   0.0 | 96.55
Neigh   | 3.1542     | 3.1542     | 3.1542     |   0.0 |  0.01
Comm    | 56.07      | 56.07      | 56.07      |   0.0 |  0.12
Output  | 4.3389     | 4.3389     | 4.3389     |   0.0 |  0.01
Modify  | 1488.7     | 1488.7     | 1488.7     |   0.0 |  3.19
Other   |            | 58.95      |            |       |  0.13

Nlocal:            501 ave         501 max         501 min
Histogram: 1 0 0 0 0 0 0 0 0 0
Nghost:           2124 ave        2124 max        2124 min
Histogram: 1 0 0 0 0 0 0 0 0 0
Neighs:              0 ave           0 max           0 min
Histogram: 1 0 0 0 0 0 0 0 0 0
FullNghs:        66242 ave       66242 max       66242 min
Histogram: 1 0 0 0 0 0 0 0 0 0

Total # of neighbors = 66242
Ave neighs/atom = 132.21956
Neighbor list builds = 5023
Dangerous builds = 0
EQUIL_RESULTS_START
  T_K          : 600
  pe_final_eV  : -3337.72134367686
  temp_final_K : 606.874656893917
  press_final  : 39809.7103379638
EQUIL_RESULTS_END
System init for write_restart ...
System init for write_data ...
Total wall time: 17:17:21
/home/akinyemi.az/miniforge3/envs/mace-lammps/lib/python3.11/tempfile.py:934: ResourceWarning: Implicitly cleaning up <TemporaryDirectory '/tmp/tmpm7l44iex'>
  _warnings.warn(warn_message, ResourceWarning)
T=600K End: Sun Apr 26 01:04:02 PM EDT 2026
