LAMMPS data file via write_data, version 11 Feb 2026, timestep = 344, units = metal

362 atoms
8 atom types

0 12.447907776 xlo xhi
0 12.9362452296 ylo yhi
0 52.3600831054 zlo zhi

Masses

1 26.9815
2 10.811
3 12.011
4 51.9961
5 55.845
6 95.95999999999999
7 58.6934
8 1.008

Atoms # atomic/kk

1 7 1.3712046273950118 0.41163568439668674 14.772451602480398 0 0 0
2 7 3.899982242125684 0.5774315906148397 14.824814464625348 0 0 0
6 4 0.31830489829686476 2.6484308908438665 14.918851797751481 0 0 0
7 7 2.670518369357275 2.694330828672598 14.79589093713894 0 0 0
31 4 0.13530675197684144 1.2412739448567223 16.817475021470436 0 0 0
32 7 2.605362538952572 1.2696299584584498 16.866562827309078 0 0 0
36 7 1.4393166251520104 3.4397454609939815 17.001282757160762 0 0 0
37 7 3.912870773191721 3.367736678399965 16.890313132236674 0 0 0
3 7 6.447891083454273 0.5490567212760434 14.779614750850934 0 0 0
8 1 5.180581223613576 2.6836980738211906 14.670837027345003 0 0 0
9 7 7.6895849200576745 2.7234477236821517 14.780569578077424 0 0 0
33 7 5.140958698139434 1.2886980584648597 16.85877232392437 0 0 0
34 6 7.710380159207804 1.3313747926350314 16.921799700605426 0 0 0
38 7 6.3994270381836245 3.437020319245385 16.839543164448855 0 0 0
4 4 8.961762957971278 0.38101803454675987 14.999765716300223 0 0 0
5 7 11.346056631075195 0.4562724501451838 14.851588002772543 0 0 0
10 6 10.124333930091465 2.7143227792655047 14.908801707057414 0 0 0
35 7 10.183459382924594 1.234433988851795 17.002121861785515 0 0 0
39 7 8.914665192195011 3.5233416974250797 16.928255575931104 0 0 0
40 6 11.426499111259773 3.4764383924610134 17.08701470026731 0 0 0
11 7 1.423364929874936 4.958195423551978 15.030160413472132 0 0 0
12 7 3.8540221147950584 4.7751766186403355 14.873538900441176 0 0 0
16 6 0.2210393305633686 7.26835081816012 15.200614390863372 0 0 0
17 5 2.8677075297895724 7.010355585608238 15.277122047144669 0 0 0
41 7 0.23588215042406266 5.6277178224465905 17.0805889649909 0 0 0
42 7 2.7051016897893208 5.521538464053956 17.14422069618248 0 0 0
46 4 1.4319955962268505 7.671186137437094 17.35900307380462 0 0 0
47 4 3.9172926417335665 7.678284194493823 17.179986000266968 0 0 0
13 7 6.441544834288974 4.812877005226747 14.782725914925228 0 0 0
18 2 5.342552114511164 7.519186763847805 15.445513678680927 0 0 0
19 7 7.318963789553459 7.06651422435064 14.989239495169278 0 0 0
43 6 5.200283443515444 5.63983194815429 16.732285018766444 0 0 0
44 7 7.716462266436098 5.634772015833321 16.998049470438676 0 0 0
48 7 6.472960968454926 7.781662037106499 17.145087872915305 0 0 0
14 7 8.933295264233267 4.951426694851627 14.931328266935417 0 0 0
15 7 11.443257486607031 4.92910512628457 14.938218207369266 0 0 0
20 7 10.176902319741792 7.175446458981376 15.067723596222685 0 0 0
45 7 10.175318114502588 5.659438221603776 17.035351021768903 0 0 0
49 7 8.8881275548417 7.714707168999348 17.150054196384392 0 0 0
50 7 11.320669319798256 7.7457652295446335 17.191629090842238 0 0 0
21 7 1.6363946346864409 9.146597894087597 14.892216401305191 0 0 0
22 7 4.090776749774676 9.05555540939355 14.966315434290934 0 0 0
26 6 0.18239280894170767 11.146797655369163 14.899603638828518 0 0 0
27 7 2.7195539625142042 11.29504403471618 14.823153921629826 0 0 0
51 7 0.13241864175015586 9.684878717102713 16.838863964408397 0 0 0
52 7 2.679743123671694 9.750856910597559 16.98751148558508 0 0 0
56 4 1.3503411590815237 11.829824186633257 16.951049659611808 0 0 0
57 6 3.8618392128343735 12.014655570462983 16.923858686147497 0 0 0
23 4 6.47097959301088 9.30366156279888 15.154753176529441 0 0 0
28 7 5.224836586484894 11.289969111402629 14.8294755556342 0 0 0
29 7 7.762617510366082 11.285786852671126 14.86485113819142 0 0 0
53 7 5.145056334388977 9.844167165406267 17.03369738015422 0 0 0
54 7 7.726344183474997 9.884949965554624 17.083876641762625 0 0 0
58 6 6.467299828314292 12.002044835047982 16.893377019941802 0 0 0
24 7 8.864401946796985 9.10645320951026 15.05483435118468 0 0 0
25 2 11.03189401035696 9.064260875973602 15.454314644365175 0 0 0
30 7 10.213400192790838 11.06988639560114 14.999110836240167 0 0 0
55 7 10.124576709730404 9.802110226415854 17.12319959478836 0 0 0
59 7 8.958238189481461 11.978322801843778 17.049483871472408 0 0 0
60 7 11.396485881107825 12.000328824658355 16.992982029208953 0 0 0
61 3 1.349462804955854 0.45104188057194244 18.06740667061411 0 0 0
62 7 2.623361324695541 12.712585652518367 19.19215704835143 0 -1 0
66 7 1.2660200667223929 1.9463631043808824 19.13307112968981 0 0 0
67 1 3.860995446175168 1.8891385270042746 18.995444768999718 0 0 0
91 4 1.2534997944368045 0.2650952352728671 21.513145049355032 0 0 0
92 7 3.825409387890599 0.5294521233731562 21.14263860423535 0 0 0
96 7 0.10746050454388012 2.8439818912222856 21.203562879127567 0 0 0
97 7 2.5249749523277734 2.5852264173430086 21.09615936253255 0 0 0
63 7 5.1660192915091345 12.756248942120102 19.02671179421412 0 -1 0
64 4 7.734971250204577 12.754146471935604 19.186590731509817 0 -1 0
68 7 6.344334021346233 1.936522964274057 18.957594972860438 0 0 0
93 7 6.3722711530654745 0.5697008378990815 21.07465666956728 0 0 0
98 7 5.0304379285100635 2.6839522245921557 21.029270111631945 0 0 0
99 7 7.509122243442768 2.7443599500753977 21.082091320444206 0 0 0
65 7 10.126543661809823 12.763297901930471 19.102640318859223 0 -1 0
69 7 8.8814807390321 1.982436591356801 19.062929101130656 0 0 0
70 7 11.315584882835203 1.9729620835203536 19.13407847287253 0 0 0
94 5 8.865900754453582 0.6762312992856642 21.123916530261493 0 0 0
95 4 11.33693882757521 0.756486722335307 21.205485640018015 0 0 0
100 7 10.063746676502667 2.8616722876149283 21.10164204047272 0 0 0
71 7 0.21536033434472718 4.203295249890269 19.232934247999754 0 0 0
72 7 2.664601292165063 4.023232963090469 19.084984558494273 0 0 0
76 5 1.5366879360568073 6.2332210173707505 19.172409609799875 0 0 0
77 4 3.9536910240609173 6.187997981073998 19.34300226958158 0 0 0
101 7 1.8918706331262234 4.893551275277474 21.19362123015152 0 0 0
102 2 3.8248140367973202 4.318496284181526 20.76035359340689 0 0 0
106 7 11.350702256329297 7.824713805846204 21.94677329471454 -1 0 0
107 7 2.6235936089935463 7.191552337543078 21.198568671137753 0 0 0
73 4 5.079869570037633 4.201924259732484 18.91832314026652 0 0 0
74 6 7.5540209504339195 4.112282641962588 18.990329139914646 0 0 0
78 4 6.496585462216196 6.329345412773556 19.20475855829956 0 0 0
103 7 5.929680130536059 4.930042098240052 21.12598280598444 0 0 0
108 7 5.155365611866951 7.186570339332927 21.301356724925274 0 0 0
109 4 7.664050107067447 7.0679493762506524 21.287603168054833 0 0 0
75 7 10.108546400476122 4.2163154384740436 19.055736083478497 0 0 0
79 4 9.059204983899805 6.3992132274451246 19.17110142368559 0 0 0
80 7 11.581818495743292 6.348039616873336 19.058218916997067 0 0 0
104 7 8.562177617554303 4.9082172761968925 21.0869916063691 0 0 0
105 7 11.07273635204116 5.25451272206642 21.0649449118131 0 0 0
110 3 9.775488901552722 6.94403308017772 21.018731101740652 0 0 0
81 7 0.4537175970050516 8.342058257124767 20.06064304214656 0 0 0
82 7 2.73720257054212 8.452708954906266 19.20957862184499 0 0 0
86 7 1.467246515984276 10.46762429032233 19.160542839658664 0 0 0
87 7 3.9076786041453504 10.643089947170482 19.056620342015997 0 0 0
111 2 1.979475670216843 9.139079056313763 21.132594498807126 0 0 0
112 7 3.9560268017296183 9.287593256466419 21.257615765543157 0 0 0
116 7 0.10505162662260724 12.639215550483385 19.325402846203964 0 0 0
117 4 2.553254317855599 11.310595531551986 21.167671227480728 0 0 0
83 6 5.257747630175214 8.49701653394724 19.25063229471389 0 0 0
84 7 7.776866909493314 8.514787151529584 19.216585772494664 0 0 0
88 7 6.4708562818183735 10.68301831528094 19.108691345272078 0 0 0
113 7 6.50001520033409 9.304810514946357 21.30336595815074 0 0 0
118 7 5.114558277668649 11.391896073788667 21.118560399441485 0 0 0
119 7 7.786010693002149 11.366968471431978 21.17968349344721 0 0 0
85 4 10.333476839013413 8.337407712627485 19.48291721638408 0 0 0
89 7 8.987404609306344 10.583033395025451 19.184856518967514 0 0 0
90 7 11.519356976445922 10.431894647352241 18.965044290028718 0 0 0
114 6 9.071017480121553 9.047012497477827 21.50913983381842 0 0 0
115 3 11.403425886047428 9.42549602212545 20.708695464932028 0 0 0
120 6 10.546065411990245 11.333986670385045 21.1006318690171 0 0 0
121 7 0.16473576196768988 1.5474465065465814 23.307388533635937 0 0 0
122 7 2.5767463690939327 1.3817357426834467 23.228724027034158 0 0 0
126 7 1.266262923468555 3.6632308382955854 23.20094019083073 0 0 0
127 6 3.7255379688737196 3.6175359534378755 23.035899928101383 0 0 0
151 7 0.041401837391946215 0.1708298498809546 25.412591838124133 0 0 0
152 7 2.4597231918857165 0.05371838685819121 25.195091045996854 0 0 0
156 7 1.335738762105337 2.284592110840447 25.337766137860385 0 0 0
157 7 3.778972876134661 2.2352411292656944 25.2800006548296 0 0 0
123 7 5.048563065717232 1.3505442899584836 23.2415935968012 0 0 0
124 7 7.579305568814175 1.372706586126913 23.178525359203334 0 0 0
128 7 6.210958442494836 3.55385695127195 23.132087364772186 0 0 0
153 1 4.917497381325484 0.01192424052812946 25.3402630206403 0 0 0
154 7 7.481407163056444 0.04733884055232783 25.315089535127182 0 0 0
158 4 6.2253386252597585 2.231227870938042 25.278543422148413 0 0 0
159 3 7.596239188823222 2.965039401482641 24.235721425447874 0 0 0
125 6 10.18992418197915 1.5087455932431766 23.244418634960073 0 0 0
129 7 8.83308269887271 3.6708881513737333 23.117063789718983 0 0 0
130 7 11.258082519667537 3.8375111748342947 23.135385029835646 0 0 0
160 7 11.32520031679773 2.3473671216173355 25.311166793123455 0 0 0
165 7 8.839191187870634 2.181655635676 25.345224713635595 0 0 0
131 7 0.12231468234567656 5.874209037444932 22.97652098458516 0 0 0
132 7 2.5965307513809623 5.840892111103632 23.26106091738224 0 0 0
136 7 1.2986719012391248 7.969997612907914 22.969656583189867 0 0 0
137 7 3.8244513651876892 7.922578295123151 23.320933477779782 0 0 0
161 7 0.0843762739603252 4.479504672826235 25.17502413900602 0 0 0
162 7 2.551988948721895 4.404993619105608 25.242185875571206 0 0 0
166 7 1.2815421807911704 6.611085978795335 25.110261127119085 0 0 0
167 7 3.738883353056516 6.5746206103179565 25.383223457187665 0 0 0
133 1 5.038066300655316 5.878285628953974 23.354188640176712 0 0 0
134 7 7.412482536277909 5.686291018089228 23.23757219861784 0 0 0
138 7 6.415720492921909 7.901880794344042 23.310066193347414 0 0 0
163 7 4.990456181589309 4.351803181695979 25.2470502701314 0 0 0
164 7 7.533577924194727 4.419225677566543 25.397643191597158 0 0 0
168 7 6.228016817276763 6.544273645314947 25.406734566320868 0 0 0
173 7 4.985931380094996 8.68962417055669 25.357091556502233 0 0 0
135 7 10.016635636125573 4.473009394964688 25.1663852859636 0 0 0
140 6 9.855267722732819 6.100336841972363 23.01649328436397 0 0 0
169 7 8.695326163211524 6.502695218474731 25.19030160425769 0 0 0
170 7 11.270113926009143 6.620329846142764 24.97494469266315 0 0 0
175 7 10.195998934044562 8.743963050303277 25.480145543335006 0 0 0
142 7 2.603167592746093 10.01115429989766 23.194942084440708 0 0 0
146 2 1.6399002491024373 11.919260078611552 23.17833457923243 0 0 0
147 7 3.755449787868473 12.143673403076336 23.199890791918694 0 0 0
171 7 0.01828903558291695 8.85937893458843 24.760556989415853 0 0 0
172 7 2.4393191283975133 8.70306418961767 25.252555062761324 0 0 0
176 7 1.1776399109074902 10.989781784395635 24.870877401413495 0 0 0
177 7 3.7176060575772194 10.80170435604825 25.301646202109378 0 0 0
139 7 7.427100767485909 8.72240665096873 25.37921781606853 0 0 0
143 7 5.133030726185419 10.0186476494871 23.29386574092294 0 0 0
144 7 7.705207787265723 9.98084714723438 23.39228051139048 0 0 0
148 6 6.395676691340222 12.107436100350412 23.143282945186595 0 0 0
178 7 6.240949918479698 10.858364797109948 25.35604831541047 0 0 0
141 6 0.24768321710328717 10.089394508462581 22.240850629372527 0 0 0
145 7 10.449505456394348 9.962883473131685 23.4603499344334 0 0 0
149 6 9.106890801504427 12.083550517859036 23.25282518767362 0 0 0
150 7 11.83945107283662 12.209659896112072 23.253821976579694 0 0 0
155 7 10.063984769295251 0.06793783560521652 25.37549286745446 0 0 0
179 7 8.821795643398929 10.852765778430847 25.43738779482538 0 0 0
180 7 11.288697868609987 10.901125966612533 25.536024197717403 0 0 0
181 4 1.306187743656489 0.9025860439959147 27.303545818559563 0 0 0
182 7 3.710496851167122 0.8962122956216932 27.398033679293768 0 0 0
187 7 2.507773804133518 3.0422698948484848 27.399577217186152 0 0 0
211 6 12.435858238910516 1.7697713848538204 29.444847002242494 -1 0 0
212 4 2.5363393063438795 1.7176301457629801 29.473223785800837 0 0 0
216 7 1.2181683233624896 3.9297758353125793 29.386644163656054 0 0 0
217 7 3.7324262197793296 3.8639564865255553 29.45395026041294 0 0 0
183 7 6.207430846378075 0.8629580514922128 27.325235802400815 0 0 0
188 7 4.990793135110999 3.0282461584805462 27.364827491365737 0 0 0
189 7 7.495296421521202 2.924317716388764 27.34325697490407 0 0 0
213 7 4.993369438479515 1.7149581141378198 29.422547682917305 0 0 0
214 7 7.477860148794002 1.5920803026238197 29.36010918261305 0 0 0
218 7 6.524058672979457 3.8462264905558996 29.44239791092948 0 0 0
184 7 8.755677082827885 0.7581746920965322 27.362522465918943 0 0 0
185 7 11.267742469818996 0.8900814495770659 27.37421883450118 0 0 0
186 7 0.05832158559321118 3.098735617580668 27.34952156079697 0 0 0
190 7 9.99550538107334 2.9778955421605846 27.303416977496493 0 0 0
215 7 9.925962772161737 1.6226146622890365 29.35620807851365 0 0 0
219 2 8.731186430966524 3.262227052155182 28.990328381048432 0 0 0
220 7 10.884005733635316 3.935763902854119 29.3513583252148 0 0 0
191 7 1.2777323810633603 5.2368633974304 27.255986638760533 0 0 0
192 7 3.7916572218768114 5.206796027436695 27.354368265878616 0 0 0
196 7 0.045812062743966236 7.372304041982253 27.008208987954166 0 0 0
197 7 2.487299085709896 7.389487075242395 27.351075868482354 0 0 0
222 7 2.424995204873313 6.028295632716788 29.37908648829827 0 0 0
226 7 1.0568077813687733 8.232319281825248 29.30781488799944 0 0 0
227 7 3.6551813749724555 8.164822718044269 29.435153521138833 0 0 0
193 1 6.294578229326876 5.073902212004757 27.346433003537516 0 0 0
198 5 5.007766807757484 7.372832401732756 27.41036034597893 0 0 0
199 5 7.399097906874815 7.297338145278289 27.518106554291986 0 0 0
223 6 5.024067735099099 6.0000563275385135 29.486054185984855 0 0 0
224 7 7.57310653714025 6.084294825755128 29.539440469859567 0 0 0
228 7 6.203350511295442 8.203822291003373 29.48884515597583 0 0 0
174 3 8.78438207673136 7.90475078164509 26.33558323104355 0 0 0
194 7 8.788884959258842 4.953174804680974 27.827214566578558 0 0 0
195 5 11.268723493973978 5.113091644514889 27.11781812619059 0 0 0
200 5 10.100853200293097 6.97614198957643 27.34872478044073 0 0 0
221 6 12.214149932841137 6.114355522508704 29.182370493893522 -1 0 0
229 7 9.679399182118198 7.803822858953432 29.45394035756494 0 0 0
230 2 11.427651318764116 8.652868181126765 29.847226310054904 0 0 0
201 7 1.2074595363783387 9.58548404685098 27.15913299824395 0 0 0
202 7 3.6909388725000833 9.499407006266887 27.370837864740487 0 0 0
206 7 0.03760823845581465 11.702788446244531 27.431774240952656 0 0 0
207 7 2.4835863463552474 11.702467692841813 27.315501165651167 0 0 0
231 7 0.034246210032883924 10.405725074881664 29.515532700548153 0 0 0
232 5 2.4729992377939194 10.31870207400504 29.359187212848713 0 0 0
236 7 1.2859820677048885 12.523860122377638 29.423685178187164 0 0 0
237 7 3.730739211121502 12.459843588971859 29.42497382771487 0 0 0
203 7 6.175870719786894 9.515186597684902 27.470979588803186 0 0 0
208 7 4.951519570436205 11.632500406611747 27.422660322002173 0 0 0
209 7 7.460890354949251 11.652830124871432 27.411930176339716 0 0 0
233 4 4.886523008607793 10.291980252916018 29.435385698256233 0 0 0
234 7 7.43767118216583 10.328365897520852 29.50331580712457 0 0 0
238 4 6.175752041263162 12.455837841137813 29.40691127386022 0 0 0
204 6 8.74677977550686 9.481444427270095 27.609581685614902 0 0 0
205 7 11.275710192567052 9.253654255279887 27.785000798899947 0 0 0
210 4 10.037380762331992 11.636326771531762 27.48518208852784 0 0 0
235 7 10.019892758820104 10.296315975081226 29.60346539043418 0 0 0
239 7 8.708715222218533 12.378188774034816 29.442533401980626 0 0 0
240 7 11.21917319957908 12.457471965167647 29.468078013789167 0 0 0
241 7 0.02353432377544258 0.3217582522279474 31.50704514755082 0 0 0
242 7 2.4997476574406714 0.33252876622197325 31.47361639566262 0 0 0
246 7 1.2623242264577232 2.5226690872787008 31.48694170318497 0 0 0
247 7 3.685943422191758 2.4909697749667568 31.537425387887176 0 0 0
271 7 1.2545842392498945 1.0552449916285476 33.49694274299839 0 0 0
276 7 12.39760501658646 3.309735643119231 33.51528012967473 -1 0 0
243 7 4.931312498613449 0.33291497975515916 31.471513656068204 0 0 0
244 7 7.486216840800884 0.3309310580804495 31.457063225486124 0 0 0
248 7 6.16158302024553 2.481970045407534 31.4828237849433 0 0 0
273 6 6.249648108960702 1.0795912379660948 33.531641208927496 0 0 0
279 7 7.461757145444378 3.2329950653077097 33.5885183712875 0 0 0
245 7 9.94525827623178 0.3402648741951244 31.448262224681372 0 0 0
249 6 8.675232221791347 2.6130406902117795 31.3247843434726 0 0 0
250 7 11.188266329181378 2.5105454834355134 31.476371535583645 0 0 0
274 7 8.739890855695654 1.0861672559269453 33.52576086601284 0 0 0
275 7 11.186278289586243 1.0808901603039918 33.4846575565152 0 0 0
252 7 2.451093842122807 4.62962824960038 31.495272302177323 0 0 0
256 7 1.2443426198038794 6.798513605329764 31.41855895266567 0 0 0
257 7 3.6693024933890785 6.764976473769014 31.508864135137742 0 0 0
253 7 4.938242714043292 4.603431899411017 31.550604679485044 0 0 0
254 7 7.399037139586242 4.668629692427284 31.607763872654843 0 0 0
258 7 6.159954552806608 6.79311484306918 31.554208150001834 0 0 0
225 6 8.742246600539762 6.702527500636948 31.517056049274515 0 0 0
251 7 12.4083869349663 4.699821707549857 31.356151192596414 -1 0 0
255 7 9.99865864900544 4.6668749821691575 31.532768283566295 0 0 0
259 3 8.703290914302185 8.320923368381703 32.67588873277833 0 0 0
260 7 11.228679251538226 6.8916930799112395 31.269442043719643 0 0 0
285 4 11.129717449745717 5.392407501725299 33.47257686644083 0 0 0
286 6 12.38870428034338 7.5622932294273415 33.486961923298956 -1 0 0
262 7 2.4647330517972 8.929909589343616 31.500128951565245 0 0 0
266 7 1.2692741082320487 11.123185324790075 31.517933752985194 0 0 0
267 7 3.680364647414933 11.078755629433937 31.471063705429653 0 0 0
291 7 1.248063655859286 9.714871348906561 33.60169673065605 0 0 0
292 7 3.6857558154758814 9.63486384177573 33.56745066028934 0 0 0
297 7 2.394876658128163 11.858446357251562 33.589431824021325 0 0 0
263 7 4.926618507611728 8.927809017536667 31.501053478083175 0 0 0
264 7 7.4231868332184625 8.922119183437589 31.47874238935496 0 0 0
268 6 6.223824304080917 11.098477368196983 31.565279619662117 0 0 0
293 7 6.171811509937643 9.6424540468974 33.638111337949454 0 0 0
298 6 4.8504708524903215 11.816395152243327 33.65810802065301 0 0 0
299 7 7.494846604972965 11.84610414671647 33.66133413729697 0 0 0
261 7 0.06960115143564809 9.026704975392327 31.495359612555305 0 0 0
265 7 10.078869383273402 9.024135381373648 31.631874324978135 0 0 0
269 7 8.744935922955394 11.121046693665742 31.581130261266313 0 0 0
270 7 11.269949539094 11.19405461865376 31.634100019838403 0 0 0
300 7 9.986986576799016 11.918633029368376 33.62531634930223 0 0 0
272 7 3.6867318899849955 1.1227741323921803 33.650993413755536 0 0 0
277 7 2.4224882888260253 3.2363033697655657 33.65293991194502 0 0 0
301 6 12.441257384339249 1.9525380536864692 35.61900001849054 -1 0 0
302 7 2.500457223159423 1.8401578893683166 35.836000416850474 0 0 0
306 4 1.2694997308723828 4.067317852403613 35.67313184616084 0 0 0
307 7 3.6782814185353176 4.001121491436117 35.631345724689275 0 0 0
278 7 4.95007255143007 3.2414365352119225 33.648789503759 0 0 0
303 6 5.01524407025049 1.8527014753448523 35.80386978577886 0 0 0
304 7 7.466588132437227 1.8113927642103829 35.73311965116012 0 0 0
308 7 6.26762363687268 3.988546583200363 35.674398716963076 0 0 0
280 7 9.907509125994093 3.2466003187626886 33.57300721498763 0 0 0
305 7 9.899597861678574 1.8368147967643995 35.678818957708785 0 0 0
309 7 8.673349932951588 3.959369819677364 35.7264679715126 0 0 0
310 7 11.121480980952647 4.058763461557542 35.60502721163047 0 0 0
281 7 1.2102002668823566 5.390317848065252 33.568743249536666 0 0 0
282 7 3.660895825111607 5.387254979280283 33.562189508856804 0 0 0
287 4 2.484177080086032 7.515216624885984 33.58836153359955 0 0 0
311 7 12.436147128922743 6.09781450642453 35.64825561008256 -1 0 0
312 7 2.4664552174711103 6.152513915285752 35.65558234843601 0 0 0
316 7 1.2065849508977713 8.244264446995528 35.62574490169298 0 0 0
317 7 3.7229144596964687 8.221890662965004 35.65532454992648 0 0 0
283 7 6.213275811079645 5.367648811997609 33.64014193297868 0 0 0
288 7 4.915653413704337 7.5055964140287745 33.57728807082194 0 0 0
289 7 7.419453420888292 7.489893004669259 33.74598912686206 0 0 0
313 7 4.957534976957196 6.1017783663300875 35.63492567593581 0 0 0
314 7 7.51568424082053 6.122866783479093 35.73880154008933 0 0 0
318 7 6.200447072880599 8.28783742066954 35.75232126720963 0 0 0
284 4 8.709667690569114 5.318137971910964 33.68330232604026 0 0 0
290 5 9.939255348155655 7.4646845885572555 33.79897124362838 0 0 0
315 1 9.94643133199775 6.114136985706817 35.874240778743214 0 0 0
319 5 8.676595241543268 8.247963815468838 35.8307943060984 0 0 0
320 7 11.206439891519814 8.204812444273779 35.74281884578845 0 0 0
296 3 12.391742240678152 0.1753873452414586 34.48883111675161 -1 1 0
321 7 0.027762851999953504 10.35998689805778 35.802990148496605 0 0 0
322 7 2.5221594499445503 10.330971651922527 35.64084716917064 0 0 0
326 6 1.2910317137833975 12.460853055471583 35.85010450060473 0 0 0
327 7 3.759111680615608 12.604603249040919 35.75843453499516 0 0 0
323 7 4.943812327625374 10.390950894292976 35.771290498945085 0 0 0
324 1 7.369158726922075 10.436607566601257 35.769516431306 0 0 0
328 7 6.227091703923391 12.579046651306601 35.71732880182363 0 0 0
294 7 8.701243933221837 9.782851339809977 33.711431551928804 0 0 0
295 7 11.270427006249472 9.788846468545444 33.65941743945912 0 0 0
325 6 10.019082626112127 10.405696140942585 35.72815651607746 0 0 0
329 7 8.695919407445068 12.588273269333722 35.703505887325875 0 0 0
330 7 11.166289615569186 12.58192013288077 35.819835484898995 0 0 0
331 7 12.426462487057996 0.43950063912614357 37.900898561360925 -1 0 0
332 7 2.442336236307633 0.4231596551820684 37.90469628595174 0 0 0
336 7 1.2573375692214466 2.6312444972862257 37.79100680752745 0 0 0
337 5 3.7408855081649874 2.585453512258166 37.875206727831156 0 0 0
333 7 4.945705258992258 0.35902031462638156 37.872885382384005 0 0 0
334 4 7.445583806663332 0.36875583882685237 37.66301961678205 0 0 0
338 7 6.193557495492789 2.568882194055148 37.91883903046625 0 0 0
361 8 6.2914130735403715 0.4520189404077585 41.678619267747635 0 0 0
362 8 7.048443243867308 0.4652141734145274 41.5892228278681 0 0 0
335 5 9.841739580087351 0.3817319909114626 37.74327953225918 0 0 0
339 7 8.611841233437005 2.442366497262555 37.862504881639445 0 0 0
340 6 11.12900381130201 2.576471214638856 37.72493084239446 0 0 0
341 7 12.427499548660968 4.667293106835253 37.659184457763295 -1 0 0
342 7 2.527534022384341 4.682528130385011 37.70080847671709 0 0 0
346 7 1.2608506223908114 6.845509139805627 37.70020428090608 0 0 0
347 7 3.7297894002101297 6.778957706742369 37.7802791257266 0 0 0
343 4 4.941506539117977 4.543178224605644 37.54964604822975 0 0 0
344 7 7.4155877601608235 4.641324732618845 37.76408295609752 0 0 0
348 6 6.213700217103689 6.846147614548408 37.71146797145144 0 0 0
345 7 9.906486619912771 4.687404647785665 37.84512503252825 0 0 0
349 7 8.670366001111613 6.8673056015053175 37.91265539520115 0 0 0
350 7 11.281472455036512 6.82267182142991 37.81999466668502 0 0 0
351 7 0.05459192073068761 8.936246401309143 37.828390100374925 0 0 0
352 4 2.4979562825363404 8.888916066470282 37.56895848279706 0 0 0
356 7 1.2155808037655107 10.991771442829963 37.90255380687379 0 0 0
357 6 3.6659434446898134 11.168581850797255 37.758580239108234 0 0 0
353 7 4.87223088036549 8.976027053097157 37.91542455595722 0 0 0
354 7 7.422405980442134 9.064994681211896 37.91568626114554 0 0 0
358 7 6.200437737461705 11.19067488517555 37.88445907223252 0 0 0
355 6 9.977552144555343 9.018440591850847 37.80397209700799 0 0 0
359 5 8.653780701437501 11.234491917259135 37.882409884003295 0 0 0
360 7 11.172072385341234 11.2299953259514 37.92778666816654 0 0 0

Velocities

1 0 0 0
2 0 0 0
6 0 0 0
7 0 0 0
31 0 0 0
32 0 0 0
36 0 0 0
37 0 0 0
3 0 0 0
8 0 0 0
9 0 0 0
33 0 0 0
34 0 0 0
38 0 0 0
4 0 0 0
5 0 0 0
10 0 0 0
35 0 0 0
39 0 0 0
40 0 0 0
11 0 0 0
12 0 0 0
16 0 0 0
17 0 0 0
41 0 0 0
42 0 0 0
46 0 0 0
47 0 0 0
13 0 0 0
18 0 0 0
19 0 0 0
43 0 0 0
44 0 0 0
48 0 0 0
14 0 0 0
15 0 0 0
20 0 0 0
45 0 0 0
49 0 0 0
50 0 0 0
21 0 0 0
22 0 0 0
26 0 0 0
27 0 0 0
51 0 0 0
52 0 0 0
56 0 0 0
57 0 0 0
23 0 0 0
28 0 0 0
29 0 0 0
53 0 0 0
54 0 0 0
58 0 0 0
24 0 0 0
25 0 0 0
30 0 0 0
55 0 0 0
59 0 0 0
60 0 0 0
61 0 0 0
62 0 0 0
66 0 0 0
67 0 0 0
91 0 0 0
92 0 0 0
96 0 0 0
97 0 0 0
63 0 0 0
64 0 0 0
68 0 0 0
93 0 0 0
98 0 0 0
99 0 0 0
65 0 0 0
69 0 0 0
70 0 0 0
94 0 0 0
95 0 0 0
100 0 0 0
71 0 0 0
72 0 0 0
76 0 0 0
77 0 0 0
101 0 0 0
102 0 0 0
106 0 0 0
107 0 0 0
73 0 0 0
74 0 0 0
78 0 0 0
103 0 0 0
108 0 0 0
109 0 0 0
75 0 0 0
79 0 0 0
80 0 0 0
104 0 0 0
105 0 0 0
110 0 0 0
81 0 0 0
82 0 0 0
86 0 0 0
87 0 0 0
111 0 0 0
112 0 0 0
116 0 0 0
117 0 0 0
83 0 0 0
84 0 0 0
88 0 0 0
113 0 0 0
118 0 0 0
119 0 0 0
85 0 0 0
89 0 0 0
90 0 0 0
114 0 0 0
115 0 0 0
120 0 0 0
121 0 0 0
122 0 0 0
126 0 0 0
127 0 0 0
151 0 0 0
152 0 0 0
156 0 0 0
157 0 0 0
123 0 0 0
124 0 0 0
128 0 0 0
153 0 0 0
154 0 0 0
158 0 0 0
159 0 0 0
125 0 0 0
129 0 0 0
130 0 0 0
160 0 0 0
165 0 0 0
131 0 0 0
132 0 0 0
136 0 0 0
137 0 0 0
161 0 0 0
162 0 0 0
166 0 0 0
167 0 0 0
133 0 0 0
134 0 0 0
138 0 0 0
163 0 0 0
164 0 0 0
168 0 0 0
173 0 0 0
135 0 0 0
140 0 0 0
169 0 0 0
170 0 0 0
175 0 0 0
142 0 0 0
146 0 0 0
147 0 0 0
171 0 0 0
172 0 0 0
176 0 0 0
177 0 0 0
139 0 0 0
143 0 0 0
144 0 0 0
148 0 0 0
178 0 0 0
141 0 0 0
145 0 0 0
149 0 0 0
150 0 0 0
155 0 0 0
179 0 0 0
180 0 0 0
181 0 0 0
182 0 0 0
187 0 0 0
211 0 0 0
212 0 0 0
216 0 0 0
217 0 0 0
183 0 0 0
188 0 0 0
189 0 0 0
213 0 0 0
214 0 0 0
218 0 0 0
184 0 0 0
185 0 0 0
186 0 0 0
190 0 0 0
215 0 0 0
219 0 0 0
220 0 0 0
191 0 0 0
192 0 0 0
196 0 0 0
197 0 0 0
222 0 0 0
226 0 0 0
227 0 0 0
193 0 0 0
198 0 0 0
199 0 0 0
223 0 0 0
224 0 0 0
228 0 0 0
174 0 0 0
194 0 0 0
195 0 0 0
200 0 0 0
221 0 0 0
229 0 0 0
230 0 0 0
201 0 0 0
202 0 0 0
206 0 0 0
207 0 0 0
231 0 0 0
232 0 0 0
236 0 0 0
237 0 0 0
203 0 0 0
208 0 0 0
209 0 0 0
233 0 0 0
234 0 0 0
238 0 0 0
204 0 0 0
205 0 0 0
210 0 0 0
235 0 0 0
239 0 0 0
240 0 0 0
241 0 0 0
242 0 0 0
246 0 0 0
247 0 0 0
271 0 0 0
276 0 0 0
243 0 0 0
244 0 0 0
248 0 0 0
273 0 0 0
279 0 0 0
245 0 0 0
249 0 0 0
250 0 0 0
274 0 0 0
275 0 0 0
252 0 0 0
256 0 0 0
257 0 0 0
253 0 0 0
254 0 0 0
258 0 0 0
225 0 0 0
251 0 0 0
255 0 0 0
259 0 0 0
260 0 0 0
285 0 0 0
286 0 0 0
262 0 0 0
266 0 0 0
267 0 0 0
291 0 0 0
292 0 0 0
297 0 0 0
263 0 0 0
264 0 0 0
268 0 0 0
293 0 0 0
298 0 0 0
299 0 0 0
261 0 0 0
265 0 0 0
269 0 0 0
270 0 0 0
300 0 0 0
272 0 0 0
277 0 0 0
301 0 0 0
302 0 0 0
306 0 0 0
307 0 0 0
278 0 0 0
303 0 0 0
304 0 0 0
308 0 0 0
280 0 0 0
305 0 0 0
309 0 0 0
310 0 0 0
281 0 0 0
282 0 0 0
287 0 0 0
311 0 0 0
312 0 0 0
316 0 0 0
317 0 0 0
283 0 0 0
288 0 0 0
289 0 0 0
313 0 0 0
314 0 0 0
318 0 0 0
284 0 0 0
290 0 0 0
315 0 0 0
319 0 0 0
320 0 0 0
296 0 0 0
321 0 0 0
322 0 0 0
326 0 0 0
327 0 0 0
323 0 0 0
324 0 0 0
328 0 0 0
294 0 0 0
295 0 0 0
325 0 0 0
329 0 0 0
330 0 0 0
331 0 0 0
332 0 0 0
336 0 0 0
337 0 0 0
333 0 0 0
334 0 0 0
338 0 0 0
361 0 0 0
362 0 0 0
335 0 0 0
339 0 0 0
340 0 0 0
341 0 0 0
342 0 0 0
346 0 0 0
347 0 0 0
343 0 0 0
344 0 0 0
348 0 0 0
345 0 0 0
349 0 0 0
350 0 0 0
351 0 0 0
352 0 0 0
356 0 0 0
357 0 0 0
353 0 0 0
354 0 0 0
358 0 0 0
355 0 0 0
359 0 0 0
360 0 0 0
