LAMMPS data file via write_data, version 11 Feb 2026, timestep = 373, units = metal

362 atoms
8 atom types

0 12.447907776 xlo xhi
0 12.9362452296 ylo yhi
0 52.3600831054 zlo zhi

Masses

1 26.9815
2 10.811
3 12.011
4 51.9961
5 55.845
6 95.95999999999999
7 58.6934
8 1.008

Atoms # atomic/kk

1 7 1.3660709855729503 0.41065037117145786 14.774379154830333 0 0 0
2 7 3.8948242103763167 0.576393052313723 14.826797296887362 0 0 0
6 4 0.3131201265946413 2.6474374676846324 14.920687873756966 0 0 0
7 7 2.665359234144372 2.6933328164846637 14.797838920670607 0 0 0
31 4 0.13018928937718918 1.2402476180452324 16.819390123892415 0 0 0
32 7 2.6002487280552002 1.2686292104257397 16.868492212044934 0 0 0
36 7 1.4341509887004715 3.438716113828849 17.00317006799584 0 0 0
37 7 3.907730155418921 3.3666979912013595 16.892309539796507 0 0 0
3 7 6.442686977898431 0.5480052116603763 14.781548625101918 0 0 0
8 1 5.175389231007452 2.6826760757423127 14.67279775164187 0 0 0
9 7 7.684375611082686 2.7224509150404597 14.782393226531603 0 0 0
33 7 5.135785864547425 1.2876296010336858 16.86075020011828 0 0 0
34 6 7.7052068512778895 1.3303282164006711 16.923609640043605 0 0 0
38 7 6.3942383998226395 3.435942932423192 16.841417261000203 0 0 0
4 4 8.95660565350679 0.3800253219261443 15.001532202268738 0 0 0
5 7 11.340919687569988 0.4553420961436549 14.853400543102925 0 0 0
10 6 10.119117445468653 2.7133662366147253 14.91051957395429 0 0 0
35 7 10.178295518690708 1.233473666239137 17.003843892678884 0 0 0
39 7 8.909474581393527 3.5223280206598755 16.930024161441644 0 0 0
40 6 11.421320257817188 3.4754862674065468 17.088676816551413 0 0 0
11 7 1.4182049347472636 4.9571659264650165 15.032008790085714 0 0 0
12 7 3.8488825492985397 4.774193674949906 14.875590713839763 0 0 0
16 6 0.2158196502301761 7.267436025416745 15.202414348624433 0 0 0
17 5 2.8624573342684716 7.009354957476864 15.279091860698664 0 0 0
41 7 0.2307414093530117 5.626747350979613 17.0823045797786 0 0 0
42 7 2.6999406186635144 5.520499549702573 17.146151845863006 0 0 0
46 4 1.4267465095877045 7.6701988254640945 17.360912118078108 0 0 0
47 4 3.912084397592001 7.677215679997556 17.181998695156913 0 0 0
13 7 6.436336445006558 4.811908272547455 14.784732422098125 0 0 0
18 2 5.33740763529594 7.518156808169845 15.447611539650486 0 0 0
19 7 7.313785210671041 7.065522002229856 14.991288813640686 0 0 0
43 6 5.195151487211763 5.6387963489453465 16.734400045080186 0 0 0
44 7 7.7113347948534985 5.633756884569475 17.000050007011634 0 0 0
48 7 6.467787312511456 7.780608980491903 17.14718904185906 0 0 0
14 7 8.928079451967799 4.9504658395866725 14.933182611841461 0 0 0
15 7 11.438073816516237 4.928186371021508 14.939969278626197 0 0 0
20 7 10.171653650557325 7.174463907721213 15.069552715845132 0 0 0
45 7 10.170152860438263 5.6584761077641375 17.037178734759333 0 0 0
49 7 8.88295669120156 7.713702259237637 17.152066970052452 0 0 0
50 7 11.315426494824873 7.744828903608913 17.19338798551659 0 0 0
21 7 1.6312551393454482 9.145640175114423 14.894138105109628 0 0 0
22 7 4.085604623925746 9.054506388224352 14.968352096964633 0 0 0
26 6 0.17725167178990087 11.145853738863744 14.901436729545427 0 0 0
27 7 2.7144032768853137 11.294051092283894 14.825145527558924 0 0 0
51 7 0.12721678947942047 9.683885044818316 16.840645436652963 0 0 0
52 7 2.6745290893721214 9.749830788452101 16.98953144501166 0 0 0
56 4 1.3451392316816593 11.828794431633744 16.95299769757409 0 0 0
57 6 3.85664442730207 12.013593341462741 16.92589918722981 0 0 0
23 4 6.465784048065445 9.302646386676521 15.156812279774117 0 0 0
28 7 5.219638030853054 11.288924702731686 14.831506153652056 0 0 0
29 7 7.757401942723572 11.284775357768506 14.866824486185715 0 0 0
53 7 5.139848385673965 9.843068879964344 17.035766291933616 0 0 0
54 7 7.721152773993908 9.883921083939457 17.08587124745428 0 0 0
58 6 6.462086814876397 12.000987658023202 16.895395221162772 0 0 0
24 7 8.859183937175079 9.105467215924705 15.056794348875949 0 0 0
25 2 11.026683478340841 9.063300205703907 15.456117365131398 0 0 0
30 7 10.208234982513039 11.068893588613133 15.000887028049252 0 0 0
55 7 10.11937861999491 9.80116196692547 17.125019192501565 0 0 0
59 7 8.953047025070815 11.97733503685002 17.05128931698348 0 0 0
60 7 11.391290637099123 11.9993806469167 16.994720620648476 0 0 0
61 3 1.3444257725994477 0.4500551281043951 18.06931971863017 0 0 0
62 7 2.6182141395742957 12.711528473475505 19.194179018348144 0 -1 0
66 7 1.2609001125945467 1.945324122141903 19.135069116733195 0 0 0
67 1 3.8558586019571353 1.8880381583270718 18.997482874093222 0 0 0
91 4 1.2484044282668354 0.26406514406660536 21.51497012379233 0 0 0
92 7 3.820293270256686 0.5283916033153074 21.14475425289065 0 0 0
96 7 0.10225333416742544 2.843192459824939 21.205120127625754 0 0 0
97 7 2.519813382473205 2.5842065043527587 21.098239380305927 0 0 0
63 7 5.160839326493503 12.755143574420167 19.028756163840832 0 -1 0
64 4 7.729787245533332 12.753082109454061 19.18847008750054 0 -1 0
68 7 6.339175339744477 1.9353883783083965 18.95951964721883 0 0 0
93 7 6.367092973901565 0.568617442684927 21.07668029399959 0 0 0
98 7 5.025276939080344 2.6828326776726574 21.031355766110348 0 0 0
99 7 7.503846523917774 2.743216105899708 21.083986536401216 0 0 0
65 7 10.121370194087689 12.762345195260483 19.104384404970467 0 -1 0
69 7 8.876311925012946 1.9813982207980927 19.064678864639596 0 0 0
70 7 11.310433765889895 1.9720591503546767 19.135729438737457 0 0 0
94 5 8.860633381216624 0.6752369208179784 21.125693353620115 0 0 0
95 4 11.33179047758812 0.7555954437925652 21.207045319481942 0 0 0
100 7 10.058487573391902 2.8608247983518003 21.103232156552387 0 0 0
71 7 0.2101821290302682 4.202403376015355 19.234596605521386 0 0 0
72 7 2.659481254235251 4.0221113272569236 19.08686673975446 0 0 0
76 5 1.5316288696453817 6.232196559032188 19.174228965461978 0 0 0
77 4 3.948683790321302 6.186864105963663 19.345056923564346 0 0 0
101 7 1.886888473989253 4.892626017916092 21.195340496412115 0 0 0
102 2 3.8196838054207434 4.3173253627305535 20.762334837053572 0 0 0
106 7 11.345481040496296 7.824125809722589 21.948869187766896 -1 0 0
107 7 2.618679799495135 7.1905052289333184 21.200427973745672 0 0 0
73 4 5.074766628530973 4.200774738499977 18.920349027081546 0 0 0
74 6 7.5488498643368915 4.11115282314889 18.992168182096666 0 0 0
78 4 6.49158333929402 6.328256137702022 19.20693204163156 0 0 0
103 7 5.924258349850705 4.928999332725124 21.12807444444155 0 0 0
108 7 5.150251036453783 7.185502486534405 21.303644284572858 0 0 0
109 4 7.658888483974763 7.067000594654703 21.28980762937033 0 0 0
75 7 10.103342772325663 4.215368051097567 19.05742663117076 0 0 0
79 4 9.054203705052927 6.398258206294939 19.173203187406795 0 0 0
80 7 11.576803459958153 6.347208322075409 19.059891830739662 0 0 0
104 7 8.55645040325068 4.907128857301687 21.0888927870816 0 0 0
105 7 11.067010470593944 5.253958400636799 21.0664685554425 0 0 0
110 3 9.770361872720668 6.943516685648226 21.020682369008462 0 0 0
81 7 0.4486807132416896 8.340897899483698 20.06274194600256 0 0 0
82 7 2.732065911835971 8.451671968318403 19.211500404066975 0 0 0
86 7 1.4620884194559778 10.466597873138022 19.162774102178624 0 0 0
87 7 3.9025294050446457 10.64200235146396 19.058684791800538 0 0 0
111 2 1.9744320385318002 9.138052020174554 21.134573519761616 0 0 0
112 7 3.950934500395109 9.286509163047802 21.25976327438666 0 0 0
116 7 0.09988683127034544 12.638256564514363 19.32716443901838 0 0 0
117 4 2.5482947969329857 11.309568577401965 21.169732504788158 0 0 0
83 6 5.252580504269884 8.495848602212696 19.252762354621606 0 0 0
84 7 7.77170759415974 8.513761389951288 19.21862714465475 0 0 0
88 7 6.465633294149787 10.681896986470445 19.110689724035947 0 0 0
113 7 6.494800048221015 9.303724519373025 21.30551408501672 0 0 0
118 7 5.1094223849888944 11.390807040633423 21.120655594597416 0 0 0
119 7 7.78072731673308 11.365928306427858 21.181550663966192 0 0 0
85 4 10.328414115644906 8.33661520609196 19.484831629592918 0 0 0
89 7 8.982214474246081 10.582053615013091 19.186706606558563 0 0 0
90 7 11.514248582663084 10.431030890266593 18.9667268464197 0 0 0
114 6 9.06575016920923 9.04617870861239 21.511075344751976 0 0 0
115 3 11.398593221810128 9.424685737519914 20.71033414645812 0 0 0
120 6 10.540891300074303 11.332998839283059 21.102345068413374 0 0 0
121 7 0.159568594890882 1.5467603493328628 23.30866592068954 0 0 0
122 7 2.5716303231169717 1.380591642871793 23.230836734936183 0 0 0
126 7 1.261157968060127 3.6624560364091305 23.20243760262631 0 0 0
127 6 3.720460577094873 3.6164221609553384 23.038075578065833 0 0 0
151 7 0.03650867755614517 0.17033309882164588 25.413685479120485 0 0 0
152 7 2.4550344268097772 0.05297578009010321 25.197574665670924 0 0 0
156 7 1.3308068850188859 2.2840019182060516 25.339010141300246 0 0 0
157 7 3.774048288121002 2.2343017959331943 25.28242793646971 0 0 0
123 7 5.04345589474434 1.3495362296116453 23.243852978586727 0 0 0
124 7 7.574076482067237 1.371878134165719 23.180587387971258 0 0 0
128 7 6.205743617198426 3.552937452317684 23.134146646255157 0 0 0
153 1 4.912609180463641 0.010990437360748118 25.34256682189184 0 0 0
154 7 7.47628946725995 0.04647688337639804 25.317004201431253 0 0 0
158 4 6.22031829298882 2.2304674300948077 25.280800323702167 0 0 0
159 3 7.591018937358009 2.9644353520602653 24.237802935762396 0 0 0
125 6 10.184695502240658 1.5078528319624451 23.24583001436029 0 0 0
129 7 8.827831275261737 3.6699007228741483 23.118850460531736 0 0 0
130 7 11.252867219102747 3.836771813399335 23.136663041171097 0 0 0
160 7 11.320122532789105 2.3468356317763295 25.312165219606676 0 0 0
165 7 8.834138111225679 2.1808615615351514 25.34687379963216 0 0 0
131 7 0.11723814514306563 5.873394725616902 22.97775150717388 0 0 0
132 7 2.591565610776238 5.839910038013735 23.26282591054822 0 0 0
136 7 1.2936764023386524 7.96909399642629 22.97118515092192 0 0 0
137 7 3.819325861386108 7.921572000019537 23.323228380457977 0 0 0
161 7 0.07936338665911907 4.479082913319062 25.176093085640275 0 0 0
162 7 2.547086651519621 4.404193867177321 25.244052295733898 0 0 0
166 7 1.276546966317318 6.610418934973046 25.111565469110026 0 0 0
167 7 3.7337741706869747 6.573635523636161 25.385662031754705 0 0 0
133 1 5.032971509498674 5.877236625149735 23.35673499266055 0 0 0
134 7 7.407329174461517 5.68531662488553 23.239823256727604 0 0 0
138 7 6.410554429819295 7.900829793634536 23.312403653107182 0 0 0
163 7 4.9855031167447805 4.350825571291432 25.24970377920771 0 0 0
164 7 7.528576269527043 4.4185185327120235 25.40000236476412 0 0 0
168 7 6.22300038650299 6.543321478606609 25.40939037411616 0 0 0
173 7 4.980873268357201 8.688529101438156 25.35954692306305 0 0 0
135 7 10.011608288545204 4.4723629418232305 25.167711656528997 0 0 0
140 6 9.849893397886667 6.099539149335212 23.018220804097048 0 0 0
169 7 8.690390869953315 6.5020090074227515 25.19241485919372 0 0 0
170 7 11.265072464247325 6.619940936529974 24.9761713640706 0 0 0
175 7 10.191274864207843 8.743424413850583 25.482305404768027 0 0 0
142 7 2.5980485830688016 10.010184174660088 23.197061756455337 0 0 0
146 2 1.6348508482672863 11.918319805016074 23.180107903067928 0 0 0
147 7 3.7504069995604645 12.142642747822718 23.202124213525032 0 0 0
171 7 0.013342295298435378 8.858956862423893 24.761734830010596 0 0 0
172 7 2.434160395410012 8.70226808072731 25.254751936504356 0 0 0
176 7 1.1728443732495315 10.989229528631352 24.872891049897103 0 0 0
177 7 3.7126661002901193 10.800735606517986 25.303895123458677 0 0 0
139 7 7.422068762388331 8.721484604137707 25.381425256718128 0 0 0
143 7 5.127896857926165 10.01758271482179 23.29610725926124 0 0 0
144 7 7.700009945763559 9.979810158518326 23.39432328877043 0 0 0
148 6 6.390539285015402 12.106423623435745 23.145334812827656 0 0 0
178 7 6.235926133083663 10.857338136099653 25.358160028893774 0 0 0
141 6 0.2426423628559367 10.088656720808093 22.24258182873339 0 0 0
145 7 10.444332154652733 9.962040754090813 23.462141896761636 0 0 0
149 6 9.101627157246691 12.08259632559875 23.254470175716932 0 0 0
150 7 11.834268185595821 12.208884475108624 23.255365271061585 0 0 0
155 7 10.058909046427724 0.06715799595575825 25.376787363549028 0 0 0
179 7 8.816784287673766 10.851941363256001 25.43912507310488 0 0 0
180 7 11.283812207560791 10.90060375697541 25.537515146935835 0 0 0
181 4 1.3016122203770149 0.9020264207176223 27.304618228448597 0 0 0
182 7 3.706050450375671 0.8954482224955768 27.400896801799124 0 0 0
187 7 2.5029950816994 3.041585160814444 27.40145186819668 0 0 0
211 6 12.431491141756872 1.7694158420377943 29.44443809108191 -1 0 0
212 4 2.5323857853178655 1.7170512328615597 29.475227751899613 0 0 0
216 7 1.2134284463141085 3.9294251458059013 29.38729302947576 0 0 0
217 7 3.7274400233800127 3.8632252498963995 29.45733036030308 0 0 0
183 7 6.20255432090367 0.8622668934327944 27.327427531393113 0 0 0
188 7 4.985914337154848 3.0274062674208384 27.367871990285586 0 0 0
189 7 7.490387506286967 2.9237570759624765 27.345401740355495 0 0 0
213 7 4.989070685389095 1.7144987454911356 29.42635219813812 0 0 0
214 7 7.473200054587305 1.5912616292602046 29.361657811947044 0 0 0
218 7 6.519945903600796 3.845165582838004 29.445900288502035 0 0 0
184 7 8.750827382032291 0.7574567337621557 27.36396972961462 0 0 0
185 7 11.262751723432359 0.8896427990080329 27.374926378772827 0 0 0
186 7 0.05349501370157085 3.0986095798861575 27.349864417816892 0 0 0
190 7 9.990541109795577 2.9775367617385755 27.304550670863733 0 0 0
215 7 9.921218336892721 1.6223359868648322 29.35723834307119 0 0 0
219 2 8.72650556869113 3.2618717261323553 28.991991412385094 0 0 0
220 7 10.87999556221678 3.9353476310168842 29.35169451724266 0 0 0
191 7 1.2728880190726495 5.236703673054912 27.257245182498746 0 0 0
192 7 3.786802214645289 5.205926234548854 27.35714692052503 0 0 0
196 7 0.04106697382241404 7.372412011666898 27.00913629359886 0 0 0
197 7 2.4823815149034787 7.388864522637265 27.353288253258242 0 0 0
222 7 2.419914316296574 6.027758706327122 29.38127680212857 0 0 0
226 7 1.0519562872017667 8.232215040783982 29.309750406732356 0 0 0
227 7 3.650197110750962 8.16384074518029 29.437563663479505 0 0 0
193 1 6.2897143013317285 5.07303527870753 27.349474490073344 0 0 0
198 5 5.002879765960694 7.3716330066579765 27.413252909678718 0 0 0
199 5 7.394487398663438 7.29653172790236 27.520573508877987 0 0 0
223 6 5.019163120336292 5.998805720023432 29.489461289537836 0 0 0
224 7 7.568223351385046 6.083277584815081 29.542156393052814 0 0 0
228 7 6.19840294205113 8.202653847047689 29.491316440931396 0 0 0
174 3 8.77953911651043 7.904097927094629 26.337656926891853 0 0 0
194 7 8.784186345775755 4.952804371127089 27.829228425127322 0 0 0
195 5 11.263858788507179 5.113010761969827 27.118795387675316 0 0 0
200 5 10.09621555752451 6.975941687289616 27.350882493494737 0 0 0
221 6 12.20909614938398 6.114655525467901 29.183241821620005 -1 0 0
229 7 9.674220647701269 7.803622301294049 29.456096047116826 0 0 0
230 2 11.422795889365222 8.652847466950808 29.84909371555438 0 0 0
201 7 1.2029189825510542 9.585177826930208 27.161297427889192 0 0 0
202 7 3.6861940327936336 9.498486574137623 27.37319579068326 0 0 0
206 7 0.033131757653389056 11.702426802667985 27.432899955708475 0 0 0
207 7 2.47934438741137 11.701823293561871 27.317957124470748 0 0 0
231 7 0.029820210924645197 10.40575784074299 29.5172627004917 0 0 0
232 5 2.468676364303284 10.31819622490632 29.36172621490142 0 0 0
236 7 1.28213086584992 12.52340921835623 29.42474403168129 0 0 0
237 7 3.727149196719582 12.459083723579951 29.428004586140418 0 0 0
203 7 6.171021976835646 9.514098251530225 27.473298125855358 0 0 0
208 7 4.94689345536658 11.631535187867138 27.42487495612797 0 0 0
209 7 7.455959431852196 11.652005711749002 27.413745542424074 0 0 0
233 4 4.881630874514225 10.290890772988806 29.43774117837342 0 0 0
234 7 7.432592347307888 10.327630448452302 29.505308936314457 0 0 0
238 4 6.171050442734925 12.455262797309388 29.408885756049386 0 0 0
204 6 8.741968465184978 9.480900322860647 27.611529188546704 0 0 0
205 7 11.271089805105278 9.253309192631333 27.787042239315213 0 0 0
210 4 10.032616951355978 11.635602316004833 27.486554846762008 0 0 0
235 7 10.015265097248632 10.295809905527255 29.60539684112495 0 0 0
239 7 8.703905069451379 12.377492568029336 29.44376538298296 0 0 0
240 7 11.214556710192243 12.457060381336646 29.46869398509329 0 0 0
241 7 0.019670226830226577 0.32137757193516403 31.50610473627793 0 0 0
242 7 2.4970046033905575 0.331587605383839 31.474916866856177 0 0 0
246 7 1.258104350411064 2.5222298671651475 31.486532172219043 0 0 0
247 7 3.681357693413621 2.4907193492246864 31.541678219117244 0 0 0
271 7 1.2529446608367005 1.0540708079417076 33.49431556211235 0 0 0
276 7 12.39276823303551 3.311539234560509 33.51135543764332 -1 0 0
243 7 4.9277049626051435 0.33291931745578657 31.476057148036315 0 0 0
244 7 7.480554763212942 0.3305462083094487 31.458168812676433 0 0 0
248 7 6.156890583687789 2.481932373788985 31.487698265770565 0 0 0
273 6 6.246961692111938 1.0799666512045303 33.537088225163615 0 0 0
279 7 7.458197932325345 3.2332513270549885 33.593039517606016 0 0 0
245 7 9.940112868305262 0.33953964167711087 31.448376312144642 0 0 0
249 6 8.669911377841826 2.6128216693140636 31.325960062920714 0 0 0
250 7 11.1834617159665 2.509253007942005 31.476093046150318 0 0 0
274 7 8.735374054214716 1.085774075855787 33.523550316430175 0 0 0
275 7 11.183888844345846 1.077108062215943 33.48481536071143 0 0 0
252 7 2.445765982622574 4.6294686819138215 31.49779504159767 0 0 0
256 7 1.239226477880022 6.799006094748364 31.420394746190787 0 0 0
257 7 3.6640628737542955 6.764290640927761 31.51156707314015 0 0 0
253 7 4.9332399012854795 4.602629044177605 31.555136339722893 0 0 0
254 7 7.394231917604095 4.668300273319361 31.611631380824765 0 0 0
258 7 6.154920155258182 6.792360042191258 31.55740329501436 0 0 0
225 6 8.737532283031188 6.70206074728536 31.519327230389333 0 0 0
251 7 12.403594908087362 4.700181992587199 31.355857763791985 -1 0 0
255 7 9.993964983722707 4.666720116194929 31.532133189514962 0 0 0
259 3 8.69802908216643 8.320461278479028 32.67795873417976 0 0 0
260 7 11.223999829904566 6.892194972600644 31.270552396139365 0 0 0
285 4 11.1236309356173 5.394998110940331 33.471535810600244 0 0 0
286 6 12.383033256040788 7.563839086743918 33.48893699294087 -1 0 0
262 7 2.459865778388485 8.929853883894468 31.502691228920146 0 0 0
266 7 1.2650418151173393 11.123295817818077 31.520151877321688 0 0 0
267 7 3.6759337586067637 11.078282353358777 31.474565237603134 0 0 0
291 7 1.2430479980509619 9.715611085650835 33.603667759072835 0 0 0
292 7 3.6801428431287806 9.635689001026625 33.57064081265962 0 0 0
297 7 2.3901093205182877 11.858993874577214 33.59366779595062 0 0 0
263 7 4.921176492798941 8.926862696281963 31.503287188168805 0 0 0
264 7 7.417916319963428 8.921564998469409 31.48085719982383 0 0 0
268 6 6.218111261349966 11.097980577960048 31.56705125128532 0 0 0
293 7 6.165623075499525 9.64198913432752 33.63821578248541 0 0 0
298 6 4.845590791474876 11.817029257293902 33.66297663402268 0 0 0
299 7 7.489611676432515 11.845680094511708 33.660909560572 0 0 0
261 7 0.06465511769715512 9.027263922458319 31.497260266327274 0 0 0
265 7 10.073989904821898 9.023988730697495 31.63450800142286 0 0 0
269 7 8.739389895239102 11.120199329282094 31.582018615694498 0 0 0
270 7 11.265159224227531 11.194203788262765 31.63557067135348 0 0 0
300 7 9.98023661598274 11.918209628587006 33.625280416675885 0 0 0
272 7 3.6847481038151684 1.1228048946877152 33.65543126031259 0 0 0
277 7 2.4170051951653484 3.2368299069105144 33.65506269902148 0 0 0
301 6 12.441946108021943 1.9542679433988355 35.60638358374148 -1 0 0
302 7 2.4991392899991767 1.8410295518857562 35.82909142198826 0 0 0
306 4 1.2649395375476118 4.070332739599912 35.67511513052234 0 0 0
307 7 3.6730606289737686 4.001511920050182 35.63579463440702 0 0 0
278 7 4.946026915898577 3.240592636813778 33.656521269680546 0 0 0
303 6 5.014805924081598 1.8514732691833735 35.81402762753715 0 0 0
304 7 7.465300849996947 1.811353801404473 35.73971816598436 0 0 0
308 7 6.264806380529528 3.9887077107710396 35.68041777650606 0 0 0
280 7 9.903943053126014 3.24669664359781 33.5712372721257 0 0 0
305 7 9.897949708955075 1.8365782509662825 35.66108019620419 0 0 0
309 7 8.670079249272433 3.9598123706520627 35.72949126851465 0 0 0
310 7 11.120805854787838 4.060194773140521 35.59881030029117 0 0 0
281 7 1.2047663899033325 5.39196431801891 33.570151568623146 0 0 0
282 7 3.655299783945592 5.38684623290999 33.56530876509383 0 0 0
287 4 2.4786323384692683 7.515661939394403 33.590677565642835 0 0 0
311 7 12.429837083693142 6.099409082876985 35.649513541271716 -1 0 0
312 7 2.459517386207352 6.1535758078858525 35.65838925897661 0 0 0
316 7 1.1988410414365198 8.246050365708575 35.6275810979818 0 0 0
317 7 3.715163889940109 8.222660255556363 35.6579606988849 0 0 0
283 7 6.20821567529266 5.367026438487415 33.644401353290625 0 0 0
288 7 4.909610617837565 7.505446812089425 33.57979706448677 0 0 0
289 7 7.414386068411426 7.48959721363978 33.74859498084467 0 0 0
313 7 4.951073406005862 6.101525456807758 35.63759344252294 0 0 0
314 7 7.509988871074943 6.122767171795495 35.743431199948525 0 0 0
318 7 6.1929427782901545 8.28700343068481 35.752777592932965 0 0 0
284 4 8.705348456301168 5.318423926918711 33.68610444327306 0 0 0
290 5 9.9343452012115 7.464572209774896 33.80117721442648 0 0 0
315 1 9.938826827993356 6.112693833303159 35.87719272181159 0 0 0
319 5 8.67152179985455 8.248546363170618 35.83262443050767 0 0 0
320 7 11.198314931883205 8.20642387609127 35.74587730896071 0 0 0
296 3 12.393680587134142 0.16912398379401336 34.48578156812101 -1 1 0
321 7 0.02075682228599423 10.363315487892267 35.80539595232637 0 0 0
322 7 2.5144261981712512 10.332769406328103 35.64512922484107 0 0 0
326 6 1.2870328639419442 12.464119598999558 35.85735034417815 0 0 0
327 7 3.7563634539029813 12.60545231885922 35.76804460350028 0 0 0
323 7 4.9356829039562 10.391415133488488 35.7761343108431 0 0 0
324 1 7.362530246116775 10.435282395521671 35.76352057871435 0 0 0
328 7 6.223646568699686 12.580442646826418 35.720119772534225 0 0 0
294 7 8.696941987270682 9.782293971529995 33.71365220395499 0 0 0
295 7 11.265163037442015 9.789976340696857 33.66209016168822 0 0 0
325 6 10.012833542368968 10.411780807029473 35.7312968039849 0 0 0
329 7 8.68635675985167 12.591867878997837 35.704467286235754 0 0 0
330 7 11.161904641808517 12.586657852999261 35.81506723227258 0 0 0
331 7 12.404447539926199 0.45230533825165586 37.90569418863369 -1 0 0
332 7 2.427234751322844 0.43068654735669465 37.91161164407776 0 0 0
336 7 1.2474345515422194 2.6310823106008905 37.78059347385603 0 0 0
337 5 3.727717352663756 2.5894922652645955 37.86981029568207 0 0 0
333 7 4.936618353293286 0.36074096254598864 37.89481768563757 0 0 0
334 4 7.43082196807409 0.3799030408800838 37.6673988986291 0 0 0
338 7 6.187592605012434 2.5741735005870625 37.92976741678986 0 0 0
335 5 9.829546220828261 0.38227474118157717 37.739460020912354 0 0 0
339 7 8.614689314811825 2.453654166827652 37.876282025072626 0 0 0
340 6 11.119198711134299 2.582201106191324 37.702306753328024 0 0 0
361 8 11.264517487536322 3.0932078167774306 41.32562021505234 0 0 0
362 8 11.24533758764103 2.3310113497626417 41.28150712354403 0 0 0
341 7 12.418264127890907 4.664810414774121 37.66868434276572 -1 0 0
342 7 2.51820230075736 4.683857472428138 37.70586021350251 0 0 0
346 7 1.25124642135782 6.847100049639266 37.70175846927835 0 0 0
347 7 3.720551306351154 6.779172365205696 37.78204892081548 0 0 0
343 4 4.935334665229705 4.544920914433258 37.5524364832036 0 0 0
344 7 7.410938067272408 4.645527718621711 37.77183109660218 0 0 0
348 6 6.2051146597017555 6.848037878804153 37.71398265390201 0 0 0
345 7 9.899231805550261 4.695630213312949 37.846608261709775 0 0 0
349 7 8.662982175000169 6.868870707588209 37.9158194691513 0 0 0
350 7 11.27309129705429 6.821680085088641 37.8234514638654 0 0 0
351 7 0.04432258686224777 8.938932845431474 37.82981924208561 0 0 0
352 4 2.487771134830838 8.889745488810993 37.57144860162103 0 0 0
356 7 1.2027063738337147 10.996859761446132 37.907696733692944 0 0 0
357 6 3.6532992138053246 11.170239486352424 37.76409230700394 0 0 0
353 7 4.860201982624942 8.976604838394772 37.91865906640406 0 0 0
354 7 7.412313699469247 9.064743884771728 37.913447360701554 0 0 0
358 7 6.190792817849265 11.191354630766668 37.872666725295744 0 0 0
355 6 9.969191745518588 9.019776018922474 37.80572424320818 0 0 0
359 5 8.644331693140046 11.237914729336872 37.86987266762677 0 0 0
360 7 11.162493828110403 11.235457120624728 37.930016920302435 0 0 0

Velocities

1 0 0 0
2 0 0 0
6 0 0 0
7 0 0 0
31 0 0 0
32 0 0 0
36 0 0 0
37 0 0 0
3 0 0 0
8 0 0 0
9 0 0 0
33 0 0 0
34 0 0 0
38 0 0 0
4 0 0 0
5 0 0 0
10 0 0 0
35 0 0 0
39 0 0 0
40 0 0 0
11 0 0 0
12 0 0 0
16 0 0 0
17 0 0 0
41 0 0 0
42 0 0 0
46 0 0 0
47 0 0 0
13 0 0 0
18 0 0 0
19 0 0 0
43 0 0 0
44 0 0 0
48 0 0 0
14 0 0 0
15 0 0 0
20 0 0 0
45 0 0 0
49 0 0 0
50 0 0 0
21 0 0 0
22 0 0 0
26 0 0 0
27 0 0 0
51 0 0 0
52 0 0 0
56 0 0 0
57 0 0 0
23 0 0 0
28 0 0 0
29 0 0 0
53 0 0 0
54 0 0 0
58 0 0 0
24 0 0 0
25 0 0 0
30 0 0 0
55 0 0 0
59 0 0 0
60 0 0 0
61 0 0 0
62 0 0 0
66 0 0 0
67 0 0 0
91 0 0 0
92 0 0 0
96 0 0 0
97 0 0 0
63 0 0 0
64 0 0 0
68 0 0 0
93 0 0 0
98 0 0 0
99 0 0 0
65 0 0 0
69 0 0 0
70 0 0 0
94 0 0 0
95 0 0 0
100 0 0 0
71 0 0 0
72 0 0 0
76 0 0 0
77 0 0 0
101 0 0 0
102 0 0 0
106 0 0 0
107 0 0 0
73 0 0 0
74 0 0 0
78 0 0 0
103 0 0 0
108 0 0 0
109 0 0 0
75 0 0 0
79 0 0 0
80 0 0 0
104 0 0 0
105 0 0 0
110 0 0 0
81 0 0 0
82 0 0 0
86 0 0 0
87 0 0 0
111 0 0 0
112 0 0 0
116 0 0 0
117 0 0 0
83 0 0 0
84 0 0 0
88 0 0 0
113 0 0 0
118 0 0 0
119 0 0 0
85 0 0 0
89 0 0 0
90 0 0 0
114 0 0 0
115 0 0 0
120 0 0 0
121 0 0 0
122 0 0 0
126 0 0 0
127 0 0 0
151 0 0 0
152 0 0 0
156 0 0 0
157 0 0 0
123 0 0 0
124 0 0 0
128 0 0 0
153 0 0 0
154 0 0 0
158 0 0 0
159 0 0 0
125 0 0 0
129 0 0 0
130 0 0 0
160 0 0 0
165 0 0 0
131 0 0 0
132 0 0 0
136 0 0 0
137 0 0 0
161 0 0 0
162 0 0 0
166 0 0 0
167 0 0 0
133 0 0 0
134 0 0 0
138 0 0 0
163 0 0 0
164 0 0 0
168 0 0 0
173 0 0 0
135 0 0 0
140 0 0 0
169 0 0 0
170 0 0 0
175 0 0 0
142 0 0 0
146 0 0 0
147 0 0 0
171 0 0 0
172 0 0 0
176 0 0 0
177 0 0 0
139 0 0 0
143 0 0 0
144 0 0 0
148 0 0 0
178 0 0 0
141 0 0 0
145 0 0 0
149 0 0 0
150 0 0 0
155 0 0 0
179 0 0 0
180 0 0 0
181 0 0 0
182 0 0 0
187 0 0 0
211 0 0 0
212 0 0 0
216 0 0 0
217 0 0 0
183 0 0 0
188 0 0 0
189 0 0 0
213 0 0 0
214 0 0 0
218 0 0 0
184 0 0 0
185 0 0 0
186 0 0 0
190 0 0 0
215 0 0 0
219 0 0 0
220 0 0 0
191 0 0 0
192 0 0 0
196 0 0 0
197 0 0 0
222 0 0 0
226 0 0 0
227 0 0 0
193 0 0 0
198 0 0 0
199 0 0 0
223 0 0 0
224 0 0 0
228 0 0 0
174 0 0 0
194 0 0 0
195 0 0 0
200 0 0 0
221 0 0 0
229 0 0 0
230 0 0 0
201 0 0 0
202 0 0 0
206 0 0 0
207 0 0 0
231 0 0 0
232 0 0 0
236 0 0 0
237 0 0 0
203 0 0 0
208 0 0 0
209 0 0 0
233 0 0 0
234 0 0 0
238 0 0 0
204 0 0 0
205 0 0 0
210 0 0 0
235 0 0 0
239 0 0 0
240 0 0 0
241 0 0 0
242 0 0 0
246 0 0 0
247 0 0 0
271 0 0 0
276 0 0 0
243 0 0 0
244 0 0 0
248 0 0 0
273 0 0 0
279 0 0 0
245 0 0 0
249 0 0 0
250 0 0 0
274 0 0 0
275 0 0 0
252 0 0 0
256 0 0 0
257 0 0 0
253 0 0 0
254 0 0 0
258 0 0 0
225 0 0 0
251 0 0 0
255 0 0 0
259 0 0 0
260 0 0 0
285 0 0 0
286 0 0 0
262 0 0 0
266 0 0 0
267 0 0 0
291 0 0 0
292 0 0 0
297 0 0 0
263 0 0 0
264 0 0 0
268 0 0 0
293 0 0 0
298 0 0 0
299 0 0 0
261 0 0 0
265 0 0 0
269 0 0 0
270 0 0 0
300 0 0 0
272 0 0 0
277 0 0 0
301 0 0 0
302 0 0 0
306 0 0 0
307 0 0 0
278 0 0 0
303 0 0 0
304 0 0 0
308 0 0 0
280 0 0 0
305 0 0 0
309 0 0 0
310 0 0 0
281 0 0 0
282 0 0 0
287 0 0 0
311 0 0 0
312 0 0 0
316 0 0 0
317 0 0 0
283 0 0 0
288 0 0 0
289 0 0 0
313 0 0 0
314 0 0 0
318 0 0 0
284 0 0 0
290 0 0 0
315 0 0 0
319 0 0 0
320 0 0 0
296 0 0 0
321 0 0 0
322 0 0 0
326 0 0 0
327 0 0 0
323 0 0 0
324 0 0 0
328 0 0 0
294 0 0 0
295 0 0 0
325 0 0 0
329 0 0 0
330 0 0 0
331 0 0 0
332 0 0 0
336 0 0 0
337 0 0 0
333 0 0 0
334 0 0 0
338 0 0 0
335 0 0 0
339 0 0 0
340 0 0 0
361 0 0 0
362 0 0 0
341 0 0 0
342 0 0 0
346 0 0 0
347 0 0 0
343 0 0 0
344 0 0 0
348 0 0 0
345 0 0 0
349 0 0 0
350 0 0 0
351 0 0 0
352 0 0 0
356 0 0 0
357 0 0 0
353 0 0 0
354 0 0 0
358 0 0 0
355 0 0 0
359 0 0 0
360 0 0 0
