(written by ASE)

362 atoms
8 atom types

0.0      12.447907775999999  xlo xhi
0.0      12.936245229600001  ylo yhi
0.0      52.360083105400001  zlo zhi

Atoms # atomic

     1   4      1.3176679224928753   -0.024547053364879716      15.990854352451308
     2   7      3.4572782453712629     0.68527624972658774      14.975376914315333
     3   7      6.1209389729875028     0.63011686364882502      14.860057779205571
     4   7      8.5248147734830138     0.96037768287136493      14.828803290663314
     5   7      11.803885939366213      1.0289284297347994      15.006360165071909
     6   7      1.5655662362350025      2.2903842570835171      15.091297645499916
     7   3      2.8748171307756381       3.587957023408646      14.984152001456646
     8   6      4.8189682345134539      2.8329057006874061      14.916892053214648
     9   7      7.3108041566496924      2.9908116867879748      14.942102030465851
    10   7      9.8082484728716501      3.0167353118059825      15.012276022009431
    11   7      1.3988475226186436      4.8131180830419495      15.084960231740036
    12   7      3.7621572347244521      5.2112397978612801      14.897764595581181
    13   7      6.1499307322124865      5.0904889756663758      14.852488149811714
    14   4      8.6594324254962949      5.0980814886670229      14.735568735301072
    15   7      11.037361319568923      5.0675322141665182      14.337647802751958
    16   7    0.017685978562745858      6.8898255462948068      15.065409932176463
    17   7      2.4369797795433428      7.2088011494913493      15.107490472772392
    18   7      5.0905889471998984      7.2660359474870377      15.040211006265732
    19   7      7.6386671060852267      7.5482641353490836      14.923333444445175
    20   7      10.045091666035871      7.2661914022784684      14.903791513886443
    21   7     0.79228816094667931      9.2237743683233102      15.051944888596475
    22   7      3.6223834803232315       9.260124569992314      15.013648226284827
    23   6      6.0541115813121138      9.5403047246861625      15.169984475648549
    24   3       8.137102299266088       9.414135571066943      15.119237078725675
    25   3      11.503204174335973      8.4601553963792657      15.264671746972663
    26   7     -0.1975223550711564      11.415585758704202      14.655362527688418
    27   7      2.3611756007776141      11.250147339526167      14.773967574645315
    28   7      4.7773688468810009      11.569357610479546      14.956844262688705
    29   7       7.820551876586272      11.347848593720695      14.904383384301667
    30   7      10.093829788821186      12.262914064782876      14.929538724723894
    31   7    0.055153646467815162      1.6226841626365345      17.211889149310778
    32   7      2.5182608053066384      1.5023204714453151      17.177781035873203
    33   7      4.9565063286511872      1.3043334918505238      16.903810467376644
    34   7      7.4254082470202603      1.3007165612739182      16.912720379809187
    35   7      10.048289816071769      1.3631454118642137      16.857143566243671
    36   7      1.3582980556918809      3.6312703046254855      17.250699595982823
    37   7       3.712221373501881      3.6770910281838947      16.931097828272449
    38   4      6.1480260876445589      3.5010907801191675      16.987911818936464
    39   7      8.6317942103818091      3.4350618202691474      17.070733326307877
    40   7      11.922553411747977      3.4977690645818669      15.835684351766185
    41   5      0.1755334103176209      5.6839673776801787      17.115589851874027
    42   7      2.5474318476923576      5.7978702011687835      17.136356598652771
    43   4      4.9684028658479216      5.8331146456663436      16.992739692420571
    44   6      7.4989253077546048      5.7416195209931802      16.824868088739585
    45   6      10.290440803973391      5.3675044503402987        16.7643501938173
    46   7      1.2488801188275156       7.832797828167589      17.126943489044379
    47   7      3.7599518656389073      7.9247668169031558      17.059944246773657
    48   7      6.2693229509281121      7.9667012749402577      17.117192877762768
    49   7      8.8350510356058045      7.8660394746392104      17.034274065891896
    50   7       11.21475829577372      7.7661564490921915      17.059176692534592
    51   7    -0.18734570723477356      9.8946637829931987      17.132487220645469
    52   7      2.3491104872800763       10.06438775219411      16.986605199052928
    53   7      4.8292126322542259      10.119751030713656      17.155243804099275
    54   7      7.7410345932142253      10.021209402011069      17.021277929172641
    55   6      10.052860936171442      9.8815951469528791      15.624862136831361
    56   3     0.94867876128952111      10.967509535620703      16.068673573318115
    57   7       3.551073599062009      12.196416908780959      16.966154171024666
    58   7      6.2562231788745395      12.069965485069629      16.856696739732488
    59   7      8.8676296899363543      12.160573878545003       16.99224688007213
    60   6      11.488654427270175      12.203641761432749       17.00559725660359
    61   7   -0.015802010861977914   -0.030502411228055828      19.215300545564375
    62   7      2.4161212508720413   -0.077745597697371591      19.032839327014628
    63   7      4.9625511345188826   -0.095747830042992033      18.964267773845016
    64   7      7.4589235553526816    -0.14887182724459136      18.970597874313885
    65   4      9.9634517211965097    -0.13371854890336665      19.042294480429973
    66   7      1.3263172670743615      2.0758444320456264      19.333477283229911
    67   4      3.8276765199136364      2.1290109762924208      18.995729082017068
    68   4      6.2111598596253073      2.0750091355965199      18.931157745080785
    69   7      8.6021370148709391      1.9162109201271342      19.013039075567946
    70   7        11.1640162175679      2.0227393148351087      19.098454042682693
    71   6   -0.091236476874520522      4.2642447661581642      19.225032847720506
    72   6      2.5307369976729586       4.356508887032831      19.304457695887365
    73   7      4.9776107409915999      4.3682582094348907      18.987130355302305
    74   4      7.3133768324979993       4.257024501825919      19.080070924019886
    75   2      10.770278664123897      3.1965432153230129      17.430713722008392
    76   7      1.2108378733022873      6.4740671592271255      19.227510219083371
    77   7      3.7715253537376192      6.5230651791653393      19.167311068056666
    78   7      6.2537814035575812      6.4904922459587882      19.098495648464706
    79   1      8.7544730933363581       6.538635226424522        19.0911122263641
    80   7      11.154072579941872      6.4168974340988454      19.102309588864031
    81   7    -0.06564804341247675      8.5538363757928568      19.142164270803356
    82   7      2.5044774085281452      8.6215200062866728       19.09224565612983
    83   7      4.9871750062453204      8.6583073452731458      19.153085439579662
    84   7      7.4906957598874087      8.6422002697354561      19.137470758660218
    85   7      9.9754559065566628      8.6499282324837878      19.115980939379629
    86   7      1.1741486732955457      10.742810232027248       19.07757007948825
    87   7      3.6507205752065754      10.760561174002209       19.15749416952875
    88   7      6.2508189238360323      10.731801003091112      19.070820752769766
    89   7      8.7638523289640808       10.75493250248328      19.101139350294382
    90   7      11.209346799836801      10.766685320739434      19.155974752485978
    91   4      1.1907374966438751     0.66074026383328643      21.326004327389413
    92   6      3.6340664583872595     0.74973963016267164      21.010458050378599
    93   6      6.3631153867829431     0.68996665528986267       21.12935353170004
    94   7      8.8709345596391813     0.74298444160339461      21.179895054605552
    95   7      11.290013975425476      1.0330973843009443      21.288379311088327
    96   2     0.26653446031824929      2.7293106057666567      20.997309113141053
    97   7      2.3615323192265869      2.9298137475402721      21.492704746079927
    98   6      5.0630832928490319      2.9688027463145032      21.120060338776668
    99   7      7.7329036903710149      2.9404183019004213      21.118191502239679
   100   3      9.8235030074332705      2.2444524594804394      20.517234520183418
   101   4     0.93251955674824616      4.8669213172488526      21.505244474531075
   102   4      3.6737112005532828      5.1027926654162021      21.304629735671707
   103   7      6.2116864366794644      5.1201346388533544      21.149517798371569
   104   7      8.6645974927435532      5.1805835706489178       21.27495809314166
   105   6      9.7417131068308507      4.0743908798341133      19.343674675974174
   106   7    -0.12665186516030139      7.0912232795729961      21.227968580718706
   107   7      2.4117192173669721      7.0404088674570371        21.2871714998724
   108   7      4.9338602987519797      7.2041901781066109      21.246408037556108
   109   1      7.3660692182908383      7.3089680009575817      21.246870596146167
   110   7       9.907898847287802      7.2149978266632386      21.249628279346222
   111   6       1.204167491713301       9.242744099960623      21.143276122086132
   112   7      3.7172716029473882      9.2841471195316956       21.23278580365492
   113   7      6.2240246845580174      9.3958107018193875      21.184861684591372
   114   7       8.721705487662458       9.400412194700829      21.197549627383047
   115   7      11.137083596415662      9.3452637485451842      21.261399098523341
   116   4   -0.055926759598329302      11.531202538099832      21.207328651194693
   117   7      2.4193294259584834      11.433913960907205      21.191137310554939
   118   7      4.9797785136802304      11.475112231089874      21.132947977597624
   119   5       7.526115750148791      11.440861666039954      21.123872611476621
   120   7       10.02447907681038      11.561083585693975      21.186234722522403
   121   7     0.20912439303690358      2.2977647846988813      23.041917169996211
   122   7      2.5575857242238711      1.4020207013117281      23.330923055509388
   123   7      5.0182335108431753      1.4201743184373308      23.246037608605082
   124   7      7.5400455761331289      1.4619036898164985      23.253351998831189
   125   7      10.014734591553175      1.5920936771112097      23.286968106524849
   126   2      1.8540437782917831      3.4314200488469004      23.562979984350697
   127   7      3.8496361857135626      3.5937831495027899      23.361175445325699
   128   7      6.3082121636771724      3.6543004680507165      23.236617657384397
   129   7      8.6959553693609433      3.6755425397661474      23.334461241455635
   130   6      10.784111598452727      3.6394688728326035       21.85432137748132
   131   7    -0.21503126550919432      5.8216400967863962      23.278205035158514
   132   5      2.3554728733794992      5.5796691869219623      23.293501786366068
   133   1      4.9963819746101983      5.7706482677678652      23.334832966575902
   134   7      7.4446028407838023      5.8309902902722506       23.32010952171666
   135   5      9.9457848228199879      5.7610362715884182      23.214879780912778
   136   7      1.2183337514466999      7.8035677238026597      23.302202201769148
   137   7      3.6814636874787947      7.8074198800443515      23.281897226819662
   138   7      6.2471524043476183      7.9139067675791663      23.351841445336508
   139   4      8.7866350488757092      8.0669583458877785      23.275990043100194
   140   7      11.128554261503984      7.9197843903023211       23.40390526794441
   141   6  -0.0011507176795100657      10.072593817804444      23.388714843377613
   142   7      2.5010199006780143      9.9885592221096395      23.306767704155035
   143   7       4.988716385739834      9.9935491488109154       23.29604138503381
   144   7      7.4708412972501783      10.088988594492251      23.249458200473306
   145   4      9.9492434014794568      10.197324243069579      23.297733235492156
   146   7      1.2708738408900779      12.231671883840548      23.277863840419698
   147   6      3.7762587303529833      12.130371688257974      23.265731429633668
   148   7      6.2645851613969112       12.19109006554736      23.217011529536766
   149   7      8.7502015260124786      12.262048704182956      23.179669522595457
   150   4      11.227297358387281      12.399086911285849      23.246954801352715
   151   7    0.048445934543520065    0.016376539476420662      25.265633026587057
   152   7      2.5789947285321486   -0.045575255544448807      25.355953212743135
   153   7      4.9962660803169268   -0.033073051910353785      25.328219850258357
   154   7      7.4996226820425118    0.012713940078459661      25.298538796320031
   155   7      9.9598299551992024    0.032427818423283093      25.288287465494321
   156   7      1.3699551339801159      2.1121379791017527      25.288063356622438
   157   5      3.8244114751436262      2.1433956415640614      25.449564079426199
   158   6       6.285202936074735      2.2571010223578334       25.29992210037376
   159   7      8.7738310957123531      2.1793807747775107      25.375281427974368
   160   7        11.2792546580819      2.0898727691117132       25.22320012905762
   161   6     0.10525201875068957      4.1969327215471717      24.949461624515614
   162   7      2.5776955282044773      4.2932786147287425      25.337236331511303
   163   7      5.0246749986875097      4.4033117394603742      25.426873264551119
   164   7      7.5070620353970003      4.4472934691234585      25.412872678758347
   165   7      10.071009306208332      4.2915625085189344      25.267586299973726
   166   7      1.2092445197483395      6.4623537290291182      25.338426650588477
   167   7      3.7100250874067027      6.5027039903978991      25.365961600368685
   168   4      6.2161126290953037       6.564190586828639      25.487085540644671
   169   6      8.8094528226843707      6.6142273405305811      25.293848491627781
   170   4      11.274135127214311      6.4274975161985184      25.677742728390371
   171   7   0.0053404038595640255       8.598456947170142      25.484089846252044
   172   7      2.4784345961927241      8.6436423489491521      25.344009232024451
   173   7      4.9612245929529717      8.6226276670423427      25.368039394329255
   174   7      7.4479893585671411      8.7150077389916127       25.35237606143804
   175   7      10.000965135477021      8.7806130139766339      25.389642391677615
   176   7      1.3057340655649099      10.804375765137081      25.412563812871216
   177   4      3.7285931223120694      10.714062763949023      25.437531018111674
   178   7      6.1814394381887556      10.790955612313391      25.356441454137197
   179   7      8.7096122247983327      10.839170832083202      25.295606756607867
   180   7      11.202291350785575      10.895430921456274      25.377530250755093
   181   1      1.3154436734394135     0.68959847822436326      27.326815356913141
   182   4      3.8217164486216997     0.79965814401007074      27.388101949388673
   183   6       6.264875355193376     0.70649272194772395      27.429362834194762
   184   7      8.7773607937392732     0.78536467339644433      27.429012008829048
   185   4      11.181082127801812       0.675346479080702      27.285808070318165
   186   7    0.062072947888081847      2.7942736369742409      27.229243652646868
   187   7      2.5755551382697113      2.8733383792941622      27.395744907137171
   188   5       5.010102764236656       2.980113296194931       27.50851928248111
   189   7      7.5370768945149376      2.9970356991002824      27.492395042786104
   190   7      10.079326886928261      2.8669941482292112      27.376542592287173
   191   7      1.1438913510344908      4.9087879430716272      27.235833585779854
   192   7      3.6832944305211588      5.0715451504742886      27.442067447403947
   193   7      6.2558508365963217      5.1144389586461045      27.483835655671985
   194   6      9.0180849642360261      5.0947310904317513      27.423111433371179
   195   2      11.388696354354051      4.6241811766519421      26.966571889537367
   196   7    -0.36378560189244052      6.4610161238422918       28.09292443888193
   197   7      2.3249202174113659      7.1812018535010846      27.399243427888067
   198   7       4.924860103826731      7.2146926058675236      27.438155763399873
   199   7      7.4578662514894205      7.2614914532929467      27.470197726466679
   200   7       9.918042551532217       7.417771285520824      27.549359818559363
   201   7      1.2257052873942458      9.3799598335831682      27.445076066016195
   202   7      3.7054433321150948      9.3208238693337293      27.449103021004188
   203   4      6.1807868657708713      9.3929071250562455      27.398251387777989
   204   7      8.6455705331612744      9.4092268411190858      27.439831367638146
   205   7      11.238757603847676      9.4253469362040931      27.472894856012939
   206   7  0.00035554808934757943      11.574363994448339      27.425817200007653
   207   7       2.538163287712067      11.520325389167976      27.436190487508433
   208   7      4.9641269327883171      11.480369187483127      27.407972579785064
   209   7      7.4608667206262567      11.485965472815559      27.407539001114639
   210   7      9.9362527290007367      11.540355349119343      27.407355479386098
   211   6   -0.056947631179799438      1.5163740207816514      29.458181373033081
   212   7      2.5354438394664531      1.4521348737317135      29.413548200168396
   213   7      4.9933504965507538      1.5429622378972343      29.492853199831263
   214   6      7.5181828636934114      1.5786164577559203      29.631790207022203
   215   4      9.9714772257719595      1.5395166767615847      29.462547614917781
   216   7      1.3919452660764546      3.5531288417309845      29.456665947499825
   217   7      3.7933436921588046      3.6947147790055537      29.540536499721508
   218   7      6.2611553323664797      3.7536169527910097      29.602184834854544
   219   7      8.8472470735586395      3.8006574398743789      29.620791147504903
   220   6      11.432707046604923      3.9994524191101251      29.200713135970609
   221   2   -0.040444674569186323      6.3570978818163466      30.090866478394052
   222   6       2.183769863614736      5.8055597744432568      29.460879498378542
   223   4      4.8608775491422618      5.8187659828987384      29.465402853040462
   224   4      7.4475674537542993      5.8576471326065427      29.462138243481245
   225   1      10.015191893113922       6.109902081653888      29.655753452884472
   226   7      1.1500998576104757      8.0237168575048941      29.480855271656083
   227   7      3.6717409712792093      7.9162263793878891       29.52630368644186
   228   7      6.1430123697301067      7.9671822504962213      29.462684650841872
   229   5      8.5538392438662214      8.0581015546661963      29.619170456551501
   230   7      11.194358452721113      8.1307043943945914       29.62415750303261
   231   7   -0.014862962068087623      10.212426097619796      29.469486270092251
   232   7      2.4932796430159296      10.128316400434208      29.493797531254497
   233   5      4.9204066661831396      10.091403896010284      29.478402374162712
   234   7      7.3614442778691584      10.123654729305256      29.483956962664404
   235   7      9.8856454839243231      10.125722116317815      29.467917765397274
   236   7      1.2486658821773295      12.279643128525343        29.4715771957068
   237   7      3.7666869354178769      12.310472397438495      29.445087261985702
   238   7      6.2018280565812054      12.242560817184307       29.54946041975035
   239   7      8.6950115966214216      12.291901039469112      29.474273981507654
   240   4      11.133342378363322      12.281281264476553       29.41757991526563
   241   7   -0.020431051827509331    0.071709497396245311      31.504006752552261
   242   7      2.4518576005262287     0.12875146265877052      31.536293537028797
   243   7      4.9871599707737548     0.10786063381835637      31.560570758899154
   244   7      7.4593227383742162    0.065739212320854098      31.643133927515969
   245   7      9.9568058959947034     0.12953481641142353      31.469974374284458
   246   7      1.2185112309532311      2.2869638234352228      31.565010975492108
   247   7      3.7293162909374997      2.2212180554612098       31.61152144300593
   248   7       6.212399470201512      2.2654159894279511      31.685168070954163
   249   7      8.7672912183928258       2.222491976892492      31.690895545928825
   250   7      11.199808638860331      2.3313712034355731      31.500943999932396
   251   7    0.067204014068392603      4.5531531124413647      31.424302242949068
   252   7      2.5227339671048412      4.4041019758787119      31.608922841214305
   253   5      4.9315521205092985      4.3073142955902792      31.655128150218189
   254   7      7.5036682387009286      4.3506266010394645      31.651923104812841
   255   6      9.9989429384910391      4.4454321981136751      31.809978854872515
   256   7      1.2437301227632069      6.6870369524681594      31.641504946868441
   257   7      3.7081087823200694      6.5492258157645233      31.596085087167047
   258   6      6.1826730393968541      6.4018557973927495      31.513063107821829
   259   7      8.6859074948428976       6.613641752360893       31.65752926678179
   260   7      11.214151258664645      6.6667818134330519      31.696927754899015
   261   7  -0.0039283418686694316      8.8335543926339941      31.592490822449072
   262   7      2.5287566791721208      8.7529092285684182      31.540939990524638
   263   4      5.0177469796447252      8.7341147301559552      31.535173455360979
   264   5      7.3879688899604128      8.7633908612071227      31.579030477994706
   265   7      9.8896746999586966      8.7503543206741679      31.602858182760748
   266   7      1.2579063379036195      10.900920817493084      31.536197677413963
   267   7      3.7083668141981461      10.931972478314885      31.516486367206646
   268   7      6.1830247090493859      10.830475262608003      31.621017497428948
   269   7      8.6820688805224613      10.894015611130049      31.524858478920169
   270   7      11.148266446384662       10.90672037469445      31.486202408076828
   271   7      1.1853429486605742     0.81690998109178847       33.59384567368182
   272   7      3.7385960985684972     0.74601784713357666      33.660690653258591
   273   7      6.2376428877028252     0.84090339867012798      33.677706569201817
   274   5      8.7083893772014438     0.77507020329964227       33.66824188898719
   275   7      11.149722018757021     0.82640986023265495      33.538728750864394
   276   7   -0.094679309467413278      3.0841763521060037      33.563422416526677
   277   6      2.4618801600563849      2.8962616683708258      33.693332660951526
   278   7      4.9844754354267478      2.9498631026137754      33.874721776679813
   279   7      7.4992458443282768      2.9801416768175644      33.765470229310111
   280   7        9.93494306476037      2.9780371850524028      33.776729158705479
   281   6      1.1956998676149131      5.2160004923575558      33.700934589051059
   282   7        3.75389165029021      5.1394672201087452      33.738610664306918
   283   7       6.208993632637366        5.08260753569391      33.765126026975501
   284   7      8.6704621135470514      5.2009913877653666      33.830327778383932
   285   7      11.157951428806539      5.2434505621117644      33.855311983155346
   286   7  -0.0049286674328300273      7.3921032271672598      33.660212828783585
   287   7      2.5202474374199153      7.3297832736337787      33.691246872740891
   288   4      4.9869249667731648       7.341492080701693      33.757036969650549
   289   6      7.3913606958950613        7.39182050152308       33.79023969317609
   290   7      9.9128531181985444      7.3562921129985934      33.741583203280719
   291   7      1.2745439659873448      9.4887837601635443      33.581185473086464
   292   6      3.8655685802847359      9.4679681142389747      33.595611027430294
   293   2      6.3332379089470283      9.5611974053258315      33.339230806149899
   294   7      8.5719186463066634      9.5221048416554588      33.636449561301333
   295   7      11.123018084699881      9.5063904125040803      33.577536588027712
   296   7    -0.04280922303825152      11.578894764595878      33.524533684914502
   297   4      2.4414681812240926      11.661375455324817      33.517401731917751
   298   7      5.0566253521821451      11.574527191874177      33.616454341904515
   299   7      7.4349521141066592      11.577075607405403        33.6605812628396
   300   7      9.8870223775924124      11.630608696218758      33.560817741819619
   301   7   -0.046865628947283036      1.6037678588110083      35.588401310705223
   302   6      2.4319751391457198      1.3318604532225375      35.993744712952683
   303   5      4.9109260811450346      1.4115726197745375      35.853903465159839
   304   7      7.4670398330143657      1.5105698902629576      35.750235274106601
   305   7      9.9120411078212438       1.540801941281813      35.704641415168354
   306   7      1.2295614723823567      3.7085108362565609      35.808581242612313
   307   1      3.7124349717304401        3.76940657597109      35.862773957555881
   308   4      6.3076854436694862      3.6493778572073854      35.868198561911768
   309   7      8.7394076657077928      3.7682960262064236      35.821987270115066
   310   7      11.214036281775147        3.74030959591152      35.783389098316121
   311   5    0.016516268235386346      5.9181278669356372      35.850727505682585
   312   7      2.4685218383605427      5.9200989961194681      35.782607576420098
   313   7      4.9788984669281096      5.8513280394515688      35.823660516136506
   314   7      7.4413948665770864      5.8510711662075368      35.900840950977688
   315   6       10.02790478632142      6.0322429590889319      36.081275469282019
   316   7      1.2809742496989338      8.0496310904354154      35.687325530854181
   317   7      3.7480701143050057      8.0147234787785493      35.758543679427127
   318   7      6.1889547390076025      7.9924664294666794      35.894763024417749
   319   7      8.7027312972527859       8.125006374989125      35.842439708661303
   320   7      11.276145608619078      8.1660524764624434      35.581988389069913
   321   7    0.023501720056711056      10.216873964520339      35.612029880655342
   322   7      2.4930481219005722       10.14085902338056      35.620928362689668
   323   7      5.0388471904524055      10.094221708737807      35.668954574658358
   324   7       7.428969146333201      10.212246156314992      35.760487012100299
   325   7      9.9904299987796534      10.214679587368325      35.662023511934031
   326   7      1.2021763561838925        12.2572420135602      35.516253917477698
   327   7      3.7298764152797497      12.122151745929317      35.615172643253224
   328   7      6.2350690869830174      12.329695681576544      35.641548924698817
   329   7      8.7459612178287625       12.29439828222926      35.695947687937192
   330   7      11.190917389343937      12.351243184271347      35.582757943304507
   331   4     0.06418439026905029     0.19709474246202055      37.513816882841489
   332   7      3.9915169685501151   -0.032614852823980821      37.806397020244027
   333   3      5.7885696448039194     0.12509396509868867       37.31744145542222
   334   7      7.5872041935239016   -0.065605815921634059      37.809277833202778
   335   7      10.098014545773349     0.10849775923710765       37.73640254927929
   336   7       1.130117691185913      2.3199216940397505      37.854961554838361
   337   7      3.5779537177748506      2.4331372048899595      37.919610374283117
   338   6      6.0972837710688985      2.1063837692473872      37.901398918395884
   339   6      8.6782992981329716      2.2584556945465879      37.779430688922758
   340   7      11.198167682533279      2.2563244087389736      37.792796595565342
   341   7   -0.094708661312210382      4.4769842819217702      37.789627590780832
   342   7      2.3812056231024803      4.6040521300080517      37.846275433449435
   343   7      4.9655427516550832      4.4106326412931613      37.844330988976253
   344   7       7.404482490830647      4.3966319452551863      37.947433681157925
   345   7      9.9090809943264766      4.4171230669755674      37.945644731010781
   346   7      1.0660019178182853      6.7284125446142919      37.786502075701023
   347   1      3.6923801373982239      6.7178079126326464      37.943047659212681
   348   7      6.1293501601329563      6.6471267500017506      37.894131804407955
   349   7      8.5181064054287656      6.6449579209186362      37.984753841985118
   350   3      11.721852680529341      7.2495568283357157       37.20433825260799
   351   7     0.11480409588093723      8.9260923336877109      37.669328972562866
   352   7      2.5123632371984765      8.9624494140346638      37.741013077192527
   353   7      4.9136729901055798      8.9003825066329405      37.827786569081177
   354   6      7.4404357598492634      8.9020363721780207      37.845281706697939
   355   7      10.197540386646892      8.4274222885999546      37.748181061508141
   356   7      1.7965025677218827      11.350185368542208      37.653173350802838
   357   2      3.7457899490190085      10.615791370845324      37.234788157550675
   358   7      5.8311453773244528      11.105870628046453      37.741273191206318
   359   7      8.9456537375629122      10.784885427244424      37.721642719302267
   360   7      11.427466364398452      10.994323675551827      37.646191314234642
   361   8      4.2610217711845406      5.9587962022804541      40.236001199484953
   362   8      4.4695638718589592      6.6845522488361118      40.278396518082737
