(written by ASE)

362 atoms
8 atom types

0.0      12.447907775999999  xlo xhi
0.0      12.936245229600001  ylo yhi
0.0      52.360083105400001  zlo zhi

Atoms # atomic

     1   4      1.3176678395080719   -0.024547132555542379      15.990853959099397
     2   7      3.4572782072391921     0.68527619239739823      14.975376552377874
     3   7      6.1209389788509245      0.6301168063614152       14.86005742520828
     4   7      8.5248148143909948     0.96037763425059897      14.828802957132018
     5   7      11.803886017262398      1.0289283879485731      15.006359891341219
     6   7      1.5655661675475068      2.2903842273871895      15.091297268261131
     7   3      2.8748170759925462      3.5879570142967609      14.984151600215155
     8   6      4.8189682153957145      2.8329056775495824       14.91689165617988
     9   7       7.310804182507459      2.9908116659538906      14.942101642769066
    10   7       9.808248535344914      3.0167352931142153       15.01227566993135
    11   7      1.3988474488906375      4.8131180936603792      15.084959844873076
    12   7      3.7621571958290945      5.2112398139309875      14.897764195428671
    13   7      6.1499307362727116       5.090488990369213      14.852487752573806
    14   4      8.6594324701584693      5.0980815015104728      14.735568376432596
    15   7      11.037361385559562      5.0675322249070724      14.337647514537675
    16   7    0.017685886952016363      6.8898255903311076       15.06540959022931
    17   7      2.4369797193242833      7.2088012018083534      15.107490084067701
    18   7      5.0905889322000091      7.2660360021302868      15.040210604477773
    19   7      7.6386671343224739       7.548264191770846      14.923333071783576
    20   7      10.045091727771089       7.266191447498155      14.903791179942893
    21   7     0.79228808527455274      9.2237744426061177      15.051944565756736
    22   7      3.6223834427503014      9.2601246509890327      15.013647867632391
    23   6      6.0541115837431096      9.5403048120966769       15.16998410728541
    24   3      8.1371023335654371       9.414135649812593       15.11923672471001
    25   3      11.503204250657621      8.4601554589132348      15.264671430928159
    26   7    -0.19752242998965136      11.415585841245671      14.655362280375602
    27   7      2.3611755539334336       11.25014743119643      14.773967286369411
    28   7      4.7773688289133283      11.569357710921992      14.956843957515376
    29   7      7.8205519009911422      11.347848688606582      14.904383086399925
    30   7      10.093829835578696      12.262914155777947      14.929538474049735
    31   7    0.055153497605550231      1.6226841016195055      17.211888639528613
    32   7      2.5182607140686697       1.502320401346203      17.177780468647825
    33   7       4.956506305885533      1.3043334168482259       16.90380991552551
    34   7      7.4254082863473752      1.3007164882387143      16.912719852141308
    35   7      10.048289907915432       1.363145349157493      16.857143109407772
    36   7      1.3582979241395297      3.6312702900931901      17.250699011790086
    37   7       3.712221313355649      3.6770910148700269      16.931097244510518
    38   4      6.1480260943775971      3.5010907600358521      16.987911217626483
    39   7       8.631794284275724      3.4350617993822512      17.070732766916695
    40   7      11.922553516672242      3.4977690542480206      15.835683999359198
    41   5     0.17553326178920595      5.6839674155643465       17.11558932890993
    42   7       2.547431749645074      5.7978702484221376      17.136356002600806
    43   4      4.9684028367141737       5.833114694439625      16.992739085057622
    44   6      7.4989253482602667      5.7416195622807464      16.824867526208234
    45   6      10.290440903759201      5.3675044749401302      16.764349718348715
    46   7      1.2488799986218586      7.8327979203907292      17.126942966393926
    47   7      3.7599518053208945      7.9247669178456777       17.05994367997187
    48   7      6.2693229563704795      7.9667013783077669      17.117192298312872
    49   7      8.8350511054333705        7.86603956531376      17.034273539933103
    50   7       11.21475841213522      7.7661565213398731      17.059176248702602
    51   7    -0.18734584127480802      9.8946639009661066      17.132486801559601
    52   7      2.3491104090034018      10.064387881471101      16.986604734983594
    53   7      4.8292126001247127      10.119751177937754      17.155243290202872
    54   7      7.7410346292183867      10.021209538724912      17.021277447897617
    55   6      10.052860998621544       9.881595232947431      15.624861798795765
    56   3     0.94867867951052465      10.967509646275888       16.06867323364164
    57   7      3.5510735496050687      12.196417069741671      16.966153770482819
    58   7      6.2562231819233416       12.06996564438297      16.856696332409868
    59   7      8.8676297387449132      12.160574032676539      16.992246496699298
    60   6      11.488654514733362       12.20364189260639      17.005596930450881
    61   7   -0.015802233643549188   -0.030502571823197305       19.21529985987198
    62   7      2.4161211120474078   -0.077745777689067902      19.032838563448763
    63   7      4.9625511018704138   -0.095748014578186103       18.96426698988326
    64   7        7.45892362227747    -0.14887200486977525      18.970597134795717
    65   4      9.9634518638674479    -0.13371870764368585      19.042293838360884
    66   7      1.3263170561439064       2.075844331517875      19.333476395397948
    67   4      3.8276764277058737      2.1290108811743131      18.995728190078992
    68   4      6.2111598771954153      2.0750090361525895      18.931156872463557
    69   7      8.6021371264353004      1.9162108158188744      19.013038264669689
    70   7      11.164016426165377      2.0227392300646234      19.098453359462773
    71   6     -0.0912367505900126       4.264244777423098      19.225032031784956
    72   6      2.5307368209920611      4.3565089011788576      19.304456719296976
    73   7       4.977610694343964      4.3682582220114439      18.987129403032373
    74   4      7.3133768991382055      4.2570245057758864      19.080069986607175
    75   2      10.770278784766923       3.196543188931682      17.430713205558522
    76   7        1.21083765159544      6.4740672667618488      19.227509363322834
    77   7      3.7715252441789011      6.5230652997756859      19.167310118347686
    78   7      6.2537814151681994      6.4904923609155816      19.098494701388095
    79   1      8.7544732150469144      6.5386353301439657      19.091111364793228
    80   7      11.154072781391102      6.4168975099076695      19.102308879955412
    81   7    -0.06564827522119214      8.5538365381916623      19.142163586087744
    82   7       2.504477259966817      8.6215201960258785      19.092244861333366
    83   7       4.987174956997749      8.6583075508389769      19.153084577797117
    84   7      7.4906958192755413      8.6422004659602578      19.137469923863502
    85   7       9.975456055102633      8.6499284067217683      19.115980203818832
    86   7      1.1741485072869746      10.742810455732263      19.077569457957967
    87   7      3.6507204806768381       10.76056142468062      19.157493463279803
    88   7       6.250818926323813      10.731801251741995      19.070820038535029
    89   7      8.7638524224792356      10.754932733250355       19.10113868061454
    90   7      11.209346958540152      10.766685519502097      19.155974179341179
    91   4      1.1907371341367448     0.66074000426354262      21.326003062871287
    92   6      3.6340662876381558      0.7497393622206191       21.01045672377764
    93   6       6.363115432235916      0.6899663724151559      21.129352179766709
    94   7      8.8709347761569344     0.74298419351230038      21.179893852472631
    95   7      11.290014305396086      1.0330971937468927      21.288378314001246
    96   2     0.26653403807764342      2.7293105191758711      20.997307869175618
    97   7      2.3615319762507543      2.9298136400095847      21.492703083126631
    98   6      5.0630832144458617      2.9688026390216695      21.120058757205577
    99   7      7.7329038419221945      2.9404181995005043      21.118190041764869
   100   3      9.8235032357989009      2.2444523380283332      20.517233493876542
   101   4     0.93251909387549647      4.8669213959970046      21.505242968010972
   102   4      3.6737109787845474      5.1027927709972589      21.304628077914899
   103   7      6.2116864501806184      5.1201347308494043      21.149516186255049
   104   7      8.6645977179403513      5.1805836580485369      21.274956595920383
   105   6       9.741713280176505      4.0743908729348206      19.343673821256171
   106   7    -0.12665230803523517      7.0912234988656566       21.22796740017176
   107   7      2.4117189124017311       7.040409123797696      21.287170041033502
   108   7      4.9338601971280713      7.2041904567206343      21.246406489189727
   109   1      7.3660693184535377      7.3089682694608786      21.246869104295563
   110   7      9.9078991188815113      7.2149980468963957      21.249626976979847
   111   6      1.2041671768934363      9.2427444383280033      21.143275019171295
   112   7      3.7172714267423541       9.284147516000937      21.232784520855173
   113   7      6.2240246798939509      9.3958110976781466      21.184860397062192
   114   7      8.7217056487560338      9.4004125594483945       21.19754841720475
   115   7      11.137083902578677      9.3452640627672832      21.261398063497815
   116   4   -0.055927056973156287      11.531202896144013      21.207327858910674
   117   7      2.4193292196359866      11.433914388369915      21.191136351145378
   118   7       4.979778440999139      11.475112683485539      21.132946962548157
   119   5      7.5261158120020841      11.440862105997081      21.123871604290496
   120   7      10.024479265690619      11.561083986616515      21.186233818296291
   121   7     0.20878810871404568      2.2986641346418915      23.042668718262771
   122   7      2.5568240601343817      1.4023292432988961      23.332235339818943
   123   7      5.0176010329481668      1.4200755665040645       23.24702783139805
   124   7      7.5393299641913218      1.4621920653007592      23.254177001271952
   125   7      10.014270977136906      1.5924547651737042      23.287482460145977
   126   2      1.8532718127130861      3.4317093193443693      23.564503225593214
   127   7      3.8488918903909917      3.5936305089897065      23.362484854741233
   128   7      6.3075494076075183      3.6542906039843168      23.237542036967525
   129   7       8.695555551391962      3.6759042119608138       23.33541944934613
   130   6      10.784112026184738      3.6394688442045702       21.85431999244825
   131   7    -0.21574452840818284      5.8212359655656032      23.278589590245964
   132   5      2.3549542188791337       5.579568999701733      23.294343814171071
   133   1      4.9956148798046227       5.770255678281516      23.336076278206562
   134   7      7.4438134634354833      5.8308386753775681      23.320900299472708
   135   5       9.944716728029201      5.7614145562958772      23.216334978108286
   136   7      1.2178911154872589      7.8034775566721777      23.302644838075754
   137   7      3.6808380857941394      7.8070680235516168      23.282849895778391
   138   7       6.246220092503469      7.9135308051406392      23.352676601528302
   139   4      8.7859877292579363      8.0665726908620048      23.276690103415707
   140   7      11.128142350516773      7.9198865326495458      23.404029993757764
   141   6  -0.0016666955493852467      10.072822411618747      23.389054220037437
   142   7      2.5004329527216225      9.9885196938708933       23.30770381696453
   143   7      4.9878417225899465      9.9934711781313172        23.2969290250387
   144   7      7.4699131080556187      10.088790636542399      23.249654575479681
   145   4      9.9485393978757521      10.197288824878463      23.297645804701421
   146   7      1.2702930385513316      12.231892571076992      23.278677057816232
   147   6      3.7755882585922951      12.130458682664546      23.267168860120535
   148   7      6.2637436661048884      12.191262298739076      23.217973015779361
   149   7      8.7493791979860518      12.262306251526379      23.179995970583722
   150   4      11.226603349370011      12.399396344164831       23.24749861757255
   151   7    0.046963624141140449     0.01705419474251009      25.266890918673973
   152   7      2.5773324019465855   -0.045204419694288803       25.35822660646707
   153   7      4.9944408001962692   -0.032551351144113679      25.330956724477716
   154   7      7.4976029772021207    0.013762973448375503      25.300171286500447
   155   7      9.9579368959698513    0.033408905617553712      25.288910910955437
   156   7      1.3683472513692185      2.1127833796615887      25.290289584400693
   157   5      3.8229357507349597      2.1434921801637543      25.452904794259762
   158   6      6.2836505512645813      2.2574683041637229      25.301643201728268
   159   7      8.7722963915622536      2.1803240927407943      25.376670885133741
   160   7      11.277928652101789      2.0909084466763521      25.224491173154064
   161   6      0.1036184001988517       4.197769673540134      24.951556212695362
   162   7      2.5763965972566658      4.2934795187149026       25.33899877419298
   163   7      5.0229287686042436      4.4031277064392462       25.42958040716589
   164   7      7.5051204853829407      4.4476430462000609      25.414966838946551
   165   7      10.068820338361126      4.2926697084220953      25.270294268003333
   166   7      1.2081261348414662      6.4629220668217684      25.339496520643344
   167   7       3.708710883051737      6.5027247432327835      25.368034172824292
   168   4      6.2139185674747077      6.5642125883597169      25.489559258717314
   169   6      8.8069857401085585      6.6146492370391066      25.295656899577029
   170   4       11.27257139961573      6.4282253955505633      25.679001002604643
   171   7   0.0042399885156669433      8.5990940708148891      25.484600001171252
   172   7      2.4772568766262153      8.6440184127922617      25.345861746450918
   173   7      4.9592589989788154      8.6227106881538447      25.369863802536045
   174   7      7.4458460847882257      8.7151402030430205       25.35321936175324
   175   7      9.9994716045658425      8.7808733204686487      25.389478568591414
   176   7      1.3041717487971054      10.804836502440631      25.414082236617517
   177   4      3.7268183461357003       10.71431918536587      25.440421081358775
   178   7      6.1791444642694398      10.791282080330017      25.357555184084493
   179   7      8.7077189993877973      10.839598201812004      25.295206697904216
   180   7       11.20062266307542      10.896138572341508      25.377457129339618
   181   1      1.3123285609596376     0.69136497770510719      27.329939024705187
   182   4      3.8187697150394158     0.80064798858743447      27.392402374434539
   183   6      6.2618049863915379     0.70942220206482398      27.433045390767649
   184   7      8.7740470331495697     0.78830539128718535      27.431282399222692
   185   4      11.178020060863263     0.67712892064609631      27.287012357281601
   186   7    0.059345314231147799      2.7965683717405843      27.232157543336346
   187   7       2.572715009472673      2.8744207530392636      27.399305411095668
   188   5      5.0071819595191798      2.9810815546405283      27.513779554460598
   189   7      7.5344111858130312      2.9988531716975242      27.496060685113125
   190   7      10.076505798708146      2.8688652583073329       27.37878788411982
   191   7      1.1424223813965986      4.9104066809992144      27.237259598349059
   192   7      3.6809580454916171      5.0719996708929367      27.445660785326982
   193   7      6.2531023863370674      5.1151580540581838       27.48712404309606
   194   6      9.0153137793452611      5.0963448436179846      27.426313406028253
   195   2      11.386213204239256       4.625479449134474      26.968972479242503
   196   7    -0.36737761244832956      6.4600299960564609      28.095190156826824
   197   7      2.3232381773494386      7.1819946528095775      27.402130220329415
   198   7      4.9220107650844591      7.2157014472181071      27.441601158797688
   199   7      7.4543763605072515      7.2626701292056071      27.473514379079525
   200   7      9.9152018576763261      7.4190149557009759      27.550125782014383
   201   7      1.2233879075658107       9.380930858513759      27.447037756035424
   202   7      3.7029600909212133      9.3218054089068492      27.453412011783985
   203   4      6.1775807236130751      9.3936772120617178      27.399251892586211
   204   7      8.6424445743528349      9.4105872662023415       27.43888463595497
   205   7      11.236241798990324      9.4269196538844415      27.472042349539617
   206   7  -0.0027319135745592473      11.576191308824349      27.427101844700704
   207   7      2.5352508328151018      11.521496018750943      27.439653886839029
   208   7      4.9616068159569577      11.481449440497594      27.411576876498316
   209   7      7.4578797328519872      11.488437326176863      27.406896754884933
   210   7      9.9330284904670307      11.542510928145333      27.406763984748952
   211   6   -0.063296450888119485      1.5205127236763953      29.461314583380975
   212   7       2.530496216915191      1.4546314710522577      29.418448932197684
   213   7      4.9882178335866447      1.5452368858125596       29.49943693344256
   214   6      7.5134040498272654      1.5834817062044366      29.639150165447969
   215   4      9.9648365256100906      1.5450204932705336      29.466438372099994
   216   7      1.3863135946277794       3.555615411964745      29.460406518352038
   217   7      3.7874431403147324      3.6965491747574508      29.546761874141335
   218   7      6.2554254679057317      3.7556558777181315      29.608273051116477
   219   7      8.8408961407017301       3.805474906561741      29.627929101563133
   220   6      11.426168169105926       4.002478827190818      29.204388631840768
   221   2   -0.046052702596516525      6.3595544318305741      30.092766732708146
   222   6      2.1790752417422143      5.8069942551951659      29.464112058793795
   223   4        4.85726562656256      5.8207173947952295      29.469042809933274
   224   4      7.4402394703706722      5.8605344242306501      29.467247496108357
   225   1      10.007269646277509      6.1129381049697855      29.660457485495652
   226   7      1.1471470291140853      8.0257149559391205       29.48349465335999
   227   7      3.6679715678495666      7.9186954572151089      29.532355851813438
   228   7      6.1379649063021811      7.9705469112943987        29.4671666543613
   229   5      8.5486756578728684      8.0616077676070699      29.618947987572053
   230   7       11.19104986244616       8.132060799799893      29.621830950633701
   231   7   -0.019320146170140051      10.215204568760329      29.469724198580103
   232   7        2.48898103914135      10.130701128909436      29.498928433566039
   233   5      4.9154599924260634      10.094044628584218      29.484973357045686
   234   7      7.3566833587451175      10.128496517090946      29.481326308421878
   235   7      9.8819308601364284      10.128633148470165      29.464677682263169
   236   7      1.2430628375659283      12.283115523594702      29.475070647664555
   237   7      3.7622765090069525      12.312244084676015      29.450342347884032
   238   7      6.1978656390425044      12.247979374841156      29.551404051996222
   239   7      8.6902885450107892      12.296880994100436      29.473676200133674
   240   4      11.127409204422174      12.286208470476728      29.418251987688436
   241   7   -0.030195155321211104    0.078340834497492684      31.507487199749345
   242   7      2.4446241479901261     0.13306390346366498      31.542128433971854
   243   7      4.9812543546318357     0.11132319142799514      31.568422627665282
   244   7      7.4547056705858683    0.074769529394705866      31.649079950619381
   245   7      9.9487082715914461      0.1383908618499729      31.472995024262229
   246   7      1.2097206496214437      2.2917377060099704      31.569959779311663
   247   7      3.7213693215116179      2.2250221529802183      31.622087781060142
   248   7      6.2040669305155616      2.2709274527681083       31.69545210299065
   249   7      8.7590031577196044      2.2303165634286986      31.703601699213262
   250   7      11.190282590900413      2.3395451433602221      31.504445342027392
   251   7    0.057740760601698138      4.5575229243820239       31.42797254392346
   252   7      2.5121199882982856      4.4066667448759897      31.616368386045167
   253   5      4.9219954441267681      4.3117948891942204      31.658922198688575
   254   7      7.4931829926589364      4.3548560918291797      31.661013854198863
   255   6      9.9873472366389038      4.4528064092682875       31.81910531373321
   256   7      1.2354002611565857      6.6899213550322472      31.644191062615121
   257   7      3.6997921580599029      6.5501410578941739      31.598548780710036
   258   6      6.1768376043252067      6.4079846276383927      31.520084728991971
   259   7      8.6742834894166343      6.6224690771656833      31.663530394008351
   260   7      11.205296279622191       6.671513596506788      31.697279664477659
   261   7  -0.0092811348716680848       8.837328021595555      31.591087440313078
   262   7      2.5247579766763009      8.7567940448287587        31.5479871347104
   263   4      5.0139437829573765      8.7379772031977279       31.54668973081133
   264   5      7.3841167918798254      8.7747058433923453      31.574428607632125
   265   7      9.8856564310202621      8.7562231768963361      31.595316072794542
   266   7      1.2500422477967392      10.906166702073362      31.538996234043626
   267   7      3.7012316854247622      10.936307735749214      31.524493108031088
   268   7      6.1777386147098694       10.84098353292638      31.618264036310215
   269   7      8.6774645317859989      10.903107296063506      31.518371889324207
   270   7      11.141768703549621      10.913618561075625      31.484433644369187
   271   7      1.1695749741736574     0.82383352469589677      33.593776012874848
   272   7      3.7305360748218885     0.74876170747241455      33.671552087908594
   273   7      6.2271930566939808     0.84822342901878411      33.687655455641753
   274   5      8.6988338327307773     0.79319382848360276      33.691967662648416
   275   7      11.132950101125711     0.84212323176930171      33.547886348374291
   276   7    -0.10827335422464704       3.094738138056242      33.567221001389228
   277   6      2.4490469023203518      2.8991898908980414      33.704454139646664
   278   7      4.9725732611838902      2.9544744168993136      33.891772507355149
   279   7      7.4845860562945576      2.9893777680995357      33.785205799642796
   280   7      9.9195500227025821      2.9904417129453571      33.796437457632727
   281   6      1.1801440912287244      5.2224494286213332      33.709988952304066
   282   7      3.7361318589982169      5.1402443159138897      33.744620012673536
   283   7      6.1945973591384194      5.0906329986353942      33.768484273005015
   284   7      8.6515209879625683      5.2197931901430135      33.836866701814294
   285   7      11.142770827376424      5.2536953604771686      33.859447907279261
   286   7   -0.022374503934628424      7.3977014843964257      33.661840595863815
   287   7      2.5009273027421282      7.3354987554699607      33.689726730454723
   288   4      4.9578455847172451      7.3314498560557491      33.748274832055166
   289   6      7.3569339112798282      7.4217291649888617      33.797485307069778
   290   7      9.8920017261545627      7.3679806197017665      33.736316436003328
   291   7      1.2623448373752095      9.4949938527794071      33.581744884997264
   292   6      3.8611819598825092      9.4753055004805287      33.607396449362504
   293   2      6.3318775889175019      9.5917934165075405      33.339036920861993
   294   7       8.571347889837158      9.5330737980370586        33.6193552497624
   295   7       11.11429849374589      9.5157224799275841      33.571924640206333
   296   7   -0.056674491568246693      11.588201515568441       33.52614268488113
   297   4      2.4291274776455589      11.665040531043994      33.524519969826414
   298   7      5.0540961931838826      11.571222805346343       33.62632351677432
   299   7      7.4313133131631348      11.592985028911698      33.655516282016009
   300   7      9.8759777570666785       11.64489848736925      33.558499052172017
   301   7   -0.073086369000703352      1.6193492079209921        35.5940194377756
   302   6      2.4086874320333811      1.3446196788951323      35.986188471947614
   303   5      4.8915736174116855      1.4058048997201922      35.869643165386194
   304   7      7.4320255597351732      1.5258703179164312      35.777387994088919
   305   7      9.8700839830220168      1.5701623983028372      35.752297860136046
   306   7      1.2110228682904396      3.7209799333639806      35.824180564883413
   307   1      3.6949531517993655      3.7854520055454426      35.871638607382032
   308   4      6.2909724967244474      3.6620447888061038      35.893415529524781
   309   7       8.705878186202316      3.7846841023817346      35.837636044541128
   310   7      11.189310396360257       3.757741405936756      35.795092356509677
   311   5  -0.0094476408625747115      5.9240763128772418      35.861271092632876
   312   7      2.4493456132255802      5.9334818906284967      35.787969276027127
   313   7      4.9618653816847607      5.8551123234734472      35.829801173309654
   314   7      7.4166449557189091      5.8834506335126333      35.891378053072835
   315   6      10.004179014060943       6.055530968724729      36.072912191058556
   316   7      1.2530798146170148      8.0583594752335088      35.687621745690116
   317   7       3.712708326312641      8.0371137985539765      35.743766818993379
   318   7      6.1451331939523959      7.9924782021024914       35.92487570714551
   319   7       8.678198620644622      8.1422733610726166      35.835602158106212
   320   7       11.25150111229042      8.1829713088916218      35.579375454548988
   321   7 -0.00052356495293930496      10.233419872373702      35.613800787257262
   322   7      2.4633857874201168      10.159254761012313      35.619400973857935
   323   7      4.9992458100419768      10.098441011735574      35.713365847045765
   324   7      7.3895067532696448      10.198490459289093      35.712329524850432
   325   7      9.9634710771915937      10.231532133443384      35.651186642799004
   326   7      1.1733416939464019      12.275785970007163      35.519989987013211
   327   7      3.7078223446216279      12.131004076902768      35.626422434564951
   328   7      6.2243515325541594      12.322788025180326      35.646715517358253
   329   7      8.7146934335191677      12.309727879861029      35.704780609679425
   330   7      11.158791717588675      12.371642688886938      35.586005258540261
   331   4    0.011205389984195494      0.2077043511079488      37.515727782065376
   332   7      3.9756174233492545   -0.003702046580953397      37.821614407399068
   333   3      5.7592242721816014     0.13700211953950731      37.304742775097608
   334   7      7.5390950364829346   -0.021178303768700814      37.815240577881731
   335   7      10.040544920962008     0.14356301985843545      37.751894907851025
   336   7      1.0847370217901382      2.3159575558521692      37.855570253141011
   337   7      3.5175911043874866      2.4545031690650854      37.913261029442936
   338   6      5.9943036542428398      2.1323750433693491      37.922639539905134
   339   6      8.6033745371299624      2.3121541109999182      37.838285355565318
   340   7      11.141054002270858      2.2747095344223065      37.795655323846709
   341   7    -0.10914557863401515      4.4726744036041453      37.805708864457543
   342   7      2.3588863880814017       4.624923057586396      37.880542355125627
   343   7       4.899540554296232      4.4733815036830542      37.885884943147417
   344   7      7.3602525011887687      4.5085013077958012      37.983237785114092
   345   7      9.8899053241603418      4.4455415456002534      37.939069364905173
   346   7      1.0346489811815816      6.7451035120134932      37.792657089082795
   347   1      3.6406282969995947      6.7471792302710778      37.900831129422777
   348   7      6.0742675992998496      6.6738887022813289      38.001246462527916
   349   7      8.4855741631174944      6.6835710440613498      37.956702050301203
   350   3      11.686888287234238      7.2623868127644249       37.20015122643801
   351   7    0.072996369047580112      8.9428825365723874      37.667360446786994
   352   7      2.4580668736215867      8.9804845718414956       37.72934277588427
   353   7      4.8594060197450633      8.9138786656127156       37.93039898237798
   354   6      7.4036570854962207      8.9257460258002332       37.82940151183147
   355   7      10.164545490882677      8.4433167885267846      37.745395712223427
   356   7      1.7784815351848229       11.37932675990748      37.653749265102235
   357   2      3.7086923767705842      10.636144229969949       37.25339318247368
   358   7      5.7948637355073433      11.124026414456706      37.753163088641919
   359   7      8.8898710554652673      10.804111185369637      37.701306890308736
   360   7      11.365581594976012      11.005964322482384      37.639599419714308
   361   8      7.0720185875646662      3.2523717616509238      39.008382043504568
   362   8      5.1162489349044957      7.6264735665162391       38.98326611274048
