LAMMPS data file via write_data, version 11 Feb 2026, timestep = 149, units = metal

362 atoms
8 atom types

0 12.447907776 xlo xhi
0 12.9362452296 ylo yhi
0 52.3600831054 zlo zhi

Masses

1 26.9815
2 10.811
3 12.011
4 51.9961
5 55.845
6 95.95999999999999
7 58.6934
8 1.008

Atoms # atomic/kk

1 7 1.1415915113 1.4030622824 14.1731726238 0 0 0
2 7 3.6052824198 1.0687154247 14.6668635281 0 0 0
3 5 6.0733485765 0.9456192678 14.9092448961 0 0 0
9 7 7.3872192709 3.1541008121 14.9177297201 0 0 0
5 7 11.0465650176 1.2518300593 14.5988626493 0 0 0
6 7 12.368658504199999 3.4547987558 14.8191609318 -1 0 0
10 7 9.9098750883 3.3892601784 14.7776145362 0 0 0
16 4 0.466232647 7.8113636307 14.7962297566 0 0 0
20 7 10.4422793405 7.6686011235 14.1813531908 0 0 0
26 7 0.1249593259 12.203308743 14.9070604312 0 0 0
27 7 2.4792042494 11.8070582472 14.4605049939 0 0 0
23 7 6.9184038807 9.0044819756 14.7758698614 0 0 0
28 7 4.9565238258 11.785809541 14.6039169787 0 0 0
29 6 7.4842787723 11.4913636037 14.9178873601 0 0 0
24 7 9.2080801811 9.737169751 14.5388390695 0 0 0
25 7 11.7596637397 9.8733840731 14.7875343143 0 0 0
30 7 10.058584444 11.9440044352 14.7584375062 0 0 0
7 7 2.4244632782 3.2734054667 14.9885963265 0 0 0
31 6 0.1288971487 1.5655425081 16.5420724282 0 0 0
32 7 2.6016143612 1.68396773 16.9121244302 0 0 0
36 7 1.2163489468 3.8548823801 17.0263602016 0 0 0
37 7 3.7071578594 3.8359914588 17.0537037807 0 0 0
56 2 1.9107901771 0.3195266923999984 15.6058553825 0 1 0
8 7 4.9255255006 3.1259708698 15.0074473076 0 0 0
33 7 4.9822856345 1.6636810453 16.9516870067 0 0 0
34 7 7.4069128324 1.7678798041 16.976635044 0 0 0
38 5 6.1754764599 3.8587521224 16.9857007653 0 0 0
4 6 8.6374028889 0.9954686244 14.9974818089 0 0 0
35 7 9.9822714487 1.6612222307 16.9405252808 0 0 0
39 7 8.7275079493 3.8615697756 16.8587344915 0 0 0
40 7 11.1873597269 3.805638164 16.9970486708 0 0 0
11 7 1.2316985818 5.4938256242 15.0771624382 0 0 0
12 7 3.7201517672 5.3150325332 15.0880363451 0 0 0
17 7 2.6496889549 7.4939510478 15.1503570666 0 0 0
42 7 2.4506421833 6.1263054252 17.1380420995 0 0 0
47 7 3.8833868835 8.1965895398 17.0601029634 0 0 0
13 7 6.1755584311 5.3043404752 15.0309661152 0 0 0
18 7 5.0765906293 7.4776907993 15.0653254431 0 0 0
19 2 7.0565906295 7.0178081153 15.3861765881 0 0 0
43 7 4.9494738377 5.9616834924 17.0913830187 0 0 0
44 7 7.4738616068 5.9393482028 17.0845589668 0 0 0
48 7 6.3435720726 8.0538190888 17.0463699833 0 0 0
14 7 8.7010109389 5.6575007622 14.9622319162 0 0 0
15 6 11.1774349704 5.6033075472 15.1814070142 0 0 0
41 7 12.4389998854 5.9970608865 17.2231661214 -1 0 0
45 7 9.9202746256 6.0373995203 17.2496318765 0 0 0
49 7 8.7134126504 7.9208101647 16.0662967977 0 0 0
50 7 11.1822539579 7.9898168578 16.45041307 0 0 0
85 6 9.7843769447 8.4722569933 18.537415816 0 0 0
21 2 1.1622643782 10.477182004 15.209508821 0 0 0
22 7 2.9667070534 9.8637937387 15.641713656 0 0 0
46 7 0.7914980676 9.366084869 16.8714692589 0 0 0
52 7 1.3472218028 11.8634556575 16.9856217399 0 0 0
57 7 3.7507150373 12.4355421801 16.6063179824 0 0 0
87 1 3.6618350304 10.7144482394 18.2622101018 0 0 0
53 7 5.3327086119 10.1208194852 16.3239684773 0 0 0
54 7 7.7304201593 10.0526821091 16.9434712427 0 0 0
58 6 6.3163764228 12.3655724958 16.9515450823 0 0 0
51 3 11.5165480967 9.3691266832 17.6589013351 -1 0 0
55 7 10.1820978016 10.2748173495 16.6781845625 0 0 0
59 7 8.8335284361 12.3799065072 16.9586418945 0 0 0
60 7 11.2397297825 12.4659040899 16.8794368984 0 0 0
66 6 1.389891321 2.1647282426 19.0499248544 0 0 0
67 5 3.8279171566 2.1685405047 19.0740479625 0 0 0
91 4 1.3579100858 0.7478175711 21.2965982991 0 0 0
92 7 3.750137774 0.7230954771 21.0519181555 0 0 0
96 7 0.0789826387 2.7958486513 21.183838763 0 0 0
97 7 2.5895952376 2.848596957 21.1957960002 0 0 0
63 5 4.9536096831 0.0518012657 18.9583806196 0 0 0
64 7 7.438501883 0.0810255753 19.0978488324 0 0 0
68 7 6.1917637062 2.157681368 19.0766411442 0 0 0
74 6 7.498621334 4.2841978859 19.0510959088 0 0 0
93 7 6.2567072088 0.718294809 21.1702046345 0 0 0
98 7 5.0225646424 2.8725259609 21.1501686863 0 0 0
99 5 7.4761609437 2.8139399864 21.165622144 0 0 0
65 7 9.998662006 0.0791174516 19.0925333875 0 0 0
69 7 8.7353803647 2.1528319251 18.9917827742 0 0 0
70 7 11.2839474107 2.2370502989 18.950486995 0 0 0
75 5 9.9055570098 4.3042761891 19.0298795184 0 0 0
94 7 8.7109128198 0.7124294762 21.2325130918 0 0 0
95 7 11.3014184552 0.6693457644 21.1958784762 0 0 0
100 6 10.02780418 2.7834490918 21.0512813726 0 0 0
72 7 2.4806785912 4.387778293 19.1035496485 0 0 0
76 7 1.1969697075 6.4335181804 19.2564981734 0 0 0
77 7 3.780780438 6.5061222624 19.1617039206 0 0 0
82 6 2.3557063212 8.4878994268 18.9120941481 0 0 0
101 7 1.2012438469 4.9852015808 21.2558840036 0 0 0
102 6 3.726650263 5.0412772046 21.2263046122 0 0 0
107 7 2.4653781801 7.1716365317 21.2291701651 0 0 0
73 7 4.9727954997 4.31523027 19.0836796226 0 0 0
78 7 6.1933470659 6.5179647334 19.1364118042 0 0 0
103 7 6.272029214 5.0459348882 21.1724566615 0 0 0
108 7 5.0085309335 7.2274426273 21.2233996047 0 0 0
109 7 7.4161702307 7.2474773687 21.2614898711 0 0 0
71 1 12.380476798599998 4.3770126325 19.1826754554 -1 0 0
79 7 8.6223852284 6.4709056353 19.3195820043 0 0 0
80 7 11.1104344495 6.4193844927 19.3545180637 0 0 0
81 4 12.3395352159 8.4718083253 19.1971715397 -1 0 0
104 7 8.7376580472 5.0220789852 21.2399978038 0 0 0
105 3 10.081071384029745 4.370807876326681 22.28498447815124 0 0 0
106 7 12.432105736499999 7.0957380079 21.31231377 -1 0 0
110 7 9.8871753636 7.1650255772 21.2983661204 0 0 0
61 6 0.0446137806 12.933856355900001 18.9913505626 0 -1 0
62 7 2.5843509653 12.853104854800002 19.0348668103 0 -1 0
86 7 1.2785308153 10.6891579098 19.1579936584 0 0 0
111 7 1.1765038585 9.2884896345 21.1926101391 0 0 0
112 6 3.6984799864 9.3545911092 21.1398214508 0 0 0
116 1 0.0338418313 11.4855844948 21.2941957846 0 0 0
117 7 2.4672876373 11.5272107597 21.1418524528 0 0 0
83 7 4.9430444531 8.7318746404 19.0800032385 0 0 0
84 7 7.3943023269 8.6386307805 19.0822154114 0 0 0
88 7 6.1593210937 10.8001656529 18.9265877067 0 0 0
113 7 6.210791796 9.4080779571 21.0318359294 0 0 0
118 7 4.9608365886 11.5395569417 21.0391848695 0 0 0
119 4 7.3963768214 11.5350870049 21.0712147127 0 0 0
89 6 8.7281745195 10.8489718138 19.0348821196 0 0 0
90 4 11.2690710465 10.8198510257 18.9350989611 0 0 0
114 7 8.6965102668 9.3150211907 20.9893798228 0 0 0
115 6 11.1058420882 9.2509131983 21.1720781776 0 0 0
120 7 9.9826975436 11.5153910661 21.1785813363 0 0 0
121 7 0.07421607488742384 1.3724408986926948 23.310154583229203 0 0 0
122 7 2.5656332061426967 1.3843206776175156 23.32964181786898 0 0 0
126 6 1.3451357231156258 3.5670821539996855 23.265798037200323 0 0 0
127 7 3.8406970558142888 3.570804348457092 23.361459017419218 0 0 0
156 1 1.469626437148989 2.110859852409208 25.515133958591584 0 0 0
157 7 3.955903551410556 2.117395861739834 25.443744288793347 0 0 0
162 7 2.5887507877745404 4.243079195708866 25.42749863027492 0 0 0
123 7 4.982724156265284 1.4095055832289645 23.162551974974974 0 0 0
124 7 7.384151831129348 1.4805399126958423 23.487414538068982 0 0 0
128 7 6.293642967858953 3.6442314002515666 23.18356228183824 0 0 0
153 7 5.187572551851191 0.05247364091593213 25.293490943070662 0 0 0
158 2 5.766163401232869 2.4373621347119485 24.62937394594486 0 0 0
163 7 5.10808967303641 4.224188799593771 25.42079990975907 0 0 0
164 5 7.467195374271381 4.040776670424539 25.360112634315172 0 0 0
125 7 10.033282634863642 1.4067369016224196 23.355115570524518 0 0 0
129 7 8.7414513552427 3.5253211625987038 23.347779390929848 0 0 0
130 4 11.356851958657 3.595520959142037 23.402718107775463 0 0 0
155 4 10.109541528857008 0.0407653393550039 25.55921913006962 0 0 0
159 7 8.859889969386975 2.0775252118981418 25.44852677277639 0 0 0
160 7 11.39093807535662 2.133215116204637 25.421745998773943 0 0 0
165 7 10.055522637134182 4.195494810821457 25.412900690262198 0 0 0
131 7 0.06050773107059514 5.749560933588019 23.4040525926338 0 0 0
132 7 2.532129645429221 5.777736730272288 23.360245876549925 0 0 0
136 7 1.2924000775794517 7.891254886295924 23.30492910936287 0 0 0
137 7 3.7661115103677565 7.958894228272081 23.27833291638859 0 0 0
161 4 0.0986477154385678 4.3182828924334835 25.469401007767324 0 0 0
166 7 1.3270948780043899 6.392526640113614 25.430226562179936 0 0 0
167 7 3.7974171497275546 6.416427489693066 25.442508632518216 0 0 0
171 6 0.09847526552192983 8.591025907574162 25.430386500016585 0 0 0
172 7 2.611772866037131 8.586463755859391 25.37591345084424 0 0 0
133 6 5.054591433523799 5.836877895900766 23.387313833645035 0 0 0
134 7 7.548929434083499 5.755891129268523 23.315008243783367 0 0 0
138 7 6.299546551300067 7.9742412778664535 23.34117341087879 0 0 0
168 7 6.354727821740556 6.37321943808002 25.43294347052131 0 0 0
173 7 5.093770033822632 8.531867082029548 25.332343780868918 0 0 0
135 7 10.05368775386334 5.802429152815742 23.38846279627047 0 0 0
139 4 8.6832134006161 7.919499089589674 23.24496468975218 0 0 0
140 4 11.271036815583813 7.867030277818144 23.318548455196304 0 0 0
169 7 8.765079918294767 6.307421081273601 25.384340666395023 0 0 0
170 7 11.278536696762975 6.384648864613267 25.44955745953305 0 0 0
175 6 9.873740322704016 8.543504111587342 25.525117085353667 0 0 0
141 7 0.008860143020423771 10.04448099859916 23.344251351081194 0 0 0
142 7 2.484976649007092 10.083043482030916 23.255129153732913 0 0 0
146 7 1.2911772722278247 12.212012453101018 23.350966189787663 0 0 0
147 7 3.795369611876606 12.221367441783585 23.180565308223954 0 0 0
151 4 0.08130078924387137 12.851674402363736 25.41600403092731 0 -1 0
152 7 2.6436893369613226 12.921397671534958 25.37404589055711 0 -1 0
176 7 1.331015559276267 10.775932034180341 25.432055233495813 0 0 0
177 6 3.868428034442236 10.794092717067395 25.274137294943728 0 0 0
143 7 5.043670877870156 10.082334888676579 23.181793400189896 0 0 0
144 7 7.494024967016762 10.066236638023916 22.920588135638564 0 0 0
148 4 6.201417977590268 12.247539412098917 23.186066949957976 0 0 0
154 7 7.590253941847782 12.919739327033799 25.47672285793244 0 -1 0
178 6 6.605878956378145 10.520439384618294 25.22125434918158 0 0 0
145 7 9.984366946110214 10.051066535414142 23.316720429670955 0 0 0
149 6 8.696593626727042 12.249409689757359 23.331114426897 0 0 0
150 7 11.235672830413618 12.194675200677114 23.406552749676234 0 0 0
174 3 8.40225626407509 9.486153878274251 24.424714365081176 0 0 0
179 5 8.986916666056091 10.898992811359198 25.58478187747179 0 0 0
180 5 11.324542313408266 10.843383898655842 25.507727836421097 0 0 0
181 7 1.3801284479604212 0.6430800034712207 27.497837462830272 0 0 0
182 7 3.8673724012440953 0.6801965504893995 27.43701435947652 0 0 0
186 7 0.16204307990533257 2.8347004859166107 27.49646479845846 0 0 0
187 7 2.6511394263367003 2.8300187292568904 27.568402082855 0 0 0
211 7 0.2010285612650134 1.4229691415847254 29.595915045717334 0 0 0
212 7 2.704124109821544 1.337148585644934 29.582538266853824 0 0 0
216 7 1.4024311048942981 3.532175110186086 29.591541321702458 0 0 0
217 4 3.8157498021863185 3.5497496311310477 29.600740183696043 0 0 0
183 7 6.3010404061253364 0.6923095403169427 27.57527550293291 0 0 0
188 7 5.074338324780425 2.85061990766427 27.57813082761181 0 0 0
189 7 7.58642915312643 2.770023942211129 27.46624707959141 0 0 0
213 5 5.12643338387578 1.4032497044110368 29.604975027186686 0 0 0
214 7 7.604689686708246 1.3324351044735905 29.598434079986934 0 0 0
218 7 6.354736099719566 3.5134654050868166 29.54670808895795 0 0 0
184 7 8.87719200329082 0.696016248068793 27.572841592236852 0 0 0
185 4 11.374554789574335 0.6995597663932198 27.54444812736762 0 0 0
190 7 10.136218005286871 2.8085969017102603 27.495106851200244 0 0 0
215 7 10.116379807532924 1.381366936795598 29.640106582329068 0 0 0
219 7 8.830482480948078 3.4886881335737208 29.535478035316665 0 0 0
220 7 11.361147086662255 3.5357613394738925 29.52838518144217 0 0 0
191 7 1.3820106481574566 4.983553194042479 27.47460429881887 0 0 0
192 7 3.8246626955064533 4.967116764251654 27.48374430634067 0 0 0
196 7 0.12746104139102885 7.134368348002268 27.501935210213034 0 0 0
197 7 2.5701911127992187 7.170685710179476 27.476864761005114 0 0 0
221 7 0.11165228149730397 5.704147933803363 29.57566357525729 0 0 0
222 7 2.582325404724933 5.705972395167524 29.552311870109868 0 0 0
226 7 1.3563426312376063 7.881635450076725 29.55438647771909 0 0 0
227 7 3.852864126250304 7.892326844167998 29.469135810299385 0 0 0
193 7 6.360973696192984 4.9523855436946 27.41546120201369 0 0 0
198 7 5.093528928991415 7.1511721258142025 27.41275221919376 0 0 0
199 7 7.612601082315702 7.165568733506204 27.45071602342629 0 0 0
223 6 5.1441644181232045 5.698307514631533 29.490905451303906 0 0 0
224 7 7.635291876391864 5.714863889994543 29.584119944646428 0 0 0
228 7 6.385791095826592 7.890582653101873 29.49384278320143 0 0 0
194 6 8.839046673437762 4.973356856975998 27.497035193718446 0 0 0
195 7 11.351803704061883 4.970612359322495 27.513007751078664 0 0 0
200 7 10.115025119403333 7.133855808500625 27.54478133984403 0 0 0
225 7 10.092642357447716 5.716745691523519 29.61138074789546 0 0 0
229 7 8.837787736812606 7.8594649317240926 29.530209922715226 0 0 0
230 7 11.360637430078262 7.9076871750703965 29.52986507875797 0 0 0
201 5 1.3700630447261262 9.303212095765849 27.517036204186514 0 0 0
202 7 3.8632992506350314 9.29944815012737 27.37665577885661 0 0 0
206 4 0.17794782541391177 11.454803161201603 27.528078799583323 0 0 0
207 7 2.601675271919966 11.435883489202244 27.439670034196798 0 0 0
231 7 0.15661614007202015 10.057053111851337 29.57284592162472 0 0 0
232 7 2.625463620968815 10.006406442956518 29.42846943973285 0 0 0
236 7 1.4622329012926243 12.162438589249042 29.557601013129126 0 0 0
203 7 6.365919868498464 9.26334437956885 27.3896787745885 0 0 0
208 7 5.129114755097207 11.478653093404885 27.32160413751026 0 0 0
209 6 7.573285413104539 11.501969886935237 27.643419931228003 0 0 0
233 7 5.141077453830848 10.034112833302302 29.32497835113524 0 0 0
234 7 7.592752921610449 10.065487440199663 29.667750159711353 0 0 0
238 7 6.204352378428075 12.214570865166484 29.6844179189868 0 0 0
204 7 8.830005432574568 9.34559001816457 27.627980805854964 0 0 0
205 7 11.336272631898298 9.393090759908569 27.551067540262295 0 0 0
210 7 10.142168564101574 11.530913347359137 27.58962302151184 0 0 0
235 7 10.07699813278382 10.156720819629667 29.606772504066562 0 0 0
239 4 8.870358006054582 12.232048340194394 29.737907601877225 0 0 0
240 7 11.387220174084158 12.245416270212546 29.567521446474164 0 0 0
237 3 4.02593376977859 0.2709787033885775 30.556676853810465 0 1 0
241 7 0.1902204118324562 0.08347418676406405 31.642389271168973 0 0 0
242 7 2.559690700950748 0.12542047182067476 31.741152744877 0 0 0
246 4 1.3361189675496654 2.227007401804069 31.666335133767145 0 0 0
247 7 3.871135579892747 2.136681357205358 31.64476688772224 0 0 0
251 7 0.13913313064124092 4.309590562649584 31.654153732333683 0 0 0
252 7 2.624282167489228 4.305543243004374 31.668638599732894 0 0 0
248 7 6.397970608561612 2.133666779726502 31.652451377090802 0 0 0
253 7 5.1030246836633495 4.295146803145173 31.62386500874829 0 0 0
254 7 7.611741683475366 4.294375298070369 31.5944421566324 0 0 0
249 7 8.842363690058011 2.086599972267733 31.69189042662989 0 0 0
250 7 11.373821011932277 2.121919964401611 31.672286464473327 0 0 0
255 1 10.097676254290823 4.200350780533816 31.51126562096773 0 0 0
256 7 1.3206127896207 6.488557439033628 31.63673494523938 0 0 0
257 6 3.783273650542386 6.488164590205246 31.660511860967162 0 0 0
286 7 0.08350621243280762 7.266274649647666 33.625616901394544 0 0 0
258 7 6.3430933113760055 6.479467760234789 31.62181917787108 0 0 0
264 7 7.580916957487365 8.562971299566998 31.626351656134513 0 0 0
259 4 8.8113161458295 6.444424069355839 31.631872163973593 0 0 0
260 7 11.305894769770717 6.473382478617823 31.598673813261694 0 0 0
284 5 8.877123086751775 5.101541375043602 33.578244758429435 0 0 0
285 4 11.339433727866 5.137558835939493 33.643868688600776 0 0 0
290 7 10.073691471475133 7.241373829440351 33.59978341249683 0 0 0
261 7 0.16958631535881324 8.694309481095825 31.654689366894896 0 0 0
262 7 2.6582050020049395 8.708146912314632 31.531722837848548 0 0 0
266 7 1.554722788829543 10.819128360827648 31.57261123767224 0 0 0
267 4 3.9110996485133676 11.258255197949028 30.858244403408225 0 0 0
292 7 3.9551604730374814 9.366214468482916 33.50293935075541 0 0 0
243 7 5.159685660286656 12.889348170689646 32.10158255614751 0 -1 0
244 7 7.61855359990583 12.921615580274159 31.71728140308002 0 -1 0
263 1 5.087259531801212 8.747347320756786 31.421399575605943 0 0 0
268 7 6.252598968663256 10.747845773661401 31.58444628988174 0 0 0
293 4 6.442286734940412 9.305382954747767 33.65521487087762 0 0 0
245 7 10.10208875831937 12.870039570970427 31.876577790579333 0 -1 0
265 6 10.093903344668052 8.665627136432441 31.548570560012305 0 0 0
269 7 8.76603047188571 10.784658403825802 31.754649770187193 0 0 0
270 7 11.420004461604291 10.891403682976211 31.619502132516512 0 0 0
296 3 11.067916987415215 11.816625697102381 33.338560999040226 -1 0 0
271 7 1.4672721093043608 0.8896783658498284 33.777457062766445 0 0 0
272 7 3.913365608984675 0.9448796462762691 33.92207626011272 0 0 0
276 7 0.1708308956217351 2.977802659085343 33.73519428152375 0 0 0
277 7 2.636196927405276 3.0682118463572956 33.797012254985525 0 0 0
301 7 0.18279849107812013 1.5479427670305326 35.758813844771524 0 0 0
302 7 2.609356318550589 1.6588752510600062 35.858230615091244 0 0 0
306 4 1.404710810181025 3.8282276572653684 35.95587830863881 0 0 0
307 7 3.9906684531857763 3.7199214814892474 35.832079758107675 0 0 0
273 7 6.4558109377095505 0.9585363285423407 33.90371561921464 0 0 0
278 1 5.211327990383261 2.9846198789645615 33.725434027537666 0 0 0
279 7 7.71939850362271 3.0282984750301427 33.7363121697107 0 0 0
303 7 5.240814565093708 1.6509847077064643 35.932489110565285 0 0 0
304 4 7.741296056899661 1.6278644838710192 35.92491653334463 0 0 0
308 7 6.517287018257867 3.699488659592372 35.80253256322049 0 0 0
274 7 8.832773427723104 0.8894579859334856 33.848450304387924 0 0 0
275 4 11.427399004855063 0.7800129052983136 33.7296933520524 0 0 0
280 7 10.19825324517554 2.9849280073730835 33.731300202744954 0 0 0
305 7 10.214558047451531 1.5452871452856574 35.74385964748779 0 0 0
309 7 9.00706163708052 3.654109745770815 35.79954920676573 0 0 0
310 4 11.580301750730301 3.9335385065464235 35.87036989806755 0 0 0
281 7 1.3158385624779243 5.168588897806037 33.85684464170474 0 0 0
282 4 3.839774635511027 5.12371556165637 33.76607754573006 0 0 0
287 7 2.623980664714604 7.27633474261196 33.74135312918144 0 0 0
312 7 2.720877585667203 5.778606035361017 35.78036266705145 0 0 0
316 7 1.2041151386252475 7.588581588550037 35.786800843178234 0 0 0
317 7 3.922680963625073 8.055510457219302 35.72700921769267 0 0 0
283 7 6.368206289711126 5.0864449524704725 33.66643302710565 0 0 0
288 7 5.174807710545333 7.2595142321088915 33.66283762441783 0 0 0
289 7 7.62187972228546 7.1732546287322485 33.716884193210014 0 0 0
313 7 5.251529374975803 5.908405222838966 35.71178775692146 0 0 0
314 7 7.702286145629991 5.804826722202893 35.74061836224892 0 0 0
318 4 6.5409085613042945 8.104643144387909 35.80944829870363 0 0 0
311 2 12.369136460052546 5.9841748157544625 35.324459709813155 -1 0 0
315 7 10.121403213526367 5.790191168813106 35.58123830426258 0 0 0
319 7 8.942796260371429 7.941586569900119 35.842069091148346 0 0 0
320 7 11.337179209095229 7.9181544038158735 35.59517124821943 0 0 0
350 7 11.67093186211576 6.2563437495611165 37.29781009238714 0 0 0
355 3 10.423201881620455 7.899032643428525 37.27834568740852 0 0 0
291 7 1.4621369092503764 9.412821383722234 33.724894662509286 0 0 0
297 6 3.0159193731777965 11.564567285109304 33.67249421592311 0 0 0
321 6 0.20961326132914102 10.046415784806957 35.898579675064326 0 0 0
322 7 2.695739223795714 10.190097530186913 35.75705324869969 0 0 0
326 7 0.5013318200128213 11.638170722364459 33.67801498163974 0 0 0
327 6 3.911070156325595 12.496590761298174 36.105037836936184 0 0 0
356 4 1.390575246836143 12.351473725785326 35.84733506697542 0 0 0
298 2 5.195991804777877 12.277920171008832 34.213471040314914 0 0 0
299 7 6.983091889138735 11.564524403432943 33.685403588642686 0 0 0
323 6 5.230458797126376 10.234112970902727 35.582159571642585 0 0 0
324 7 7.8999158750311045 10.331415826808293 35.70360681448446 0 0 0
328 7 6.470662451939384 12.50731076034426 35.92989434292026 0 0 0
294 7 8.76241574303201 9.2688041771289 33.69918097181455 0 0 0
295 6 11.258575847935306 9.68305463379732 33.763173512063446 0 0 0
300 7 9.373039882318704 11.531000763069567 34.16621218209339 0 0 0
325 7 10.238821347162629 9.840318002352799 37.01428502696019 0 0 0
329 3 9.51696938637383 11.407467860438608 36.18637763784446 0 0 0
330 4 11.260338412565357 12.056111977910863 35.57972103991953 0 0 0
335 5 9.892457771064217 12.865403062416073 37.43780824873145 0 -1 0
332 7 2.480103959546004 0.09129724254331378 38.035692283942176 0 0 0
336 7 1.3375216826209453 2.1797659062648775 37.834088673549594 0 0 0
337 7 3.875054821232803 2.186671896860354 37.861304992791254 0 0 0
341 7 0.2210854653902062 4.24355673063658 38.07811564104431 0 0 0
342 7 2.716149215565881 4.286432522927225 37.918072726824875 0 0 0
333 7 5.20127626679885 0.15448602537920297 38.11606996338016 0 0 0
334 7 7.630694304155816 0.0813961881934583 38.07626995352203 0 0 0
338 7 6.503991740374451 2.2720789473294234 37.89295845177222 0 0 0
339 7 8.99111234029129 2.1591052094824796 37.911395430112215 0 0 0
340 7 11.374309111270533 2.194069933989402 37.72720947508042 0 0 0
362 8 9.065574932086646 0.7228283520709204 38.84136761445795 0 0 0
346 7 1.509919137468882 6.40139079323799 37.99385698408423 0 0 0
347 6 3.956228646279415 6.472064828977111 37.76115689066399 0 0 0
343 7 5.304813984599888 4.431575981527408 37.83145177988034 0 0 0
344 7 7.822401366176068 4.416673362393649 37.88812002836935 0 0 0
348 6 6.646910959297051 6.669464611291392 37.81754016099734 0 0 0
345 4 10.232234070880319 4.318810848116533 37.81004218770925 0 0 0
349 7 9.253177522657754 6.640462934359617 37.94077998952971 0 0 0
351 7 12.236151441993181 8.556949881323003 37.83610842637786 -1 0 0
361 8 8.75611424178867 5.3970041324802205 38.91444414841485 0 0 0
352 6 2.4768322078793634 8.65654957747279 37.68126075243436 0 0 0
357 7 3.8320648828759736 10.801164181515027 37.9513895285615 0 0 0
360 7 1.3741013875675856 10.89842998735253 37.88468760969806 1 0 0
353 7 5.115319017723045 8.693598869506834 37.81799138207419 0 0 0
354 7 7.956769552060517 8.9385218528982 37.814851318171364 0 0 0
358 6 6.415748217837316 10.843903485685534 37.805179870726406 0 0 0
331 7 12.393080454890239 12.89231123105538 37.63134207775502 -1 -1 0
359 2 8.561234667158715 11.169945132044573 37.387737946777705 0 0 0

Velocities

1 0 0 0
2 0 0 0
3 0 0 0
9 0 0 0
5 0 0 0
6 0 0 0
10 0 0 0
16 0 0 0
20 0 0 0
26 0 0 0
27 0 0 0
23 0 0 0
28 0 0 0
29 0 0 0
24 0 0 0
25 0 0 0
30 0 0 0
7 0 0 0
31 0 0 0
32 0 0 0
36 0 0 0
37 0 0 0
56 0 0 0
8 0 0 0
33 0 0 0
34 0 0 0
38 0 0 0
4 0 0 0
35 0 0 0
39 0 0 0
40 0 0 0
11 0 0 0
12 0 0 0
17 0 0 0
42 0 0 0
47 0 0 0
13 0 0 0
18 0 0 0
19 0 0 0
43 0 0 0
44 0 0 0
48 0 0 0
14 0 0 0
15 0 0 0
41 0 0 0
45 0 0 0
49 0 0 0
50 0 0 0
85 0 0 0
21 0 0 0
22 0 0 0
46 0 0 0
52 0 0 0
57 0 0 0
87 0 0 0
53 0 0 0
54 0 0 0
58 0 0 0
51 0 0 0
55 0 0 0
59 0 0 0
60 0 0 0
66 0 0 0
67 0 0 0
91 0 0 0
92 0 0 0
96 0 0 0
97 0 0 0
63 0 0 0
64 0 0 0
68 0 0 0
74 0 0 0
93 0 0 0
98 0 0 0
99 0 0 0
65 0 0 0
69 0 0 0
70 0 0 0
75 0 0 0
94 0 0 0
95 0 0 0
100 0 0 0
72 0 0 0
76 0 0 0
77 0 0 0
82 0 0 0
101 0 0 0
102 0 0 0
107 0 0 0
73 0 0 0
78 0 0 0
103 0 0 0
108 0 0 0
109 0 0 0
71 0 0 0
79 0 0 0
80 0 0 0
81 0 0 0
104 0 0 0
105 0 0 0
106 0 0 0
110 0 0 0
61 0 0 0
62 0 0 0
86 0 0 0
111 0 0 0
112 0 0 0
116 0 0 0
117 0 0 0
83 0 0 0
84 0 0 0
88 0 0 0
113 0 0 0
118 0 0 0
119 0 0 0
89 0 0 0
90 0 0 0
114 0 0 0
115 0 0 0
120 0 0 0
121 0 0 0
122 0 0 0
126 0 0 0
127 0 0 0
156 0 0 0
157 0 0 0
162 0 0 0
123 0 0 0
124 0 0 0
128 0 0 0
153 0 0 0
158 0 0 0
163 0 0 0
164 0 0 0
125 0 0 0
129 0 0 0
130 0 0 0
155 0 0 0
159 0 0 0
160 0 0 0
165 0 0 0
131 0 0 0
132 0 0 0
136 0 0 0
137 0 0 0
161 0 0 0
166 0 0 0
167 0 0 0
171 0 0 0
172 0 0 0
133 0 0 0
134 0 0 0
138 0 0 0
168 0 0 0
173 0 0 0
135 0 0 0
139 0 0 0
140 0 0 0
169 0 0 0
170 0 0 0
175 0 0 0
141 0 0 0
142 0 0 0
146 0 0 0
147 0 0 0
151 0 0 0
152 0 0 0
176 0 0 0
177 0 0 0
143 0 0 0
144 0 0 0
148 0 0 0
154 0 0 0
178 0 0 0
145 0 0 0
149 0 0 0
150 0 0 0
174 0 0 0
179 0 0 0
180 0 0 0
181 0 0 0
182 0 0 0
186 0 0 0
187 0 0 0
211 0 0 0
212 0 0 0
216 0 0 0
217 0 0 0
183 0 0 0
188 0 0 0
189 0 0 0
213 0 0 0
214 0 0 0
218 0 0 0
184 0 0 0
185 0 0 0
190 0 0 0
215 0 0 0
219 0 0 0
220 0 0 0
191 0 0 0
192 0 0 0
196 0 0 0
197 0 0 0
221 0 0 0
222 0 0 0
226 0 0 0
227 0 0 0
193 0 0 0
198 0 0 0
199 0 0 0
223 0 0 0
224 0 0 0
228 0 0 0
194 0 0 0
195 0 0 0
200 0 0 0
225 0 0 0
229 0 0 0
230 0 0 0
201 0 0 0
202 0 0 0
206 0 0 0
207 0 0 0
231 0 0 0
232 0 0 0
236 0 0 0
203 0 0 0
208 0 0 0
209 0 0 0
233 0 0 0
234 0 0 0
238 0 0 0
204 0 0 0
205 0 0 0
210 0 0 0
235 0 0 0
239 0 0 0
240 0 0 0
237 0 0 0
241 0 0 0
242 0 0 0
246 0 0 0
247 0 0 0
251 0 0 0
252 0 0 0
248 0 0 0
253 0 0 0
254 0 0 0
249 0 0 0
250 0 0 0
255 0 0 0
256 0 0 0
257 0 0 0
286 0 0 0
258 0 0 0
264 0 0 0
259 0 0 0
260 0 0 0
284 0 0 0
285 0 0 0
290 0 0 0
261 0 0 0
262 0 0 0
266 0 0 0
267 0 0 0
292 0 0 0
243 0 0 0
244 0 0 0
263 0 0 0
268 0 0 0
293 0 0 0
245 0 0 0
265 0 0 0
269 0 0 0
270 0 0 0
296 0 0 0
271 0 0 0
272 0 0 0
276 0 0 0
277 0 0 0
301 0 0 0
302 0 0 0
306 0 0 0
307 0 0 0
273 0 0 0
278 0 0 0
279 0 0 0
303 0 0 0
304 0 0 0
308 0 0 0
274 0 0 0
275 0 0 0
280 0 0 0
305 0 0 0
309 0 0 0
310 0 0 0
281 0 0 0
282 0 0 0
287 0 0 0
312 0 0 0
316 0 0 0
317 0 0 0
283 0 0 0
288 0 0 0
289 0 0 0
313 0 0 0
314 0 0 0
318 0 0 0
311 0 0 0
315 0 0 0
319 0 0 0
320 0 0 0
350 0 0 0
355 0 0 0
291 0 0 0
297 0 0 0
321 0 0 0
322 0 0 0
326 0 0 0
327 0 0 0
356 0 0 0
298 0 0 0
299 0 0 0
323 0 0 0
324 0 0 0
328 0 0 0
294 0 0 0
295 0 0 0
300 0 0 0
325 0 0 0
329 0 0 0
330 0 0 0
335 0 0 0
332 0 0 0
336 0 0 0
337 0 0 0
341 0 0 0
342 0 0 0
333 0 0 0
334 0 0 0
338 0 0 0
339 0 0 0
340 0 0 0
362 0 0 0
346 0 0 0
347 0 0 0
343 0 0 0
344 0 0 0
348 0 0 0
345 0 0 0
349 0 0 0
351 0 0 0
361 0 0 0
352 0 0 0
357 0 0 0
360 0 0 0
353 0 0 0
354 0 0 0
358 0 0 0
331 0 0 0
359 0 0 0
