LAMMPS data file via write_data, version 11 Feb 2026, timestep = 371, units = metal

362 atoms
8 atom types

0 12.447907776 xlo xhi
0 12.9362452296 ylo yhi
0 52.3600831054 zlo zhi

Masses

1 26.9815
2 10.811
3 12.011
4 51.9961
5 55.845
6 95.95999999999999
7 58.6934
8 1.008

Atoms # atomic/kk

1 7 1.1137113031 0.8213056377 14.6458442544 0 0 0
2 7 3.5521467993 0.7369833292 14.8745272759 0 0 0
3 5 6.0128484835 0.8661002607 14.9410273606 0 0 0
9 7 7.2838490898 3.061485717 14.8964308127 0 0 0
4 6 8.6338279095 0.9701610672 14.9495025372 0 0 0
5 7 11.0217092745 1.2520186303 14.4653209196 0 0 0
6 7 12.2639913093 3.4770388474 14.6467423155 -1 0 0
10 7 9.8060835872 3.3786149654 14.7263539351 0 0 0
16 4 0.2139193522 7.6728894562 14.6155204607 0 0 0
14 7 8.5725153511 5.6382438032 14.8971888336 0 0 0
20 7 10.22617336 7.6570207772 13.9929623834 0 0 0
22 7 3.6153938959 9.5118272928 14.9226525987 0 0 0
23 7 6.5830708033 9.0861380619 14.8549518434 0 0 0
28 7 4.815824606 11.6095683554 14.8226355783 0 0 0
29 6 7.3722206234 11.4983227586 14.9207476072 0 0 0
24 7 9.050267351 9.6672434403 14.6595074518 0 0 0
25 7 11.9433998717 9.8784548083 14.7147805643 0 0 0
30 7 9.9219178274 11.8565293517 14.5823374761 0 0 0
7 7 2.2244278673 2.9702781815 15.1108540678 0 0 0
32 7 2.3057735265 1.2533933958 16.93475001 0 0 0
36 7 1.1352675494 3.9681480296 17.066800341 0 0 0
37 7 3.5682797031 3.6456713851 17.0971915677 0 0 0
8 7 4.7779833266 2.9844932416 15.0244944963 0 0 0
33 7 4.8273182743 1.5350531227 16.986551739 0 0 0
34 7 7.3550776725 1.7107978943 16.9500837575 0 0 0
38 5 6.0741467629 3.7413718214 16.9740739685 0 0 0
31 6 12.3913000935 1.8883392073 16.4894812447 -1 0 0
35 7 9.9190937242 1.7128950373 16.9082174088 0 0 0
39 7 8.6334205619 3.8636350755 16.8179895682 0 0 0
40 7 11.0697873134 3.9524196695 16.9685655977 0 0 0
11 7 1.1325159023 5.4321519621 15.0298648606 0 0 0
12 7 3.5505664693 5.1458182768 15.1256363525 0 0 0
17 7 2.4264587984 7.5047093361 15.095063866 0 0 0
42 7 2.3709022815 6.0749554728 17.1158740735 0 0 0
46 7 0.8166128193 8.4131626729 16.8638252625 0 0 0
47 7 3.8140361054 8.0091511251 17.0307430596 0 0 0
13 7 6.0443871312 5.1854642162 15.0121872704 0 0 0
18 7 4.8936291095 7.3016176803 14.9806898798 0 0 0
19 2 6.8414713252 6.9747072356 15.3200005465 0 0 0
43 7 4.8527088278 5.8105449035 17.0809632393 0 0 0
44 7 7.340924499 5.8800224159 17.0270952222 0 0 0
48 7 6.2238050879 7.9923564856 17.0217814927 0 0 0
15 6 11.0457942592 5.6383565695 15.0891852747 0 0 0
41 7 12.3145471385 6.1094617649 17.1318770918 -1 0 0
45 7 9.8059114772 6.1104944937 17.1833292361 0 0 0
49 7 8.468429199 7.8578113362 16.0258690791 0 0 0
50 7 10.9043843251 8.1163238005 16.2182311104 0 0 0
85 6 9.8291561263 8.5173936977 18.4534573388 0 0 0
21 2 1.5469184204 9.4727356587 15.2141180887 0 0 0
26 7 0.3129936142 10.8021185085 16.8329366666 0 0 0
27 7 2.0307224553 11.476675607 15.1548148102 0 0 0
52 7 2.6125130949 10.0807166029 17.0469460252 0 0 0
56 2 0.9256786272 12.7047536866 16.3582462584 0 0 0
57 7 3.7020280411 12.2256452092 16.9334370809 0 0 0
61 6 0.103773691 12.914119814800001 18.5798943425 0 -1 0
53 7 5.126658067 10.1104152289 16.7830658184 0 0 0
54 7 7.692477589 10.043801355 16.9252811036 0 0 0
58 6 6.2929857705 12.3385525054 17.0159377302 0 0 0
51 3 11.6191907962 9.3703530782 17.5028465653 -1 0 0
55 7 10.2421186304 10.4082028541 16.649672521 0 0 0
59 7 8.8413922637 12.3709071028 16.8941788773 0 0 0
60 7 11.2973371544 12.6226231243 16.35432226 0 0 0
62 7 2.5615108705 0.0362035485 19.1477003657 0 0 0
66 6 1.352087127 2.2318342886 19.0708844716 0 0 0
67 5 3.7965060942 2.1845093372 19.1089571573 0 0 0
91 4 1.3634017621 0.7873689837 21.2571913451 0 0 0
92 7 3.794226599 0.7431598758 21.13750191 0 0 0
96 7 0.0818398676 2.8665460279 21.1814724359 0 0 0
97 7 2.6037366438 2.8644328228 21.2140599314 0 0 0
63 5 5.0130565391 0.1201396407 19.0682040289 0 0 0
64 7 7.495596467 0.110342631 19.0969961689 0 0 0
68 7 6.1911625703 2.1775697989 19.0541381069 0 0 0
73 7 4.9399859645 4.3115639679 19.0808444754 0 0 0
93 7 6.3216186889 0.7422133371 21.2114280549 0 0 0
98 7 5.0464890634 2.8788030133 21.156730555 0 0 0
99 5 7.5012216635 2.8458062181 21.1465756361 0 0 0
65 7 10.0801304272 0.1065487012 18.9684922367 0 0 0
69 7 8.7310725904 2.1890169043 18.9669963216 0 0 0
70 7 11.2903690738 2.2927407527 18.9119995363 0 0 0
94 7 8.7774111105 0.7555452584 21.1819060725 0 0 0
95 7 11.3628525944 0.72641687 21.0350745594 0 0 0
100 6 10.0447145789 2.84337011 21.0236745032 0 0 0
72 7 2.4484207282 4.4231072112 19.1209610471 0 0 0
76 7 1.1658922912 6.4993750047 19.1944079097 0 0 0
77 7 3.7588813697 6.5005138756 19.148711873 0 0 0
82 6 2.4331532856 8.5389225502 19.0281898596 0 0 0
101 7 1.2086380863 5.0327229131 21.2367972996 0 0 0
102 6 3.7381526169 5.0487020448 21.2310031514 0 0 0
107 7 2.4725111755 7.1733214789 21.2418807198 0 0 0
74 6 7.4689868564 4.3181435819 19.0304476252 0 0 0
78 7 6.170237902 6.5260528853 19.1093418597 0 0 0
103 7 6.2784224384 5.0594655358 21.1607485873 0 0 0
108 7 5.0193298877 7.223494662 21.211762887 0 0 0
109 7 7.4265222286 7.2679630961 21.2436962817 0 0 0
71 1 12.3279373157 4.4568231342 19.2000615889 -1 0 0
75 5 9.8611454395 4.3669905211 19.0145125389 0 0 0
79 7 8.6133213718 6.5195132388 19.2895962404 0 0 0
80 7 11.0925524574 6.5122969559 19.2872885435 0 0 0
81 4 12.370095144799999 8.5852753597 19.1918567346 -1 0 0
104 7 8.738862596 5.0638699973 21.2200043903 0 0 0
105 3 10.088895975951369 4.425874095818105 22.266373907491833 0 0 0
106 7 12.4419420687 7.1393087647 21.2777067176 -1 0 0
110 7 9.9017253633 7.1962155046 21.2754141709 0 0 0
86 7 1.3040220759 10.7594812152 19.1743642987 0 0 0
87 1 3.8459563645 10.8825534785 19.0135215432 0 0 0
111 7 1.2012857292 9.336353981 21.2204115458 0 0 0
112 6 3.7478709283 9.3413661583 21.2427124677 0 0 0
116 1 0.0586565897 11.5508848377 21.180266888 0 0 0
117 7 2.5220044427 11.5419976838 21.179037409 0 0 0
83 7 4.9686274228 8.7306012115 19.0370989362 0 0 0
84 7 7.422654832 8.6409959432 19.0150946314 0 0 0
88 7 6.2751154536 10.8242885579 19.0255608085 0 0 0
113 7 6.2407203807 9.3993290099 21.0379728141 0 0 0
118 7 5.041532521 11.5618649392 21.1472156713 0 0 0
119 4 7.4722747108 11.5781127873 21.0806437026 0 0 0
89 6 8.7829335956 10.8728354539 18.983455907 0 0 0
90 4 11.2852334195 10.8109661311 18.8951444514 0 0 0
114 7 8.7071889781 9.345956294 20.9379700304 0 0 0
115 6 11.1203198917 9.2930847331 21.1713688049 0 0 0
120 7 10.0191413517 11.5604237039 21.1262723599 0 0 0
121 7 0.08383225621228678 1.4106709680471512 23.26040998572392 0 0 0
122 7 2.5722844672451646 1.407323984194164 23.321298552199025 0 0 0
126 6 1.3551493311558012 3.6072524614446366 23.263897516532296 0 0 0
127 7 3.8562459749472318 3.5915217229419887 23.369166468183437 0 0 0
152 7 2.6576543403608803 0.013890387035774669 25.379834980817858 0 0 0
156 1 1.4891378981870345 2.143056714645189 25.503770156171456 0 0 0
157 7 3.9778088942659853 2.1405044226495797 25.448165249027667 0 0 0
162 7 2.6064540312385582 4.270506645444706 25.429892154232746 0 0 0
123 7 5.012970179678103 1.4330332606157126 23.204788014907646 0 0 0
124 7 7.418113609131207 1.5243285550153587 23.483509918582786 0 0 0
128 7 6.310590793973641 3.669802898484215 23.174596403759477 0 0 0
153 7 5.202781461089764 0.0674716965787144 25.337411726234876 0 0 0
154 7 7.613518365383946 0.014023333746775933 25.46381277347011 0 0 0
158 2 5.803989890985028 2.484708460425718 24.64795805286566 0 0 0
163 7 5.123244759570656 4.253350926129982 25.425262257942467 0 0 0
164 5 7.483013660199734 4.066347466643321 25.346521007244245 0 0 0
125 7 10.06715150224847 1.4491315541995329 23.304160884441455 0 0 0
129 7 8.762244202517639 3.5663544791648216 23.33178220126441 0 0 0
130 4 11.365577133511605 3.6459634689439504 23.385283045547816 0 0 0
155 4 10.137762984408697 0.07707083728404691 25.522633422029088 0 0 0
159 7 8.891808424826818 2.109884220118895 25.425781027663774 0 0 0
160 7 11.415248530128533 2.171909186691052 25.393469900294768 0 0 0
165 7 10.072470189357066 4.235233742927088 25.39827379325994 0 0 0
131 7 0.07867101013893514 5.797600802125043 23.388567951796063 0 0 0
132 7 2.5518696887336216 5.7996193180143365 23.368537993698038 0 0 0
136 7 1.3161823705706146 7.925732505968604 23.29992954524709 0 0 0
137 7 3.792115597687348 7.966881178702353 23.325839017235584 0 0 0
161 4 0.11760287071241655 4.3559623352425545 25.454690153106085 0 0 0
166 7 1.3460583982067345 6.427582412388577 25.42688226765547 0 0 0
167 7 3.817788005027216 6.439026291098031 25.45234938142478 0 0 0
172 7 2.6318956404224614 8.613926902285959 25.400245835054303 0 0 0
133 6 5.07625859825554 5.853069354462815 23.388564912608214 0 0 0
134 7 7.566176713870095 5.78952188208087 23.305204487300106 0 0 0
138 7 6.319851829767137 7.99826372398129 23.34362664414671 0 0 0
168 7 6.373243684982867 6.396819572177755 25.43399544931398 0 0 0
173 7 5.121262981412393 8.554547465275842 25.35863921756997 0 0 0
135 7 10.071031991582268 5.850715423246399 23.37630813335436 0 0 0
139 4 8.706641638558226 7.959271121800545 23.215286017055515 0 0 0
140 4 11.295629406768166 7.9119795363235585 23.29819262837126 0 0 0
169 7 8.781766768092952 6.347821997212051 25.37377999713599 0 0 0
170 7 11.299183218074223 6.423920711939827 25.437039827749658 0 0 0
175 6 9.902790627705354 8.580600457920946 25.50384644233145 0 0 0
141 7 0.02880765789349325 10.096209166001401 23.332238895928974 0 0 0
142 7 2.510909100054728 10.110255882813684 23.303615291337447 0 0 0
146 7 1.3082906730762114 12.24433026816023 23.318129220917445 0 0 0
147 7 3.822416158300239 12.243534443334035 23.234963253940567 0 0 0
151 4 0.10214493425443742 12.889127784293903 25.37481571582411 0 -1 0
171 6 0.12204526093550137 8.633004598959474 25.415047655588896 0 0 0
176 7 1.3526251461409031 10.81574421562474 25.436638974784664 0 0 0
177 6 3.894659937983751 10.817992677218825 25.321053239517045 0 0 0
143 7 5.081771316749323 10.11230152908881 23.23917596599349 0 0 0
144 7 7.516611356555871 10.099927322101115 22.908284069843656 0 0 0
148 4 6.237173185840231 12.283458639834032 23.266929387947947 0 0 0
178 6 6.651765993677161 10.526617779178922 25.24443544922087 0 0 0
145 7 10.004051290624265 10.100977444222153 23.302743726411297 0 0 0
149 6 8.728465871487604 12.300495995930024 23.29461973297356 0 0 0
150 7 11.266101961097155 12.239195292133678 23.336944960019537 0 0 0
174 3 8.426654936298888 9.516201509761014 24.409421604075643 0 0 0
179 5 9.019341637679974 10.940671048428833 25.562904620694304 0 0 0
180 5 11.351846416563665 10.888712471818499 25.485185573394098 0 0 0
181 7 1.3954019054047189 0.6726532348511459 27.488472277376655 0 0 0
182 7 3.883860792184765 0.7065926564285919 27.451160091394577 0 0 0
186 7 0.17874899857348026 2.8691134174128963 27.47849438607169 0 0 0
187 7 2.6668352898931857 2.8549455769251697 27.565942780062862 0 0 0
211 7 0.21554177748556824 1.4538544099227244 29.57683958602016 0 0 0
212 7 2.7182323898214267 1.363699805145881 29.58736440628111 0 0 0
216 7 1.4152370880609275 3.560172181647663 29.58217599078902 0 0 0
217 4 3.8311706385365842 3.5701826737318414 29.598778317420564 0 0 0
183 7 6.322238915129284 0.7197347191583806 27.577297343079547 0 0 0
188 7 5.092692346632004 2.8747953463828164 27.577733065157783 0 0 0
189 7 7.607477607018208 2.797784115896274 27.45090148640879 0 0 0
213 5 5.146380923424421 1.4259988642702368 29.607572744091865 0 0 0
214 7 7.6269114269933675 1.3597493671842467 29.591174606511306 0 0 0
218 7 6.373585590342564 3.5333897024527396 29.544056874818413 0 0 0
184 7 8.901483054476028 0.7291825494800752 27.55411546656159 0 0 0
185 4 11.394542889148159 0.7332056278799607 27.52038984305685 0 0 0
190 7 10.156701925164299 2.844101889648651 27.47451689203152 0 0 0
215 7 10.134866974424893 1.4148111416192641 29.61835344547543 0 0 0
219 7 8.848784873284918 3.5197784017535705 29.51796703979009 0 0 0
220 7 11.376824150200285 3.5714356887408583 29.50886949733167 0 0 0
191 7 1.3976173720341798 5.015260578665235 27.46858201936626 0 0 0
192 7 3.8410502485699665 4.9896870411613445 27.487533325518662 0 0 0
196 7 0.14542745142885014 7.1731673071612425 27.491460023397643 0 0 0
197 7 2.588478956042902 7.196252729264898 27.48477550933436 0 0 0
221 7 0.12736542551234709 5.7374782055871725 29.56384159759184 0 0 0
222 7 2.5973458674718857 5.7292935808218 29.54853028764024 0 0 0
226 7 1.3739379185799316 7.913065390800953 29.555556730404895 0 0 0
227 7 3.870233305771524 7.91425517419635 29.48382888681704 0 0 0
193 7 6.379800482106554 4.9757898314465026 27.41512629283586 0 0 0
198 7 5.111709609099586 7.172682124346492 27.423691670791424 0 0 0
199 7 7.623965993458752 7.194582564883598 27.450023216633916 0 0 0
223 6 5.162228589082644 5.716105897624158 29.493072676862106 0 0 0
224 7 7.6527470002858555 5.741560910378998 29.57621627595682 0 0 0
228 7 6.399789950496717 7.912321567899559 29.506641425360872 0 0 0
194 6 8.856236918401224 5.008166721176037 27.482138327283153 0 0 0
195 7 11.369074989901 5.008780664198526 27.497704054262694 0 0 0
200 7 10.129949049230197 7.172006285032964 27.52943879570416 0 0 0
225 7 10.109070464096517 5.754416187942616 29.594117012361714 0 0 0
229 7 8.85222642534287 7.894371322365938 29.5183787428753 0 0 0
230 7 11.376980540138938 7.942943600563553 29.517487441042828 0 0 0
201 5 1.3872211218328485 9.33757822078486 27.52057336990657 0 0 0
202 7 3.8812583833082153 9.3213089487022 27.402403661201635 0 0 0
206 4 0.19493233795459644 11.491610146500431 27.521297047114494 0 0 0
207 7 2.6190067145404945 11.466322284501201 27.457695151389625 0 0 0
231 7 0.17105330889282835 10.090458024241075 29.566443729855695 0 0 0
232 7 2.6422770840937804 10.032972219911409 29.44281521754605 0 0 0
236 7 1.476043973496086 12.192252936698365 29.557913244082517 0 0 0
203 7 6.3796779682336675 9.292404913703031 27.414782875444672 0 0 0
208 7 5.149593782339243 11.500515792585237 27.36188059497064 0 0 0
209 6 7.59909465221274 11.536926860060133 27.637501669543866 0 0 0
233 7 5.1550021001384065 10.052599338791337 29.352191939013583 0 0 0
234 7 7.610613632367908 10.090663288407479 29.66076833460288 0 0 0
238 7 6.232912275609115 12.239540493991445 29.690473083255213 0 0 0
204 7 8.84565274586913 9.378749340046356 27.6068141925063 0 0 0
205 7 11.355073860611629 9.430568589179062 27.53488973761865 0 0 0
210 7 10.16347380967381 11.567358694945982 27.56993520023534 0 0 0
235 7 10.093507372212363 10.188871600374695 29.590259699832398 0 0 0
239 4 8.891356749360943 12.263658616560514 29.72886774410535 0 0 0
240 7 11.400898020005505 12.277963185477814 29.554520749843032 0 0 0
237 3 4.047001412022138 0.31696264612440334 30.58280226866981 0 1 0
241 7 0.20692514908019194 0.11420425529069687 31.62408994892876 0 0 0
242 7 2.5739612897760646 0.1484763168641216 31.75158027805219 0 0 0
246 4 1.347803136042846 2.2533286920049207 31.65858696196615 0 0 0
247 7 3.8924201780082153 2.151730507174865 31.648832824574615 0 0 0
244 7 7.639159511626087 0.011910961384218443 31.72100839440972 0 0 0
248 7 6.419540413584117 2.150971802155897 31.658946684722196 0 0 0
249 7 8.861650814878098 2.117605757431266 31.6756566883725 0 0 0
250 7 11.390265131080298 2.1570455696749415 31.64430163307023 0 0 0
255 1 10.115192104646594 4.24212950757869 31.490074256288246 0 0 0
251 7 0.15190321316063327 4.34147024386431 31.643600904404273 0 0 0
252 7 2.638795887830159 4.322287916217725 31.658531406049786 0 0 0
256 7 1.3369048495759446 6.517572565440876 31.62469520443574 0 0 0
257 6 3.7967892926786395 6.503674225150032 31.656549112890858 0 0 0
286 7 0.10918198966466108 7.292025535005471 33.60877948623585 0 0 0
253 7 5.1189856491714485 4.310324752860428 31.62192645205153 0 0 0
254 7 7.629024919900405 4.31751076589409 31.58397671602122 0 0 0
258 7 6.359090383065707 6.498186947499753 31.62317933363709 0 0 0
264 7 7.593687478515604 8.588181739709018 31.6286696401582 0 0 0
259 4 8.822901264915595 6.477387956328381 31.615980863816745 0 0 0
260 7 11.321243385510172 6.5071935716909906 31.586041632824315 0 0 0
284 5 8.886947581037271 5.1353306635123035 33.56147403291475 0 0 0
285 4 11.358430991824047 5.1773492862518165 33.642115921806315 0 0 0
290 7 10.083960587310022 7.271100819523209 33.58133995575367 0 0 0
261 7 0.1847535679976868 8.728629168070851 31.649889560667443 0 0 0
262 7 2.6805538747460154 8.736917857755074 31.548559789583077 0 0 0
266 7 1.5727895805004817 10.846866382220403 31.571607224710913 0 0 0
267 4 3.930427995684448 11.296636414084578 30.863386717958658 0 0 0
292 7 3.9793826332584996 9.397319156494385 33.53706687488273 0 0 0
243 7 5.183096011449129 12.90803207387642 32.12488613521591 0 -1 0
263 1 5.102839789418352 8.765509542005244 31.44791326079153 0 0 0
268 7 6.268089567516662 10.767031183200684 31.58275149951555 0 0 0
293 4 6.4543328154128945 9.333883182458893 33.68389000670785 0 0 0
245 7 10.11879154620356 12.903092758793875 31.867204510189527 0 -1 0
265 6 10.109235502203576 8.699745178896956 31.535781158409804 0 0 0
269 7 8.778202050215187 10.809185438392095 31.741741280717036 0 0 0
270 7 11.432465207707766 10.924379319143902 31.61282673694962 0 0 0
296 3 11.07038432426415 11.858800828387754 33.332154549523054 -1 0 0
271 7 1.4856366925311921 0.9184377930186479 33.77500622127678 0 0 0
272 7 3.934265232186443 0.9690114679329844 33.93465806785095 0 0 0
276 7 0.1852283438578762 3.0132860699093325 33.727219108273665 0 0 0
277 7 2.6504335902794085 3.0876416099334087 33.79220974767936 0 0 0
301 7 0.20978607472972566 1.5776572711318062 35.7517310441101 0 0 0
302 7 2.624487706962667 1.679437887805199 35.86218150586524 0 0 0
306 4 1.4016049786191904 3.8547926154672245 35.945022727595024 0 0 0
307 7 3.9930405233317434 3.7232503903921543 35.82389545460935 0 0 0
273 7 6.489332284368337 0.9765099205002403 33.93598860140733 0 0 0
278 1 5.231018929244553 2.999412533242842 33.72681263735993 0 0 0
279 7 7.736289324157863 3.0525792441468185 33.728567619833186 0 0 0
303 7 5.272886108761363 1.6524274035211393 35.95227148649861 0 0 0
304 4 7.798022937124067 1.6225643969896415 35.955656456294115 0 0 0
308 7 6.530909328595665 3.7059195025900684 35.79770290745265 0 0 0
274 7 8.864000845490256 0.9266032779390215 33.8461829631593 0 0 0
275 4 11.463608613060611 0.8284661344391472 33.700891906636976 0 0 0
280 7 10.212980924357106 3.034117710011046 33.68095150745401 0 0 0
305 7 10.262604492034656 1.6433407286156416 35.68956609284099 0 0 0
309 7 9.0146603454117 3.6963420175455197 35.774710867573894 0 0 0
310 4 11.571790103695484 3.962116127288663 35.86581324069363 0 0 0
281 7 1.3376469664800068 5.193397138720697 33.82813982941408 0 0 0
282 4 3.852829244551957 5.139169870332442 33.75685147627458 0 0 0
287 7 2.6442275753388085 7.304437891379762 33.73441273895155 0 0 0
312 7 2.7139333735229343 5.795802371297261 35.76390240154976 0 0 0
316 7 1.232938498576651 7.638643556722279 35.779714112507165 0 0 0
317 7 3.9313769551483864 8.067993885471255 35.73417283139441 0 0 0
283 7 6.382662032459474 5.104715420494931 33.65863424504089 0 0 0
288 7 5.185507765222505 7.277148438134905 33.66136188553447 0 0 0
289 7 7.633233950896862 7.199172299298222 33.719765333164766 0 0 0
313 7 5.2402209576014975 5.897598652813621 35.697193615962746 0 0 0
314 7 7.6972283275649795 5.82359866182593 35.737750166089405 0 0 0
318 4 6.509258578413911 8.073895934672052 35.79899684100602 0 0 0
311 2 12.424544465007985 6.0026443472640025 35.31663113142908 -1 0 0
315 7 10.11542950028835 5.83058554664253 35.57018517726849 0 0 0
319 7 8.93225388686743 7.983969833332775 35.84488796937218 0 0 0
320 7 11.36491071274485 7.9296173706285735 35.55480174313509 0 0 0
350 7 11.685625156590527 6.289315179816806 37.26982975709881 0 0 0
355 3 10.4422051687682 7.943359983408458 37.236903867351685 0 0 0
291 7 1.476633674426069 9.443412804552517 33.724985812192266 0 0 0
297 6 3.032113289890206 11.591793131647403 33.68638299576907 0 0 0
321 6 0.2183503548131158 10.096852975126728 35.89286108155546 0 0 0
322 7 2.716355323549321 10.205667381105467 35.76292543226715 0 0 0
326 7 0.5117778719386618 11.67083802836783 33.66107011170341 0 0 0
327 6 3.931843514808819 12.514515695439732 36.11330035531673 0 0 0
356 4 1.4107188958735604 12.373845984925158 35.833400396759 0 0 0
298 2 5.217948836508657 12.305249749455086 34.24926222120746 0 0 0
299 7 6.978042683547115 11.576709861267803 33.67939699278463 0 0 0
323 6 5.247563517195533 10.244798813044197 35.640960264581366 0 0 0
324 7 7.920551093909203 10.296596843570553 35.746570344284095 0 0 0
328 7 6.537063063222463 12.502076552134067 35.957792676436874 0 0 0
294 7 8.773191773387689 9.291700303847284 33.69636551407164 0 0 0
295 6 11.267646015939082 9.722084939290218 33.76190051774842 0 0 0
300 7 9.356488676892186 11.547738781463456 34.13401270658496 0 0 0
325 7 10.254998089758981 9.859940548208092 36.808963146600675 0 0 0
329 3 9.49854364041516 11.53113871007173 36.154209223474616 0 0 0
330 4 11.245107174355494 12.098273463560744 35.53125292139063 0 0 0
335 5 9.883287407505245 0.10189569896382267 37.339919874218324 0 0 0
332 7 2.4758435525220155 0.11832094981468727 38.02484858425257 0 0 0
336 7 1.3402081203907716 2.2076941977262856 37.831584137552134 0 0 0
337 7 3.8768678810544763 2.2148142112357694 37.86304033683113 0 0 0
341 7 0.22296374325380128 4.276216390964001 38.06658729111144 0 0 0
333 7 5.179412602966238 0.1841419632207657 38.1591573440829 0 0 0
334 7 7.603134112532206 0.24257473102251206 38.1663094636729 0 0 0
338 7 6.513662714788015 2.332652253072263 37.903973396382064 0 0 0
339 7 9.002499124541089 2.2644923351659294 37.87777126547234 0 0 0
340 7 11.373399464773378 2.2324940936723556 37.71312830764365 0 0 0
342 7 2.7130135387189838 4.308838890391674 37.90655685476083 0 0 0
346 7 1.506260795821333 6.427700604665059 37.98757464670356 0 0 0
347 6 3.9420046855335116 6.499093764576222 37.74329841048339 0 0 0
343 7 5.280554554101189 4.434860753747191 37.8224507276995 0 0 0
344 7 7.83010350070894 4.440390477843969 37.87369004213075 0 0 0
348 6 6.614444073547396 6.63171207566146 37.81984914817425 0 0 0
345 4 10.229466603000981 4.38726404177141 37.81541098628691 0 0 0
349 7 9.26902308858153 6.682881632750425 37.91516904876974 0 0 0
351 7 12.229847957875496 8.601852008166546 37.81425994626794 -1 0 0
361 8 8.958226897448423 5.332508552701678 38.834257203385775 0 0 0
352 6 2.485193309411919 8.686473994055607 37.6918473172822 0 0 0
357 7 3.8419805556926625 10.831315012656965 37.96300904642276 0 0 0
360 7 1.386605116980776 10.92279004551152 37.888214164343296 1 0 0
353 7 5.113132852243949 8.698543344774308 37.867747276182705 0 0 0
354 7 7.802681529433556 8.818787643091248 37.85627193675964 0 0 0
358 6 6.434489378615209 10.917815516263651 37.89306583644814 0 0 0
362 8 6.613649809939171 9.325739882931119 38.91445780740007 0 0 0
331 7 12.373156687463995 12.8998569854668 37.59493449255079 -1 -1 0
359 2 8.267368738539469 11.759164353732452 37.027127511066276 0 0 0

Velocities

1 0 0 0
2 0 0 0
3 0 0 0
9 0 0 0
4 0 0 0
5 0 0 0
6 0 0 0
10 0 0 0
16 0 0 0
14 0 0 0
20 0 0 0
22 0 0 0
23 0 0 0
28 0 0 0
29 0 0 0
24 0 0 0
25 0 0 0
30 0 0 0
7 0 0 0
32 0 0 0
36 0 0 0
37 0 0 0
8 0 0 0
33 0 0 0
34 0 0 0
38 0 0 0
31 0 0 0
35 0 0 0
39 0 0 0
40 0 0 0
11 0 0 0
12 0 0 0
17 0 0 0
42 0 0 0
46 0 0 0
47 0 0 0
13 0 0 0
18 0 0 0
19 0 0 0
43 0 0 0
44 0 0 0
48 0 0 0
15 0 0 0
41 0 0 0
45 0 0 0
49 0 0 0
50 0 0 0
85 0 0 0
21 0 0 0
26 0 0 0
27 0 0 0
52 0 0 0
56 0 0 0
57 0 0 0
61 0 0 0
53 0 0 0
54 0 0 0
58 0 0 0
51 0 0 0
55 0 0 0
59 0 0 0
60 0 0 0
62 0 0 0
66 0 0 0
67 0 0 0
91 0 0 0
92 0 0 0
96 0 0 0
97 0 0 0
63 0 0 0
64 0 0 0
68 0 0 0
73 0 0 0
93 0 0 0
98 0 0 0
99 0 0 0
65 0 0 0
69 0 0 0
70 0 0 0
94 0 0 0
95 0 0 0
100 0 0 0
72 0 0 0
76 0 0 0
77 0 0 0
82 0 0 0
101 0 0 0
102 0 0 0
107 0 0 0
74 0 0 0
78 0 0 0
103 0 0 0
108 0 0 0
109 0 0 0
71 0 0 0
75 0 0 0
79 0 0 0
80 0 0 0
81 0 0 0
104 0 0 0
105 0 0 0
106 0 0 0
110 0 0 0
86 0 0 0
87 0 0 0
111 0 0 0
112 0 0 0
116 0 0 0
117 0 0 0
83 0 0 0
84 0 0 0
88 0 0 0
113 0 0 0
118 0 0 0
119 0 0 0
89 0 0 0
90 0 0 0
114 0 0 0
115 0 0 0
120 0 0 0
121 0 0 0
122 0 0 0
126 0 0 0
127 0 0 0
152 0 0 0
156 0 0 0
157 0 0 0
162 0 0 0
123 0 0 0
124 0 0 0
128 0 0 0
153 0 0 0
154 0 0 0
158 0 0 0
163 0 0 0
164 0 0 0
125 0 0 0
129 0 0 0
130 0 0 0
155 0 0 0
159 0 0 0
160 0 0 0
165 0 0 0
131 0 0 0
132 0 0 0
136 0 0 0
137 0 0 0
161 0 0 0
166 0 0 0
167 0 0 0
172 0 0 0
133 0 0 0
134 0 0 0
138 0 0 0
168 0 0 0
173 0 0 0
135 0 0 0
139 0 0 0
140 0 0 0
169 0 0 0
170 0 0 0
175 0 0 0
141 0 0 0
142 0 0 0
146 0 0 0
147 0 0 0
151 0 0 0
171 0 0 0
176 0 0 0
177 0 0 0
143 0 0 0
144 0 0 0
148 0 0 0
178 0 0 0
145 0 0 0
149 0 0 0
150 0 0 0
174 0 0 0
179 0 0 0
180 0 0 0
181 0 0 0
182 0 0 0
186 0 0 0
187 0 0 0
211 0 0 0
212 0 0 0
216 0 0 0
217 0 0 0
183 0 0 0
188 0 0 0
189 0 0 0
213 0 0 0
214 0 0 0
218 0 0 0
184 0 0 0
185 0 0 0
190 0 0 0
215 0 0 0
219 0 0 0
220 0 0 0
191 0 0 0
192 0 0 0
196 0 0 0
197 0 0 0
221 0 0 0
222 0 0 0
226 0 0 0
227 0 0 0
193 0 0 0
198 0 0 0
199 0 0 0
223 0 0 0
224 0 0 0
228 0 0 0
194 0 0 0
195 0 0 0
200 0 0 0
225 0 0 0
229 0 0 0
230 0 0 0
201 0 0 0
202 0 0 0
206 0 0 0
207 0 0 0
231 0 0 0
232 0 0 0
236 0 0 0
203 0 0 0
208 0 0 0
209 0 0 0
233 0 0 0
234 0 0 0
238 0 0 0
204 0 0 0
205 0 0 0
210 0 0 0
235 0 0 0
239 0 0 0
240 0 0 0
237 0 0 0
241 0 0 0
242 0 0 0
246 0 0 0
247 0 0 0
244 0 0 0
248 0 0 0
249 0 0 0
250 0 0 0
255 0 0 0
251 0 0 0
252 0 0 0
256 0 0 0
257 0 0 0
286 0 0 0
253 0 0 0
254 0 0 0
258 0 0 0
264 0 0 0
259 0 0 0
260 0 0 0
284 0 0 0
285 0 0 0
290 0 0 0
261 0 0 0
262 0 0 0
266 0 0 0
267 0 0 0
292 0 0 0
243 0 0 0
263 0 0 0
268 0 0 0
293 0 0 0
245 0 0 0
265 0 0 0
269 0 0 0
270 0 0 0
296 0 0 0
271 0 0 0
272 0 0 0
276 0 0 0
277 0 0 0
301 0 0 0
302 0 0 0
306 0 0 0
307 0 0 0
273 0 0 0
278 0 0 0
279 0 0 0
303 0 0 0
304 0 0 0
308 0 0 0
274 0 0 0
275 0 0 0
280 0 0 0
305 0 0 0
309 0 0 0
310 0 0 0
281 0 0 0
282 0 0 0
287 0 0 0
312 0 0 0
316 0 0 0
317 0 0 0
283 0 0 0
288 0 0 0
289 0 0 0
313 0 0 0
314 0 0 0
318 0 0 0
311 0 0 0
315 0 0 0
319 0 0 0
320 0 0 0
350 0 0 0
355 0 0 0
291 0 0 0
297 0 0 0
321 0 0 0
322 0 0 0
326 0 0 0
327 0 0 0
356 0 0 0
298 0 0 0
299 0 0 0
323 0 0 0
324 0 0 0
328 0 0 0
294 0 0 0
295 0 0 0
300 0 0 0
325 0 0 0
329 0 0 0
330 0 0 0
335 0 0 0
332 0 0 0
336 0 0 0
337 0 0 0
341 0 0 0
333 0 0 0
334 0 0 0
338 0 0 0
339 0 0 0
340 0 0 0
342 0 0 0
346 0 0 0
347 0 0 0
343 0 0 0
344 0 0 0
348 0 0 0
345 0 0 0
349 0 0 0
351 0 0 0
361 0 0 0
352 0 0 0
357 0 0 0
360 0 0 0
353 0 0 0
354 0 0 0
358 0 0 0
362 0 0 0
331 0 0 0
359 0 0 0
