LAMMPS data file via write_data, version 11 Feb 2026, timestep = 252, units = metal

362 atoms
8 atom types

0 12.447907776 xlo xhi
0 12.9362452296 ylo yhi
0 52.3600831054 zlo zhi

Masses

1 26.9815
2 10.811
3 12.011
4 51.9961
5 55.845
6 95.95999999999999
7 58.6934
8 1.008

Atoms # atomic/kk

1 7 1.1086396148 0.8238952239 14.6426922023 0 0 0
2 7 3.5471343336 0.7395335012 14.871234386 0 0 0
3 5 6.0078676259 0.8686407987 14.9379629485 0 0 0
9 7 7.2788535501 3.0640220019 14.8933255481 0 0 0
4 6 8.6288306499 0.9726777284 14.9465292271 0 0 0
5 7 11.0166657815 1.2545859852 14.462185843 0 0 0
6 7 12.2589269084 3.4796698319 14.6436173361 -1 0 0
10 7 9.8010491064 3.3811752536 14.7232418618 0 0 0
16 4 0.2088210039 7.6755010248 14.6124933176 0 0 0
14 7 8.5674489817 5.6407896945 14.8940844167 0 0 0
20 7 10.2211045052 7.6596027589 13.9898991603 0 0 0
22 7 3.610373107 9.5144836344 14.9195551574 0 0 0
23 7 6.5780972576 9.0887184884 14.8519316175 0 0 0
28 7 4.8108809413 11.6121516556 14.8195270296 0 0 0
29 6 7.367231219 11.5008487837 14.91782041 0 0 0
24 7 9.0453001328 9.6697876004 14.6565743814 0 0 0
25 7 11.9383484477 9.881069104 14.7117678872 0 0 0
30 7 9.9168873716 11.8590596898 14.5793216095 0 0 0
7 7 2.2193953999 2.9728500197 15.1075253696 0 0 0
32 7 2.3007347054 1.2559092051 16.9314161347 0 0 0
36 7 1.1302176568 3.970815991 17.0633808883 0 0 0
37 7 3.5632306505 3.6482393404 17.0938709956 0 0 0
8 7 4.7729768947 2.987062043 15.0212450448 0 0 0
33 7 4.8223049021 1.5376409109 16.9833232412 0 0 0
34 7 7.3500778893 1.7133877606 16.9470405328 0 0 0
38 5 6.069117304 3.7439443331 16.9708736093 0 0 0
31 6 12.386219104799999 1.8909398074 16.4863359014 -1 0 0
35 7 9.9140298749 1.715478849 16.9052297957 0 0 0
39 7 8.6283984622 3.8662108601 16.8148783652 0 0 0
40 7 11.0647218132 3.955003173 16.9654790194 0 0 0
11 7 1.1274429739 5.4348248704 15.02657255 0 0 0
12 7 3.5454893745 5.1484301269 15.1223888282 0 0 0
17 7 2.4213938077 7.5074035459 15.0919313227 0 0 0
42 7 2.3658179571 6.0776235781 17.1126279314 0 0 0
46 7 0.8115056045 8.4158303638 16.8607807232 0 0 0
47 7 3.8090203672 8.0118125883 17.0275882163 0 0 0
13 7 6.0393477666 5.1880382219 15.0089948966 0 0 0
18 7 4.8885947937 7.3042396007 14.9775518825 0 0 0
19 2 6.8364131559 6.9772702952 15.3169162839 0 0 0
43 7 4.8476474244 5.8131449488 17.0777174527 0 0 0
44 7 7.335870267 5.8825604918 17.0239797454 0 0 0
48 7 6.2187986206 7.9949292893 17.0187297279 0 0 0
15 6 11.0406850303 5.6409501915 15.0861198888 0 0 0
41 7 12.3094633449 6.1121138848 17.1287305796 -1 0 0
45 7 9.8008713052 6.1130703554 17.1803358866 0 0 0
49 7 8.46338372 7.8603330448 16.0228251814 0 0 0
50 7 10.8992923253 8.1189701904 16.2152009694 0 0 0
85 6 9.8240777484 8.5199599345 18.4504339488 0 0 0
21 2 1.5418583372 9.475362831 15.2110238362 0 0 0
26 7 0.3078831513 10.8047678302 16.8299290746 0 0 0
27 7 2.0256175022 11.4793023205 15.1517201735 0 0 0
52 7 2.6074497237 10.0833716822 17.0438096361 0 0 0
56 2 0.9204864727 12.7073503164 16.3551042429 0 0 0
57 7 3.6970838387 12.2282442958 16.930234305 0 0 0
61 6 0.0986144827 12.916682194500002 18.5768523005 0 -1 0
53 7 5.1216974796 10.1130267858 16.7799750525 0 0 0
54 7 7.6874988361 10.0463406157 16.9223732033 0 0 0
58 6 6.2880266331 12.3411492991 17.0129749655 0 0 0
51 3 11.614116572799999 9.3729725562 17.4998846509 -1 0 0
55 7 10.2370730939 10.4108452062 16.6467540708 0 0 0
59 7 8.8363457455 12.3734982112 16.8913130049 0 0 0
60 7 11.292217469 12.6252539098 16.3512541665 0 0 0
62 7 2.5564411836 0.0388266273 19.1443975889 0 0 0
66 6 1.3470064681 2.2344630793 19.0674232497 0 0 0
67 5 3.7914440546 2.1871145112 19.1055969823 0 0 0
91 4 1.3582984766 0.7899794953 21.2538020252 0 0 0
92 7 3.7891788865 0.7457920151 21.134190557 0 0 0
96 7 0.0767185896 2.8690963203 21.1781030865 0 0 0
97 7 2.598624758 2.8670467195 21.2105118031 0 0 0
63 5 5.0079853727 0.1227469224 19.0650281438 0 0 0
64 7 7.4905473649 0.1128471653 19.094190674 0 0 0
68 7 6.18612372 2.1801121332 19.0509951616 0 0 0
93 7 6.3165349128 0.7447778163 21.2084219863 0 0 0
98 7 5.0414075149 2.8814020057 21.1533943318 0 0 0
99 5 7.4961628395 2.8482059571 21.1435811835 0 0 0
65 7 10.0750196461 0.1090619719 18.9656760164 0 0 0
69 7 8.7260092259 2.1914736971 18.9640587651 0 0 0
70 7 11.2852555806 2.2952854263 18.9089505748 0 0 0
94 7 8.7722700389 0.757917834 21.1793518688 0 0 0
95 7 11.3577392918 0.7288723089 21.0321203731 0 0 0
100 6 10.0395980627 2.8457305316 21.0206976268 0 0 0
72 7 2.443316402 4.4257713536 19.1175347307 0 0 0
76 7 1.1608000255 6.5020877719 19.1912197893 0 0 0
77 7 3.7538160436 6.5031673538 19.1453647292 0 0 0
82 6 2.4281120239 8.5416065229 19.0250298677 0 0 0
101 7 1.2035267346 5.035364728 21.2333873799 0 0 0
102 6 3.7330461648 5.0513266964 21.2274951742 0 0 0
107 7 2.4674514368 7.1760118769 21.2386063586 0 0 0
73 7 4.934941019 4.314145042 19.0775231122 0 0 0
74 6 7.4639762218 4.3206347482 19.0273071841 0 0 0
78 7 6.1652197389 6.5285796973 19.1061751607 0 0 0
103 7 6.2734017159 5.0619278917 21.1575206991 0 0 0
108 7 5.0142732334 7.2260915066 21.2083684049 0 0 0
109 7 7.4215228356 7.2703959844 21.2407219411 0 0 0
71 1 12.3229062799 4.4594437587 19.196683556 -1 0 0
75 5 9.8560956742 4.3694864476 19.0114883881 0 0 0
79 7 8.608321218 6.5220343075 19.2866528606 0 0 0
80 7 11.0874839619 6.5149008094 19.2843590445 0 0 0
81 4 12.365005094899999 8.5879468459 19.1889253448 -1 0 0
104 7 8.7338263622 5.0662699386 21.2169403674 0 0 0
105 3 10.083871834437016 4.428360695727462 22.26330834388733 0 0 0
106 7 12.436900947 7.1420045272 21.2746849184 -1 0 0
110 7 9.8966630327 7.1986323278 21.2726862371 0 0 0
86 7 1.2989785249 10.7621360637 19.1712644252 0 0 0
87 1 3.8409360869 10.8851887182 19.0103401064 0 0 0
111 7 1.196267672 9.3390428985 21.2173288302 0 0 0
112 6 3.7428708498 9.3440537093 21.2395239989 0 0 0
116 1 0.0536017817 11.5534184789 21.177259775 0 0 0
117 7 2.516993915 11.5446767222 21.1758430981 0 0 0
83 7 4.9636201621 8.7332241248 19.0339830552 0 0 0
84 7 7.4176266925 8.6435141762 19.0121662557 0 0 0
88 7 6.2701006334 10.8268644307 19.0226042234 0 0 0
113 7 6.235757118 9.4018758354 21.0350287945 0 0 0
118 7 5.0365269699 11.5644673281 21.1440855688 0 0 0
119 4 7.4672330555 11.5805736189 21.0779288321 0 0 0
89 6 8.7778696089 10.875345332 18.980659339 0 0 0
90 4 11.2801420612 10.8135255713 18.8922615739 0 0 0
114 7 8.7021416263 9.3483934202 20.9351444746 0 0 0
115 6 11.1152174581 9.2955902507 21.1685966034 0 0 0
120 7 10.0140360149 11.5628658314 21.1235962559 0 0 0
121 7 0.07882818386233005 1.4132088258452524 23.257147025581187 0 0 0
122 7 2.5672609286970833 1.4098204385878277 23.317945119607188 0 0 0
126 6 1.3501407722350274 3.6097739143112912 23.260448753259098 0 0 0
127 7 3.851221181577504 3.5940443980850136 23.365621354993486 0 0 0
152 7 2.6524265544485877 0.01633931778755772 25.376685982982135 0 0 0
156 1 1.4839974751828866 2.1455555892211513 25.50041095823412 0 0 0
157 7 3.972840795288623 2.142880172770137 25.444571180683525 0 0 0
162 7 2.601444797256515 4.27298735422674 25.426297871568078 0 0 0
123 7 5.007966066302839 1.4355022894527525 23.20156451770308 0 0 0
124 7 7.413097840478948 1.5268109693092398 23.48037285526426 0 0 0
128 7 6.305547484998959 3.672307854694271 23.17131524598703 0 0 0
153 7 5.197707654404595 0.06957099721426246 25.334144384386462 0 0 0
154 7 7.608499889845605 0.01637687090259428 25.460557940250762 0 0 0
158 2 5.799083443844879 2.487236987984383 24.644690544894942 0 0 0
163 7 5.118105802902091 4.255853283011985 25.421875362063577 0 0 0
164 5 7.4778199633191385 4.068850480313427 25.343269799854028 0 0 0
125 7 10.062150126133764 1.4516315372019832 23.30117335281642 0 0 0
129 7 8.757213003138926 3.5688592954056713 23.32872222476338 0 0 0
130 4 11.36061676807587 3.6484758532382178 23.382121570273668 0 0 0
155 4 10.132735934363607 0.07946575500412503 25.519335792440494 0 0 0
159 7 8.886737129838862 2.1123818414997872 25.422592829842127 0 0 0
160 7 11.410166200397713 2.174447136060113 25.3902782746017 0 0 0
165 7 10.067430629116478 4.237746511061597 25.395197426066467 0 0 0
131 7 0.07369847153663736 5.800113919343783 23.385527216232084 0 0 0
132 7 2.546852717617855 5.802184352072611 23.36518676407946 0 0 0
136 7 1.3112280121808966 7.92829413662636 23.296800345704643 0 0 0
137 7 3.787079543318397 7.969458212791128 23.322716060119856 0 0 0
161 4 0.11258148040821517 4.358414022200228 25.451600307920362 0 0 0
166 7 1.3411393086680459 6.430203670914391 25.423726320924935 0 0 0
167 7 3.8127200253219597 6.441589453675609 25.4492419350386 0 0 0
172 7 2.6269276187000146 8.616438601120707 25.397443845032594 0 0 0
133 6 5.071163794099647 5.855614075145326 23.385304285628063 0 0 0
134 7 7.561057338588677 5.791990633618604 23.302181883400532 0 0 0
138 7 6.314691235835985 8.000786116218565 23.3406889800913 0 0 0
168 7 6.3679807119880625 6.399376628776399 25.431050337152353 0 0 0
173 7 5.116071410650257 8.557095099180241 25.355856595449687 0 0 0
135 7 10.065997762307004 5.853119887602936 23.37341989079846 0 0 0
139 4 8.701528074797926 7.9616350813829335 23.212367418821703 0 0 0
140 4 11.290628797395629 7.914406016453031 23.29531505897296 0 0 0
169 7 8.776558627599014 6.350340264343315 25.370775834942798 0 0 0
170 7 11.294214869555232 6.426377298688611 25.434180067649603 0 0 0
175 6 9.89776768521268 8.582891710114545 25.50092328518894 0 0 0
141 7 0.02383657432298238 10.098721951594255 23.32913069406892 0 0 0
142 7 2.5059366367456732 10.112796169618951 23.300607073480297 0 0 0
146 7 1.3032972259864886 12.24683064901837 23.314950077552705 0 0 0
147 7 3.817398938257691 12.245993505511377 23.23194995212677 0 0 0
151 4 0.09707618247084204 12.891631325576547 25.37142714511622 0 -1 0
171 6 0.11716887567966658 8.6355474830551 25.411909282471417 0 0 0
176 7 1.3476405494088235 10.818232150641041 25.43369514230437 0 0 0
177 6 3.8894279621612498 10.820474354505224 25.318421305601415 0 0 0
143 7 5.076626067109531 10.114879987267424 23.236296102884516 0 0 0
144 7 7.511558384518653 10.102336121828083 22.905470997184246 0 0 0
148 4 6.232205912272283 12.285910939218565 23.263722175580313 0 0 0
178 6 6.646610664771542 10.528913533226635 25.24153612475314 0 0 0
145 7 9.998987831205785 10.103314723774151 23.299925358327968 0 0 0
149 6 8.723532563582687 12.302847114943617 23.291789023297465 0 0 0
150 7 11.26109321318763 12.241686340764073 23.333657642050845 0 0 0
174 3 8.421500712381842 9.518382002945408 24.406591236261995 0 0 0
179 5 9.014219148933169 10.942910239211104 25.55989203386428 0 0 0
180 5 11.346809092695658 10.891224888039266 25.481633169144946 0 0 0
181 7 1.3900298055362315 0.6751715322641761 27.485446253411116 0 0 0
182 7 3.878861141645151 0.7088857341318697 27.44736403898156 0 0 0
186 7 0.17358075399884534 2.8713178249147253 27.475578089355405 0 0 0
187 7 2.662013604975689 2.8572669693008046 27.562041462247787 0 0 0
211 7 0.2105536000374061 1.4561956008080388 29.575078132968397 0 0 0
212 7 2.7138120558915797 1.3654618544897297 29.58310761111462 0 0 0
216 7 1.410600701336738 3.5628049835209157 29.577457612406 0 0 0
217 4 3.8260309276400206 3.57263438634572 29.59534420117451 0 0 0
183 7 6.317180494930087 0.7218969281868275 27.573514798095914 0 0 0
188 7 5.0876711555134335 2.8772263372024356 27.57425400162617 0 0 0
189 7 7.6022179798975325 2.800217447216536 27.447528065466035 0 0 0
213 5 5.141715172717942 1.4284766571071346 29.6034099480309 0 0 0
214 7 7.6217139337689215 1.3625252134906398 29.58719292782293 0 0 0
218 7 6.368386462494098 3.535923355801222 29.541080939780358 0 0 0
184 7 8.896495671182803 0.731674626200467 27.550656497482212 0 0 0
185 4 11.389247624348954 0.7356277330089346 27.516650304876997 0 0 0
190 7 10.15156813135857 2.8466551058447602 27.471546106062746 0 0 0
215 7 10.130256502716582 1.417735916294641 29.615176067271946 0 0 0
219 7 8.84337680450246 3.5222657293598583 29.514781272941057 0 0 0
220 7 11.371843620292639 3.573327824968382 29.50667487957426 0 0 0
191 7 1.3926966550830615 5.017791708505118 27.46487256807749 0 0 0
192 7 3.835908674849777 4.992110904089569 27.484100594835812 0 0 0
196 7 0.14062958697249614 7.175836631392544 27.48832130261052 0 0 0
197 7 2.5836229043562926 7.198879728252127 27.482263316779374 0 0 0
221 7 0.12270309384817835 5.740115845359814 29.559705477971878 0 0 0
222 7 2.592418484474801 5.731980463555681 29.545314393440048 0 0 0
226 7 1.3693682011388175 7.915862528540482 29.5534473929574 0 0 0
227 7 3.8650999191562194 7.917416905828067 29.482459747383828 0 0 0
193 7 6.374473798956298 4.978199882691815 27.412013783528003 0 0 0
198 7 5.106318930279255 7.175348387765955 27.421006228554244 0 0 0
199 7 7.61854272422916 7.196851210725409 27.447475612409093 0 0 0
223 6 5.156789532668223 5.7186572970392575 29.489801602196746 0 0 0
224 7 7.647340095467948 5.743650031983559 29.573226184238134 0 0 0
228 7 6.394196888765604 7.9149607028743185 29.504502292302426 0 0 0
194 6 8.850865910685338 5.010523681952704 27.478834608530445 0 0 0
195 7 11.364028018245746 5.010964151352167 27.494771641716873 0 0 0
200 7 10.12475137883023 7.174171918626737 27.526580682109987 0 0 0
225 7 10.1036515087587 5.7551881940099054 29.590918278453003 0 0 0
229 7 8.84691561321756 7.8959838884434586 29.51584311876109 0 0 0
230 7 11.371787668982622 7.946104486343044 29.51351320716 0 0 0
201 5 1.3823738490511606 9.34007209125363 27.51788948025285 0 0 0
202 7 3.876016580177122 9.32391844135298 27.40016163114453 0 0 0
206 4 0.18976649996826306 11.49421959141588 27.517742066553602 0 0 0
207 7 2.6136862829278855 11.468835324305969 27.455430431351342 0 0 0
231 7 0.16597194876415575 10.093265455242422 29.56250489751498 0 0 0
232 7 2.6371125635335666 10.035843562665473 29.44118301127828 0 0 0
236 7 1.4696886633872401 12.195243263258602 29.555426949601305 0 0 0
203 7 6.374473899963309 9.294743297110267 27.41214737233475 0 0 0
208 7 5.144353377677124 11.502650155748631 27.35924957423375 0 0 0
209 6 7.593986633666279 11.539087817182134 27.634218105545923 0 0 0
233 7 5.150235063703674 10.054636109264527 29.350109205177223 0 0 0
234 7 7.605866178673537 10.093030215147706 29.657939271671907 0 0 0
238 7 6.22764052939736 12.241735298943226 29.687337805496394 0 0 0
204 7 8.840482332604372 9.380710972095802 27.604042175315108 0 0 0
205 7 11.349961385504113 9.433108274616407 27.531231265979315 0 0 0
210 7 10.158441049075364 11.569706567118896 27.5665031583648 0 0 0
235 7 10.088580336652154 10.191359237532389 29.586756761971245 0 0 0
239 4 8.886303859704247 12.266401960073399 29.72409499670133 0 0 0
240 7 11.395855516818424 12.280831692289885 29.551100256425894 0 0 0
237 3 4.043730208853411 0.31924432506159983 30.579830022390986 0 1 0
241 7 0.20019117606944256 0.11699021398938853 31.62510236918509 0 0 0
242 7 2.5692471296310524 0.15061232586689063 31.747046607446585 0 0 0
246 4 1.3449245268477552 2.255171925600428 31.6500971051892 0 0 0
247 7 3.8879351374105133 2.1538030253477487 31.644241438250905 0 0 0
244 7 7.6340741623687025 0.014798140373791097 31.715505804413002 0 0 0
248 7 6.41468211109748 2.153566382270852 31.6564434764724 0 0 0
249 7 8.856425469163241 2.1191513462019484 31.6709528980252 0 0 0
250 7 11.385318220888772 2.1582829816575257 31.64496982241867 0 0 0
255 1 10.108035552230456 4.240461422792404 31.488855943407902 0 0 0
251 7 0.14743064809684145 4.34277848630617 31.638017224539407 0 0 0
252 7 2.633400528978399 4.325346179673325 31.655007993926034 0 0 0
256 7 1.3319680666555758 6.519398346208895 31.62204234788877 0 0 0
257 6 3.791501541216532 6.506682923418754 31.653554497610838 0 0 0
286 7 0.1033042831472877 7.297168376242498 33.60231187525004 0 0 0
253 7 5.113634994416125 4.313401043878938 31.61881441495061 0 0 0
254 7 7.623393098906395 4.319574816010622 31.581839293178323 0 0 0
258 7 6.354046832887489 6.500159258284618 31.61976765021482 0 0 0
264 7 7.588257694025182 8.590150613665845 31.625675609392548 0 0 0
259 4 8.818909276256663 6.477561881582853 31.6134808539409 0 0 0
260 7 11.316260756678444 6.5105634073665355 31.57890714878511 0 0 0
284 5 8.8819842851675 5.136202643507423 33.56369418118378 0 0 0
285 4 11.351106305946255 5.180577976923718 33.62715010524781 0 0 0
290 7 10.078214722471689 7.272957033061271 33.5770447110574 0 0 0
261 7 0.179849367252248 8.73205128394733 31.64501372738788 0 0 0
262 7 2.6761538876401008 8.74095183986588 31.549295736955006 0 0 0
266 7 1.5665249217822441 10.850015233898741 31.56913501687551 0 0 0
267 4 3.92653317738323 11.299235362978777 30.86076551224296 0 0 0
292 7 3.973075729002989 9.396465017770662 33.5437169941782 0 0 0
243 7 5.179944873316412 12.910002166188315 32.12296744337653 0 -1 0
263 1 5.097221460023331 8.768873895149396 31.44826349695933 0 0 0
268 7 6.264487448968683 10.769586242181012 31.58033530218434 0 0 0
293 4 6.445873177043317 9.340599151095923 33.6841921184498 0 0 0
245 7 10.11393691858222 12.906016743513604 31.860882289810135 0 -1 0
265 6 10.103607779623632 8.702613316483154 31.532243258587876 0 0 0
269 7 8.774483405409189 10.81312624944433 31.73746763993266 0 0 0
270 7 11.427493602977833 10.927362243086975 31.608576480185537 0 0 0
296 3 11.06578552585821 11.860026405414484 33.327789864534175 -1 0 0
271 7 1.4785377615714423 0.9190915498606436 33.768591482456316 0 0 0
272 7 3.927555844878499 0.969579564334976 33.927262363537935 0 0 0
276 7 0.17849836673332517 3.01219431826266 33.72247381967454 0 0 0
277 7 2.6448322742562747 3.0887291480789276 33.784249493345186 0 0 0
301 7 0.19967911775596991 1.5750557103209246 35.744625568304 0 0 0
302 7 2.6166227427723143 1.678164339683685 35.85359945983366 0 0 0
306 4 1.4096128520566193 3.8510930551296614 35.94147795478508 0 0 0
307 7 3.988021456023196 3.7250851580858186 35.8191672316717 0 0 0
273 7 6.484093546651824 0.9810612215615814 33.932876569943936 0 0 0
278 1 5.224945776315233 3.001726709260412 33.72184716158296 0 0 0
279 7 7.733905177960634 3.0541678511706007 33.72384580257494 0 0 0
303 7 5.2643041936922055 1.6541892309638937 35.94359293525638 0 0 0
304 4 7.787487395465012 1.6207812862328177 35.96179341155977 0 0 0
308 7 6.530573021841118 3.699510247021303 35.78502170704566 0 0 0
274 7 8.859427126341664 0.9309669354695074 33.83726418812696 0 0 0
275 4 11.448890584458931 0.826347912044063 33.705866588490466 0 0 0
280 7 10.208269868792328 3.029175878470984 33.68770673389642 0 0 0
305 7 10.246591638025356 1.6235178278131304 35.70753527447754 0 0 0
309 7 9.019196104530018 3.6905283066145143 35.773970280601226 0 0 0
310 4 11.596893953764297 3.977138706196852 35.83641444639099 0 0 0
281 7 1.3292850021659939 5.195845415453511 33.83079033004044 0 0 0
282 4 3.845720712402345 5.140923024690894 33.75356428914685 0 0 0
287 7 2.638181142878605 7.304813533534262 33.73268465498848 0 0 0
312 7 2.713000152253958 5.800932411573662 35.76329380152981 0 0 0
316 7 1.2269433453105956 7.641756348285585 35.7760306987495 0 0 0
317 7 3.927690542932379 8.068528959675639 35.734190166693644 0 0 0
283 7 6.38010697290264 5.107285041269927 33.65584152319139 0 0 0
288 7 5.180320988918443 7.277279338089223 33.65886353546526 0 0 0
289 7 7.627560011040783 7.200658843447898 33.7149229266349 0 0 0
313 7 5.2436962963155125 5.897836931802975 35.694094634655286 0 0 0
314 7 7.7049849249955935 5.825401671302997 35.732393735398894 0 0 0
318 4 6.502202760212362 8.072508291525326 35.79110621203004 0 0 0
311 2 12.407084852586825 6.017581469227207 35.30765732095332 -1 0 0
315 7 10.116858594879163 5.8301531588593445 35.5652104929943 0 0 0
319 7 8.927470034341193 7.995384484541101 35.822338909567264 0 0 0
320 7 11.358599137738192 7.9334354018346485 35.548310510737565 0 0 0
350 7 11.685416178291439 6.3055169588512685 37.274090148958855 0 0 0
355 3 10.43293460011218 7.934094123154851 37.23020802274968 0 0 0
291 7 1.4685698341899025 9.444708016018875 33.72368939495128 0 0 0
297 6 3.0263011070626615 11.592770641657477 33.68222866800711 0 0 0
321 6 0.20837624025250245 10.099968209742102 35.89052189364921 0 0 0
322 7 2.7069406898131634 10.205388308087555 35.75871326388879 0 0 0
326 7 0.5059398564978983 11.671756051365312 33.659800573346565 0 0 0
327 6 3.920962052307362 12.516667756287124 36.11004026972573 0 0 0
356 4 1.4047016304893984 12.375281908102474 35.83049842834013 0 0 0
298 2 5.212053196762309 12.30530583560343 34.24713711050859 0 0 0
299 7 6.9759777400706975 11.583324234805257 33.676138449785434 0 0 0
323 6 5.241071951257282 10.249681224101492 35.648833979767424 0 0 0
324 7 7.912578241012971 10.300692213445434 35.74292794415093 0 0 0
328 7 6.525941525255285 12.511593684754704 35.95412513052631 0 0 0
294 7 8.764855939878789 9.298399836815392 33.689603354690796 0 0 0
295 6 11.259089729048226 9.726658169790692 33.757398926643944 0 0 0
300 7 9.354456524873727 11.553105467739579 34.13523544860714 0 0 0
325 7 10.242842118631183 9.856878919241757 36.80089126160886 0 0 0
329 3 9.488091415075067 11.547366923338016 36.15721900880275 0 0 0
330 4 11.238814440979333 12.101317774372792 35.538925441949274 0 0 0
335 5 9.848083682346942 0.05959863806785215 37.41480421513952 0 0 0
332 7 2.4665614722070113 0.11973988538112809 38.02216059767537 0 0 0
336 7 1.335467855147291 2.211583511052453 37.824046521847194 0 0 0
337 7 3.867789867663461 2.2167536929746214 37.85720783956111 0 0 0
341 7 0.21432506811654414 4.287216615823243 38.0576131309351 0 0 0
333 7 5.159321969132238 0.182688175638742 38.15652205934704 0 0 0
334 7 7.591839748466547 0.24350810207657406 38.213934181700395 0 0 0
338 7 6.490435602396527 2.3307566645471667 37.895905618302756 0 0 0
339 7 9.01030764161741 2.260124608581581 37.923917055592455 0 0 0
340 7 11.384478715115701 2.2462899712934763 37.70734848294536 0 0 0
342 7 2.7055415833165988 4.312253439459107 37.910940306963504 0 0 0
346 7 1.5064589239119874 6.428839014591572 37.99105081349158 0 0 0
347 6 3.9461779156103916 6.497786124358729 37.74012361339037 0 0 0
343 7 5.266245185766268 4.435310641536598 37.82017817677424 0 0 0
344 7 7.82326670375939 4.449322357674587 37.8249902544096 0 0 0
348 6 6.62812902656093 6.623020501792571 37.81945526029842 0 0 0
345 4 10.222034164308912 4.394044313997473 37.78245822413478 0 0 0
349 7 9.238322917104222 6.651123433445375 37.842790846555936 0 0 0
351 7 12.220993145110747 8.605131821225976 37.809381240938265 -1 0 0
352 6 2.4819765841539128 8.685163293459118 37.6889897746701 0 0 0
357 7 3.831801491019582 10.829346196599321 37.95901408708177 0 0 0
360 7 1.3774213914856288 10.92412088586741 37.88421475701594 1 0 0
353 7 5.111422778273441 8.691911039751844 37.869642009276774 0 0 0
354 7 7.79096364599259 8.82018556466448 37.84168829730189 0 0 0
358 6 6.4232922327349975 10.92044556313847 37.89451824451803 0 0 0
362 8 6.584078594325168 9.30090095453358 38.89435480490026 0 0 0
331 7 12.371826151673512 12.907698745251196 37.59534237464107 -1 -1 0
359 2 8.231248474545415 11.77140770830148 37.00212920303148 0 0 0
361 8 9.117602415262102 0.8297666104844055 38.870186690690176 0 1 0

Velocities

1 0 0 0
2 0 0 0
3 0 0 0
9 0 0 0
4 0 0 0
5 0 0 0
6 0 0 0
10 0 0 0
16 0 0 0
14 0 0 0
20 0 0 0
22 0 0 0
23 0 0 0
28 0 0 0
29 0 0 0
24 0 0 0
25 0 0 0
30 0 0 0
7 0 0 0
32 0 0 0
36 0 0 0
37 0 0 0
8 0 0 0
33 0 0 0
34 0 0 0
38 0 0 0
31 0 0 0
35 0 0 0
39 0 0 0
40 0 0 0
11 0 0 0
12 0 0 0
17 0 0 0
42 0 0 0
46 0 0 0
47 0 0 0
13 0 0 0
18 0 0 0
19 0 0 0
43 0 0 0
44 0 0 0
48 0 0 0
15 0 0 0
41 0 0 0
45 0 0 0
49 0 0 0
50 0 0 0
85 0 0 0
21 0 0 0
26 0 0 0
27 0 0 0
52 0 0 0
56 0 0 0
57 0 0 0
61 0 0 0
53 0 0 0
54 0 0 0
58 0 0 0
51 0 0 0
55 0 0 0
59 0 0 0
60 0 0 0
62 0 0 0
66 0 0 0
67 0 0 0
91 0 0 0
92 0 0 0
96 0 0 0
97 0 0 0
63 0 0 0
64 0 0 0
68 0 0 0
93 0 0 0
98 0 0 0
99 0 0 0
65 0 0 0
69 0 0 0
70 0 0 0
94 0 0 0
95 0 0 0
100 0 0 0
72 0 0 0
76 0 0 0
77 0 0 0
82 0 0 0
101 0 0 0
102 0 0 0
107 0 0 0
73 0 0 0
74 0 0 0
78 0 0 0
103 0 0 0
108 0 0 0
109 0 0 0
71 0 0 0
75 0 0 0
79 0 0 0
80 0 0 0
81 0 0 0
104 0 0 0
105 0 0 0
106 0 0 0
110 0 0 0
86 0 0 0
87 0 0 0
111 0 0 0
112 0 0 0
116 0 0 0
117 0 0 0
83 0 0 0
84 0 0 0
88 0 0 0
113 0 0 0
118 0 0 0
119 0 0 0
89 0 0 0
90 0 0 0
114 0 0 0
115 0 0 0
120 0 0 0
121 0 0 0
122 0 0 0
126 0 0 0
127 0 0 0
152 0 0 0
156 0 0 0
157 0 0 0
162 0 0 0
123 0 0 0
124 0 0 0
128 0 0 0
153 0 0 0
154 0 0 0
158 0 0 0
163 0 0 0
164 0 0 0
125 0 0 0
129 0 0 0
130 0 0 0
155 0 0 0
159 0 0 0
160 0 0 0
165 0 0 0
131 0 0 0
132 0 0 0
136 0 0 0
137 0 0 0
161 0 0 0
166 0 0 0
167 0 0 0
172 0 0 0
133 0 0 0
134 0 0 0
138 0 0 0
168 0 0 0
173 0 0 0
135 0 0 0
139 0 0 0
140 0 0 0
169 0 0 0
170 0 0 0
175 0 0 0
141 0 0 0
142 0 0 0
146 0 0 0
147 0 0 0
151 0 0 0
171 0 0 0
176 0 0 0
177 0 0 0
143 0 0 0
144 0 0 0
148 0 0 0
178 0 0 0
145 0 0 0
149 0 0 0
150 0 0 0
174 0 0 0
179 0 0 0
180 0 0 0
181 0 0 0
182 0 0 0
186 0 0 0
187 0 0 0
211 0 0 0
212 0 0 0
216 0 0 0
217 0 0 0
183 0 0 0
188 0 0 0
189 0 0 0
213 0 0 0
214 0 0 0
218 0 0 0
184 0 0 0
185 0 0 0
190 0 0 0
215 0 0 0
219 0 0 0
220 0 0 0
191 0 0 0
192 0 0 0
196 0 0 0
197 0 0 0
221 0 0 0
222 0 0 0
226 0 0 0
227 0 0 0
193 0 0 0
198 0 0 0
199 0 0 0
223 0 0 0
224 0 0 0
228 0 0 0
194 0 0 0
195 0 0 0
200 0 0 0
225 0 0 0
229 0 0 0
230 0 0 0
201 0 0 0
202 0 0 0
206 0 0 0
207 0 0 0
231 0 0 0
232 0 0 0
236 0 0 0
203 0 0 0
208 0 0 0
209 0 0 0
233 0 0 0
234 0 0 0
238 0 0 0
204 0 0 0
205 0 0 0
210 0 0 0
235 0 0 0
239 0 0 0
240 0 0 0
237 0 0 0
241 0 0 0
242 0 0 0
246 0 0 0
247 0 0 0
244 0 0 0
248 0 0 0
249 0 0 0
250 0 0 0
255 0 0 0
251 0 0 0
252 0 0 0
256 0 0 0
257 0 0 0
286 0 0 0
253 0 0 0
254 0 0 0
258 0 0 0
264 0 0 0
259 0 0 0
260 0 0 0
284 0 0 0
285 0 0 0
290 0 0 0
261 0 0 0
262 0 0 0
266 0 0 0
267 0 0 0
292 0 0 0
243 0 0 0
263 0 0 0
268 0 0 0
293 0 0 0
245 0 0 0
265 0 0 0
269 0 0 0
270 0 0 0
296 0 0 0
271 0 0 0
272 0 0 0
276 0 0 0
277 0 0 0
301 0 0 0
302 0 0 0
306 0 0 0
307 0 0 0
273 0 0 0
278 0 0 0
279 0 0 0
303 0 0 0
304 0 0 0
308 0 0 0
274 0 0 0
275 0 0 0
280 0 0 0
305 0 0 0
309 0 0 0
310 0 0 0
281 0 0 0
282 0 0 0
287 0 0 0
312 0 0 0
316 0 0 0
317 0 0 0
283 0 0 0
288 0 0 0
289 0 0 0
313 0 0 0
314 0 0 0
318 0 0 0
311 0 0 0
315 0 0 0
319 0 0 0
320 0 0 0
350 0 0 0
355 0 0 0
291 0 0 0
297 0 0 0
321 0 0 0
322 0 0 0
326 0 0 0
327 0 0 0
356 0 0 0
298 0 0 0
299 0 0 0
323 0 0 0
324 0 0 0
328 0 0 0
294 0 0 0
295 0 0 0
300 0 0 0
325 0 0 0
329 0 0 0
330 0 0 0
335 0 0 0
332 0 0 0
336 0 0 0
337 0 0 0
341 0 0 0
333 0 0 0
334 0 0 0
338 0 0 0
339 0 0 0
340 0 0 0
342 0 0 0
346 0 0 0
347 0 0 0
343 0 0 0
344 0 0 0
348 0 0 0
345 0 0 0
349 0 0 0
351 0 0 0
352 0 0 0
357 0 0 0
360 0 0 0
353 0 0 0
354 0 0 0
358 0 0 0
362 0 0 0
331 0 0 0
359 0 0 0
361 0 0 0
