Node: d1028  Start: Thu Jun 25 05:35:38 PM EDT 2026
LAMMPS (11 Feb 2026 - Development - patch_11Feb2026-99-gb75dfcc930-modified)
W0625 17:36:24.547000 1797884 site-packages/torch/fx/_symbolic_trace.py:56] is_fx_tracing will return true for both fx.symbolic_trace and torch.export. Please use is_fx_tracing_symbolic_tracing() for specifically fx.symbolic_trace or torch.compiler.is_compiling() for specifically torch.export/compile.
KOKKOS mode with Kokkos version 5.0.2 is enabled
  using double precision
  using view layout = legacy
  will use up to 1 GPU(s) per node
  using 1 OpenMP thread(s) per MPI task
Reading data file ...
  orthogonal box = (0 0 0) to (12.631872 15.158246 52.690537)
  1 by 1 by 1 MPI processor grid
  reading atoms ...
  362 atoms
  read_data CPU = 0.075 seconds
129 atoms in group frozen_atoms
233 atoms in group free_atoms
### Adsorbate minimization ###

CITE-CITE-CITE-CITE-CITE-CITE-CITE-CITE-CITE-CITE-CITE-CITE-CITE

Your simulation uses code contributions which should be cited:
- KOKKOS package: https://doi.org/10.1145/3731599.3767498
The log file lists these citations in BibTeX format.

CITE-CITE-CITE-CITE-CITE-CITE-CITE-CITE-CITE-CITE-CITE-CITE-CITE

Neighbor list info ...
  update: every = 1 steps, delay = 0 steps, check = yes
  max neighbors/atom: 2000, page size: 100000
  master list distance cutoff = 8
  ghost atom cutoff = 8
  binsize = 8, bins = 2 2 7
  1 neighbor lists, perpetual/occasional/extra = 1 0 0
  (1) pair mliap/kk, perpetual
      attributes: full, newton on, kokkos_device
      pair build: full/bin/kk/device
      stencil: full/bin/3d
      bin: kk/device
Setting up cg/kk style minimization ...
  Unit style    : metal
  Current step  : 0
WARNING: Fix MINIMIZE/kk not compatible with sending data in Kokkos communication (src/KOKKOS/comm_kokkos.cpp:842)
WARNING: Fix with atom-based arrays not compatible with sending data in Kokkos communication, switching to legacy exchange/border communication (src/KOKKOS/comm_kokkos.cpp:849)
WARNING: Fix MINIMIZE/kk not (yet) compatible with Kokkos sorting on device (src/KOKKOS/atom_kokkos.cpp:219)
WARNING: Fix with atom-based arrays not (yet) compatible with Kokkos sorting on device, switching to legacy host sorting (src/KOKKOS/atom_kokkos.cpp:225)
Per MPI rank memory allocation (min/avg/max) = 72.13 | 72.13 | 72.13 Mbytes
   Step         PotEng          Fmax          Fnorm          Press     
         0  -2269.6895      0.35300544     0.49465448    -13559.682    
       100  -2270.0683      0.11664479     0.29844334    -13717.729    
       200  -2270.118       0.00035449604  0.0012322172  -13763.941    
       300  -2270.118       8.9945468e-07  4.7000846e-06 -13761.595    
       327  -2270.118       1.6280196e-07  9.9227028e-07 -13761.585    
Loop time of 23.5638 on 1 procs for 327 steps with 362 atoms

98.2% CPU use with 1 MPI tasks x 1 OpenMP threads

Minimization stats:
  Stopping criterion = force tolerance
  Energy initial, next-to-last, final = 
     -2269.68954771627  -2270.11803049709  -2270.11803049709
  Force two-norm initial, final = 0.49465448 9.9227028e-07
  Force max component initial, final = 0.35300544 1.6280196e-07
  Final line search alpha, max atom move = 1 1.6280196e-07
  Iterations, force evaluations = 327 651

MPI task timing breakdown:
Section |  min time  |  avg time  |  max time  |%varavg| %total
---------------------------------------------------------------
Pair    | 23.44      | 23.44      | 23.44      |   0.0 | 99.47
Neigh   | 0.0017076  | 0.0017076  | 0.0017076  |   0.0 |  0.01
Comm    | 0.015432   | 0.015432   | 0.015432   |   0.0 |  0.07
Output  | 0.00020789 | 0.00020789 | 0.00020789 |   0.0 |  0.00
Modify  | 0.015045   | 0.015045   | 0.015045   |   0.0 |  0.06
Other   |            | 0.09146    |            |       |  0.39

Nlocal:            362 ave         362 max         362 min
Histogram: 1 0 0 0 0 0 0 0 0 0
Nghost:           1329 ave        1329 max        1329 min
Histogram: 1 0 0 0 0 0 0 0 0 0
Neighs:              0 ave           0 max           0 min
Histogram: 1 0 0 0 0 0 0 0 0 0
FullNghs:        57080 ave       57080 max       57080 min
Histogram: 1 0 0 0 0 0 0 0 0 0

Total # of neighbors = 57080
Ave neighs/atom = 157.67956
Neighbor list builds = 3
Dangerous builds = 0
### Minimization complete ###
  pe_final_eV     : -2270.11803049709
  fmax_eV_per_Ang : 1.6280196041274e-07
  natoms          : 362
System init for write_data ...
Relaxed adsorbate structure written to /projects/westgroup/akinyemi.az/mace_lammps/MHI_Nickel/calculation/adsorption/phase1_h2/results/h2_s_4_relaxed.lammps
Total wall time: 0:01:21
End: Thu Jun 25 05:37:04 PM EDT 2026
