LAMMPS (11 Feb 2026 - Development - patch_11Feb2026-99-gb75dfcc930-modified)
KOKKOS mode with Kokkos version 5.0.2 is enabled
  using double precision
  using view layout = legacy
  will use up to 1 GPU(s) per node
  using 1 OpenMP thread(s) per MPI task
package kokkos
package kokkos newton on neigh half
# LAMMPS NVT bulk equilibration — Hastelloy N + 1H
# T = 800 K | Notebook 10
# Phase 1: 250 ps equilibration
# Phase 2: 750 ps production (trajectory for NB11 MSD)
# Refs: NVT [6]; H diffusion [1,2]

units          metal
atom_style     atomic
newton         on
boundary       p p p

read_data      structures/notebook10-bulk-equilibration/Pure_Nickel/Pure_Nickel_H_initial.lammps
Reading data file ...
  orthogonal box = (0 0 0) to (17.559102 17.559102 17.559102)
  1 by 1 by 1 MPI processor grid
  reading atoms ...
  501 atoms
  read_data CPU = 0.028 seconds

pair_style     mliap unified /projects/westgroup/akinyemi.az/mace_lammps/models/mace-mp-0b2-medium.model-mliap_lammps.pt 0
pair_coeff     * * Al B C Cr Fe Mo Ni O H

neighbor       2.0 bin
neigh_modify   every 1 delay 0 check yes

# ── Identify H atom for tracking ─────────────────────────────
group          H_atom   type 9
1 atoms in group H_atom
group          metal    subtract all H_atom
500 atoms in group metal

# ── Thermo ───────────────────────────────────────────────────
thermo         1000
thermo_style   custom step temp pe ke etotal press vol

# ── Timestep ─────────────────────────────────────────────────
timestep       0.0005

# ── Initialize velocities ────────────────────────────────────
velocity       all create 800.0 42 mom yes rot yes dist gaussian

# ── Phase 1: Equilibration ───────────────────────────────────
fix            nvt_equil  all  nvt  temp  800.0  800.0  0.1
print "### Phase 1: Equilibration 250 ps at 800 K ###"
### Phase 1: Equilibration 250 ps at 800 K ###
run            500000

CITE-CITE-CITE-CITE-CITE-CITE-CITE-CITE-CITE-CITE-CITE-CITE-CITE

Your simulation uses code contributions which should be cited:

- KOKKOS package: https://doi.org/10.1145/3731599.3767498

@inproceedings{Johansson25,
 author = {A. Johansson and E. Weinberg and C. Trott and M. McCarthy and S. Moore},
 title = {{LAMMPS-KOKKOS}: {P}erformance Portable Molecular Dynamics Across Exascale Architectures},
 year = 2025,
 booktitle = {Proceedings of the SC '25 Workshops of the International Conference for High Performance Computing,
  Networking, Storage and Analysis},
 pages = {1217–1232},
}

CITE-CITE-CITE-CITE-CITE-CITE-CITE-CITE-CITE-CITE-CITE-CITE-CITE

Neighbor list info ...
  update: every = 1 steps, delay = 0 steps, check = yes
  max neighbors/atom: 2000, page size: 100000
  master list distance cutoff = 7
  ghost atom cutoff = 7
  binsize = 7, bins = 3 3 3
  1 neighbor lists, perpetual/occasional/extra = 1 0 0
  (1) pair mliap/kk, perpetual
      attributes: full, newton on, kokkos_device
      pair build: full/bin/kk/device
      stencil: full/bin/3d
      bin: kk/device
Per MPI rank memory allocation (min/avg/max) = 89.56 | 89.56 | 89.56 Mbytes
   Step          Temp          PotEng         KinEng         TotEng         Press          Volume    
         0   800           -2871.7085      51.704058     -2820.0045      11304.257      5413.8588    
      1000   703.50432     -2817.6583      45.467535     -2772.1908      56877.048      5413.8588    
      2000   805.68237     -2825.5517      52.07131      -2773.4804      51446.54       5413.8588    
      3000   838.95414     -2823.0386      54.221667     -2768.8169      54898.646      5413.8588    
      4000   843.91705     -2819.4205      54.54242      -2764.8781      57497.919      5413.8588    
      5000   809.5216      -2818.4713      52.31944      -2766.1519      58191.218      5413.8588    
      6000   804.23237     -2821.0184      51.977596     -2769.0408      55960.074      5413.8588    
      7000   746.56549     -2818.5087      48.250582     -2770.2581      57534.833      5413.8588    
      8000   833.89383     -2820.5538      53.894619     -2766.6592      56026.785      5413.8588    
      9000   807.95202     -2819.4108      52.217997     -2767.1928      56550.388      5413.8588    
     10000   785.65105     -2820.6892      50.776684     -2769.9125      55709.714      5413.8588    
     11000   792.03339     -2820.5881      51.189176     -2769.3989      56027.127      5413.8588    
     12000   802.08136     -2817.1499      51.838576     -2765.3113      59128.345      5413.8588    
     13000   816.69589     -2818.918       52.783115     -2766.1348      57635.848      5413.8588    
     14000   815.74047     -2822.2047      52.721365     -2769.4834      54772.846      5413.8588    
     15000   771.83413     -2822.064       49.883696     -2772.1803      54468.526      5413.8588    
     16000   743.78733     -2821.2586      48.071029     -2773.1876      53745.032      5413.8588    
     17000   827.17468     -2820.2865      53.460359     -2766.8261      56008.565      5413.8588    
     18000   779.05008     -2818.4627      50.350063     -2768.1127      57725.841      5413.8588    
     19000   790.29671     -2820.4824      51.076934     -2769.4055      56383.83       5413.8588    
     20000   783.02        -2822.9087      50.60664      -2772.302       54100.53       5413.8588    
     21000   789.36666     -2820.9887      51.016824     -2769.9719      55187.645      5413.8588    
     22000   796.99835     -2819.5145      51.510061     -2768.0045      56641.55       5413.8588    
     23000   759.60954     -2821.5542      49.09362      -2772.4605      54205.607      5413.8588    
     24000   754.77349     -2820.8508      48.781065     -2772.0698      54342.566      5413.8588    
     25000   813.77131     -2821.9919      52.594099     -2769.3978      54832.64       5413.8588    
     26000   818.83627     -2819.8951      52.921447     -2766.9737      56399.344      5413.8588    
     27000   798.85135     -2819.6542      51.62982      -2768.0244      56498.681      5413.8588    
     28000   764.10666     -2820.2068      49.384269     -2770.8226      55967.029      5413.8588    
     29000   784.76913     -2819.8759      50.719686     -2769.1562      56417.417      5413.8588    
     30000   841.63284     -2818.9721      54.394791     -2764.5774      58342.043      5413.8588    
     31000   808.92485     -2817.2512      52.280872     -2764.9703      58929.35       5413.8588    
     32000   747.73634     -2820.6869      48.326254     -2772.3607      54822.704      5413.8588    
     33000   796.95527     -2823.5127      51.507277     -2772.0054      53945.931      5413.8588    
     34000   796.08084     -2818.3451      51.450763     -2766.8944      57852.369      5413.8588    
     35000   763.53983     -2820.045       49.347635     -2770.6974      55716          5413.8588    
     36000   761.53903     -2820.2577      49.218322     -2771.0393      55453.281      5413.8588    
     37000   767.18136     -2819.721       49.582987     -2770.138       56498.809      5413.8588    
     38000   807.20183     -2820.2203      52.169512     -2768.0508      55817.114      5413.8588    
     39000   813.19131     -2819.3366      52.556613     -2766.78        57050.576      5413.8588    
     40000   798.24878     -2820.3887      51.590877     -2768.7979      56376.002      5413.8588    
     41000   750.48161     -2820.1971      48.503681     -2771.6935      55959.876      5413.8588    
     42000   783.48103     -2818.6965      50.636436     -2768.0601      58017.644      5413.8588    
     43000   852.24614     -2819.1835      55.080729     -2764.1028      57938.765      5413.8588    
     44000   798.87678     -2818.8652      51.631464     -2767.2337      57547.719      5413.8588    
     45000   799.94969     -2821.7052      51.700807     -2770.0044      54961.046      5413.8588    
     46000   832.31745     -2821.6416      53.792737     -2767.8489      54891.534      5413.8588    
     47000   794.65089     -2817.5635      51.358345     -2766.2051      58340.135      5413.8588    
     48000   813.18259     -2819.8745      52.55605      -2767.3185      56960.587      5413.8588    
     49000   784.73618     -2819.2245      50.717556     -2768.507       56754.028      5413.8588    
     50000   755.1722      -2822.9331      48.806834     -2774.1263      53457.274      5413.8588    
     51000   771.80935     -2821.6638      49.882094     -2771.7817      55101.271      5413.8588    
     52000   806.62624     -2822.3994      52.132312     -2770.2671      54173.813      5413.8588    
     53000   825.60793     -2821.0026      53.3591       -2767.6435      55747.192      5413.8588    
     54000   772.07465     -2820.3155      49.89924      -2770.4163      55143.173      5413.8588    
     55000   809.2329      -2822.1569      52.300781     -2769.8561      54491.169      5413.8588    
     56000   783.08253     -2818.6558      50.61068      -2768.0451      57355.706      5413.8588    
     57000   835.02149     -2819.2792      53.967499     -2765.3117      57230.705      5413.8588    
     58000   847.25109     -2818.3334      54.7579       -2763.5755      58386.994      5413.8588    
     59000   768.58643     -2817.5549      49.673797     -2767.8811      58340.895      5413.8588    
     60000   796.12029     -2820.3776      51.453312     -2768.9243      56055.776      5413.8588    
     61000   842.3569      -2819.886       54.441588     -2765.4444      57497.121      5413.8588    
     62000   793.26236     -2817.3358      51.268604     -2766.0672      58818.834      5413.8588    
     63000   787.74146     -2817.382       50.911788     -2766.4702      58999.988      5413.8588    
     64000   778.8711      -2824.2238      50.338496     -2773.8853      52540.545      5413.8588    
     65000   795.73935     -2822.897       51.428692     -2771.4683      54391.447      5413.8588    
     66000   826.37052     -2821.2147      53.408387     -2767.8063      55614.566      5413.8588    
     67000   794.45798     -2816.8742      51.345877     -2765.5283      59230.309      5413.8588    
     68000   701.6469      -2823.8623      45.34749      -2778.5149      51753.516      5413.8588    
     69000   809.1765      -2819.4548      52.297136     -2767.1577      56912.175      5413.8588    
     70000   812.62563     -2820.5665      52.520053     -2768.0465      56350.17       5413.8588    
     71000   768.9188      -2820.8088      49.695278     -2771.1135      55309.49       5413.8588    
     72000   819.11277     -2822.0188      52.939318     -2769.0795      54553.913      5413.8588    
     73000   766.99563     -2820.8439      49.570983     -2771.2729      54924.846      5413.8588    
     74000   812.85206     -2820.2626      52.534688     -2767.7279      56401.878      5413.8588    
     75000   825.36551     -2819.6163      53.343433     -2766.2728      56781.369      5413.8588    
     76000   814.20581     -2817.1267      52.62218      -2764.5045      58912.845      5413.8588    
     77000   808.00007     -2820.5747      52.221103     -2768.3536      56110.176      5413.8588    
     78000   819.79864     -2821.977       52.983646     -2768.9934      54550.646      5413.8588    
     79000   811.06496     -2819.2324      52.419187     -2766.8132      57397.924      5413.8588    
     80000   818.11433     -2818.7037      52.874788     -2765.8289      57945.551      5413.8588    
     81000   813.08413     -2818.2327      52.549687     -2765.683       58637.963      5413.8588    
     82000   730.34375     -2823.1904      47.20217      -2775.9882      53094.013      5413.8588    
     83000   806.45997     -2819.3805      52.121567     -2767.2589      56225.26       5413.8588    
     84000   855.82852     -2822.1119      55.312259     -2766.7996      55165.274      5413.8588    
     85000   790.30443     -2821.1409      51.077432     -2770.0635      55789.843      5413.8588    
     86000   749.47788     -2822.3717      48.438809     -2773.9329      54108.754      5413.8588    
     87000   752.82539     -2819.7936      48.655159     -2771.1384      56070.602      5413.8588    
     88000   790.42536     -2819.7176      51.085248     -2768.6324      57131.915      5413.8588    
     89000   886.06977     -2820.5294      57.266753     -2763.2626      57625.906      5413.8588    
     90000   828.01764     -2818.555       53.51484      -2765.0402      58003.914      5413.8588    
     91000   752.17874     -2816.6925      48.613367     -2768.0792      58531.617      5413.8588    
     92000   785.35466     -2821.1792      50.757529     -2770.4216      55619.44       5413.8588    
     93000   834.15068     -2821.009       53.911219     -2767.0978      56751.73       5413.8588    
     94000   800.42921     -2819.3731      51.731798     -2767.6413      57449.589      5413.8588    
     95000   815.3917      -2823.5524      52.698825     -2770.8536      53213.994      5413.8588    
     96000   758.64133     -2819.4938      49.031044     -2770.4627      56631.913      5413.8588    
     97000   832.37798     -2822.9308      53.796649     -2769.1342      53943.216      5413.8588    
     98000   872.69335     -2815.8348      56.402234     -2759.4326      60826.119      5413.8588    
     99000   789.40452     -2822.0011      51.019271     -2770.9819      54789.327      5413.8588    
    100000   787.22377     -2823.0863      50.878329     -2772.208       53378.422      5413.8588    
    101000   817.60736     -2820.2962      52.842023     -2767.4542      56025.329      5413.8588    
    102000   776.44847     -2817.7405      50.181921     -2767.5586      57699.929      5413.8588    
    103000   797.98861     -2819.9412      51.574061     -2768.3672      56580.268      5413.8588    
    104000   769.09373     -2822.665       49.706583     -2772.9585      53985.186      5413.8588    
    105000   777.87749     -2820.767       50.274278     -2770.4928      56073.721      5413.8588    
    106000   815.68873     -2818.8442      52.718022     -2766.1262      57799.881      5413.8588    
    107000   806.79135     -2820.6429      52.142984     -2768.4999      56092.616      5413.8588    
    108000   802.43325     -2822.3377      51.861319     -2770.4764      53931.132      5413.8588    
    109000   799.84732     -2822.3964      51.694191     -2770.7022      54272.776      5413.8588    
    110000   795.99191     -2819.2467      51.445015     -2767.8017      57635.089      5413.8588    
    111000   824.98097     -2820.6029      53.31858      -2767.2843      56115.161      5413.8588    
    112000   772.51248     -2818.0142      49.927538     -2768.0867      58318.618      5413.8588    
    113000   752.89439     -2819.9656      48.659619     -2771.306       56064.134      5413.8588    
    114000   790.42591     -2820.5733      51.085284     -2769.488       55905.648      5413.8588    
    115000   853.33391     -2820.6816      55.151032     -2765.5306      56401.611      5413.8588    
    116000   817.94331     -2819.8485      52.863735     -2766.9848      56917.757      5413.8588    
    117000   792.21993     -2823.0105      51.201231     -2771.8093      53605.536      5413.8588    
    118000   816.80334     -2825.7107      52.790059     -2772.9207      51140.288      5413.8588    
    119000   823.56412     -2820.5877      53.227009     -2767.3607      55735.122      5413.8588    
    120000   855.07491     -2822.1214      55.263553     -2766.8579      55033.381      5413.8588    
    121000   834.00589     -2822.4349      53.901861     -2768.5331      54905.107      5413.8588    
    122000   774.03629     -2820.8188      50.026021     -2770.7928      55762.835      5413.8588    
    123000   803.02462     -2820.3067      51.899539     -2768.4072      55698.774      5413.8588    
    124000   848.28839     -2819.1073      54.82494      -2764.2823      57109.585      5413.8588    
    125000   840.37391     -2819.1339      54.313427     -2764.8204      57493.99       5413.8588    
    126000   808.90388     -2819.4288      52.279516     -2767.1493      57279.713      5413.8588    
    127000   794.99694     -2822.4543      51.38071      -2771.0736      54388.071      5413.8588    
    128000   762.39114     -2822.9299      49.273395     -2773.6565      53266.384      5413.8588    
    129000   817.41547     -2819.3135      52.829621     -2766.4839      57117.114      5413.8588    
    130000   833.98969     -2822.9207      53.900814     -2769.0199      54087.588      5413.8588    
    131000   772.8818      -2820.822       49.951407     -2770.8706      55456.151      5413.8588    
    132000   757.01079     -2819.4364      48.925662     -2770.5107      56419.387      5413.8588    
    133000   818.60846     -2820.0887      52.906724     -2767.182       56999.249      5413.8588    
    134000   812.09699     -2819.3201      52.485887     -2766.8342      57089.344      5413.8588    
    135000   791.24725     -2821.3616      51.138367     -2770.2232      55006.682      5413.8588    
    136000   755.52776     -2823.334       48.829814     -2774.5042      53153.35       5413.8588    
    137000   779.54259     -2818.5657      50.381894     -2768.1838      57544.838      5413.8588    
    138000   832.54828     -2820.7351      53.807656     -2766.9274      56759.926      5413.8588    
    139000   772.99233     -2820.6373      49.95855      -2770.6788      55722.301      5413.8588    
    140000   770.71517     -2822.9627      49.811377     -2773.1513      53358.357      5413.8588    
    141000   849.675       -2822.4509      54.914557     -2767.5364      54994.513      5413.8588    
    142000   803.20363     -2822.0567      51.911109     -2770.1456      55241.74       5413.8588    
    143000   791.25281     -2821.2661      51.138726     -2770.1273      55305.434      5413.8588    
    144000   855.01333     -2819.398       55.259573     -2764.1385      57674.55       5413.8588    
    145000   824.65561     -2816.8397      53.297552     -2763.5422      59284.811      5413.8588    
    146000   793.03804     -2820.3635      51.254106     -2769.1094      56124.938      5413.8588    
    147000   790.15239     -2820.4258      51.067606     -2769.3582      56152.145      5413.8588    
    148000   798.40276     -2820.0738      51.600828     -2768.473       56441.313      5413.8588    
    149000   813.98498     -2817.4618      52.607908     -2764.8539      58988.915      5413.8588    
    150000   797.61906     -2818.5754      51.550178     -2767.0252      57886.26       5413.8588    
    151000   786.91345     -2823.7752      50.858274     -2772.9169      52817.226      5413.8588    
    152000   759.36402     -2821.5717      49.077752     -2772.4939      54400.41       5413.8588    
    153000   799.88966     -2820.9933      51.696927     -2769.2964      56219.547      5413.8588    
    154000   839.25181     -2819.5472      54.240905     -2765.3063      57486.043      5413.8588    
    155000   878.49183     -2819.9603      56.776991     -2763.1833      56802.16       5413.8588    
    156000   820.02288     -2817.3496      52.998138     -2764.3515      58233.492      5413.8588    
    157000   836.63914     -2824.206       54.072048     -2770.134       52788.414      5413.8588    
    158000   799.35571     -2820.7949      51.662418     -2769.1325      55636.025      5413.8588    
    159000   789.63852     -2818.4458      51.034395     -2767.4114      57537.272      5413.8588    
    160000   805.45642     -2823.4031      52.056707     -2771.3464      53169.571      5413.8588    
    161000   748.57006     -2820.5209      48.380137     -2772.1407      55669.343      5413.8588    
    162000   780.43592     -2819.3555      50.43963      -2768.9158      57400.75       5413.8588    
    163000   795.58958     -2819.0125      51.419012     -2767.5934      57951.398      5413.8588    
    164000   759.58017     -2821.425       49.091722     -2772.3333      54522.059      5413.8588    
    165000   751.76479     -2818.0483      48.586613     -2769.4617      57326.058      5413.8588    
    166000   792.32334     -2816.917       51.207915     -2765.7091      59560.557      5413.8588    
    167000   841.5665      -2821.5225      54.390504     -2767.132       56235.8        5413.8588    
    168000   773.86864     -2820.344       50.015186     -2770.3288      56132.582      5413.8588    
    169000   824.72437     -2819.2145      53.301996     -2765.9125      57199.554      5413.8588    
    170000   813.40224     -2817.6906      52.570246     -2765.1204      59014.802      5413.8588    
    171000   781.73003     -2818.3524      50.523269     -2767.8292      57665.856      5413.8588    
    172000   760.53355     -2819.9329      49.153339     -2770.7796      56083.241      5413.8588    
    173000   762.85884     -2817.1531      49.303622     -2767.8495      59963.432      5413.8588    
    174000   813.2768      -2818.3738      52.562139     -2765.8117      58359.478      5413.8588    
    175000   830.45572     -2820.4459      53.672414     -2766.7735      56376.482      5413.8588    
    176000   778.6332      -2819.8957      50.32312      -2769.5726      57006.758      5413.8588    
    177000   807.58211     -2820.8302      52.19409      -2768.6361      55639.37       5413.8588    
    178000   838.72685     -2819.4907      54.206977     -2765.2838      57731.297      5413.8588    
    179000   843.91834     -2817.3655      54.542503     -2762.823       59468.13       5413.8588    
    180000   755.2435      -2821.6134      48.811442     -2772.8019      54857.747      5413.8588    
    181000   788.26561     -2818.7365      50.945663     -2767.7908      58226.878      5413.8588    
    182000   814.99588     -2819.1428      52.673243     -2766.4695      57810.643      5413.8588    
    183000   769.05034     -2816.5613      49.703779     -2766.8576      59475.607      5413.8588    
    184000   807.82043     -2820.0671      52.209493     -2767.8576      56796.252      5413.8588    
    185000   785.93801     -2822.9736      50.795231     -2772.1784      53317.044      5413.8588    
    186000   783.55637     -2819.7728      50.641305     -2769.1315      56118.401      5413.8588    
    187000   846.64481     -2820.2213      54.718716     -2765.5026      57611.842      5413.8588    
    188000   784.86266     -2819.0698      50.72573      -2768.344       56714.353      5413.8588    
    189000   809.1473      -2817.9459      52.295249     -2765.6507      58819.033      5413.8588    
    190000   736.10422     -2820.3333      47.574469     -2772.7588      55200.823      5413.8588    
    191000   796.19184     -2818.8522      51.457936     -2767.3942      56472.665      5413.8588    
    192000   820.35375     -2818.8791      53.019523     -2765.8595      57721.425      5413.8588    
    193000   778.89201     -2818.3911      50.339847     -2768.0513      57153.381      5413.8588    
    194000   794.07462     -2822.0629      51.3211       -2770.7418      54621.224      5413.8588    
    195000   795.47794     -2821.411       51.411797     -2769.9992      55187.035      5413.8588    
    196000   838.08738     -2820.8263      54.165648     -2766.6607      56489.277      5413.8588    
    197000   805.83874     -2819.2374      52.081416     -2767.156       57130.597      5413.8588    
    198000   808.47244     -2819.2533      52.251632     -2767.0017      56676.911      5413.8588    
    199000   819.74296     -2821.3334      52.980047     -2768.3534      55678.626      5413.8588    
    200000   789.51649     -2820.8981      51.026508     -2769.8716      55710.268      5413.8588    
    201000   871.16169     -2818.2528      56.303243     -2761.9495      58632.807      5413.8588    
    202000   839.82313     -2819.4235      54.27783      -2765.1457      57707.329      5413.8588    
    203000   836.84645     -2821.5714      54.085447     -2767.486       55802.338      5413.8588    
    204000   800.07799     -2821.4201      51.709098     -2769.711       54975.592      5413.8588    
    205000   819.98604     -2820.7189      52.995757     -2767.7231      55874.005      5413.8588    
    206000   790.08768     -2818.6665      51.063424     -2767.603       57248.018      5413.8588    
    207000   751.05818     -2820.7215      48.540945     -2772.1806      55242.294      5413.8588    
    208000   783.99866     -2823.2115      50.66989      -2772.5416      53575.036      5413.8588    
    209000   820.27797     -2819.0127      53.014625     -2765.9981      57468.145      5413.8588    
    210000   752.43722     -2817.2511      48.630072     -2768.6211      58531.251      5413.8588    
    211000   750.21811     -2823.1446      48.486651     -2774.658       53758.812      5413.8588    
    212000   801.86287     -2819.9312      51.824455     -2768.1067      56876.869      5413.8588    
    213000   813.90142     -2818.3973      52.602508     -2765.7948      58463.342      5413.8588    
    214000   784.09056     -2823.5821      50.67583      -2772.9063      52665.605      5413.8588    
    215000   778.49424     -2821.2782      50.314139     -2770.964       55408.391      5413.8588    
    216000   791.39811     -2819.2472      51.148117     -2768.0991      56986.14       5413.8588    
    217000   837.49509     -2820.0536      54.127369     -2765.9262      56867.46       5413.8588    
    218000   828.82076     -2819.6327      53.566746     -2766.066       57490.984      5413.8588    
    219000   784.21875     -2820.217       50.684115     -2769.5329      55670.822      5413.8588    
    220000   863.00313     -2821.5007      55.775955     -2765.7248      55465.498      5413.8588    
    221000   850.70549     -2819.1854      54.981158     -2764.2043      57370.766      5413.8588    
    222000   832.23871     -2821.2528      53.787648     -2767.4652      55616.398      5413.8588    
    223000   767.10712     -2820.8216      49.578189     -2771.2434      54516.988      5413.8588    
    224000   770.73608     -2818.9723      49.812728     -2769.1596      56921.525      5413.8588    
    225000   859.70071     -2821.2205      55.562519     -2765.658       56042.433      5413.8588    
    226000   795.0583      -2820.8396      51.384676     -2769.4549      55084.876      5413.8588    
    227000   804.68841     -2824.3568      52.00707      -2772.3497      52822.876      5413.8588    
    228000   813.82483     -2823.2605      52.597558     -2770.663       52854.971      5413.8588    
    229000   820.81979     -2819.2995      53.049642     -2766.2499      57054.558      5413.8588    
    230000   789.08065     -2818.3958      50.998339     -2767.3975      57483.984      5413.8588    
    231000   732.35353     -2822.1703      47.332062     -2774.8382      54545.851      5413.8588    
    232000   772.60977     -2821.0415      49.933825     -2771.1077      55207.346      5413.8588    
    233000   813.30227     -2821.6884      52.563785     -2769.1247      54812.726      5413.8588    
    234000   857.58168     -2822.6489      55.425566     -2767.2233      54324.057      5413.8588    
    235000   805.75489     -2818.402       52.075997     -2766.326       57338.261      5413.8588    
    236000   782.12754     -2820.7194      50.54896      -2770.1705      55607.183      5413.8588    
    237000   751.05093     -2820.3349      48.540476     -2771.7944      55528.663      5413.8588    
    238000   811.49773     -2820.2816      52.447157     -2767.8344      56346.261      5413.8588    
    239000   764.95629     -2820.7272      49.439181     -2771.288       55209.653      5413.8588    
    240000   772.46007     -2819.4228      49.92415      -2769.4986      56414.89       5413.8588    
    241000   809.32503     -2819.5778      52.306735     -2767.2711      56491.151      5413.8588    
    242000   785.37514     -2815.5836      50.758852     -2764.8247      60182.494      5413.8588    
    243000   771.61657     -2817.9122      49.869635     -2768.0426      58888.6        5413.8588    
    244000   784.34402     -2821.8817      50.692211     -2771.1894      54497.652      5413.8588    
    245000   792.40648     -2818.76        51.213288     -2767.5468      57563.474      5413.8588    
    246000   794.55867     -2819.1773      51.352385     -2767.8249      57183.441      5413.8588    
    247000   803.97414     -2822.9923      51.960907     -2771.0314      54072.079      5413.8588    
    248000   802.52675     -2821.5013      51.867362     -2769.634       54717.249      5413.8588    
    249000   836.33525     -2820.3342      54.052408     -2766.2818      57046.148      5413.8588    
    250000   743.68478     -2820.4857      48.064401     -2772.4212      55332.584      5413.8588    
    251000   771.48957     -2820.8835      49.861427     -2771.0221      56095.473      5413.8588    
    252000   779.60754     -2817.0352      50.386092     -2766.6491      59495.558      5413.8588    
    253000   805.04708     -2819.5951      52.030251     -2767.5649      56987.085      5413.8588    
    254000   807.87512     -2821.7681      52.213027     -2769.555       55050.025      5413.8588    
    255000   800.82912     -2823.384       51.757644     -2771.6264      53894.031      5413.8588    
    256000   756.98539     -2819.8272      48.924021     -2770.9032      55631.963      5413.8588    
    257000   792.58092     -2823.2874      51.224562     -2772.0629      53242.309      5413.8588    
    258000   848.39049     -2820.5059      54.831539     -2765.6744      56892.094      5413.8588    
    259000   781.63696     -2817.2699      50.517253     -2766.7527      58488.002      5413.8588    
    260000   762.6029      -2820.5409      49.287081     -2771.2538      55743.719      5413.8588    
    261000   779.2171      -2822.8151      50.360858     -2772.4542      53435.815      5413.8588    
    262000   761.0416      -2820.2489      49.186174     -2771.0627      55588.107      5413.8588    
    263000   815.42895     -2819.0516      52.701232     -2766.3504      58122.598      5413.8588    
    264000   809.68455     -2819.6229      52.329971     -2767.2929      56654.162      5413.8588    
    265000   745.33698     -2819.0553      48.171183     -2770.8841      56491.307      5413.8588    
    266000   796.86604     -2820.6998      51.50151      -2769.1983      55842.115      5413.8588    
    267000   810.02492     -2819.1368      52.351969     -2766.7848      57563.204      5413.8588    
    268000   816.86252     -2820.4583      52.793884     -2767.6644      56358.272      5413.8588    
    269000   813.62242     -2823.3061      52.584476     -2770.7216      54219.655      5413.8588    
    270000   804.29442     -2820.5783      51.981606     -2768.5967      56270.494      5413.8588    
    271000   877.46326     -2818.787       56.710514     -2762.0764      58307.243      5413.8588    
    272000   764.124       -2817.986       49.385389     -2768.6006      57953.201      5413.8588    
    273000   787.82446     -2822.0611      50.917152     -2771.144       54555.209      5413.8588    
    274000   773.52712     -2818.4902      49.993114     -2768.4971      57914.749      5413.8588    
    275000   822.21602     -2819.967       53.139881     -2766.8272      57347.857      5413.8588    
    276000   827.12145     -2818.5692      53.456919     -2765.1123      58409.945      5413.8588    
    277000   837.80813     -2820.0068      54.1476       -2765.8592      57147.397      5413.8588    
    278000   793.06913     -2820.8756      51.256116     -2769.6195      55506.888      5413.8588    
    279000   837.40369     -2822.4676      54.121461     -2768.3462      54389.005      5413.8588    
    280000   823.25363     -2820.5561      53.206942     -2767.3492      56732.186      5413.8588    
    281000   846.40011     -2821.9306      54.7029       -2767.2277      55204.737      5413.8588    
    282000   781.51811     -2820.2273      50.509572     -2769.7177      55665.207      5413.8588    
    283000   800.34955     -2823.8483      51.726649     -2772.1217      52998.329      5413.8588    
    284000   788.00348     -2820.0628      50.928722     -2769.1341      56271.085      5413.8588    
    285000   779.57739     -2817.7221      50.384143     -2767.3379      58010.066      5413.8588    
    286000   821.59093     -2822.8528      53.099482     -2769.7533      54528.252      5413.8588    
    287000   773.51031     -2822.5995      49.992027     -2772.6075      53893.692      5413.8588    
    288000   778.77483     -2820.8008      50.332274     -2770.4685      55441.146      5413.8588    
    289000   788.78871     -2819.8469      50.979472     -2768.8675      56810.313      5413.8588    
    290000   801.30288     -2814.6547      51.788263     -2762.8664      61251.477      5413.8588    
    291000   767.35091     -2820.6331      49.593945     -2771.0391      55369.555      5413.8588    
    292000   785.68344     -2822.8223      50.778777     -2772.0435      54040.074      5413.8588    
    293000   804.13621     -2818.3723      51.971382     -2766.4009      58298.189      5413.8588    
    294000   790.1624      -2816.1793      51.068253     -2765.111       59948.239      5413.8588    
    295000   766.72403     -2818.831       49.553429     -2769.2775      56632.471      5413.8588    
    296000   782.73546     -2816.2036      50.588249     -2765.6154      59830.11       5413.8588    
    297000   803.2139      -2818.6275      51.911773     -2766.7157      58258.654      5413.8588    
    298000   765.44769     -2818.0279      49.470939     -2768.5569      57932.279      5413.8588    
    299000   761.78836     -2822.1423      49.234437     -2772.9079      53776.629      5413.8588    
    300000   808.231       -2821.327       52.236028     -2769.091       54754.758      5413.8588    
    301000   822.86163     -2819.277       53.181607     -2766.0954      56739.011      5413.8588    
    302000   800.80891     -2817.5604      51.756338     -2765.8041      58135.596      5413.8588    
    303000   769.30283     -2816.6794      49.720098     -2766.9593      59134.115      5413.8588    
    304000   800.07432     -2820.9092      51.708861     -2769.2004      55489.794      5413.8588    
    305000   773.65494     -2820.4619      50.001375     -2770.4605      55921.913      5413.8588    
    306000   778.87963     -2816.3068      50.339047     -2765.9678      59053.044      5413.8588    
    307000   859.76446     -2821.7238      55.566639     -2766.1571      55867.745      5413.8588    
    308000   797.94814     -2819.8955      51.571446     -2768.3241      56290.355      5413.8588    
    309000   791.23667     -2821.5844      51.137683     -2770.4467      55034.544      5413.8588    
    310000   763.28691     -2822.9042      49.331288     -2773.5729      53425.421      5413.8588    
    311000   769.77616     -2816.7434      49.750689     -2766.9927      58924.28       5413.8588    
    312000   821.88774     -2819.0051      53.118664     -2765.8864      57564.551      5413.8588    
    313000   774.18412     -2821.7889      50.035576     -2771.7533      54481.288      5413.8588    
    314000   795.91491     -2822.6358      51.440038     -2771.1957      53548.753      5413.8588    
    315000   801.55977     -2818.9835      51.804866     -2767.1786      57234.544      5413.8588    
    316000   755.21907     -2820.3371      48.809863     -2771.5273      55594.149      5413.8588    
    317000   777.81483     -2821.0361      50.270229     -2770.7659      55644.327      5413.8588    
    318000   782.38183     -2818.7996      50.565395     -2768.2342      57278.18       5413.8588    
    319000   824.25813     -2820.0788      53.271863     -2766.8069      57180.259      5413.8588    
    320000   822.90763     -2822.3711      53.18458      -2769.1865      54638.335      5413.8588    
    321000   787.60418     -2820.2885      50.902915     -2769.3856      55482.52       5413.8588    
    322000   810.32506     -2818.2184      52.371367     -2765.847       58568.185      5413.8588    
    323000   826.02985     -2822.1624      53.386369     -2768.7761      55294.554      5413.8588    
    324000   809.13672     -2818.2414      52.294565     -2765.9469      58269.322      5413.8588    
    325000   840.12809     -2817.5326      54.297539     -2763.2351      59618.22       5413.8588    
    326000   822.06016     -2820.1763      53.129808     -2767.0464      57013.233      5413.8588    
    327000   804.42594     -2822.0326      51.990107     -2770.0425      55282.382      5413.8588    
    328000   789.45323     -2822.3738      51.022419     -2771.3514      53805.666      5413.8588    
    329000   744.43723     -2822.1055      48.113032     -2773.9925      53915.214      5413.8588    
    330000   782.936       -2819.4968      50.601211     -2768.8956      56914.358      5413.8588    
    331000   787.82543     -2818.5873      50.917215     -2767.6701      56997.197      5413.8588    
    332000   823.60155     -2819.8928      53.229428     -2766.6634      57233.625      5413.8588    
    333000   798.28078     -2824.8039      51.592945     -2773.211       51912.311      5413.8588    
    334000   763.20803     -2821.3871      49.32619      -2772.0609      54285.307      5413.8588    
    335000   823.83107     -2821.4265      53.244262     -2768.1822      55345.028      5413.8588    
    336000   824.45825     -2819.1801      53.284797     -2765.8953      57321.334      5413.8588    
    337000   760.83118     -2817.6411      49.172574     -2768.4685      58119.015      5413.8588    
    338000   754.6591      -2822.5869      48.773672     -2773.8132      53957.526      5413.8588    
    339000   802.21938     -2818.5034      51.847497     -2766.6559      58174.483      5413.8588    
    340000   849.92254     -2821.0153      54.930555     -2766.0848      56492.957      5413.8588    
    341000   725.13573     -2819.0885      46.865575     -2772.223       56372.197      5413.8588    
    342000   760.66053     -2820.901       49.161545     -2771.7395      54835.518      5413.8588    
    343000   795.67299     -2819.3793      51.424403     -2767.9549      56385.589      5413.8588    
    344000   782.1438      -2817.8005      50.55001      -2767.2505      57851.59       5413.8588    
    345000   792.41288     -2819.2578      51.213702     -2768.0441      56702.467      5413.8588    
    346000   817.18109     -2821.4536      52.814473     -2768.6391      55657.386      5413.8588    
    347000   832.29068     -2822.9231      53.791007     -2769.1321      54023.273      5413.8588    
    348000   799.5539      -2819.8023      51.675226     -2768.1271      56469.876      5413.8588    
    349000   762.33739     -2819.8511      49.269921     -2770.5812      55579.068      5413.8588    
    350000   804.29989     -2819.9609      51.98196      -2767.979       56082.591      5413.8588    
    351000   787.47777     -2815.5156      50.894745     -2764.6209      60646.704      5413.8588    
    352000   810.89051     -2819.8901      52.407913     -2767.4822      56978.578      5413.8588    
    353000   764.12023     -2820.3728      49.385146     -2770.9877      55397.606      5413.8588    
    354000   770.37109     -2820.5599      49.789139     -2770.7708      56213.571      5413.8588    
    355000   813.67158     -2811.4647      52.587653     -2758.8771      63288.569      5413.8588    
    356000   839.32135     -2823.449       54.245399     -2769.2036      53968.257      5413.8588    
    357000   759.63592     -2817.7824      49.095325     -2768.6871      58589.106      5413.8588    
    358000   841.87003     -2819.6418      54.410121     -2765.2317      57176.411      5413.8588    
    359000   834.10806     -2818.8725      53.908464     -2764.9641      57589.099      5413.8588    
    360000   787.36456     -2820.4692      50.887428     -2769.5818      55636.448      5413.8588    
    361000   819.86936     -2821.0887      52.988216     -2768.1005      55525.404      5413.8588    
    362000   771.67466     -2820.2288      49.873389     -2770.3554      55489.089      5413.8588    
    363000   758.31835     -2820.5732      49.01017      -2771.563       55380.334      5413.8588    
    364000   771.22422     -2821.3965      49.844277     -2771.5523      54625.309      5413.8588    
    365000   806.39161     -2819.6251      52.117149     -2767.5079      56580.547      5413.8588    
    366000   804.32452     -2818.8809      51.983552     -2766.8973      57591.684      5413.8588    
    367000   798.54133     -2820.2938      51.609784     -2768.6841      56320.086      5413.8588    
    368000   762.44185     -2822.2289      49.276672     -2772.9523      54808.747      5413.8588    
    369000   806.07171     -2824.4224      52.096473     -2772.3259      52515.686      5413.8588    
    370000   824.20428     -2820.2968      53.268383     -2767.0284      56675.199      5413.8588    
    371000   813.27518     -2819.7764      52.562034     -2767.2144      56620.373      5413.8588    
    372000   776.01895     -2819.9194      50.154161     -2769.7652      55809.827      5413.8588    
    373000   783.58272     -2820.1988      50.643008     -2769.5557      55556.124      5413.8588    
    374000   850.51813     -2820.7264      54.969048     -2765.7573      57086.221      5413.8588    
    375000   790.41025     -2822.433       51.084272     -2771.3487      54259.131      5413.8588    
    376000   780.76488     -2822.5313      50.46089      -2772.0704      54422.202      5413.8588    
    377000   777.44216     -2819.5173      50.246143     -2769.2711      56651.327      5413.8588    
    378000   790.69876     -2818.8445      51.102918     -2767.7416      57240.169      5413.8588    
    379000   824.11984     -2821.0591      53.262925     -2767.7962      56304.872      5413.8588    
    380000   793.87558     -2823.1028      51.308236     -2771.7945      53696.694      5413.8588    
    381000   791.13387     -2819.9995      51.131039     -2768.8684      56425.388      5413.8588    
    382000   795.07108     -2819.4587      51.385502     -2768.0732      56231.59       5413.8588    
    383000   802.98774     -2818.1515      51.897156     -2766.2543      57884.104      5413.8588    
    384000   817.47447     -2821.2641      52.833435     -2768.4307      55379.145      5413.8588    
    385000   748.98066     -2819.9127      48.406674     -2771.506       56345.053      5413.8588    
    386000   753.17242     -2823.2412      48.677588     -2774.5636      53528.321      5413.8588    
    387000   805.64879     -2818.4064      52.069139     -2766.3372      58160.715      5413.8588    
    388000   819.19407     -2817.923       52.944572     -2764.9784      59219.985      5413.8588    
    389000   814.95042     -2820.9775      52.670305     -2768.3072      56154.949      5413.8588    
    390000   798.17265     -2821.1467      51.585957     -2769.5608      55344.209      5413.8588    
    391000   736.74081     -2816.3186      47.615612     -2768.7029      59042.303      5413.8588    
    392000   838.52839     -2818.4483      54.19415      -2764.2542      58206.793      5413.8588    
    393000   827.22783     -2816.8211      53.463794     -2763.3573      58793.146      5413.8588    
    394000   830.49583     -2819.3171      53.675006     -2765.6421      57292.893      5413.8588    
    395000   808.42793     -2820.9246      52.248756     -2768.6758      54987.34       5413.8588    
    396000   758.43445     -2819.4116      49.017674     -2770.394       55973.946      5413.8588    
    397000   794.72486     -2822.402       51.363125     -2771.0389      54752.666      5413.8588    
    398000   826.60237     -2817.6597      53.423371     -2764.2364      58680.655      5413.8588    
    399000   807.49325     -2816.7073      52.188347     -2764.519       59811.526      5413.8588    
    400000   817.79846     -2819.6785      52.854374     -2766.8241      57349.045      5413.8588    
    401000   800.01041     -2821.0683      51.704731     -2769.3636      56211.892      5413.8588    
    402000   779.68785     -2819.3495      50.391282     -2768.9582      57458.995      5413.8588    
    403000   795.8378      -2815.9935      51.435055     -2764.5585      59692.529      5413.8588    
    404000   826.38617     -2817.3679      53.409398     -2763.9585      59506.212      5413.8588    
    405000   755.24625     -2816.1697      48.81162      -2767.3581      59119.852      5413.8588    
    406000   751.43831     -2818.6418      48.565513     -2770.0763      57323.621      5413.8588    
    407000   779.2008      -2819.028       50.359804     -2768.6682      57254.551      5413.8588    
    408000   787.00658     -2819.4433      50.864292     -2768.579       56576.647      5413.8588    
    409000   834.57033     -2817.9802      53.938341     -2764.0418      58524.279      5413.8588    
    410000   830.21654     -2816.5907      53.656955     -2762.9338      59699.413      5413.8588    
    411000   796.64162     -2822.1605      51.487005     -2770.6735      54404.44       5413.8588    
    412000   783.33953     -2820.7855      50.62729      -2770.1582      55279.168      5413.8588    
    413000   862.62852     -2817.4248      55.751744     -2761.6731      59457.796      5413.8588    
    414000   792.08008     -2818.6088      51.192193     -2767.4166      57940.345      5413.8588    
    415000   798.79085     -2821.2907      51.62591      -2769.6648      55477.457      5413.8588    
    416000   789.46055     -2821.3442      51.022893     -2770.3213      54971.765      5413.8588    
    417000   825.01561     -2821.7774      53.320819     -2768.4566      55951.254      5413.8588    
    418000   777.16452     -2815.5685      50.2282       -2765.3403      60479.33       5413.8588    
    419000   812.70696     -2820.9271      52.52531      -2768.4018      55432.559      5413.8588    
    420000   801.44981     -2821.3118      51.79776      -2769.514       55249.873      5413.8588    
    421000   863.70297     -2821.8604      55.821185     -2766.0392      55140.299      5413.8588    
    422000   806.10013     -2816.6132      52.09831      -2764.5149      59376.242      5413.8588    
    423000   829.43109     -2820.0664      53.606192     -2766.4602      56713.783      5413.8588    
    424000   811.53685     -2820.9782      52.449686     -2768.5285      55213.36       5413.8588    
    425000   799.6898      -2825.0066      51.68401      -2773.3226      51894.768      5413.8588    
    426000   795.96037     -2819.4141      51.442976     -2767.9712      56693.656      5413.8588    
    427000   778.20405     -2817.68        50.295384     -2767.3846      57868.582      5413.8588    
    428000   819.64743     -2822.8172      52.973873     -2769.8434      54334.223      5413.8588    
    429000   785.25723     -2820.8462      50.751232     -2770.095       55423.01       5413.8588    
    430000   807.45339     -2817.6057      52.185771     -2765.4199      58718.823      5413.8588    
    431000   842.79746     -2819.1397      54.470061     -2764.6697      58031.959      5413.8588    
    432000   822.47821     -2821.902       53.156826     -2768.7451      55172.532      5413.8588    
    433000   778.31576     -2820.1487      50.302604     -2769.8461      56336.753      5413.8588    
    434000   782.81997     -2818.7992      50.593712     -2768.2055      56945.346      5413.8588    
    435000   818.04874     -2816.6523      52.87055      -2763.7818      60220.736      5413.8588    
    436000   832.48843     -2818.2439      53.803788     -2764.4401      58516.48       5413.8588    
    437000   793.00256     -2821.5773      51.251813     -2770.3255      55110.298      5413.8588    
    438000   760.54958     -2817.9581      49.154374     -2768.8037      58085.042      5413.8588    
    439000   836.49602     -2821.191       54.062799     -2767.1282      55816.064      5413.8588    
    440000   825.36714     -2817.5404      53.343538     -2764.1968      59037.186      5413.8588    
    441000   810.27382     -2818.8992      52.368056     -2766.5311      57560.129      5413.8588    
    442000   794.77123     -2820.8528      51.366122     -2769.4867      55581.268      5413.8588    
    443000   792.83216     -2819.9401      51.2408       -2768.6993      56053.094      5413.8588    
    444000   852.89847     -2819.9951      55.12289      -2764.8722      57464.602      5413.8588    
    445000   814.33515     -2816.1859      52.63054      -2763.5553      60380.322      5413.8588    
    446000   797.84851     -2820.3291      51.565007     -2768.764       56260.705      5413.8588    
    447000   753.02416     -2820.1674      48.668006     -2771.4994      55641.135      5413.8588    
    448000   818.74761     -2820.565       52.915717     -2767.6492      56065.435      5413.8588    
    449000   787.60126     -2816.0406      50.902726     -2765.1379      60397.188      5413.8588    
    450000   836.21536     -2822.3469      54.044659     -2768.3022      55052.648      5413.8588    
    451000   814.32105     -2819.8177      52.629629     -2767.188       57227.84       5413.8588    
    452000   831.95369     -2817.2303      53.769227     -2763.461       58870.772      5413.8588    
    453000   792.12762     -2817.0962      51.195266     -2765.9009      59224.893      5413.8588    
    454000   818.66993     -2822.8741      52.910697     -2769.9634      54201.167      5413.8588    
    455000   826.46115     -2824.6824      53.414244     -2771.2682      52770.523      5413.8588    
    456000   792.39188     -2819.7718      51.212345     -2768.5594      56526.956      5413.8588    
    457000   812.74219     -2816.0262      52.527587     -2763.4986      59892.724      5413.8588    
    458000   880.36668     -2820.3673      56.898162     -2763.4692      57091.93       5413.8588    
    459000   853.88947     -2823.1379      55.186938     -2767.951       54588.341      5413.8588    
    460000   768.43404     -2820.5046      49.663948     -2770.8407      56758.922      5413.8588    
    461000   764.53078     -2823.9586      49.41168      -2774.5469      52999.463      5413.8588    
    462000   776.11863     -2819.9677      50.160604     -2769.8071      56105.206      5413.8588    
    463000   778.98682     -2818.4732      50.345975     -2768.1273      58182.534      5413.8588    
    464000   816.35194     -2818.6478      52.760885     -2765.8869      58093.075      5413.8588    
    465000   815.85858     -2822.1878      52.728999     -2769.4588      54353.498      5413.8588    
    466000   779.99072     -2822.9771      50.410857     -2772.5662      52863.465      5413.8588    
    467000   828.41308     -2823.6356      53.540397     -2770.0952      54022.621      5413.8588    
    468000   780.53564     -2816.6365      50.446075     -2766.1904      58690.387      5413.8588    
    469000   805.54063     -2819.6999      52.062149     -2767.6377      57042.959      5413.8588    
    470000   785.42178     -2821.5271      50.761867     -2770.7653      54740.33       5413.8588    
    471000   802.0804      -2824.0081      51.838514     -2772.1696      52971.891      5413.8588    
    472000   777.98322     -2818.6236      50.281112     -2768.3425      57540.652      5413.8588    
    473000   767.68896     -2816.5018      49.615793     -2766.886       59375.961      5413.8588    
    474000   805.62565     -2821.0394      52.067644     -2768.9718      55432.616      5413.8588    
    475000   772.49347     -2820.9453      49.926309     -2771.019       54544.095      5413.8588    
    476000   759.05994     -2818.4951      49.058099     -2769.437       57510.636      5413.8588    
    477000   798.59671     -2820.8118      51.613364     -2769.1984      55919.608      5413.8588    
    478000   809.6682      -2823.3706      52.328915     -2771.0417      53765.986      5413.8588    
    479000   757.73408     -2819.5215      48.972408     -2770.5491      56592.254      5413.8588    
    480000   851.45551     -2822.1438      55.029632     -2767.1141      55572.697      5413.8588    
    481000   849.11547     -2818.028       54.878395     -2763.1496      59036.222      5413.8588    
    482000   848.26255     -2818.2967      54.82327      -2763.4734      59081.917      5413.8588    
    483000   803.95494     -2822.2198      51.959666     -2770.2601      54341.334      5413.8588    
    484000   783.55442     -2820.6359      50.641179     -2769.9947      55323.827      5413.8588    
    485000   841.09361     -2818.6148      54.359941     -2764.2549      57505.717      5413.8588    
    486000   826.0722      -2817.7463      53.389106     -2764.3572      58511.788      5413.8588    
    487000   870.62992     -2822.0563      56.268875     -2765.7874      56006.71       5413.8588    
    488000   784.38603     -2820.8035      50.694926     -2770.1086      55662.423      5413.8588    
    489000   777.20998     -2822.6753      50.231138     -2772.4442      53667.154      5413.8588    
    490000   815.39902     -2821.0009      52.699298     -2768.3016      55609.801      5413.8588    
    491000   803.24096     -2819.8691      51.913521     -2767.9556      57254.784      5413.8588    
    492000   799.87473     -2821.1385      51.695962     -2769.4425      55250.928      5413.8588    
    493000   810.40758     -2823.2638      52.376701     -2770.8871      54131.258      5413.8588    
    494000   756.53703     -2821.968       48.895043     -2773.0729      54958.324      5413.8588    
    495000   763.11075     -2821.1465      49.319903     -2771.8266      55248.071      5413.8588    
    496000   806.45213     -2819.1346      52.12106      -2767.0136      57121.335      5413.8588    
    497000   794.75726     -2818.9893      51.365219     -2767.6241      57064.621      5413.8588    
    498000   793.22823     -2821.9966      51.266398     -2770.7302      54878.781      5413.8588    
    499000   781.64383     -2820.6253      50.517697     -2770.1077      55230.389      5413.8588    
    500000   850.81385     -2819.9315      54.988161     -2764.9433      57347.138      5413.8588    
Loop time of 15192.1 on 1 procs for 500000 steps with 501 atoms

Performance: 1.422 ns/day, 16.880 hours/ns, 32.912 timesteps/s, 16.489 katom-step/s
99.1% CPU use with 1 MPI tasks x 1 OpenMP threads

MPI task timing breakdown:
Section |  min time  |  avg time  |  max time  |%varavg| %total
---------------------------------------------------------------
Pair    | 15130      | 15130      | 15130      |   0.0 | 99.59
Neigh   | 0.1473     | 0.1473     | 0.1473     |   0.0 |  0.00
Comm    | 18.367     | 18.367     | 18.367     |   0.0 |  0.12
Output  | 0.04907    | 0.04907    | 0.04907    |   0.0 |  0.00
Modify  | 25.267     | 25.267     | 25.267     |   0.0 |  0.17
Other   |            | 17.9       |            |       |  0.12

Nlocal:            501 ave         501 max         501 min
Histogram: 1 0 0 0 0 0 0 0 0 0
Nghost:           2420 ave        2420 max        2420 min
Histogram: 1 0 0 0 0 0 0 0 0 0
Neighs:              0 ave           0 max           0 min
Histogram: 1 0 0 0 0 0 0 0 0 0
FullNghs:        68478 ave       68478 max       68478 min
Histogram: 1 0 0 0 0 0 0 0 0 0

Total # of neighbors = 68478
Ave neighs/atom = 136.68263
Neighbor list builds = 375
Dangerous builds = 0
unfix          nvt_equil

# ── Phase 2: Production ──────────────────────────────────────
# Dump trajectory for NB11 MSD calculation
# Dump every 1000 steps = 500 fs
dump           prod_dump  all  custom  1000  results/notebook10-bulk-equilibration/Pure_Nickel/Pure_Nickel_H_800K_prod.lammpstrj                id type x y z
dump_modify    prod_dump  sort id

fix            nvt_prod  all  nvt  temp  800.0  800.0  0.1

# Compute MSD for H atom
compute        msd_H  H_atom  msd
fix            msd_out  all  ave/time  1  1  1000                c_msd_H[4]  file  results/notebook10-bulk-equilibration/Pure_Nickel/Pure_Nickel_msd_H_800K.txt  mode scalar

print "### Phase 2: Production 750 ps at 800 K ###"
### Phase 2: Production 750 ps at 800 K ###
run            1500000
WARNING: Fix STORE/ATOM not compatible with sending data in Kokkos communication (src/KOKKOS/comm_kokkos.cpp:842)
WARNING: Fix with atom-based arrays not compatible with sending data in Kokkos communication, switching to legacy exchange/border communication (src/KOKKOS/comm_kokkos.cpp:849)
WARNING: Fix STORE/ATOM not (yet) compatible with Kokkos sorting on device (src/KOKKOS/atom_kokkos.cpp:219)
WARNING: Fix with atom-based arrays not (yet) compatible with Kokkos sorting on device, switching to legacy host sorting (src/KOKKOS/atom_kokkos.cpp:225)
Per MPI rank memory allocation (min/avg/max) = 97.5 | 97.5 | 97.5 Mbytes
   Step          Temp          PotEng         KinEng         TotEng         Press          Volume    
    500000   850.81385     -2819.9315      54.988161     -2764.9433      57347.138      5413.8588    
    501000   765.18429     -2817.6398      49.453916     -2768.1859      58184.188      5413.8588    
    502000   810.19283     -2820.8024      52.362821     -2768.4396      56468.972      5413.8588    
    503000   801.14031     -2819.3371      51.777756     -2767.5593      57703.23       5413.8588    
    504000   846.13632     -2818.0035      54.685852     -2763.3176      58764.567      5413.8588    
    505000   767.58558     -2816.4495      49.609112     -2766.8404      59283.877      5413.8588    
    506000   803.5088      -2821.2773      51.930832     -2769.3465      55100.125      5413.8588    
    507000   762.67244     -2816.805       49.291575     -2767.5134      58991.897      5413.8588    
    508000   834.87809     -2817.5476      53.958232     -2763.5893      59230.478      5413.8588    
    509000   801.40529     -2817.3993      51.794882     -2765.6044      58982.072      5413.8588    
    510000   826.63392     -2820.6303      53.42541      -2767.2049      56156.589      5413.8588    
    511000   810.04402     -2820.2855      52.353204     -2767.9323      56008.464      5413.8588    
    512000   825.37175     -2823.4409      53.343836     -2770.0971      54159.769      5413.8588    
    513000   732.27891     -2820.5994      47.327239     -2773.2721      55576.811      5413.8588    
    514000   786.57552     -2821.4479      50.836433     -2770.6114      54884.29       5413.8588    
    515000   790.48461     -2818.6003      51.089077     -2767.5113      57670.13       5413.8588    
    516000   810.49686     -2819.9604      52.382471     -2767.578       55920.883      5413.8588    
    517000   769.67306     -2819.4961      49.744026     -2769.7521      56684.551      5413.8588    
    518000   798.64782     -2822.3143      51.616666     -2770.6977      54416.234      5413.8588    
    519000   775.51984     -2820.7279      50.121904     -2770.606       55728.992      5413.8588    
    520000   803.13972     -2821.1625      51.906978     -2769.2555      55090.073      5413.8588    
    521000   809.42394     -2820.3583      52.313128     -2768.0452      55908.891      5413.8588    
    522000   809.999       -2822.4391      52.350294     -2770.0888      54472.14       5413.8588    
    523000   808.58482     -2821.1831      52.258896     -2768.9242      55444.89       5413.8588    
    524000   812.29098     -2819.6318      52.498425     -2767.1334      56422.707      5413.8588    
    525000   780.44621     -2817.6965      50.440295     -2767.2562      58756.353      5413.8588    
    526000   788.09334     -2819.3065      50.93453      -2768.372       57180.639      5413.8588    
    527000   773.93858     -2822.7721      50.019707     -2772.7524      53227.198      5413.8588    
    528000   718.12067     -2818.9507      46.412191     -2772.5386      56426.91       5413.8588    
    529000   821.6687      -2820.4461      53.104508     -2767.3416      56889.992      5413.8588    
    530000   782.83574     -2821.2876      50.594731     -2770.6929      55598.221      5413.8588    
    531000   770.71481     -2819.6384      49.811354     -2769.827       56427.238      5413.8588    
    532000   828.82173     -2819.8616      53.566809     -2766.2948      57439.696      5413.8588    
    533000   834.88677     -2818.3837      53.958792     -2764.4249      57728.001      5413.8588    
    534000   854.63997     -2823.5637      55.235443     -2768.3282      53974.082      5413.8588    
    535000   768.02979     -2820.4954      49.637821     -2770.8576      55426.814      5413.8588    
    536000   823.74327     -2816.5594      53.238587     -2763.3208      60277.505      5413.8588    
    537000   845.00685     -2818.6098      54.612854     -2763.997       58367.853      5413.8588    
    538000   793.30557     -2818.6222      51.271397     -2767.3508      57197.629      5413.8588    
    539000   823.9155      -2822.2017      53.249719     -2768.952       54457.716      5413.8588    
    540000   771.55315     -2822.9262      49.865536     -2773.0606      53705.996      5413.8588    
    541000   809.84115     -2822.3194      52.340092     -2769.9793      54513.252      5413.8588    
    542000   814.23112     -2819.3144      52.623817     -2766.6906      56717.212      5413.8588    
    543000   836.48948     -2821.771       54.062376     -2767.7087      55368.834      5413.8588    
    544000   765.86066     -2818.9272      49.49763      -2769.4295      56913.112      5413.8588    
    545000   721.86409     -2818.3775      46.654129     -2771.7234      57025.854      5413.8588    
    546000   788.02021     -2824.2876      50.929803     -2773.3578      52507.202      5413.8588    
    547000   770.50379     -2818.7437      49.797716     -2768.946       57517.432      5413.8588    
    548000   768.98971     -2817.6045      49.699861     -2767.9046      58337.619      5413.8588    
    549000   805.40541     -2820.4093      52.05341      -2768.3559      56501.572      5413.8588    
    550000   806.2434      -2821.0384      52.107569     -2768.9309      56347.532      5413.8588    
    551000   781.42173     -2818.968       50.503343     -2768.4647      57792.439      5413.8588    
    552000   874.18129     -2817.3361      56.4984       -2760.8377      60087.145      5413.8588    
    553000   795.80234     -2818.8952      51.432763     -2767.4624      57692.448      5413.8588    
    554000   787.80834     -2821.4873      50.91611      -2770.5712      54707.829      5413.8588    
    555000   750.02688     -2816.5906      48.474292     -2768.1163      58495.451      5413.8588    
    556000   859.21246     -2819.6805      55.530964     -2764.1496      57679.928      5413.8588    
    557000   809.49105     -2818.7374      52.317465     -2766.4199      57496.209      5413.8588    
    558000   792.80354     -2817.2514      51.23895      -2766.0124      59111.126      5413.8588    
    559000   717.92229     -2822.2032      46.39937      -2775.8038      53075.734      5413.8588    
    560000   797.13431     -2818.9092      51.518848     -2767.3904      57449.464      5413.8588    
    561000   797.02812     -2819.4455      51.511985     -2767.9336      57014.95       5413.8588    
    562000   786.56578     -2821.2691      50.835804     -2770.4333      55321.87       5413.8588    
    563000   801.7235      -2820.0274      51.815448     -2768.2119      56559.852      5413.8588    
    564000   852.25633     -2819.9972      55.081388     -2764.9159      57300.183      5413.8588    
    565000   855.89084     -2818.2216      55.316287     -2762.9053      58862.01       5413.8588    
    566000   791.84322     -2819.8845      51.176885     -2768.7076      56539.691      5413.8588    
    567000   773.22644     -2821.1377      49.973681     -2771.164       55294.563      5413.8588    
    568000   811.34729     -2820.1652      52.437434     -2767.7278      56561.325      5413.8588    
    569000   774.88348     -2815.9466      50.080775     -2765.8658      60404.362      5413.8588    
    570000   781.6571      -2819.8879      50.518555     -2769.3693      56570.043      5413.8588    
    571000   749.01645     -2820.0759      48.408988     -2771.6669      55963.004      5413.8588    
    572000   770.26032     -2818.9752      49.78198      -2769.1932      57151.617      5413.8588    
    573000   794.42269     -2817.8144      51.343596     -2766.4708      58569.005      5413.8588    
    574000   831.53461     -2822.1044      53.742142     -2768.3623      55194.974      5413.8588    
    575000   747.68435     -2820.3516      48.322894     -2772.0287      55123.628      5413.8588    
    576000   781.40048     -2820.3433      50.50197      -2769.8413      56003.557      5413.8588    
    577000   803.75258     -2819.2447      51.946588     -2767.2981      57067.258      5413.8588    
    578000   798.24209     -2822.4574      51.590444     -2770.8669      54384.801      5413.8588    
    579000   843.25996     -2822.2058      54.499953     -2767.7058      54596.574      5413.8588    
    580000   797.00328     -2816.6062      51.51038      -2765.0959      58962.144      5413.8588    
    581000   810.57059     -2820.437       52.387236     -2768.0498      55660.072      5413.8588    
    582000   785.18622     -2821.9974      50.746643     -2771.2508      54762.434      5413.8588    
    583000   844.03138     -2822.4058      54.549809     -2767.8559      55262.222      5413.8588    
    584000   754.26658     -2821.0787      48.748304     -2772.3304      55528.181      5413.8588    
    585000   725.87357     -2819.6784      46.913262     -2772.7651      55318.92       5413.8588    
    586000   750.89304     -2818.4185      48.530272     -2769.8882      57121.067      5413.8588    
    587000   862.96373     -2821.073       55.773408     -2765.2995      56725.236      5413.8588    
    588000   821.07724     -2815.5733      53.066282     -2762.507       61296.555      5413.8588    
    589000   851.04596     -2820.7949      55.003162     -2765.7918      56246.723      5413.8588    
    590000   795.59972     -2821.1029      51.419667     -2769.6832      55668.685      5413.8588    
    591000   809.9023      -2824.2124      52.344044     -2771.8683      52969.266      5413.8588    
    592000   808.33021     -2820.5517      52.24244      -2768.3093      55720.338      5413.8588    
    593000   809.02727     -2820.5535      52.287491     -2768.2661      56238.466      5413.8588    
    594000   813.10547     -2817.5898      52.551066     -2765.0387      59000.747      5413.8588    
    595000   783.66512     -2817.8716      50.648334     -2767.2233      57463.981      5413.8588    
    596000   788.86794     -2819.5034      50.984592     -2768.5188      56275.645      5413.8588    
    597000   786.15494     -2820.0317      50.809251     -2769.2225      55802.595      5413.8588    
    598000   817.3448      -2819.9633      52.825054     -2767.1383      56688.281      5413.8588    
    599000   826.64442     -2817.3547      53.426089     -2763.9286      59108.746      5413.8588    
    600000   850.71757     -2818.5232      54.981939     -2763.5413      58590.707      5413.8588    
    601000   792.67147     -2819.7658      51.230415     -2768.5354      56856.876      5413.8588    
    602000   804.28919     -2820.4701      51.981269     -2768.4888      56276.464      5413.8588    
    603000   796.29803     -2816.8891      51.464799     -2765.4243      58953.63       5413.8588    
    604000   855.32288     -2818.9434      55.27958      -2763.6638      58327.894      5413.8588    
    605000   812.19759     -2820.4147      52.492389     -2767.9223      56691.55       5413.8588    
    606000   753.17016     -2819.2508      48.677442     -2770.5733      56206.662      5413.8588    
    607000   796.37319     -2820.132       51.469657     -2768.6623      56475.26       5413.8588    
    608000   850.13255     -2820.5983      54.944128     -2765.6541      55859.214      5413.8588    
    609000   796.79444     -2817.6082      51.496882     -2766.1114      57918.726      5413.8588    
    610000   814.78823     -2821.6649      52.659822     -2769.0051      55292.36       5413.8588    
    611000   754.12389     -2819.1859      48.739082     -2770.4468      57137.447      5413.8588    
    612000   794.94261     -2818.3478      51.377198     -2766.9706      57773.382      5413.8588    
    613000   823.44776     -2815.1722      53.219489     -2761.9527      60774.817      5413.8588    
    614000   812.75988     -2818.8122      52.52873      -2766.2834      58187.839      5413.8588    
    615000   788.42848     -2819.4683      50.95619      -2768.5121      56516.845      5413.8588    
    616000   830.06977     -2822.3069      53.647469     -2768.6594      54705.54       5413.8588    
    617000   768.36734     -2821.2855      49.659637     -2771.6259      54198.534      5413.8588    
    618000   810.93396     -2822.2603      52.410721     -2769.8496      54558.916      5413.8588    
    619000   863.35912     -2817.9049      55.798963     -2762.1059      59404.178      5413.8588    
    620000   848.61443     -2821.6298      54.846012     -2766.7838      55458.523      5413.8588    
    621000   818.28664     -2821.6756      52.885925     -2768.7897      54914.554      5413.8588    
    622000   803.27219     -2820.6912      51.91554      -2768.7756      55492.938      5413.8588    
    623000   846.83927     -2818.5917      54.731283     -2763.8604      58344.605      5413.8588    
    624000   808.8327      -2816.5417      52.274916     -2764.2667      59558.621      5413.8588    
    625000   788.14729     -2821.2876      50.938017     -2770.3496      54529.86       5413.8588    
    626000   792.11977     -2820.5687      51.194758     -2769.3739      55874.812      5413.8588    
    627000   816.92952     -2819.2159      52.798214     -2766.4177      57165.458      5413.8588    
    628000   804.935       -2816.4052      52.023008     -2764.3822      59945.485      5413.8588    
    629000   828.98311     -2818.0473      53.577239     -2764.4701      58707.675      5413.8588    
    630000   769.46001     -2819.8996      49.730256     -2770.1693      56172.521      5413.8588    
    631000   773.0785      -2820.195       49.96412      -2770.2308      56389.921      5413.8588    
    632000   820.92534     -2817.3306      53.056464     -2764.2741      59016.553      5413.8588    
    633000   806.71009     -2816.324       52.137731     -2764.1863      60085.509      5413.8588    
    634000   793.02009     -2820.6514      51.252946     -2769.3985      55692.387      5413.8588    
    635000   826.66924     -2822.269       53.427693     -2768.8413      54283.368      5413.8588    
    636000   795.73216     -2819.9595      51.428227     -2768.5313      56389.679      5413.8588    
    637000   834.7809      -2819.1974      53.95195      -2765.2454      57331.524      5413.8588    
    638000   806.50457     -2818.6882      52.124449     -2766.5637      57544.38       5413.8588    
    639000   796.67644     -2820.8221      51.489256     -2769.3328      55537.072      5413.8588    
    640000   776.39263     -2819.7784      50.178312     -2769.6001      56372.644      5413.8588    
    641000   833.21099     -2822.5143      53.850486     -2768.6638      54371.6        5413.8588    
    642000   850.31633     -2820.6263      54.956006     -2765.6703      56150.283      5413.8588    
    643000   851.64629     -2817.99        55.041961     -2762.9481      58263.895      5413.8588    
    644000   818.67298     -2818.8245      52.910894     -2765.9136      57205.007      5413.8588    
    645000   818.78425     -2821.9802      52.918085     -2769.0621      54858.911      5413.8588    
    646000   810.87017     -2821.6988      52.406598     -2769.2922      54902.612      5413.8588    
    647000   807.03983     -2817.0677      52.159042     -2764.9086      58578.754      5413.8588    
    648000   826.71186     -2818.6405      53.430447     -2765.21        58929.924      5413.8588    
    649000   785.74574     -2819.3763      50.782804     -2768.5935      56534.557      5413.8588    
    650000   776.39102     -2823.3784      50.178208     -2773.2002      53289.583      5413.8588    
    651000   769.07359     -2822.4628      49.705282     -2772.7575      53576.03       5413.8588    
    652000   804.12975     -2819.0042      51.970964     -2767.0332      57234.878      5413.8588    
    653000   785.6499      -2816.8819      50.77661      -2766.1053      59318.317      5413.8588    
    654000   806.65427     -2820.8708      52.134124     -2768.7367      55483.581      5413.8588    
    655000   747.74122     -2820.8583      48.326569     -2772.5318      55422.373      5413.8588    
    656000   753.2915      -2820.0377      48.685284     -2771.3524      55614.426      5413.8588    
    657000   805.55049     -2819.2219      52.062787     -2767.1591      56818.714      5413.8588    
    658000   784.64797     -2820.8922      50.711855     -2770.1803      55838.653      5413.8588    
    659000   748.11866     -2818.643       48.350963     -2770.292       57447.503      5413.8588    
    660000   822.07662     -2821.579       53.130872     -2768.4481      55607.696      5413.8588    
    661000   771.6761      -2816.2755      49.873482     -2766.402       59993.662      5413.8588    
    662000   815.35855     -2820.126       52.696683     -2767.4293      57238.447      5413.8588    
    663000   759.97997     -2819.8317      49.117561     -2770.7141      56075.599      5413.8588    
    664000   797.88657     -2824.7495      51.567467     -2773.182       52544.859      5413.8588    
    665000   795.06776     -2821.1445      51.385287     -2769.7592      55226.535      5413.8588    
    666000   778.55072     -2817.5957      50.31779      -2767.2779      58244.642      5413.8588    
    667000   802.78198     -2818.297       51.883857     -2766.4131      58102.476      5413.8588    
    668000   768.83778     -2815.7107      49.690041     -2766.0207      59918.94       5413.8588    
    669000   794.06383     -2819.942       51.320403     -2768.6216      56690.228      5413.8588    
    670000   805.41976     -2823.5611      52.054338     -2771.5068      53314.208      5413.8588    
    671000   771.92765     -2822.5138      49.88974      -2772.624       53691.421      5413.8588    
    672000   761.13085     -2819.6378      49.191942     -2770.4458      56433.353      5413.8588    
    673000   815.265       -2819.5318      52.690636     -2766.8411      56239.476      5413.8588    
    674000   829.89698     -2820.4772      53.636302     -2766.8409      56024.87       5413.8588    
    675000   750.88745     -2820.3226      48.52991      -2771.7927      55384.454      5413.8588    
    676000   796.51889     -2820.6578      51.479074     -2769.1787      56277.288      5413.8588    
    677000   797.69056     -2818.5423      51.554799     -2766.9875      58535.838      5413.8588    
    678000   788.68488     -2821.1047      50.972761     -2770.1319      55771.691      5413.8588    
    679000   756.08821     -2821.9669      48.866036     -2773.1009      54413.894      5413.8588    
    680000   819.99987     -2823.3085      52.996651     -2770.3118      54039.52       5413.8588    
    681000   820.22896     -2820.0885      53.011457     -2767.0771      56860.845      5413.8588    
    682000   839.65545     -2821.1344      54.266993     -2766.8674      55904.457      5413.8588    
    683000   830.23471     -2821.2701      53.658129     -2767.6119      55359.765      5413.8588    
    684000   763.46536     -2822.1336      49.342821     -2772.7907      54300.869      5413.8588    
    685000   824.17015     -2822.2144      53.266177     -2768.9483      54777.972      5413.8588    
    686000   819.80704     -2820.4725      52.984189     -2767.4884      56610.188      5413.8588    
    687000   743.77696     -2819.1702      48.070359     -2771.0998      56472.377      5413.8588    
    688000   795.82515     -2820.1877      51.434237     -2768.7535      56513.699      5413.8588    
    689000   813.5866      -2819.5737      52.582161     -2766.9915      57161.666      5413.8588    
    690000   759.47447     -2819.3772      49.08489      -2770.2923      56461.411      5413.8588    
    691000   782.18005     -2822.0563      50.552354     -2771.504       54593.392      5413.8588    
    692000   757.44899     -2820.1697      48.953983     -2771.2158      55904.786      5413.8588    
    693000   799.55735     -2820.467       51.675449     -2768.7916      55542.321      5413.8588    
    694000   817.13607     -2819.8351      52.811563     -2767.0236      56598.437      5413.8588    
    695000   817.33556     -2822.023       52.824457     -2769.1985      54731.071      5413.8588    
    696000   798.07605     -2823.3984      51.579713     -2771.8187      52994.007      5413.8588    
    697000   781.88746     -2820.1997      50.533443     -2769.6662      55264.591      5413.8588    
    698000   808.51431     -2820.0176      52.254338     -2767.7632      56386.328      5413.8588    
    699000   818.05996     -2817.0973      52.871274     -2764.226       59264.414      5413.8588    
    700000   825.50216     -2816.8957      53.352264     -2763.5434      60259.624      5413.8588    
    701000   786.49627     -2819.6606      50.831311     -2768.8293      56252.171      5413.8588    
    702000   756.1322      -2818.8989      48.868879     -2770.0301      56990.506      5413.8588    
    703000   789.28399     -2820.6042      51.011481     -2769.5927      55884.385      5413.8588    
    704000   791.68157     -2818.6762      51.166437     -2767.5098      58128.748      5413.8588    
    705000   869.87795     -2821.641       56.220275     -2765.4207      55691.031      5413.8588    
    706000   813.37355     -2819.062       52.568392     -2766.4937      57346.669      5413.8588    
    707000   797.76635     -2821.6791      51.559697     -2770.1194      55041.276      5413.8588    
    708000   791.42737     -2821.3547      51.150008     -2770.2047      55360.992      5413.8588    
    709000   796.70051     -2811.2335      51.490812     -2759.7427      64111.028      5413.8588    
    710000   795.26493     -2821.9336      51.39803      -2770.5356      54319.404      5413.8588    
    711000   777.60955     -2818.7835      50.256962     -2768.5266      57811.776      5413.8588    
    712000   831.16419     -2818.3653      53.718202     -2764.6471      58140.42       5413.8588    
    713000   812.88616     -2818.0928      52.536892     -2765.5559      58269.232      5413.8588    
    714000   810.98737     -2819.1938      52.414173     -2766.7796      57169.963      5413.8588    
    715000   781.93379     -2819.7779      50.536437     -2769.2414      56411.372      5413.8588    
    716000   768.03358     -2820.2125      49.638066     -2770.5744      55833.506      5413.8588    
    717000   843.64965     -2822.3351      54.525138     -2767.8099      54841.974      5413.8588    
    718000   810.16891     -2817.7219      52.361276     -2765.3607      58538.304      5413.8588    
    719000   832.60464     -2822.9566      53.811298     -2769.1453      54561.847      5413.8588    
    720000   782.12598     -2821.7889      50.548859     -2771.24        54667.395      5413.8588    
    721000   820.96007     -2821.4045      53.058709     -2768.3458      55611.384      5413.8588    
    722000   812.79004     -2819.0432      52.530679     -2766.5125      57473.165      5413.8588    
    723000   864.45997     -2817.1271      55.870111     -2761.257       60286.501      5413.8588    
    724000   788.29213     -2820.4476      50.947378     -2769.5003      56304.495      5413.8588    
    725000   802.21768     -2821.4135      51.847387     -2769.5661      55034.188      5413.8588    
    726000   802.65391     -2819.3613      51.875581     -2767.4858      57488.99       5413.8588    
    727000   811.95558     -2818.3494      52.476748     -2765.8727      57773.213      5413.8588    
    728000   822.53468     -2819.5902      53.160476     -2766.4297      57422.128      5413.8588    
    729000   827.45344     -2822.8089      53.478376     -2769.3305      54474.258      5413.8588    
    730000   793.73314     -2819.3657      51.29903      -2768.0666      57076.666      5413.8588    
    731000   803.23982     -2816.9524      51.913448     -2765.0389      59291          5413.8588    
    732000   855.07974     -2821.9642      55.263866     -2766.7004      56123.223      5413.8588    
    733000   808.38638     -2820.7177      52.24607      -2768.4716      55228.656      5413.8588    
    734000   792.64898     -2821.3657      51.228961     -2770.1367      55047.375      5413.8588    
    735000   776.41645     -2820.0387      50.179851     -2769.8588      55894.125      5413.8588    
    736000   835.04123     -2816.0733      53.968775     -2762.1045      59981.593      5413.8588    
    737000   835.05047     -2819.2792      53.969373     -2765.3098      57076.87       5413.8588    
    738000   805.12016     -2819.5494      52.034974     -2767.5144      57030.28       5413.8588    
    739000   748.10099     -2823.5946      48.349821     -2775.2447      52902.341      5413.8588    
    740000   811.39525     -2818.6051      52.440534     -2766.1646      58197.833      5413.8588    
    741000   805.24576     -2818.5731      52.043092     -2766.53        57328.461      5413.8588    
    742000   807.90851     -2824.0964      52.215186     -2771.8812      52990.245      5413.8588    
    743000   808.27231     -2825.4829      52.238698     -2773.2442      51624.731      5413.8588    
    744000   793.88868     -2818.2791      51.309083     -2766.97        57729.694      5413.8588    
    745000   824.95938     -2818.2026      53.317184     -2764.8854      58837.343      5413.8588    
    746000   909.31565     -2820.8502      58.769137     -2762.081       56849.335      5413.8588    
    747000   799.82658     -2820.5301      51.69285      -2768.8372      55736.855      5413.8588    
    748000   785.46954     -2819.9032      50.764953     -2769.1382      56695.349      5413.8588    
    749000   812.33512     -2820.4704      52.501278     -2767.9691      56279.563      5413.8588    
    750000   849.09465     -2818.8947      54.877048     -2764.0176      58478.971      5413.8588    
    751000   834.36144     -2818.1817      53.924841     -2764.2569      58845.805      5413.8588    
    752000   796.99838     -2819.8735      51.510063     -2768.3635      56900.931      5413.8588    
    753000   754.31463     -2819.3001      48.751409     -2770.5487      56015.437      5413.8588    
    754000   814.26656     -2820.1292      52.626107     -2767.5031      56675.755      5413.8588    
    755000   803.96158     -2819.7989      51.960095     -2767.8388      56599.789      5413.8588    
    756000   761.68704     -2819.543       49.227888     -2770.3151      56327.785      5413.8588    
    757000   792.32467     -2820.5871      51.208001     -2769.3791      55369.935      5413.8588    
    758000   838.83792     -2821.6845      54.214156     -2767.4703      55176.47       5413.8588    
    759000   840.27632     -2820.0462      54.30712      -2765.7391      57457.719      5413.8588    
    760000   793.03919     -2820.909       51.25418      -2769.6548      55629.522      5413.8588    
    761000   815.58666     -2823.1381      52.711425     -2770.4267      54394.399      5413.8588    
    762000   787.12761     -2816.6165      50.872115     -2765.7444      59195.462      5413.8588    
    763000   823.4353      -2819.1708      53.218683     -2765.9521      57267.391      5413.8588    
    764000   801.66091     -2820.85        51.811403     -2769.0385      55467.977      5413.8588    
    765000   782.41682     -2820.2908      50.567656     -2769.7231      55929.475      5413.8588    
    766000   751.15159     -2817.1817      48.546982     -2768.6348      58809.08       5413.8588    
    767000   826.01335     -2819.0531      53.385303     -2765.6678      57315.803      5413.8588    
    768000   812.57935     -2821.1596      52.517063     -2768.6425      56001.447      5413.8588    
    769000   804.50443     -2823.1344      51.995179     -2771.1392      53875.279      5413.8588    
    770000   770.75483     -2817.5699      49.813941     -2767.756       58100.788      5413.8588    
    771000   849.27276     -2819.546       54.88856      -2764.6575      57959.235      5413.8588    
    772000   808.76018     -2820.5326      52.270229     -2768.2623      56601.465      5413.8588    
    773000   803.63125     -2820.175       51.938746     -2768.2362      56414.407      5413.8588    
    774000   805.0764      -2817.2908      52.032146     -2765.2586      58835.89       5413.8588    
    775000   819.4831      -2815.7301      52.963252     -2762.7668      61049.031      5413.8588    
    776000   823.23924     -2820.6456      53.206012     -2767.4396      55789.838      5413.8588    
    777000   772.81183     -2820.9135      49.946885     -2770.9666      55072.768      5413.8588    
    778000   740.02205     -2818.2021      47.827679     -2770.3745      57111.84       5413.8588    
    779000   797.40789     -2818.7736      51.536529     -2767.2371      57151.56       5413.8588    
    780000   774.02392     -2817.571       50.025222     -2767.5458      58494.323      5413.8588    
    781000   814.94363     -2820.3494      52.669866     -2767.6795      56307.104      5413.8588    
    782000   791.12546     -2821.2086      51.130496     -2770.0781      54935.653      5413.8588    
    783000   780.10525     -2820.2985      50.418259     -2769.8803      56146.836      5413.8588    
    784000   855.96791     -2819.3974      55.321268     -2764.0761      57776.705      5413.8588    
    785000   868.1301      -2821.0614      56.107312     -2764.9541      56519.799      5413.8588    
    786000   790.78713     -2817.3494      51.108629     -2766.2408      58602.027      5413.8588    
    787000   775.31008     -2819.1762      50.108347     -2769.0679      56652.846      5413.8588    
    788000   763.35664     -2820.0694      49.335795     -2770.7336      55600.179      5413.8588    
    789000   764.68447     -2818.9588      49.421613     -2769.5372      56835.042      5413.8588    
    790000   828.45444     -2816.7983      53.54307      -2763.2552      59888.872      5413.8588    
    791000   849.50841     -2818.9958      54.90379      -2764.092       58112.674      5413.8588    
    792000   797.00811     -2821.5579      51.510692     -2770.0472      55353.708      5413.8588    
    793000   799.65574     -2820.1271      51.681808     -2768.4453      56033.432      5413.8588    
    794000   794.74179     -2817.7102      51.364219     -2766.346       57988.845      5413.8588    
    795000   820.32548     -2818.8925      53.017695     -2765.8748      57874.028      5413.8588    
    796000   796.91821     -2820.4652      51.504882     -2768.9603      55427.985      5413.8588    
    797000   800.07524     -2823.7532      51.708921     -2772.0443      52894.036      5413.8588    
    798000   778.71123     -2819.1854      50.328163     -2768.8572      57128.819      5413.8588    
    799000   794.5695      -2818.4664      51.353085     -2767.1133      57441.649      5413.8588    
    800000   798.87874     -2822.2172      51.631591     -2770.5856      54319.71       5413.8588    
    801000   767.70336     -2823.5646      49.616724     -2773.9479      52434.07       5413.8588    
    802000   814.92864     -2820.218       52.668897     -2767.5491      56185.508      5413.8588    
    803000   846.58858     -2821.152       54.715081     -2766.4369      55637.486      5413.8588    
    804000   788.6792      -2820.1282      50.972394     -2769.1558      56052.107      5413.8588    
    805000   758.08382     -2821.4315      48.995012     -2772.4365      55411.936      5413.8588    
    806000   777.04337     -2821.5929      50.220369     -2771.3726      55481.825      5413.8588    
    807000   811.48799     -2821.1692      52.446527     -2768.7226      55895.342      5413.8588    
    808000   807.32592     -2818.8985      52.177533     -2766.721       57346.533      5413.8588    
    809000   836.25607     -2821.5694      54.047291     -2767.5221      55662.201      5413.8588    
    810000   833.90016     -2821.3604      53.895028     -2767.4654      55644.743      5413.8588    
    811000   736.94219     -2817.7273      47.628627     -2770.0986      57180.254      5413.8588    
    812000   779.80953     -2824.2961      50.399147     -2773.8969      52168.159      5413.8588    
    813000   776.24214     -2818.1135      50.168586     -2767.9449      57284.185      5413.8588    
    814000   823.85096     -2818.9575      53.245547     -2765.712       58073.594      5413.8588    
    815000   806.11232     -2820.8733      52.099098     -2768.7742      56270.823      5413.8588    
    816000   764.75181     -2820.7453      49.425965     -2771.3193      55105.956      5413.8588    
    817000   812.00771     -2820.2314      52.480117     -2767.7513      56247.771      5413.8588    
    818000   839.23927     -2818.3942      54.240095     -2764.1541      58611.742      5413.8588    
    819000   751.38312     -2818.4807      48.561946     -2769.9187      57955.547      5413.8588    
    820000   816.14937     -2823.268       52.747793     -2770.5202      53864.597      5413.8588    
    821000   794.31305     -2822.277       51.33651      -2770.9405      54231.573      5413.8588    
    822000   796.94164     -2818.1457      51.506396     -2766.6393      57954.643      5413.8588    
    823000   805.36453     -2817.5903      52.050768     -2765.5396      58283.257      5413.8588    
    824000   821.28789     -2815.9054      53.079896     -2762.8255      61154.619      5413.8588    
    825000   789.5815      -2819.8231      51.030709     -2768.7924      56592.981      5413.8588    
    826000   789.39199     -2819.9752      51.018461     -2768.9567      55949.331      5413.8588    
    827000   806.84167     -2821.6024      52.146235     -2769.4561      55661.77       5413.8588    
    828000   837.88168     -2815.6745      54.152354     -2761.5221      60145.134      5413.8588    
    829000   798.93391     -2821.5102      51.635157     -2769.8751      54623.798      5413.8588    
    830000   785.66886     -2821.2948      50.777836     -2770.517       55148.416      5413.8588    
    831000   785.84706     -2822.6388      50.789353     -2771.8494      53792.794      5413.8588    
    832000   807.72227     -2823.253       52.203149     -2771.0498      53440.436      5413.8588    
    833000   814.72745     -2819.1576      52.655894     -2766.5017      56902.868      5413.8588    
    834000   770.39198     -2816.5972      49.79049      -2766.8067      58850.169      5413.8588    
    835000   817.59516     -2822.2115      52.841234     -2769.3703      54792.746      5413.8588    
    836000   792.06761     -2821.6593      51.191387     -2770.4679      54457.808      5413.8588    
    837000   782.80973     -2816.2622      50.593049     -2765.6692      60245.53       5413.8588    
    838000   843.51055     -2823.3195      54.516148     -2768.8034      53487.608      5413.8588    
    839000   781.03761     -2820.7183      50.478518     -2770.2398      55479.267      5413.8588    
    840000   809.40463     -2820.2081      52.31188      -2767.8962      56405.794      5413.8588    
    841000   798.82893     -2818.6695      51.628371     -2767.0412      57570.77       5413.8588    
    842000   791.52247     -2818.619       51.156155     -2767.4629      58315.047      5413.8588    
    843000   806.8852      -2820.5835      52.149049     -2768.4344      56093          5413.8588    
    844000   771.2264      -2821.4585      49.844418     -2771.6141      54979.096      5413.8588    
    845000   806.88148     -2822.9098      52.148809     -2770.761       54025.4        5413.8588    
    846000   780.58904     -2819.0248      50.449526     -2768.5753      57282.021      5413.8588    
    847000   841.22448     -2816.1161      54.368399     -2761.7477      60508.768      5413.8588    
    848000   795.21739     -2819.6964      51.394957     -2768.3014      56327.614      5413.8588    
    849000   816.77855     -2822.9747      52.788457     -2770.1862      53832.059      5413.8588    
    850000   812.35298     -2820.4487      52.502432     -2767.9463      56375.671      5413.8588    
    851000   799.20467     -2818.3042      51.652656     -2766.6516      57911.177      5413.8588    
    852000   720.53101     -2821.5222      46.567972     -2774.9542      53542.868      5413.8588    
    853000   814.84309     -2823.7005      52.663368     -2771.0371      53326.003      5413.8588    
    854000   782.56871     -2820.461       50.577473     -2769.8835      55387.304      5413.8588    
    855000   822.98057     -2819.534       53.189294     -2766.3447      57402.915      5413.8588    
    856000   828.4696      -2816.8137      53.54405      -2763.2697      60676.15       5413.8588    
    857000   816.02653     -2819.1571      52.739854     -2766.4172      57875.819      5413.8588    
    858000   807.89789     -2818.1172      52.214499     -2765.9027      58364.854      5413.8588    
    859000   801.79412     -2819.9448      51.820012     -2768.1248      56559.539      5413.8588    
    860000   780.22137     -2820.6449      50.425763     -2770.2191      56365.152      5413.8588    
    861000   763.99935     -2818.707       49.377333     -2769.3296      57332.477      5413.8588    
    862000   819.66581     -2820.7743      52.975061     -2767.7992      56101.318      5413.8588    
    863000   887.50372     -2819.5894      57.35943      -2762.2299      58340.842      5413.8588    
    864000   826.02268     -2817.8579      53.385906     -2764.472       59305.006      5413.8588    
    865000   756.19614     -2816.073       48.873011     -2767.2         58995.787      5413.8588    
    866000   767.82507     -2820.351       49.62459      -2770.7264      55250.586      5413.8588    
    867000   774.78113     -2823.5554      50.074161     -2773.4813      52384.982      5413.8588    
    868000   818.58071     -2820.3799      52.904931     -2767.475       56190.754      5413.8588    
    869000   775.26056     -2816.9471      50.105146     -2766.842       58650.155      5413.8588    
    870000   806.26487     -2821.7276      52.108957     -2769.6186      54851.015      5413.8588    
    871000   774.206       -2823.2944      50.03699      -2773.2574      53130.869      5413.8588    
    872000   775.08518     -2819.3831      50.093811     -2769.2893      56250.714      5413.8588    
    873000   800.1811      -2817.2673      51.715762     -2765.5515      58705.582      5413.8588    
    874000   791.58198     -2817.7187      51.160001     -2766.5587      57913.854      5413.8588    
    875000   793.52552     -2819.0054      51.285612     -2767.7197      56925.076      5413.8588    
    876000   797.91455     -2822.4958      51.569275     -2770.9265      54672.678      5413.8588    
    877000   751.31631     -2820.8661      48.557627     -2772.3085      54835.655      5413.8588    
    878000   797.03713     -2820.1045      51.512567     -2768.5919      56286.447      5413.8588    
    879000   855.45743     -2820.8656      55.288276     -2765.5774      56040.136      5413.8588    
    880000   799.7539      -2819.7016      51.688152     -2768.0134      57214.245      5413.8588    
    881000   792.98481     -2821.6453      51.250666     -2770.3946      54865.117      5413.8588    
    882000   800.83687     -2821.8036      51.758145     -2770.0455      55350.042      5413.8588    
    883000   780.95737     -2818.4034      50.473332     -2767.9301      57592.897      5413.8588    
    884000   836.825       -2818.4918      54.084061     -2764.4078      58569.92       5413.8588    
    885000   803.02385     -2817.1694      51.899489     -2765.2699      59505.51       5413.8588    
    886000   816.71559     -2820.9112      52.784388     -2768.1268      56396.849      5413.8588    
    887000   793.25611     -2822.4845      51.2682       -2771.2163      54190.1        5413.8588    
    888000   759.59171     -2819.6774      49.092467     -2770.585       56515.014      5413.8588    
    889000   809.85456     -2819.4307      52.340959     -2767.0898      57506.598      5413.8588    
    890000   827.57877     -2819.7503      53.486476     -2766.2638      56445.583      5413.8588    
    891000   826.21008     -2819.0536      53.398018     -2765.6555      57202.153      5413.8588    
    892000   801.44729     -2820.9872      51.797597     -2769.1896      55388.23       5413.8588    
    893000   824.54275     -2820.8433      53.290258     -2767.553       56041.559      5413.8588    
    894000   777.97885     -2820.5023      50.280829     -2770.2215      55474.511      5413.8588    
    895000   772.55313     -2820.45        49.930164     -2770.5198      55336.339      5413.8588    
    896000   823.77601     -2820.7802      53.240703     -2767.5395      56641.985      5413.8588    
    897000   806.5017      -2817.5067      52.124263     -2765.3825      59109.787      5413.8588    
    898000   811.01597     -2820.0046      52.416021     -2767.5886      55926.164      5413.8588    
    899000   772.04761     -2820.5204      49.897493     -2770.6229      55176.827      5413.8588    
    900000   803.8005      -2823.2703      51.949685     -2771.3206      53248.402      5413.8588    
    901000   776.98325     -2817.3909      50.216484     -2767.1744      59135.271      5413.8588    
    902000   824.31592     -2819.2222      53.275598     -2765.9466      57680.9        5413.8588    
    903000   803.18959     -2818.5745      51.910201     -2766.6643      58400.591      5413.8588    
    904000   809.21669     -2821.5756      52.299733     -2769.2759      55447.954      5413.8588    
    905000   791.57713     -2818.8362      51.159687     -2767.6765      57141.423      5413.8588    
    906000   834.16882     -2817.8346      53.912391     -2763.9222      58647.759      5413.8588    
    907000   796.98156     -2818.3114      51.508976     -2766.8024      57869.044      5413.8588    
    908000   813.7593      -2821.6894      52.593322     -2769.0961      54580.423      5413.8588    
    909000   801.6921      -2820.6304      51.813418     -2768.817       56067.237      5413.8588    
    910000   782.69872     -2817.2944      50.585875     -2766.7085      58326.894      5413.8588    
    911000   812.11669     -2818.6242      52.487161     -2766.137       58044.313      5413.8588    
    912000   832.2854      -2821.427       53.790666     -2767.6363      55791.175      5413.8588    
    913000   764.6029      -2820.8608      49.416341     -2771.4445      55739.552      5413.8588    
    914000   813.491       -2821.5451      52.575982     -2768.9691      55357.421      5413.8588    
    915000   827.84708     -2816.5934      53.503817     -2763.0895      59364.242      5413.8588    
    916000   856.01436     -2818.9265      55.32427      -2763.6022      57969.221      5413.8588    
    917000   821.0688      -2821.5333      53.065736     -2768.4676      55819.489      5413.8588    
    918000   781.11196     -2821.8214      50.483323     -2771.338       54531.216      5413.8588    
    919000   868.39346     -2816.8905      56.124332     -2760.7661      60423.271      5413.8588    
    920000   823.54281     -2820.1044      53.225632     -2766.8788      56380.544      5413.8588    
    921000   782.07476     -2819.9194      50.545549     -2769.3739      55975.841      5413.8588    
    922000   785.64102     -2821.3143      50.776036     -2770.5383      55376.137      5413.8588    
    923000   746.71872     -2820.1516      48.260485     -2771.8911      55857.158      5413.8588    
    924000   820.59945     -2820.6363      53.035402     -2767.6009      56582.979      5413.8588    
    925000   791.29158     -2820.2616      51.141232     -2769.1203      56797.794      5413.8588    
    926000   768.99012     -2823.2096      49.699887     -2773.5097      53018.581      5413.8588    
    927000   761.54274     -2821.0167      49.218563     -2771.7982      54906.978      5413.8588    
    928000   805.01388     -2818.7143      52.028105     -2766.6862      57227.227      5413.8588    
    929000   849.06549     -2820.9287      54.875164     -2766.0536      56501.057      5413.8588    
    930000   829.00476     -2819.6401      53.578638     -2766.0615      56703.095      5413.8588    
    931000   793.67479     -2820.7749      51.295259     -2769.4796      55503.391      5413.8588    
    932000   811.2731      -2819.9182      52.432639     -2767.4855      56975.894      5413.8588    
    933000   834.71724     -2817.8918      53.947836     -2763.944       58486.155      5413.8588    
    934000   820.02225     -2817.0353      52.998098     -2764.0372      58917.082      5413.8588    
    935000   806.93634     -2819.9499      52.152354     -2767.7976      56629.124      5413.8588    
    936000   770.19764     -2819.6447      49.777929     -2769.8668      56757.865      5413.8588    
    937000   815.12233     -2823.3547      52.681415     -2770.6733      53206.853      5413.8588    
    938000   789.9718      -2823.3611      51.055935     -2772.3052      52795.661      5413.8588    
    939000   822.35159     -2820.0695      53.148643     -2766.9209      56752.421      5413.8588    
    940000   798.79036     -2822.1262      51.625879     -2770.5004      54763.677      5413.8588    
    941000   808.12475     -2824.3775      52.229161     -2772.1483      52470.054      5413.8588    
    942000   786.86062     -2821.2141      50.854859     -2770.3592      55322.177      5413.8588    
    943000   806.46126     -2818.9562      52.12165      -2766.8345      57498.787      5413.8588    
    944000   814.39143     -2820.844       52.634177     -2768.2098      55536.694      5413.8588    
    945000   808.94576     -2823.1587      52.282223     -2770.8765      53424.189      5413.8588    
    946000   804.91776     -2820.4812      52.021893     -2768.4593      55646.24       5413.8588    
    947000   863.15309     -2818.3238      55.785647     -2762.5381      58704.737      5413.8588    
    948000   772.37371     -2815.9675      49.918569     -2766.0489      59434.271      5413.8588    
    949000   819.75465     -2820.8686      52.980802     -2767.8878      56341.905      5413.8588    
    950000   823.12937     -2821.9887      53.198911     -2768.7898      55026.439      5413.8588    
    951000   768.12063     -2822.7819      49.643692     -2773.1382      53020.933      5413.8588    
    952000   764.49778     -2820.0281      49.409547     -2770.6186      55892.323      5413.8588    
    953000   816.4221      -2820.1291      52.76542      -2767.3637      55790.855      5413.8588    
    954000   809.10991     -2818.7169      52.292832     -2766.424       58006.235      5413.8588    
    955000   802.31934     -2822.2613      51.853957     -2770.4074      54202.261      5413.8588    
    956000   714.77739     -2819.9303      46.196114     -2773.7342      55330.295      5413.8588    
    957000   778.11464     -2817.1542      50.289606     -2766.8646      58871.731      5413.8588    
    958000   822.2867      -2819.0781      53.144449     -2765.9337      57305.191      5413.8588    
    959000   769.29172     -2823.751       49.71938      -2774.0316      52635.78       5413.8588    
    960000   770.26987     -2821.8346      49.782597     -2772.052       54522.35       5413.8588    
    961000   791.59063     -2820.597       51.16056      -2769.4365      55923.684      5413.8588    
    962000   820.11013     -2818.9961      53.003777     -2765.9924      57584.013      5413.8588    
    963000   882.98895     -2820.6044      57.06764      -2763.5367      57441.658      5413.8588    
    964000   752.45014     -2818.8445      48.630907     -2770.2136      56117.445      5413.8588    
    965000   772.68583     -2820.3481      49.938741     -2770.4094      56458.466      5413.8588    
    966000   809.47475     -2819.5862      52.316412     -2767.2698      56762.341      5413.8588    
    967000   789.54071     -2821.6185      51.028073     -2770.5904      55094.03       5413.8588    
    968000   772.00447     -2823.7237      49.894705     -2773.829       52996.099      5413.8588    
    969000   767.18614     -2819.2123      49.583296     -2769.629       56100.558      5413.8588    
    970000   811.44538     -2817.9744      52.443774     -2765.5306      58752.797      5413.8588    
    971000   791.48157     -2818.4017      51.153511     -2767.2482      57720.466      5413.8588    
    972000   790.25422     -2821.1869      51.074188     -2770.1127      55060.993      5413.8588    
    973000   783.60128     -2823.9702      50.644208     -2773.326       52808.101      5413.8588    
    974000   763.53077     -2819.4736      49.347049     -2770.1266      56180.632      5413.8588    
    975000   805.34511     -2819.5242      52.049513     -2767.4747      56433.278      5413.8588    
    976000   865.06917     -2817.7547      55.909483     -2761.8452      58657.141      5413.8588    
    977000   757.71329     -2820.6431      48.971065     -2771.672       55993.301      5413.8588    
    978000   748.67057     -2817.8266      48.386634     -2769.44        57698.596      5413.8588    
    979000   843.19156     -2821.0123      54.495531     -2766.5168      56163.076      5413.8588    
    980000   773.68795     -2818.2128      50.003508     -2768.2093      57889.462      5413.8588    
    981000   757.05991     -2820.0743      48.928837     -2771.1455      56440.902      5413.8588    
    982000   755.54468     -2822.0372      48.830907     -2773.2062      54182.325      5413.8588    
    983000   815.39291     -2822.1124      52.698903     -2769.4135      55086.072      5413.8588    
    984000   847.64141     -2821.8795      54.783126     -2767.0964      55286.36       5413.8588    
    985000   777.65932     -2821.0161      50.260178     -2770.7559      54993.463      5413.8588    
    986000   762.18624     -2822.0202      49.260152     -2772.7601      54034.576      5413.8588    
    987000   796.11369     -2820.6757      51.452886     -2769.2228      55729.847      5413.8588    
    988000   855.44013     -2821.389       55.287158     -2766.1019      55693.432      5413.8588    
    989000   803.83305     -2819.1155      51.951788     -2767.1637      57654.218      5413.8588    
    990000   787.44048     -2822.1537      50.892335     -2771.2613      54460.833      5413.8588    
    991000   761.84438     -2819.9612      49.238058     -2770.7231      55823.857      5413.8588    
    992000   779.77747     -2818.4061      50.397074     -2768.009       57383.34       5413.8588    
    993000   821.52905     -2820.7677      53.095482     -2767.6722      55690.9        5413.8588    
    994000   792.60868     -2822.79        51.226356     -2771.5636      54613.496      5413.8588    
    995000   838.38614     -2823.7597      54.184957     -2769.5747      54136.832      5413.8588    
    996000   799.32589     -2817.5477      51.66049      -2765.8872      58742.625      5413.8588    
    997000   761.06397     -2817.2536      49.18762      -2768.066       58339.567      5413.8588    
    998000   781.59317     -2821.308       50.514423     -2770.7936      55321.619      5413.8588    
    999000   790.37202     -2822.8465      51.081801     -2771.7647      53748.875      5413.8588    
   1000000   767.75289     -2818.7112      49.619925     -2769.0912      57266.775      5413.8588    
   1001000   815.83366     -2819.0797      52.727389     -2766.3523      57495.023      5413.8588    
   1002000   754.0971      -2816.9982      48.73735      -2768.2609      59949.975      5413.8588    
   1003000   742.83986     -2821.4262      48.009794     -2773.4164      55353.872      5413.8588    
   1004000   741.6568      -2819.9309      47.933333     -2771.9976      56094.611      5413.8588    
   1005000   809.00698     -2818.4657      52.28618      -2766.1795      57912.37       5413.8588    
   1006000   822.75175     -2819.7783      53.174505     -2766.6038      56852.171      5413.8588    
   1007000   730.49898     -2823.4862      47.212202     -2776.274       52608.175      5413.8588    
   1008000   842.52109     -2820.3964      54.452199     -2765.9442      56619.4        5413.8588    
   1009000   816.96504     -2820.6507      52.80051      -2767.8501      56133.815      5413.8588    
   1010000   783.65676     -2820.8361      50.647793     -2770.1883      55284.436      5413.8588    
   1011000   742.36917     -2818.5604      47.979374     -2770.581       56209.391      5413.8588    
   1012000   831.24626     -2821.0133      53.723506     -2767.2898      56012.9        5413.8588    
   1013000   816.07373     -2818.1901      52.742904     -2765.4472      58407.086      5413.8588    
   1014000   743.81861     -2818.1699      48.07305      -2770.0968      57428.623      5413.8588    
   1015000   760.38026     -2818.8129      49.143432     -2769.6695      57143.129      5413.8588    
   1016000   791.34963     -2818.3575      51.144984     -2767.2125      57964.933      5413.8588    
   1017000   801.81297     -2822.3432      51.821231     -2770.5219      54541.978      5413.8588    
   1018000   774.98796     -2821.0863      50.087528     -2770.9987      55001.821      5413.8588    
   1019000   814.09975     -2819.2001      52.615326     -2766.5848      57161.09       5413.8588    
   1020000   829.82203     -2819.4403      53.631458     -2765.8089      57074.687      5413.8588    
   1021000   862.396       -2820.1767      55.736716     -2764.44        57343.269      5413.8588    
   1022000   783.73987     -2818.8571      50.653165     -2768.2039      57718.935      5413.8588    
   1023000   784.77464     -2820.2216      50.720042     -2769.5016      55914.686      5413.8588    
   1024000   812.65748     -2822.4338      52.522112     -2769.9117      54205.141      5413.8588    
   1025000   830.44869     -2817.954       53.671959     -2764.282       58507.231      5413.8588    
   1026000   804.61743     -2816.5934      52.002483     -2764.5909      59176.522      5413.8588    
   1027000   792.28281     -2820.6242      51.205296     -2769.4189      55678.82       5413.8588    
   1028000   765.48227     -2819.0746      49.473175     -2769.6014      56567.679      5413.8588    
   1029000   780.85175     -2818.1922      50.466505     -2767.7257      58382.677      5413.8588    
   1030000   797.34088     -2818.2614      51.532199     -2766.7292      57780.931      5413.8588    
   1031000   808.91506     -2823.3137      52.280239     -2771.0335      53974.963      5413.8588    
   1032000   786.72035     -2818.9534      50.845793     -2768.1076      57123.811      5413.8588    
   1033000   840.18515     -2818.8732      54.301227     -2764.572       58793.523      5413.8588    
   1034000   814.76498     -2818.4123      52.65832      -2765.754       57835.959      5413.8588    
   1035000   770.69607     -2819.5906      49.810143     -2769.7804      56844.36       5413.8588    
   1036000   824.92255     -2822.385       53.314804     -2769.0702      54585.545      5413.8588    
   1037000   831.42759     -2820.1793      53.735225     -2766.4441      56423.796      5413.8588    
   1038000   857.41254     -2821.5248      55.414634     -2766.1101      55855.033      5413.8588    
   1039000   833.96753     -2820.5804      53.899382     -2766.6811      56804.867      5413.8588    
   1040000   761.99516     -2819.0028      49.247802     -2769.755       57016.456      5413.8588    
   1041000   774.13319     -2821.1573      50.032284     -2771.125       55156.749      5413.8588    
   1042000   791.86019     -2820.2814      51.177982     -2769.1034      55928.661      5413.8588    
   1043000   850.38498     -2815.2708      54.960443     -2760.3104      60575.864      5413.8588    
   1044000   773.17853     -2818.8253      49.970585     -2768.8547      57192.968      5413.8588    
   1045000   769.00047     -2819.3213      49.700556     -2769.6207      55921.127      5413.8588    
   1046000   822.34186     -2823.4369      53.148014     -2770.2888      53636.164      5413.8588    
   1047000   784.94158     -2818.0862      50.730831     -2767.3554      57530.46       5413.8588    
   1048000   774.70895     -2817.076       50.069495     -2767.0065      58479.057      5413.8588    
   1049000   792.32077     -2821.7253      51.207749     -2770.5176      55005.136      5413.8588    
   1050000   800.14916     -2819.484       51.713698     -2767.7703      56989.191      5413.8588    
   1051000   878.83243     -2821.543       56.799003     -2764.744       56025.227      5413.8588    
   1052000   815.59857     -2819.5055      52.712194     -2766.7933      56431.96       5413.8588    
   1053000   808.66702     -2819.6306      52.264208     -2767.3664      57488.412      5413.8588    
   1054000   732.09134     -2823.1748      47.315116     -2775.8597      53035.944      5413.8588    
   1055000   830.9897      -2820.9392      53.706925     -2767.2323      56533.399      5413.8588    
   1056000   742.27116     -2816.352       47.973039     -2768.3789      59001.148      5413.8588    
   1057000   831.52274     -2820.8516      53.741375     -2767.1102      55705.036      5413.8588    
   1058000   872.42975     -2821.4994      56.385198     -2765.1142      55507.205      5413.8588    
   1059000   801.79813     -2819.6526      51.820272     -2767.8324      56664.801      5413.8588    
   1060000   789.45419     -2821.1439      51.022482     -2770.1214      54936.836      5413.8588    
   1061000   826.29377     -2824.3088      53.403426     -2770.9053      53651.901      5413.8588    
   1062000   740.65634     -2819.3247      47.868673     -2771.4561      56072.369      5413.8588    
   1063000   827.44446     -2819.2183      53.477796     -2765.7405      57667.236      5413.8588    
   1064000   784.34373     -2818.8276      50.692192     -2768.1354      57982.463      5413.8588    
   1065000   782.82896     -2821.0988      50.594293     -2770.5045      55761.798      5413.8588    
   1066000   789.12338     -2821.0007      51.001101     -2769.9996      55667.099      5413.8588    
   1067000   776.72167     -2820.1074      50.199578     -2769.9078      56182.779      5413.8588    
   1068000   816.0146      -2818.7316      52.739082     -2765.9925      58256.865      5413.8588    
   1069000   858.43962     -2818.2155      55.481015     -2762.7345      59147.709      5413.8588    
   1070000   752.86087     -2815.7067      48.657453     -2767.0493      59590.866      5413.8588    
   1071000   806.77593     -2821.6015      52.141987     -2769.4595      55375.539      5413.8588    
   1072000   786.13882     -2820.4908      50.808209     -2769.6826      56233.196      5413.8588    
   1073000   826.05536     -2820.8415      53.388018     -2767.4535      55790.177      5413.8588    
   1074000   822.33147     -2819.4641      53.147342     -2766.3167      57595.63       5413.8588    
   1075000   844.95427     -2820.5135      54.609456     -2765.9041      56867.587      5413.8588    
   1076000   793.01088     -2818.386       51.25235      -2767.1337      57628.037      5413.8588    
   1077000   768.03753     -2820.4634      49.638321     -2770.8251      55683.908      5413.8588    
   1078000   788.79434     -2823.7927      50.979835     -2772.8129      52338.291      5413.8588    
   1079000   756.70059     -2817.9637      48.905614     -2769.0581      57595.443      5413.8588    
   1080000   832.881       -2820.0674      53.829159     -2766.2382      56853.74       5413.8588    
   1081000   776.43097     -2816.3083      50.18079      -2766.1275      59725.939      5413.8588    
   1082000   795.6114      -2818.7624      51.420422     -2767.342       57896.363      5413.8588    
   1083000   784.06179     -2819.9542      50.67397      -2769.2802      56101.871      5413.8588    
   1084000   818.1709      -2820.9002      52.878444     -2768.0218      56370.618      5413.8588    
   1085000   810.89234     -2817.5796      52.408031     -2765.1716      59053.955      5413.8588    
   1086000   801.05941     -2819.215       51.772527     -2767.4424      57542.308      5413.8588    
   1087000   736.31307     -2820.705       47.587967     -2773.117       54766.225      5413.8588    
   1088000   763.407       -2821.4415      49.33905      -2772.1024      55455.863      5413.8588    
   1089000   795.66317     -2820.9881      51.423768     -2769.5644      55826.588      5413.8588    
   1090000   798.40209     -2818.5056      51.600785     -2766.9048      57646.801      5413.8588    
   1091000   786.55074     -2816.9024      50.834831     -2766.0676      59660.791      5413.8588    
   1092000   786.45128     -2820.1203      50.828403     -2769.2919      55824.342      5413.8588    
   1093000   811.32937     -2821.3617      52.436276     -2768.9254      55313.569      5413.8588    
   1094000   803.46515     -2818.6227      51.928011     -2766.6947      57955.543      5413.8588    
   1095000   798.91245     -2817.0715      51.633769     -2765.4377      58682.563      5413.8588    
   1096000   783.90023     -2816.5556      50.663529     -2765.892       59678.519      5413.8588    
   1097000   821.99274     -2820.7955      53.12545      -2767.67        55853.809      5413.8588    
   1098000   786.50938     -2820.6783      50.832159     -2769.8461      55998.726      5413.8588    
   1099000   782.26234     -2824.2108      50.557672     -2773.6532      52504.847      5413.8588    
   1100000   782.30222     -2819.3516      50.560249     -2768.7914      56351.517      5413.8588    
   1101000   855.67915     -2820.4015      55.302606     -2765.0989      57520.117      5413.8588    
   1102000   797.29335     -2818.6568      51.529127     -2767.1277      57808.028      5413.8588    
   1103000   793.47535     -2821.8165      51.282369     -2770.5341      54841.67       5413.8588    
   1104000   783.37027     -2817.9451      50.629278     -2767.3158      58005.148      5413.8588    
   1105000   846.88241     -2820.5605      54.734072     -2765.8265      56473.979      5413.8588    
   1106000   839.63791     -2822.2716      54.265859     -2768.0058      54976.789      5413.8588    
   1107000   739.6495      -2820.3773      47.803601     -2772.5737      54763.983      5413.8588    
   1108000   783.40568     -2820.4542      50.631566     -2769.8227      56075.597      5413.8588    
   1109000   787.96407     -2817.2139      50.926175     -2766.2877      58732.428      5413.8588    
   1110000   837.88273     -2815.8272      54.152421     -2761.6748      60204.574      5413.8588    
   1111000   784.62394     -2819.1189      50.710302     -2768.4086      56770.093      5413.8588    
   1112000   788.78982     -2819.7824      50.979543     -2768.8028      56835.82       5413.8588    
   1113000   800.85448     -2820.6826      51.759283     -2768.9233      54850.265      5413.8588    
   1114000   834.89305     -2815.8885      53.959199     -2761.9293      61036.51       5413.8588    
   1115000   771.07272     -2817.9547      49.834486     -2768.1202      57761.728      5413.8588    
   1116000   800.30377     -2820.7682      51.723691     -2769.0445      55357.419      5413.8588    
   1117000   770.12508     -2819.364       49.77324      -2769.5908      57139.661      5413.8588    
   1118000   832.36678     -2819.8478      53.795925     -2766.0519      57604.107      5413.8588    
   1119000   819.34262     -2817.9015      52.954173     -2764.9473      58622.239      5413.8588    
   1120000   799.33066     -2818.6936      51.660798     -2767.0328      58226.419      5413.8588    
   1121000   791.38247     -2822.2305      51.147107     -2771.0834      54657.169      5413.8588    
   1122000   744.32864     -2822.6593      48.106014     -2774.5533      54168.166      5413.8588    
   1123000   794.61992     -2818.8367      51.356343     -2767.4803      57451.668      5413.8588    
   1124000   808.55301     -2818.7081      52.256839     -2766.4513      57593.492      5413.8588    
   1125000   807.58779     -2821.3736      52.194457     -2769.1791      55272.083      5413.8588    
   1126000   730.34749     -2819.9574      47.202411     -2772.755       55682.137      5413.8588    
   1127000   809.77907     -2818.9926      52.33608      -2766.6565      57619.024      5413.8588    
   1128000   816.47349     -2817.308       52.768741     -2764.5392      58409.676      5413.8588    
   1129000   820.00529     -2821.2135      52.997001     -2768.2165      55580.738      5413.8588    
   1130000   789.99107     -2821.9         51.05718      -2770.8428      54545.715      5413.8588    
   1131000   844.8246      -2817.564       54.601075     -2762.9629      59339.671      5413.8588    
   1132000   839.41133     -2819.603       54.251215     -2765.3518      57863.295      5413.8588    
   1133000   815.98192     -2822.1727      52.736971     -2769.4357      54898.286      5413.8588    
   1134000   797.35598     -2819.77        51.533175     -2768.2368      56442.166      5413.8588    
   1135000   832.21281     -2818.6641      53.785975     -2764.8781      58220.779      5413.8588    
   1136000   803.14831     -2819.1397      51.907533     -2767.2322      56933.163      5413.8588    
   1137000   827.63403     -2822.8699      53.490047     -2769.3799      54334.082      5413.8588    
   1138000   777.7302      -2820.5548      50.264759     -2770.29        55811.113      5413.8588    
   1139000   781.77201     -2820.1248      50.525982     -2769.5988      56472.176      5413.8588    
   1140000   801.78635     -2818.9781      51.81951      -2767.1586      57611.524      5413.8588    
   1141000   821.8701      -2818.5332      53.117524     -2765.4156      57729.441      5413.8588    
   1142000   787.11428     -2820.3215      50.871253     -2769.4503      55801.391      5413.8588    
   1143000   783.9247      -2821.9149      50.66511      -2771.2498      55891.99       5413.8588    
   1144000   759.8237      -2817.5624      49.107461     -2768.4549      58254.24       5413.8588    
   1145000   829.18666     -2819.4169      53.590394     -2765.8265      57568.859      5413.8588    
   1146000   818.59629     -2820.229       52.905937     -2767.3231      56363.501      5413.8588    
   1147000   771.34881     -2823.1503      49.852329     -2773.298       53277.245      5413.8588    
   1148000   780.2994      -2822.0984      50.430807     -2771.6676      53950.168      5413.8588    
   1149000   807.96266     -2818.763       52.218686     -2766.5443      57324.814      5413.8588    
   1150000   859.61621     -2823.2126      55.557058     -2767.6556      54404.835      5413.8588    
   1151000   793.22803     -2822.4067      51.266385     -2771.1403      54631.782      5413.8588    
   1152000   829.45378     -2822.7038      53.607658     -2769.0961      54904.637      5413.8588    
   1153000   805.26928     -2819.77        52.044612     -2767.7254      56583.303      5413.8588    
   1154000   825.92983     -2818.6023      53.379905     -2765.2224      58082.11       5413.8588    
   1155000   844.86571     -2822.324       54.603732     -2767.7203      55100.518      5413.8588    
   1156000   802.39403     -2822.4573      51.858784     -2770.5985      54586.066      5413.8588    
   1157000   741.84375     -2820.584       47.945415     -2772.6386      55154.105      5413.8588    
   1158000   798.45545     -2817.5859      51.604234     -2765.9816      58578.482      5413.8588    
   1159000   888.74464     -2820.0853      57.43963      -2762.6457      57700.139      5413.8588    
   1160000   866.25209     -2821.2819      55.985935     -2765.296       55906.987      5413.8588    
   1161000   764.66121     -2818.0774      49.420109     -2768.6572      57369.912      5413.8588    
   1162000   804.56017     -2821.9323      51.998782     -2769.9335      54560.562      5413.8588    
   1163000   810.29655     -2819.8221      52.369525     -2767.4526      57000.228      5413.8588    
   1164000   841.10058     -2818.9525      54.360392     -2764.5921      58454.927      5413.8588    
   1165000   842.25762     -2821.263       54.435171     -2766.8278      55667.242      5413.8588    
   1166000   775.10489     -2819.7775      50.095085     -2769.6825      56735.103      5413.8588    
   1167000   812.30146     -2821.8703      52.499102     -2769.3712      55426.156      5413.8588    
   1168000   805.92971     -2816.3645      52.087295     -2764.2772      59985.304      5413.8588    
   1169000   829.31938     -2817.7362      53.598971     -2764.1372      59192.247      5413.8588    
   1170000   842.306       -2823.1215      54.438298     -2768.6832      55124.108      5413.8588    
   1171000   796.52591     -2822.7884      51.479527     -2771.3088      54068.51       5413.8588    
   1172000   839.36067     -2822.696       54.247941     -2768.4481      54530.727      5413.8588    
   1173000   796.89434     -2818.3793      51.503339     -2766.8759      57973.569      5413.8588    
   1174000   784.66001     -2821.8357      50.712633     -2771.1231      55300.21       5413.8588    
   1175000   828.22968     -2825.6044      53.528544     -2772.0759      52201.739      5413.8588    
   1176000   774.38202     -2821.4888      50.048366     -2771.4404      54777.028      5413.8588    
   1177000   824.49182     -2820.2707      53.286966     -2766.9837      56892.447      5413.8588    
   1178000   749.75979     -2819.2709      48.457029     -2770.8138      56614.873      5413.8588    
   1179000   761.74822     -2820.8694      49.231843     -2771.6376      55142.14       5413.8588    
   1180000   793.74293     -2818.6695      51.299663     -2767.3698      57944.052      5413.8588    
   1181000   794.03739     -2816.858       51.318694     -2765.5393      58775.119      5413.8588    
   1182000   762.79884     -2817.6521      49.299744     -2768.3524      58716.595      5413.8588    
   1183000   792.5935      -2823.5209      51.225375     -2772.2955      53683.186      5413.8588    
   1184000   755.38878     -2820.7306      48.820832     -2771.9098      55352.55       5413.8588    
   1185000   795.15822     -2821.9519      51.391133     -2770.5607      54233.955      5413.8588    
   1186000   841.74926     -2818.355       54.402316     -2763.9527      58542.347      5413.8588    
   1187000   839.97437     -2820.7341      54.287604     -2766.4465      55931.855      5413.8588    
   1188000   761.60902     -2819.5467      49.222846     -2770.3239      56263.777      5413.8588    
   1189000   735.51104     -2817.2734      47.536132     -2769.7372      58126.651      5413.8588    
   1190000   788.82517     -2816.9704      50.981828     -2765.9886      59432.216      5413.8588    
   1191000   809.96583     -2819.159       52.34815      -2766.8109      56994.997      5413.8588    
   1192000   813.40476     -2821.0254      52.570409     -2768.455       55169.444      5413.8588    
   1193000   777.05165     -2820.4872      50.220904     -2770.2663      55459.542      5413.8588    
   1194000   868.35943     -2815.875       56.122133     -2759.7529      60738.227      5413.8588    
   1195000   854.51373     -2822.9714      55.227284     -2767.7441      54413.988      5413.8588    
   1196000   773.87322     -2820.5711      50.015482     -2770.5557      54927.053      5413.8588    
   1197000   770.70156     -2822.1093      49.810498     -2772.2988      54273.181      5413.8588    
   1198000   782.49012     -2819.5382      50.572393     -2768.9658      57198.255      5413.8588    
   1199000   775.413       -2817.4723      50.114998     -2767.3573      58684.832      5413.8588    
   1200000   799.84498     -2821.041       51.694039     -2769.347       55953.874      5413.8588    
   1201000   772.02046     -2821.5714      49.895738     -2771.6757      55088.231      5413.8588    
   1202000   810.44201     -2823.5617      52.378926     -2771.1827      53157.735      5413.8588    
   1203000   882.41179     -2817.709       57.030338     -2760.6787      59743.27       5413.8588    
   1204000   813.6777      -2820.3279      52.588049     -2767.7398      56383.302      5413.8588    
   1205000   774.80594     -2820.4502      50.075764     -2770.3745      55489.182      5413.8588    
   1206000   775.41661     -2819.2978      50.115231     -2769.1826      57208.97       5413.8588    
   1207000   839.71694     -2820.3002      54.270967     -2766.0293      56482.31       5413.8588    
   1208000   801.6012      -2816.6248      51.807544     -2764.8173      59264.456      5413.8588    
   1209000   843.0931      -2817.3866      54.489168     -2762.8974      58709.126      5413.8588    
   1210000   779.2327      -2819.0557      50.361866     -2768.6939      57133.783      5413.8588    
   1211000   808.16018     -2821.7863      52.231451     -2769.5549      54850.316      5413.8588    
   1212000   779.03968     -2821.0982      50.349391     -2770.7488      55244.278      5413.8588    
   1213000   725.48372     -2816.9333      46.888065     -2770.0452      58368.098      5413.8588    
   1214000   830.0143      -2820.8139      53.643884     -2767.17        56785.028      5413.8588    
   1215000   810.58138     -2819.9368      52.387933     -2767.5489      56448.062      5413.8588    
   1216000   803.88636     -2820.5177      51.955234     -2768.5624      55830.361      5413.8588    
   1217000   755.50725     -2822.1492      48.828488     -2773.3207      53862.875      5413.8588    
   1218000   771.33718     -2819.39        49.851578     -2769.5384      57204.577      5413.8588    
   1219000   815.05826     -2819.3739      52.677274     -2766.6966      57352.562      5413.8588    
   1220000   783.28168     -2822.0868      50.623552     -2771.4632      54646.659      5413.8588    
   1221000   758.79614     -2821.1568      49.04105      -2772.1157      55233.055      5413.8588    
   1222000   790.85711     -2819.5875      51.113152     -2768.4744      56193.619      5413.8588    
   1223000   868.73733     -2823.2587      56.146556     -2767.1122      54565.612      5413.8588    
   1224000   771.16348     -2820.806       49.840352     -2770.9656      55067.786      5413.8588    
   1225000   767.2497      -2821.9415      49.587404     -2772.3541      54000.729      5413.8588    
   1226000   745.61503     -2820.0838      48.189154     -2771.8947      55684.992      5413.8588    
   1227000   806.15112     -2821.6067      52.101605     -2769.5051      55383.52       5413.8588    
   1228000   821.63747     -2819.4947      53.102489     -2766.3923      57934.117      5413.8588    
   1229000   840.35958     -2816.2556      54.3125       -2761.9431      60225.21       5413.8588    
   1230000   779.11853     -2818.6367      50.354487     -2768.2822      57425.409      5413.8588    
   1231000   818.35688     -2821.79        52.890464     -2768.8995      55388.386      5413.8588    
   1232000   772.17594     -2821.7797      49.905787     -2771.8739      54873.052      5413.8588    
   1233000   818.28566     -2821.9993      52.885862     -2769.1134      55442.753      5413.8588    
   1234000   811.07286     -2818.6583      52.419698     -2766.2386      57483.601      5413.8588    
   1235000   849.25431     -2816.692       54.887368     -2761.8046      59989.439      5413.8588    
   1236000   766.63132     -2820.3714      49.547438     -2770.8239      55529.967      5413.8588    
   1237000   733.45054     -2818.2065      47.402961     -2770.8035      57774.69       5413.8588    
   1238000   802.53567     -2817.9593      51.867938     -2766.0914      57752.434      5413.8588    
   1239000   810.32422     -2817.2686      52.371313     -2764.8973      58388.845      5413.8588    
   1240000   774.44293     -2821.0334      50.052303     -2770.9811      55093.999      5413.8588    
   1241000   795.95519     -2821.1374      51.442642     -2769.6948      55902.952      5413.8588    
   1242000   826.00655     -2820.2004      53.384863     -2766.8156      57032.281      5413.8588    
   1243000   812.93577     -2820.9627      52.540098     -2768.4226      56074.181      5413.8588    
   1244000   802.42678     -2819.8162      51.860901     -2767.9553      56359.63       5413.8588    
   1245000   847.13716     -2817.7378      54.750536     -2762.9872      59520.006      5413.8588    
   1246000   821.97426     -2816.7542      53.124256     -2763.63        59409.941      5413.8588    
   1247000   813.37575     -2821.143       52.568534     -2768.5744      56245.69       5413.8588    
   1248000   774.2123      -2820.1032      50.037397     -2770.0658      56730.576      5413.8588    
   1249000   770.89374     -2817.6479      49.822918     -2767.825       58262.521      5413.8588    
   1250000   818.30728     -2820.6353      52.887259     -2767.7481      56227.479      5413.8588    
   1251000   850.04583     -2824.5205      54.938524     -2769.582       52524.895      5413.8588    
   1252000   827.55953     -2822.8101      53.485232     -2769.3249      53622.352      5413.8588    
   1253000   820.06352     -2820.5972      53.000765     -2767.5964      55893.025      5413.8588    
   1254000   791.04702     -2818.771       51.125427     -2767.6456      57503.935      5413.8588    
   1255000   792.05686     -2819.572       51.190692     -2768.3813      56970.988      5413.8588    
   1256000   763.24352     -2822.3412      49.328484     -2773.0127      54398.916      5413.8588    
   1257000   792.32478     -2821.3         51.208008     -2770.092       55906.314      5413.8588    
   1258000   759.38995     -2819.1492      49.079427     -2770.0698      56423.725      5413.8588    
   1259000   841.03018     -2817.1966      54.355841     -2762.8408      59940.529      5413.8588    
   1260000   829.06525     -2817.4921      53.582547     -2763.9095      59630.489      5413.8588    
   1261000   793.42654     -2819.5994      51.279215     -2768.3202      57110.272      5413.8588    
   1262000   785.33776     -2821.9744      50.756436     -2771.218       54076.985      5413.8588    
   1263000   799.33801     -2820.1835      51.661274     -2768.5222      56479.458      5413.8588    
   1264000   829.3498      -2820.9643      53.600938     -2767.3634      56746.932      5413.8588    
   1265000   795.17154     -2825.1013      51.391994     -2773.7093      51767.765      5413.8588    
   1266000   778.96782     -2821.8122      50.344747     -2771.4674      54677.106      5413.8588    
   1267000   830.60831     -2822.22        53.682276     -2768.5377      54878.983      5413.8588    
   1268000   845.96711     -2821.1977      54.674916     -2766.5228      56551.095      5413.8588    
   1269000   826.16766     -2816.79        53.395276     -2763.3947      60202.146      5413.8588    
   1270000   761.90159     -2818.6164      49.241755     -2769.3746      57307.807      5413.8588    
   1271000   824.61306     -2817.9592      53.294802     -2764.6644      58968.775      5413.8588    
   1272000   886.47667     -2821.4486      57.293052     -2764.1555      56949.456      5413.8588    
   1273000   834.26759     -2819.5501      53.918775     -2765.6313      57334.365      5413.8588    
   1274000   768.21896     -2817.862       49.650047     -2768.2119      58347.975      5413.8588    
   1275000   785.64769     -2819.5187      50.776467     -2768.7423      57452.11       5413.8588    
   1276000   801.49988     -2817.6694      51.800995     -2765.8684      58443.37       5413.8588    
   1277000   800.74678     -2818.5113      51.752323     -2766.759       57437.264      5413.8588    
   1278000   810.81935     -2824.1971      52.403313     -2771.7938      52366.408      5413.8588    
   1279000   763.08585     -2819.697       49.318294     -2770.3787      55932.712      5413.8588    
   1280000   827.11853     -2819.3163      53.45673      -2765.8596      58039.205      5413.8588    
   1281000   808.95646     -2820.1889      52.282915     -2767.906       56601.515      5413.8588    
   1282000   786.01503     -2822.5529      50.800209     -2771.7527      53810.316      5413.8588    
   1283000   779.85213     -2821.1785      50.4019       -2770.7766      54355.776      5413.8588    
   1284000   834.6715      -2820.2965      53.94488      -2766.3517      56284.234      5413.8588    
   1285000   841.04108     -2821.3788      54.356546     -2767.0223      56015.582      5413.8588    
   1286000   765.77203     -2817.9303      49.491902     -2768.4384      58161.563      5413.8588    
   1287000   748.37636     -2816.7071      48.367619     -2768.3395      59436.069      5413.8588    
   1288000   793.95965     -2822.575       51.31367      -2771.2613      54423.084      5413.8588    
   1289000   822.72764     -2821.725       53.172947     -2768.552       55086.87       5413.8588    
   1290000   798.81624     -2817.6522      51.627551     -2766.0247      58479.686      5413.8588    
   1291000   839.16996     -2819.697       54.235616     -2765.4614      56831.264      5413.8588    
   1292000   817.62289     -2819.1916      52.843027     -2766.3486      57027.796      5413.8588    
   1293000   789.18746     -2820.7037      51.005243     -2769.6985      56004.668      5413.8588    
   1294000   851.61181     -2819.6238      55.039733     -2764.584       57759.902      5413.8588    
   1295000   828.11134     -2820.1361      53.520896     -2766.6152      56395.821      5413.8588    
   1296000   765.21305     -2818.9022      49.455775     -2769.4464      56796.102      5413.8588    
   1297000   778.41097     -2823.0038      50.308757     -2772.695       53059.309      5413.8588    
   1298000   800.07213     -2822.616       51.70872      -2770.9072      54287.86       5413.8588    
   1299000   754.62615     -2816.8199      48.771543     -2768.0484      59134.78       5413.8588    
   1300000   838.03397     -2820.2417      54.162197     -2766.0795      56593.997      5413.8588    
   1301000   752.9792      -2818.0071      48.6651       -2769.342       57953.667      5413.8588    
   1302000   817.53531     -2822.5767      52.837366     -2769.7393      54756.288      5413.8588    
   1303000   814.2811      -2822.2992      52.627046     -2769.6722      54617.103      5413.8588    
   1304000   780.8337      -2817.9152      50.465339     -2767.4498      57732.014      5413.8588    
   1305000   819.71851     -2820.146       52.978467     -2767.1675      56658.006      5413.8588    
   1306000   791.74092     -2819.0428      51.170273     -2767.8725      56859.015      5413.8588    
   1307000   780.99375     -2822.5832      50.475682     -2772.1075      53809.137      5413.8588    
   1308000   794.91488     -2822.2408      51.375406     -2770.8654      54198.764      5413.8588    
   1309000   797.71005     -2822.0154      51.556058     -2770.4594      54769.658      5413.8588    
   1310000   774.02578     -2817.8705      50.025342     -2767.8451      58097.884      5413.8588    
   1311000   875.15068     -2818.9018      56.561052     -2762.3408      58891.159      5413.8588    
   1312000   811.04115     -2817.915       52.417649     -2765.4974      58594.756      5413.8588    
   1313000   767.06643     -2818.3765      49.575559     -2768.8009      58009.952      5413.8588    
   1314000   822.62169     -2823.0418      53.166099     -2769.8757      54435.334      5413.8588    
   1315000   820.01773     -2821.46        52.997805     -2768.4622      55307.263      5413.8588    
   1316000   782.5246      -2817.0115      50.574622     -2766.4369      58854.085      5413.8588    
   1317000   811.15523     -2815.4935      52.425022     -2763.0685      61069.553      5413.8588    
   1318000   829.09785     -2818.9702      53.584654     -2765.3856      58110.929      5413.8588    
   1319000   792.16627     -2819.4889      51.197764     -2768.2912      56969.141      5413.8588    
   1320000   840.84457     -2824.6342      54.343846     -2770.2904      53424.053      5413.8588    
   1321000   796.22007     -2819.6305      51.459761     -2768.1708      56836.362      5413.8588    
   1322000   810.76368     -2816.6135      52.399716     -2764.2137      59595.246      5413.8588    
   1323000   818.80998     -2818.6078      52.919749     -2765.688       57867.66       5413.8588    
   1324000   774.88989     -2817.5772      50.08119      -2767.496       58330.184      5413.8588    
   1325000   733.86901     -2819.019       47.430007     -2771.589       57364.51       5413.8588    
   1326000   762.27815     -2823.0347      49.266092     -2773.7686      53674.842      5413.8588    
   1327000   794.30583     -2819.2615      51.336043     -2767.9255      57855.228      5413.8588    
   1328000   805.80022     -2817.8308      52.078927     -2765.7518      57952.785      5413.8588    
   1329000   801.05501     -2819.9801      51.772243     -2768.2079      56594.834      5413.8588    
   1330000   756.36147     -2819.8214      48.883697     -2770.9377      55663.431      5413.8588    
   1331000   779.41447     -2821.2235      50.373614     -2770.8499      55308.56       5413.8588    
   1332000   793.94391     -2818.9541      51.312653     -2767.6415      57630.416      5413.8588    
   1333000   861.42232     -2818.2858      55.673787     -2762.612       58459.135      5413.8588    
   1334000   806.59278     -2816.2224      52.13015      -2764.0923      60303.945      5413.8588    
   1335000   819.18411     -2821.7679      52.943928     -2768.824       55611.329      5413.8588    
   1336000   784.5138      -2821.7774      50.703184     -2771.0742      54608.65       5413.8588    
   1337000   784.75904     -2818.2436      50.719033     -2767.5245      57949.843      5413.8588    
   1338000   829.90921     -2818.8196      53.637092     -2765.1825      57499.296      5413.8588    
   1339000   789.02898     -2819.5712      50.995        -2768.5762      56392.507      5413.8588    
   1340000   866.22115     -2823.1377      55.983936     -2767.1537      54572.674      5413.8588    
   1341000   848.09384     -2817.2884      54.812366     -2762.476       59424.51       5413.8588    
   1342000   814.40515     -2818.5044      52.635064     -2765.8693      58127.391      5413.8588    
   1343000   818.04934     -2821.5032      52.870588     -2768.6327      55651.272      5413.8588    
   1344000   788.0258      -2821.4218      50.930165     -2770.4916      54879.349      5413.8588    
   1345000   826.96876     -2820.3494      53.447051     -2766.9024      56259.923      5413.8588    
   1346000   761.72022     -2817.4835      49.230033     -2768.2535      57900.994      5413.8588    
   1347000   781.1794      -2820.5551      50.487681     -2770.0674      55793.041      5413.8588    
   1348000   808.54846     -2818.4621      52.256546     -2766.2056      58680.428      5413.8588    
   1349000   888.1528      -2819.7652      57.40138      -2762.3638      57469.08       5413.8588    
   1350000   775.87905     -2817.5659      50.145119     -2767.4207      58433.002      5413.8588    
   1351000   777.72386     -2819.2356      50.264349     -2768.9713      56932.108      5413.8588    
   1352000   755.47554     -2817.5137      48.826439     -2768.6872      58353.698      5413.8588    
   1353000   825.1398      -2820.0262      53.328845     -2766.6974      56973.457      5413.8588    
   1354000   858.4292      -2819.3356      55.480342     -2763.8553      58134.056      5413.8588    
   1355000   828.51145     -2818.1582      53.546755     -2764.6115      58086.234      5413.8588    
   1356000   800.54482     -2821.6938      51.73927      -2769.9546      55384.555      5413.8588    
   1357000   764.58874     -2818.3098      49.415426     -2768.8944      58011.479      5413.8588    
   1358000   803.13712     -2817.0049      51.90681      -2765.0981      58993.464      5413.8588    
   1359000   865.75186     -2818.8496      55.953605     -2762.896       58293.422      5413.8588    
   1360000   771.76364     -2820.2714      49.87914      -2770.3923      55860.649      5413.8588    
   1361000   788.89204     -2822.5945      50.98615      -2771.6084      54356.862      5413.8588    
   1362000   830.31239     -2821.41        53.66315      -2767.7469      55320.331      5413.8588    
   1363000   846.21546     -2819.5439      54.690967     -2764.8529      57071.293      5413.8588    
   1364000   821.32379     -2819.9742      53.082216     -2766.892       56591.972      5413.8588    
   1365000   775.30144     -2821.6545      50.107788     -2771.5468      54746.292      5413.8588    
   1366000   793.09996     -2821.5096      51.258108     -2770.2515      54661.381      5413.8588    
   1367000   847.35368     -2819.2646      54.76453      -2764.5001      57956.362      5413.8588    
   1368000   823.41937     -2818.2878      53.217654     -2765.0702      58357.813      5413.8588    
   1369000   788.81683     -2821.936       50.981289     -2770.9547      54797.629      5413.8588    
   1370000   770.93631     -2821.9838      49.82567      -2772.1581      54417.502      5413.8588    
   1371000   814.12613     -2820.6781      52.617031     -2768.061       55877.369      5413.8588    
   1372000   846.32041     -2820.4731      54.69775      -2765.7753      56587.262      5413.8588    
   1373000   846.35883     -2822.1395      54.700233     -2767.4392      55361.625      5413.8588    
   1374000   739.04566     -2818.3946      47.764574     -2770.6301      57782.157      5413.8588    
   1375000   805.54152     -2823.6392      52.062207     -2771.577       53561.442      5413.8588    
   1376000   796.59903     -2819.2692      51.484253     -2767.7849      57397.357      5413.8588    
   1377000   797.20657     -2817.9663      51.523519     -2766.4428      57716.344      5413.8588    
   1378000   789.28359     -2820.0231      51.011456     -2769.0117      55838.913      5413.8588    
   1379000   782.96436     -2822.8686      50.603043     -2772.2655      54065.438      5413.8588    
   1380000   808.78604     -2823.0784      52.2719       -2770.8065      53837.446      5413.8588    
   1381000   808.20612     -2820.5322      52.23442      -2768.2978      56273.729      5413.8588    
   1382000   829.62193     -2820.4825      53.618526     -2766.864       56050.29       5413.8588    
   1383000   811.17129     -2820.2245      52.426059     -2767.7985      56280.449      5413.8588    
   1384000   761.5161      -2822.297       49.216841     -2773.0801      53563.681      5413.8588    
   1385000   789.15837     -2822.1494      51.003362     -2771.146       54876.076      5413.8588    
   1386000   791.54183     -2817.1155      51.157406     -2765.9581      59672.426      5413.8588    
   1387000   775.58167     -2819.3093      50.125899     -2769.1834      57120.182      5413.8588    
   1388000   789.36849     -2819.0567      51.016943     -2768.0398      57108          5413.8588    
   1389000   835.75632     -2818.6814      54.014992     -2764.6664      57380.376      5413.8588    
   1390000   802.01456     -2819.0051      51.834259     -2767.1708      57640.548      5413.8588    
   1391000   779.828       -2820.7851      50.40034      -2770.3848      55189.507      5413.8588    
   1392000   772.34782     -2822.1229      49.916896     -2772.206       54548.427      5413.8588    
   1393000   746.67985     -2820.8585      48.257973     -2772.6005      54868.445      5413.8588    
   1394000   861.03604     -2822.9408      55.648821     -2767.292       54538.051      5413.8588    
   1395000   800.30674     -2817.5069      51.723883     -2765.7831      58214.644      5413.8588    
   1396000   819.57785     -2821.3023      52.969376     -2768.3329      55758.745      5413.8588    
   1397000   790.34386     -2820.7703      51.079981     -2769.6903      55633.701      5413.8588    
   1398000   819.51931     -2817.7166      52.965592     -2764.751       59214.678      5413.8588    
   1399000   830.63503     -2816.5785      53.684002     -2762.8945      59811.62       5413.8588    
   1400000   820.15523     -2822.5293      53.006692     -2769.5226      54698.627      5413.8588    
   1401000   769.89306     -2819.2478      49.758244     -2769.4895      57157.266      5413.8588    
   1402000   838.66638     -2820.6876      54.203069     -2766.4846      56452.442      5413.8588    
   1403000   780.67933     -2819.1335      50.455361     -2768.6781      56430.518      5413.8588    
   1404000   755.20237     -2820.0547      48.808784     -2771.2459      55852.163      5413.8588    
   1405000   784.63955     -2821.3681      50.711311     -2770.6568      55013.265      5413.8588    
   1406000   826.04024     -2820.0407      53.387041     -2766.6537      56462.385      5413.8588    
   1407000   784.70843     -2818.4228      50.715763     -2767.7071      58311.806      5413.8588    
   1408000   803.7749      -2820.0555      51.94803      -2768.1075      56678.398      5413.8588    
   1409000   792.50824     -2821.8383      51.219865     -2770.6184      54371.707      5413.8588    
   1410000   770.07499     -2822.2862      49.770002     -2772.5162      54028.714      5413.8588    
   1411000   814.04278     -2821.1958      52.611644     -2768.5842      55353.303      5413.8588    
   1412000   786.45633     -2818.6022      50.828729     -2767.7735      57037.524      5413.8588    
   1413000   750.55817     -2820.1245      48.508629     -2771.6159      55771.108      5413.8588    
   1414000   768.89585     -2820.1618      49.693795     -2770.468       55820.878      5413.8588    
   1415000   783.13202     -2819.1925      50.613879     -2768.5786      57140.192      5413.8588    
   1416000   773.98266     -2817.0482      50.022555     -2767.0256      58566.818      5413.8588    
   1417000   747.89202     -2819.4456      48.336315     -2771.1093      56531.456      5413.8588    
   1418000   786.42735     -2822.5602      50.826857     -2771.7334      54283.525      5413.8588    
   1419000   759.11147     -2818.9113      49.061429     -2769.8499      57300.554      5413.8588    
   1420000   842.7452      -2822.744       54.466683     -2768.2773      55579.508      5413.8588    
   1421000   854.12914     -2820.8169      55.202428     -2765.6145      57203.418      5413.8588    
   1422000   852.6463      -2820.4461      55.106592     -2765.3395      56744.434      5413.8588    
   1423000   768.81405     -2821.2953      49.688508     -2771.6068      55065.233      5413.8588    
   1424000   757.00734     -2820.8372      48.92544      -2771.9117      55457.447      5413.8588    
   1425000   795.40886     -2816.114       51.407332     -2764.7067      59473.054      5413.8588    
   1426000   805.88654     -2818.0308      52.084505     -2765.9463      58487.096      5413.8588    
   1427000   735.71154     -2818.917       47.54909      -2771.3679      57112.752      5413.8588    
   1428000   806.35043     -2818.6428      52.114486     -2766.5283      57847.648      5413.8588    
   1429000   772.39644     -2816.146       49.920038     -2766.226       59734.159      5413.8588    
   1430000   821.07941     -2822.173       53.066422     -2769.1066      54887.22       5413.8588    
   1431000   834.99857     -2821.6072      53.966018     -2767.6412      54791.115      5413.8588    
   1432000   745.5912      -2815.2256      48.187613     -2767.038       60172.576      5413.8588    
   1433000   757.25481     -2823.5603      48.941433     -2774.6189      53128.965      5413.8588    
   1434000   773.15972     -2820.3973      49.969369     -2770.4279      55049.025      5413.8588    
   1435000   827.1754      -2819.8421      53.460406     -2766.3817      57056.555      5413.8588    
   1436000   791.63142     -2816.9875      51.163196     -2765.8243      59154.387      5413.8588    
   1437000   770.39592     -2814.983       49.790744     -2765.1922      60396.693      5413.8588    
   1438000   821.59449     -2820.831       53.099712     -2767.7313      55689.275      5413.8588    
   1439000   764.32328     -2819.0034      49.398269     -2769.6052      57410.771      5413.8588    
   1440000   786.4509      -2819.2058      50.828379     -2768.3774      57341.876      5413.8588    
   1441000   834.05596     -2817.8171      53.905097     -2763.912       58429.5        5413.8588    
   1442000   790.20549     -2818.5162      51.071038     -2767.4452      56951.477      5413.8588    
   1443000   775.52802     -2819.1278      50.122432     -2769.0054      56633.159      5413.8588    
   1444000   753.23124     -2816.3619      48.68139      -2767.6805      58344.472      5413.8588    
   1445000   856.39513     -2819.0821      55.348879     -2763.7333      57765.541      5413.8588    
   1446000   848.18958     -2821.2049      54.818554     -2766.3863      55537.536      5413.8588    
   1447000   808.848       -2821.4972      52.275905     -2769.2213      55211.445      5413.8588    
   1448000   782.75549     -2822.5034      50.589544     -2771.9138      53814.671      5413.8588    
   1449000   783.08711     -2818.3561      50.610976     -2767.7451      57498.277      5413.8588    
   1450000   820.01547     -2817.3226      52.99766      -2764.325       57692.103      5413.8588    
   1451000   834.05233     -2818.8198      53.904862     -2764.9149      57066.176      5413.8588    
   1452000   739.6556      -2819.1864      47.803995     -2771.3824      55455.799      5413.8588    
   1453000   773.99951     -2821.8546      50.023645     -2771.831       54071.023      5413.8588    
   1454000   818.87844     -2819.4446      52.924173     -2766.5205      57072.656      5413.8588    
   1455000   817.58393     -2817.4818      52.840509     -2764.6413      58895.164      5413.8588    
   1456000   781.45489     -2818.8419      50.505486     -2768.3364      56453.775      5413.8588    
   1457000   776.65816     -2821.7159      50.195473     -2771.5205      54135.424      5413.8588    
   1458000   800.18802     -2819.3803      51.716209     -2767.6641      56866.736      5413.8588    
   1459000   850.59528     -2822.1118      54.974035     -2767.1378      55301.72       5413.8588    
   1460000   807.89516     -2821.4052      52.214323     -2769.1909      55065.782      5413.8588    
   1461000   786.00575     -2819.4781      50.799609     -2768.6785      56630.113      5413.8588    
   1462000   845.31309     -2819.741       54.632646     -2765.1084      57406.494      5413.8588    
   1463000   797.67872     -2817.4017      51.554033     -2765.8477      58849.091      5413.8588    
   1464000   788.9544      -2818.0226      50.99018      -2767.0324      58022.546      5413.8588    
   1465000   812.27229     -2820.9033      52.497217     -2768.4061      55671.384      5413.8588    
   1466000   758.311       -2821.4585      49.009695     -2772.4488      54384.567      5413.8588    
   1467000   776.99949     -2820.4191      50.217533     -2770.2015      55915.863      5413.8588    
   1468000   806.05283     -2820.8608      52.095253     -2768.7655      56091.451      5413.8588    
   1469000   782.13718     -2818.6902      50.549582     -2768.1406      57708.25       5413.8588    
   1470000   830.96394     -2821.333       53.70526      -2767.6277      55214.343      5413.8588    
   1471000   810.22597     -2817.3863      52.364963     -2765.0214      58708.656      5413.8588    
   1472000   812.69339     -2819.7709      52.524432     -2767.2464      57020.457      5413.8588    
   1473000   811.12913     -2823.342       52.423335     -2770.9187      53054.367      5413.8588    
   1474000   784.2822      -2818.6341      50.688216     -2767.9459      57102.671      5413.8588    
   1475000   788.83568     -2820.0651      50.982507     -2769.0826      56550.118      5413.8588    
   1476000   809.53153     -2823.6106      52.320081     -2771.2905      52641.947      5413.8588    
   1477000   793.18744     -2819.646       51.263762     -2768.3822      56627.528      5413.8588    
   1478000   840.14031     -2820.3795      54.298329     -2766.0812      55895.515      5413.8588    
   1479000   823.46623     -2817.3678      53.220682     -2764.1471      59528.131      5413.8588    
   1480000   777.82453     -2818.5534      50.270856     -2768.2825      57255.315      5413.8588    
   1481000   793.8371      -2819.0988      51.305749     -2767.7931      56915.256      5413.8588    
   1482000   825.84713     -2817.2283      53.37456      -2763.8538      59111.613      5413.8588    
   1483000   847.51435     -2819.3739      54.774914     -2764.599       57446.039      5413.8588    
   1484000   820.99601     -2819.3915      53.061032     -2766.3305      57183.639      5413.8588    
   1485000   789.55268     -2819.8051      51.028847     -2768.7762      56878.74       5413.8588    
   1486000   736.84234     -2822.947       47.622174     -2775.3248      53330.719      5413.8588    
   1487000   767.49316     -2817.5603      49.603139     -2767.9572      58790.73       5413.8588    
   1488000   851.70185     -2819.393       55.045553     -2764.3475      57802.318      5413.8588    
   1489000   792.46453     -2817.7537      51.21704      -2766.5367      58864.645      5413.8588    
   1490000   783.76841     -2821.5215      50.655009     -2770.8665      54498.87       5413.8588    
   1491000   795.85805     -2819.8663      51.436363     -2768.43        56793.46       5413.8588    
   1492000   841.23574     -2817.7896      54.369127     -2763.4205      58635.711      5413.8588    
   1493000   869.33906     -2819.2915      56.185446     -2763.106       58107.81       5413.8588    
   1494000   814.68153     -2819.8909      52.652926     -2767.238       56484.155      5413.8588    
   1495000   810.38017     -2822.3346      52.374929     -2769.9597      54134.739      5413.8588    
   1496000   827.89756     -2823.114       53.507079     -2769.6069      53693.083      5413.8588    
   1497000   794.52048     -2817.3241      51.349917     -2765.9742      58574.332      5413.8588    
   1498000   763.65836     -2819.1445      49.355295     -2769.7892      57023.563      5413.8588    
   1499000   812.61367     -2824.811       52.51928      -2772.2917      52368.37       5413.8588    
   1500000   779.52015     -2819.8041      50.380444     -2769.4236      56401.037      5413.8588    
   1501000   826.49599     -2819.1665      53.416496     -2765.75        58353.548      5413.8588    
   1502000   861.04468     -2819.8972      55.64938      -2764.2478      56712.522      5413.8588    
   1503000   789.73659     -2815.9152      51.040733     -2764.8744      59769.055      5413.8588    
   1504000   770.02425     -2819.7668      49.766723     -2770           56734.079      5413.8588    
   1505000   819.39781     -2819.3624      52.95774      -2766.4047      57364.073      5413.8588    
   1506000   824.06362     -2820.0618      53.259292     -2766.8026      55917.327      5413.8588    
   1507000   826.5849      -2821.6517      53.422242     -2768.2295      55122.456      5413.8588    
   1508000   759.01727     -2821.0381      49.055341     -2771.9827      55186.699      5413.8588    
   1509000   796.47695     -2822.8809      51.476363     -2771.4045      53652.693      5413.8588    
   1510000   821.46646     -2819.6787      53.091437     -2766.5873      56860.506      5413.8588    
   1511000   816.94906     -2821.4828      52.799477     -2768.6833      55183.471      5413.8588    
   1512000   772.08385     -2822.3324      49.899835     -2772.4325      54321.342      5413.8588    
   1513000   781.08463     -2818.8284      50.481556     -2768.3468      57077.071      5413.8588    
   1514000   784.90597     -2818.1317      50.72853      -2767.4032      57647.16       5413.8588    
   1515000   831.63571     -2818.1554      53.748677     -2764.4067      58388.9        5413.8588    
   1516000   803.6295      -2819.6756      51.938633     -2767.737       57288.892      5413.8588    
   1517000   765.69645     -2820.9153      49.487017     -2771.4283      55067.977      5413.8588    
   1518000   771.44843     -2818.3903      49.858768     -2768.5315      57597.594      5413.8588    
   1519000   842.18502     -2819.5378      54.430479     -2765.1073      57112.338      5413.8588    
   1520000   873.17674     -2821.1455      56.433476     -2764.712       56738.955      5413.8588    
   1521000   792.42595     -2821.4913      51.214547     -2770.2768      55083.879      5413.8588    
   1522000   788.12971     -2821.7436      50.93688      -2770.8067      54334.999      5413.8588    
   1523000   778.1425      -2818.1583      50.291406     -2767.8669      58142.638      5413.8588    
   1524000   802.53486     -2819.5079      51.867886     -2767.64        57639.443      5413.8588    
   1525000   817.08439     -2824.316       52.808224     -2771.5078      52631.677      5413.8588    
   1526000   798.86604     -2823.6249      51.63077      -2771.9941      52904.47       5413.8588    
   1527000   816.02997     -2822.9745      52.740076     -2770.2344      54003.902      5413.8588    
   1528000   822.10293     -2821.544       53.132572     -2768.4115      54482.868      5413.8588    
   1529000   840.84212     -2820.2927      54.343687     -2765.9491      57556.199      5413.8588    
   1530000   844.65141     -2816.1049      54.589882     -2761.515       60395.221      5413.8588    
   1531000   769.5672      -2818.2142      49.737184     -2768.477       57956.162      5413.8588    
   1532000   789.19155     -2820.9859      51.005507     -2769.9804      54809.176      5413.8588    
   1533000   783.68814     -2821.9818      50.649821     -2771.332       54256.052      5413.8588    
   1534000   802.95389     -2819.2977      51.894968     -2767.4027      57486.481      5413.8588    
   1535000   789.45004     -2817.9726      51.022214     -2766.9504      58262.023      5413.8588    
   1536000   787.07855     -2820.1851      50.868944     -2769.3161      56176.041      5413.8588    
   1537000   761.07554     -2822.8631      49.188367     -2773.6747      54142.992      5413.8588    
   1538000   766.65106     -2819.9811      49.548714     -2770.4324      56166.203      5413.8588    
   1539000   878.97451     -2823.7785      56.808186     -2766.9703      54189.611      5413.8588    
   1540000   787.09145     -2819.4914      50.869778     -2768.6216      57274.627      5413.8588    
   1541000   766.48525     -2825.8118      49.537997     -2776.2738      50778.262      5413.8588    
   1542000   768.9102      -2815.8859      49.694722     -2766.1911      59210.061      5413.8588    
   1543000   806.04147     -2820.4129      52.094519     -2768.3184      56897.534      5413.8588    
   1544000   806.76886     -2825.0421      52.14153      -2772.9006      52220.806      5413.8588    
   1545000   805.97095     -2822.6641      52.089961     -2770.5741      54457.475      5413.8588    
   1546000   836.33935     -2819.8832      54.052673     -2765.8305      57356.272      5413.8588    
   1547000   750.83012     -2817.1706      48.526205     -2768.6444      59171.1        5413.8588    
   1548000   743.70735     -2822.3919      48.06586      -2774.3261      53340.202      5413.8588    
   1549000   774.034       -2820.1553      50.025874     -2770.1295      56205.988      5413.8588    
   1550000   835.04576     -2820.9162      53.969068     -2766.9471      56453.904      5413.8588    
   1551000   804.57936     -2817.9234      52.000022     -2765.9233      57740.761      5413.8588    
   1552000   806.48391     -2817.2917      52.123113     -2765.1686      59233.168      5413.8588    
   1553000   811.7108      -2820.4654      52.460928     -2768.0045      56874.805      5413.8588    
   1554000   807.26546     -2821.5357      52.173625     -2769.3621      55100.542      5413.8588    
   1555000   813.41123     -2821.107       52.570827     -2768.5361      55322.041      5413.8588    
   1556000   839.859       -2816.6079      54.280148     -2762.3277      59668.232      5413.8588    
   1557000   786.3438      -2821.2624      50.821457     -2770.4409      55171.768      5413.8588    
   1558000   776.70764     -2821.383       50.198671     -2771.1843      55484.765      5413.8588    
   1559000   773.98721     -2821.8109      50.02285      -2771.7881      55306.972      5413.8588    
   1560000   805.7971      -2820.1172      52.078725     -2768.0385      56944.103      5413.8588    
   1561000   836.99703     -2820.8055      54.095179     -2766.7103      56062.041      5413.8588    
   1562000   790.60613     -2823.0236      51.096932     -2771.9267      53897.406      5413.8588    
   1563000   768.03117     -2820.8411      49.63791      -2771.2032      55599.815      5413.8588    
   1564000   819.79621     -2820.6055      52.983489     -2767.622       56963.43       5413.8588    
   1565000   797.64946     -2819.3187      51.552143     -2767.7666      56766.23       5413.8588    
   1566000   793.72183     -2822.3107      51.298299     -2771.0124      54120.686      5413.8588    
   1567000   845.63077     -2823.0469      54.653178     -2768.3938      54245.733      5413.8588    
   1568000   835.0221      -2818.6039      53.967539     -2764.6364      58176.718      5413.8588    
   1569000   832.71612     -2816.1943      53.818503     -2762.3758      60427.905      5413.8588    
   1570000   796.71417     -2820.6055      51.491694     -2769.1138      55700.367      5413.8588    
   1571000   785.78242     -2821.8096      50.785175     -2771.0245      54698.768      5413.8588    
   1572000   741.6459      -2820.547       47.932628     -2772.6144      55198.528      5413.8588    
   1573000   825.43995     -2821.3924      53.348244     -2768.0442      55300.361      5413.8588    
   1574000   783.62933     -2820.1404      50.64602      -2769.4944      56129.414      5413.8588    
   1575000   796.65559     -2819.1304      51.487909     -2767.6425      56352.202      5413.8588    
   1576000   813.42543     -2819.0361      52.571745     -2766.4644      57893.714      5413.8588    
   1577000   751.27844     -2822.9222      48.55518      -2774.367       53608.995      5413.8588    
   1578000   798.62758     -2823.6529      51.615358     -2772.0375      53100.698      5413.8588    
   1579000   787.90184     -2819.3699      50.922153     -2768.4477      56697.159      5413.8588    
   1580000   776.76082     -2814.8245      50.202108     -2764.6224      61085.668      5413.8588    
   1581000   812.54089     -2818.9724      52.514577     -2766.4578      57494.393      5413.8588    
   1582000   797.92197     -2819.9945      51.569755     -2768.4247      56674.655      5413.8588    
   1583000   780.007       -2820.4092      50.411909     -2769.9973      55892.451      5413.8588    
   1584000   768.1954      -2821.0029      49.648524     -2771.3544      55525.384      5413.8588    
   1585000   839.00666     -2822.0437      54.225062     -2767.8186      54779.338      5413.8588    
   1586000   842.65907     -2818.6846      54.461117     -2764.2235      58134.853      5413.8588    
   1587000   829.58829     -2816.2088      53.616351     -2762.5924      59696.161      5413.8588    
   1588000   811.26168     -2819.7198      52.431901     -2767.2879      57038.002      5413.8588    
   1589000   757.38074     -2820.6321      48.949572     -2771.6825      54756.007      5413.8588    
   1590000   782.44446     -2821.5055      50.569442     -2770.9361      54513.639      5413.8588    
   1591000   825.81328     -2819.672       53.372372     -2766.2996      57147.12       5413.8588    
   1592000   774.56398     -2820.6153      50.060126     -2770.5551      55089.707      5413.8588    
   1593000   743.75584     -2823.2395      48.068994     -2775.1705      53161.611      5413.8588    
   1594000   829.90089     -2819.8656      53.636554     -2766.2291      56439.376      5413.8588    
   1595000   760.99186     -2814.9967      49.182959     -2765.8138      60118.858      5413.8588    
   1596000   799.44795     -2821.1628      51.668379     -2769.4945      55823.767      5413.8588    
   1597000   768.63013     -2818.7329      49.676621     -2769.0563      56958.279      5413.8588    
   1598000   813.48059     -2818.3782      52.575309     -2765.8029      58392.134      5413.8588    
   1599000   848.51037     -2816.8561      54.839287     -2762.0168      59441.39       5413.8588    
   1600000   792.92377     -2817.7224      51.246721     -2766.4757      57979.228      5413.8588    
   1601000   782.76163     -2819.6346      50.589941     -2769.0447      56365.255      5413.8588    
   1602000   802.13616     -2824.3218      51.842118     -2772.4796      53206.703      5413.8588    
   1603000   766.21327     -2821.3458      49.520419     -2771.8254      54884.976      5413.8588    
   1604000   798.34106     -2818.9527      51.596841     -2767.3559      57421.989      5413.8588    
   1605000   791.64248     -2817.3025      51.163911     -2766.1386      59395.284      5413.8588    
   1606000   814.0423      -2819.8785      52.611613     -2767.2669      56246.734      5413.8588    
   1607000   791.44538     -2818.0565      51.151172     -2766.9053      57663.414      5413.8588    
   1608000   795.42348     -2820.4117      51.408277     -2769.0034      55409.51       5413.8588    
   1609000   810.40449     -2820.1298      52.376501     -2767.7533      56099.656      5413.8588    
   1610000   814.87619     -2816.9408      52.665507     -2764.2753      59045.94       5413.8588    
   1611000   819.46766     -2819.8326      52.962254     -2766.8704      56357.137      5413.8588    
   1612000   771.02518     -2819.0581      49.831413     -2769.2267      56779.134      5413.8588    
   1613000   758.63107     -2822.1595      49.030381     -2773.1291      54023.706      5413.8588    
   1614000   805.23633     -2820.0185      52.042483     -2767.976       56464.162      5413.8588    
   1615000   800.39452     -2816.9666      51.729556     -2765.2371      59423.135      5413.8588    
   1616000   847.22957     -2822.2473      54.756508     -2767.4908      55236.153      5413.8588    
   1617000   817.14079     -2821.1315      52.811868     -2768.3196      56215.537      5413.8588    
   1618000   782.13203     -2815.8106      50.54925      -2765.2613      59343.388      5413.8588    
   1619000   827.07672     -2820.3709      53.454028     -2766.9169      56383.399      5413.8588    
   1620000   796.96425     -2820.9744      51.507857     -2769.4665      55694.391      5413.8588    
   1621000   806.11611     -2821.2624      52.099343     -2769.163       55829.709      5413.8588    
   1622000   841.61171     -2819.7272      54.393426     -2765.3338      57205.466      5413.8588    
   1623000   823.90489     -2818.4693      53.249033     -2765.2202      58274.967      5413.8588    
   1624000   782.19549     -2818.3359      50.553351     -2767.7826      57568.062      5413.8588    
   1625000   782.1451      -2820.5783      50.550095     -2770.0282      55707.606      5413.8588    
   1626000   781.34726     -2817.8615      50.49853      -2767.363       57662.786      5413.8588    
   1627000   822.57138     -2820.0184      53.162848     -2766.8556      57012.688      5413.8588    
   1628000   796.43741     -2823.0179      51.473807     -2771.5441      54199.086      5413.8588    
   1629000   797.85497     -2823.2516      51.565425     -2771.6862      53079.67       5413.8588    
   1630000   812.15985     -2823.1225      52.48995      -2770.6326      53235.292      5413.8588    
   1631000   800.75141     -2819.3365      51.752622     -2767.5839      56722.952      5413.8588    
   1632000   849.18887     -2818.4013      54.883138     -2763.5181      58475.732      5413.8588    
   1633000   816.90925     -2817.3748      52.796904     -2764.5779      58816.119      5413.8588    
   1634000   780.81931     -2819.499       50.464408     -2769.0346      56557.737      5413.8588    
   1635000   845.84106     -2820.5859      54.666769     -2765.9192      56708.604      5413.8588    
   1636000   789.24454     -2817.1319      51.008932     -2766.123       58670.199      5413.8588    
   1637000   807.61084     -2820.349       52.195947     -2768.153       56568.828      5413.8588    
   1638000   764.59027     -2817.1742      49.415525     -2767.7587      59136.743      5413.8588    
   1639000   770.54242     -2822.3034      49.800212     -2772.5032      54192.489      5413.8588    
   1640000   815.62262     -2823.0729      52.713749     -2770.3592      54261.651      5413.8588    
   1641000   828.19375     -2820.3912      53.526222     -2766.865       56681.864      5413.8588    
   1642000   775.85153     -2818.5395      50.143341     -2768.3961      57259.497      5413.8588    
   1643000   766.26256     -2818.7478      49.523605     -2769.2242      57361.159      5413.8588    
   1644000   762.80042     -2819.2445      49.299846     -2769.9446      56544.304      5413.8588    
   1645000   841.0008      -2821.5884      54.353943     -2767.2345      55672.074      5413.8588    
   1646000   851.66932     -2819.425       55.04345      -2764.3816      58238.095      5413.8588    
   1647000   786.74455     -2818.2221      50.847357     -2767.3748      57561.381      5413.8588    
   1648000   789.9332      -2820.8712      51.05344      -2769.8178      55543.185      5413.8588    
   1649000   803.41687     -2822.083       51.92489      -2770.1582      54682.944      5413.8588    
   1650000   767.60501     -2819.6184      49.610368     -2770.008       56744.947      5413.8588    
   1651000   797.20085     -2818.7003      51.523149     -2767.1771      58116.925      5413.8588    
   1652000   802.22293     -2819.4911      51.847726     -2767.6434      57480.968      5413.8588    
   1653000   809.31185     -2821.1788      52.305884     -2768.8729      56108.779      5413.8588    
   1654000   785.12741     -2819.4633      50.742842     -2768.7204      56848.188      5413.8588    
   1655000   791.2613      -2819.0181      51.139275     -2767.8788      57243.665      5413.8588    
   1656000   785.1847      -2823.3302      50.746544     -2772.5836      54034.099      5413.8588    
   1657000   804.68886     -2822.7923      52.0071       -2770.7852      54374.671      5413.8588    
   1658000   795.47396     -2820.1907      51.41154      -2768.7792      56098.99       5413.8588    
   1659000   866.61846     -2819.7039      56.009614     -2763.6943      58230.919      5413.8588    
   1660000   754.5891      -2815.0971      48.769148     -2766.328       60026.425      5413.8588    
   1661000   810.08289     -2822.1573      52.355716     -2769.8016      54761.353      5413.8588    
   1662000   796.50888     -2820.0847      51.478427     -2768.6063      56449.036      5413.8588    
   1663000   777.7448      -2815.79        50.265703     -2765.5243      59811.36       5413.8588    
   1664000   831.45151     -2820.3245      53.736771     -2766.5877      56444.379      5413.8588    
   1665000   785.11149     -2816.7157      50.741813     -2765.9739      59437.828      5413.8588    
   1666000   763.04727     -2819.519       49.3158       -2770.2032      56537.139      5413.8588    
   1667000   775.67496     -2821.54        50.131929     -2771.4081      55045.995      5413.8588    
   1668000   787.99746     -2820.5999      50.928333     -2769.6715      55400.467      5413.8588    
   1669000   865.07518     -2817.3406      55.909871     -2761.4308      59782.618      5413.8588    
   1670000   787.13455     -2821.1108      50.872563     -2770.2383      55048.013      5413.8588    
   1671000   783.46985     -2821.6603      50.635713     -2771.0246      54298.098      5413.8588    
   1672000   829.84925     -2817.6606      53.633217     -2764.0273      58512.466      5413.8588    
   1673000   825.64111     -2817.1831      53.361245     -2763.8219      58826.619      5413.8588    
   1674000   771.27888     -2818.7855      49.84781      -2768.9377      57639.902      5413.8588    
   1675000   785.27363     -2820.0572      50.752291     -2769.3049      55708.162      5413.8588    
   1676000   814.81264     -2821.3517      52.6614       -2768.6903      55039.461      5413.8588    
   1677000   848.19959     -2819.1742      54.819201     -2764.355       57823.011      5413.8588    
   1678000   762.26131     -2822.6426      49.265003     -2773.3776      53067.071      5413.8588    
   1679000   782.15329     -2822.0843      50.550624     -2771.5336      54380.572      5413.8588    
   1680000   833.66468     -2820.625       53.879809     -2766.7452      56957.275      5413.8588    
   1681000   822.43302     -2819.9336      53.153906     -2766.7797      56214.456      5413.8588    
   1682000   768.12812     -2822.2234      49.644176     -2772.5792      54551.565      5413.8588    
   1683000   770.55027     -2822.5785      49.80072      -2772.7778      53942.067      5413.8588    
   1684000   786.44824     -2820.8701      50.828207     -2770.0419      55787.792      5413.8588    
   1685000   793.90538     -2819.8148      51.310162     -2768.5046      56184.339      5413.8588    
   1686000   828.0995      -2819.2104      53.520131     -2765.6902      57763.236      5413.8588    
   1687000   838.90571     -2815.7866      54.218537     -2761.568       60588.143      5413.8588    
   1688000   816.50617     -2820.7607      52.770853     -2767.9898      55513.538      5413.8588    
   1689000   785.88477     -2822.9689      50.79179      -2772.1771      54078.131      5413.8588    
   1690000   770.57145     -2819.8693      49.802089     -2770.0672      56442.933      5413.8588    
   1691000   821.70809     -2820.0293      53.107053     -2766.9223      56579.447      5413.8588    
   1692000   874.15366     -2817.4345      56.496614     -2760.9379      60201.104      5413.8588    
   1693000   782.66599     -2818.0211      50.58376      -2767.4374      57384.859      5413.8588    
   1694000   850.50355     -2822.8191      54.968106     -2767.851       54565.798      5413.8588    
   1695000   748.38744     -2821.4346      48.368334     -2773.0662      54664.362      5413.8588    
   1696000   760.87617     -2819.5228      49.175482     -2770.3473      56145.122      5413.8588    
   1697000   788.54279     -2818.9672      50.963577     -2768.0036      57528.622      5413.8588    
   1698000   786.62741     -2817.6819      50.839787     -2766.8422      58713.392      5413.8588    
   1699000   808.55278     -2825.6146      52.256825     -2773.3578      51771.59       5413.8588    
   1700000   798.09772     -2822.2566      51.581114     -2770.6754      53650.321      5413.8588    
   1701000   759.42155     -2818.053       49.08147      -2768.9715      57960.992      5413.8588    
   1702000   873.53253     -2817.9545      56.456471     -2761.498       59460.044      5413.8588    
   1703000   770.40593     -2821.1437      49.791391     -2771.3523      54971.848      5413.8588    
   1704000   750.57561     -2820.7129      48.509756     -2772.2031      55629.828      5413.8588    
   1705000   805.70983     -2820.4574      52.073085     -2768.3843      56391.662      5413.8588    
   1706000   788.92353     -2817.8951      50.988185     -2766.9069      57517.029      5413.8588    
   1707000   796.808       -2820.6072      51.497759     -2769.1095      55615.453      5413.8588    
   1708000   790.8112      -2823.0123      51.110185     -2771.9021      53441.065      5413.8588    
   1709000   782.11399     -2819.2944      50.548084     -2768.7463      57073.466      5413.8588    
   1710000   850.39965     -2820.9457      54.961391     -2765.9843      55774.815      5413.8588    
   1711000   848.88647     -2817.7537      54.863594     -2762.8901      58806.401      5413.8588    
   1712000   789.82869     -2819.1016      51.046686     -2768.0549      57233.769      5413.8588    
   1713000   798.88807     -2821.9878      51.632194     -2770.3556      55051.107      5413.8588    
   1714000   819.55779     -2814.9593      52.968079     -2761.9912      61474.012      5413.8588    
   1715000   816.29996     -2818.6128      52.757525     -2765.8552      58117.222      5413.8588    
   1716000   755.22636     -2818.2306      48.810335     -2769.4202      57306.293      5413.8588    
   1717000   787.20719     -2821.6228      50.877258     -2770.7456      54949.001      5413.8588    
   1718000   743.12593     -2821.3484      48.028283     -2773.3201      53635.514      5413.8588    
   1719000   737.28121     -2819.8878      47.650538     -2772.2372      56136.704      5413.8588    
   1720000   827.20988     -2820.6164      53.462635     -2767.1538      56650.132      5413.8588    
   1721000   796.885       -2821.3826      51.502736     -2769.8799      55162.886      5413.8588    
   1722000   746.5309      -2819.7918      48.248346     -2771.5434      56269.786      5413.8588    
   1723000   808.38077     -2818.723       52.245708     -2766.4773      58274.801      5413.8588    
   1724000   828.2862      -2821.6549      53.532197     -2768.1227      55954.84       5413.8588    
   1725000   763.08447     -2816.8162      49.318204     -2767.498       58600.407      5413.8588    
   1726000   817.91757     -2818.3406      52.862072     -2765.4785      58056.804      5413.8588    
   1727000   787.10154     -2819.275       50.87043      -2768.4046      56349.764      5413.8588    
   1728000   801.11841     -2822.2936      51.776341     -2770.5173      53905.193      5413.8588    
   1729000   777.02208     -2819.7874      50.218994     -2769.5684      56177.67       5413.8588    
   1730000   822.22034     -2816.3234      53.14016      -2763.1832      59917.337      5413.8588    
   1731000   813.20219     -2818.4424      52.557317     -2765.8851      56946.505      5413.8588    
   1732000   781.91084     -2819.085       50.534954     -2768.55        56704.59       5413.8588    
   1733000   791.73732     -2820.7412      51.17004      -2769.5711      55422.441      5413.8588    
   1734000   809.6586      -2821.5752      52.328294     -2769.2469      54897.766      5413.8588    
   1735000   799.5698      -2819.3167      51.676254     -2767.6404      56902.332      5413.8588    
   1736000   826.60243     -2820.2656      53.423375     -2766.8422      56040.519      5413.8588    
   1737000   823.03965     -2820.5042      53.193112     -2767.3111      56422.544      5413.8588    
   1738000   813.73857     -2822.7887      52.591983     -2770.1967      54253.953      5413.8588    
   1739000   786.48819     -2820.4802      50.830789     -2769.6494      55237.276      5413.8588    
   1740000   856.15693     -2820.1333      55.333485     -2764.7998      57391.517      5413.8588    
   1741000   837.89658     -2820.3675      54.153317     -2766.2142      56765.885      5413.8588    
   1742000   789.89861     -2820.3081      51.051204     -2769.2569      56166.09       5413.8588    
   1743000   763.04926     -2820.3097      49.315929     -2770.9938      56163.308      5413.8588    
   1744000   784.48904     -2819.3537      50.701583     -2768.6521      56713.016      5413.8588    
   1745000   795.43408     -2817.849       51.408962     -2766.4401      57784.259      5413.8588    
   1746000   809.96118     -2815.6321      52.34785      -2763.2842      60088.451      5413.8588    
   1747000   778.27642     -2819.0124      50.300062     -2768.7123      56715.525      5413.8588    
   1748000   798.52189     -2820.6181      51.608528     -2769.0095      56212.403      5413.8588    
   1749000   808.21857     -2821.12        52.235225     -2768.8848      55509.718      5413.8588    
   1750000   815.1578      -2817.3885      52.683708     -2764.7048      59786.402      5413.8588    
   1751000   841.63656     -2820.789       54.395032     -2766.394       55813.877      5413.8588    
   1752000   777.7026      -2824.858       50.262976     -2774.595       52075.581      5413.8588    
   1753000   784.64231     -2820.44        50.71149      -2769.7285      55869.498      5413.8588    
   1754000   825.55153     -2820.8723      53.355455     -2767.5168      56504.123      5413.8588    
   1755000   819.66309     -2818.0386      52.974885     -2765.0637      58191.723      5413.8588    
   1756000   837.95553     -2815.8884      54.157126     -2761.7312      60522.583      5413.8588    
   1757000   821.60088     -2822.4965      53.100124     -2769.3963      55105.488      5413.8588    
   1758000   808.19134     -2821.876       52.233465     -2769.6425      55276.558      5413.8588    
   1759000   824.59049     -2818.9337      53.293343     -2765.6403      57993.914      5413.8588    
   1760000   788.87547     -2814.7705      50.985079     -2763.7854      61051.442      5413.8588    
   1761000   821.55845     -2819.4005      53.097382     -2766.3031      57249.384      5413.8588    
   1762000   763.55913     -2817.4235      49.348882     -2768.0747      58228.454      5413.8588    
   1763000   798.83446     -2820.8394      51.628729     -2769.2107      55482.991      5413.8588    
   1764000   818.46377     -2819.5312      52.897373     -2766.6338      57465.532      5413.8588    
   1765000   799.08519     -2816.8619      51.644934     -2765.2169      59145.852      5413.8588    
   1766000   904.353       -2819.8408      58.4484       -2761.3924      57904.846      5413.8588    
   1767000   784.94536     -2820.2621      50.731075     -2769.531       56099.345      5413.8588    
   1768000   765.06285     -2820.3962      49.446067     -2770.9502      55768.1        5413.8588    
   1769000   765.22266     -2820.2847      49.456396     -2770.8283      55900.164      5413.8588    
   1770000   838.77965     -2821.1657      54.21039      -2766.9554      56210.6        5413.8588    
   1771000   780.04654     -2819.4232      50.414464     -2769.0087      55740.668      5413.8588    
   1772000   783.58331     -2821.967       50.643046     -2771.324       54250.141      5413.8588    
   1773000   785.74708     -2819.1248      50.78289      -2768.3419      56810.22       5413.8588    
   1774000   842.64949     -2817.4021      54.460498     -2762.9416      59460.359      5413.8588    
   1775000   805.64038     -2817.1783      52.068596     -2765.1097      59364.661      5413.8588    
   1776000   790.93232     -2820.6633      51.118013     -2769.5453      56513.944      5413.8588    
   1777000   819.3512      -2823.877       52.954727     -2770.9223      53254.476      5413.8588    
   1778000   797.24498     -2819.054       51.526001     -2767.528       58025.284      5413.8588    
   1779000   797.08598     -2821.4983      51.515725     -2769.9825      55073.886      5413.8588    
   1780000   782.62743     -2822.3237      50.581268     -2771.7424      54095.55       5413.8588    
   1781000   793.38818     -2819.8963      51.276736     -2768.6195      56203.229      5413.8588    
   1782000   838.24598     -2816.7095      54.175899     -2762.5336      59788.986      5413.8588    
   1783000   838.433       -2821.7411      54.187986     -2767.5531      55212.741      5413.8588    
   1784000   781.35693     -2820.5275      50.499155     -2770.0284      55718.864      5413.8588    
   1785000   804.23627     -2823.7215      51.977848     -2771.7437      53562.253      5413.8588    
   1786000   758.69516     -2818.0546      49.034523     -2769.0201      57431.202      5413.8588    
   1787000   775.71794     -2818.2977      50.134707     -2768.163       57958.167      5413.8588    
   1788000   765.32469     -2821.0242      49.46299      -2771.5612      54959.909      5413.8588    
   1789000   790.6202      -2820.9258      51.097841     -2769.8279      55698.698      5413.8588    
   1790000   817.32512     -2820.7312      52.823782     -2767.9074      56059.194      5413.8588    
   1791000   880.56476     -2819.9578      56.910964     -2763.0469      57930.286      5413.8588    
   1792000   836.11426     -2819.601       54.038125     -2765.5629      57973.435      5413.8588    
   1793000   788.91286     -2819.5537      50.987496     -2768.5662      56537.042      5413.8588    
   1794000   821.34071     -2821.55        53.083309     -2768.4667      55210.669      5413.8588    
   1795000   809.32969     -2819.159       52.307037     -2766.852       57492.402      5413.8588    
   1796000   814.25064     -2819.6476      52.625078     -2767.0225      57104.82       5413.8588    
   1797000   793.30119     -2821.7568      51.271113     -2770.4857      55402.857      5413.8588    
   1798000   773.40205     -2822.2489      49.985031     -2772.2638      53775.793      5413.8588    
   1799000   790.11295     -2815.895       51.065057     -2764.8299      60423.31       5413.8588    
   1800000   834.38074     -2819.8472      53.926088     -2765.9211      56953.251      5413.8588    
   1801000   801.7031      -2821.642       51.81413      -2769.8279      54523.495      5413.8588    
   1802000   771.08065     -2820.3238      49.834998     -2770.4888      55599.044      5413.8588    
   1803000   802.11589     -2822.6658      51.840808     -2770.825       53955.567      5413.8588    
   1804000   802.93204     -2818.6896      51.893556     -2766.796       57434.251      5413.8588    
   1805000   788.43386     -2817.6927      50.956537     -2766.7362      57549.91       5413.8588    
   1806000   828.44573     -2820.6615      53.542508     -2767.119       55974.41       5413.8588    
   1807000   773.46488     -2819.8047      49.989091     -2769.8156      55904.975      5413.8588    
   1808000   769.60846     -2819.9683      49.739851     -2770.2284      56689.128      5413.8588    
   1809000   800.57869     -2819.5615      51.741459     -2767.8201      56923.296      5413.8588    
   1810000   805.97905     -2820.1214      52.090484     -2768.0309      56116.566      5413.8588    
   1811000   796.47624     -2823.6553      51.476317     -2772.179       52916.464      5413.8588    
   1812000   757.83739     -2819.4157      48.979085     -2770.4366      55990.416      5413.8588    
   1813000   834.09398     -2819.2248      53.907555     -2765.3173      57420.317      5413.8588    
   1814000   786.03365     -2818.5799      50.801412     -2767.7785      57669.236      5413.8588    
   1815000   795.94497     -2823.3067      51.441981     -2771.8647      53434.755      5413.8588    
   1816000   799.28169     -2819.7758      51.657633     -2768.1182      56331.489      5413.8588    
   1817000   852.11877     -2822.516       55.072498     -2767.4435      54681.187      5413.8588    
   1818000   796.64658     -2823.4293      51.487326     -2771.942       53431.086      5413.8588    
   1819000   786.25901     -2820.2744      50.815977     -2769.4584      55959.227      5413.8588    
   1820000   836.87519     -2820.2692      54.087304     -2766.1819      56430.872      5413.8588    
   1821000   814.4463      -2818.6122      52.637723     -2765.9744      57708.695      5413.8588    
   1822000   779.92389     -2818.7234      50.406538     -2768.3169      57951.381      5413.8588    
   1823000   746.63463     -2818.8384      48.25505      -2770.5833      56780.253      5413.8588    
   1824000   843.57763     -2819.1596      54.520483     -2764.6391      57767.381      5413.8588    
   1825000   812.32562     -2819.0954      52.500663     -2766.5948      57882.865      5413.8588    
   1826000   795.03476     -2823.5993      51.383154     -2772.2162      53527.251      5413.8588    
   1827000   773.52537     -2822.0264      49.993001     -2772.0334      53804.107      5413.8588    
   1828000   813.15933     -2817.6712      52.554546     -2765.1166      57577.314      5413.8588    
   1829000   855.03466     -2821.6805      55.260952     -2766.4195      55320.514      5413.8588    
   1830000   725.71712     -2821.3351      46.90315      -2774.4319      54288.584      5413.8588    
   1831000   784.68103     -2820.6778      50.713992     -2769.9638      55970.526      5413.8588    
   1832000   846.49971     -2822.0397      54.709338     -2767.3304      55370.097      5413.8588    
   1833000   771.996       -2817.0833      49.894157     -2767.1892      59171.596      5413.8588    
   1834000   733.19867     -2819.738       47.386683     -2772.3513      55966.27       5413.8588    
   1835000   764.39491     -2821.2249      49.402899     -2771.822       55259.626      5413.8588    
   1836000   777.44609     -2817.5969      50.246397     -2767.3505      58111.912      5413.8588    
   1837000   829.45177     -2820.2365      53.607528     -2766.629       55625.701      5413.8588    
   1838000   776.95679     -2820.0589      50.214773     -2769.8441      56359.118      5413.8588    
   1839000   791.29805     -2823.0313      51.141651     -2771.8897      53560.506      5413.8588    
   1840000   792.56388     -2821.7941      51.223461     -2770.5707      54419.749      5413.8588    
   1841000   786.66094     -2820.6606      50.841954     -2769.8186      55171.008      5413.8588    
   1842000   778.33964     -2817.5721      50.304147     -2767.268       58189.796      5413.8588    
   1843000   840.2068      -2817.4788      54.302627     -2763.1762      58251.579      5413.8588    
   1844000   848.01715     -2820.9082      54.80741      -2766.1008      56733.833      5413.8588    
   1845000   754.39033     -2819.1058      48.756302     -2770.3495      56847.86       5413.8588    
   1846000   822.79844     -2819.6374      53.177523     -2766.4599      56977.677      5413.8588    
   1847000   802.16752     -2820.8327      51.844145     -2768.9886      55816.294      5413.8588    
   1848000   808.10155     -2823.409       52.227662     -2771.1814      53373.592      5413.8588    
   1849000   760.52563     -2820.7832      49.152827     -2771.6304      55988.857      5413.8588    
   1850000   810.34621     -2820.1449      52.372734     -2767.7721      56761.773      5413.8588    
   1851000   802.15742     -2819.9054      51.843492     -2768.0619      57020.818      5413.8588    
   1852000   801.08661     -2817.0373      51.774286     -2765.263       59275.3        5413.8588    
   1853000   840.28051     -2821.8605      54.30739      -2767.5531      55566.946      5413.8588    
   1854000   781.24647     -2820.6038      50.492016     -2770.1118      55471.181      5413.8588    
   1855000   801.47464     -2820.0644      51.799364     -2768.265       56052.365      5413.8588    
   1856000   844.75848     -2818.1783      54.596802     -2763.5815      58518.053      5413.8588    
   1857000   796.06912     -2816.8226      51.450005     -2765.3726      59128.013      5413.8588    
   1858000   804.06988     -2820.2887      51.967094     -2768.3216      56007.667      5413.8588    
   1859000   798.35341     -2820.2436      51.597639     -2768.646       56211.494      5413.8588    
   1860000   825.05394     -2818.6086      53.323296     -2765.2853      57816.132      5413.8588    
   1861000   801.30272     -2819.1081      51.788253     -2767.3199      57081.148      5413.8588    
   1862000   749.78035     -2820.9154      48.458358     -2772.4571      54400.596      5413.8588    
   1863000   795.78591     -2824.4664      51.431701     -2773.0347      52489.142      5413.8588    
   1864000   824.85683     -2819.7126      53.310557     -2766.402       57354.911      5413.8588    
   1865000   823.35126     -2817.5704      53.213251     -2764.3571      57810.556      5413.8588    
   1866000   842.04073     -2819.7639      54.421153     -2765.3427      57270.256      5413.8588    
   1867000   795.02482     -2821.3674      51.382512     -2769.9848      55304.552      5413.8588    
   1868000   792.45109     -2819.66        51.216171     -2768.4438      56006.201      5413.8588    
   1869000   828.66077     -2816.9886      53.556406     -2763.4321      59225.767      5413.8588    
   1870000   813.78984     -2820.1316      52.595297     -2767.5363      57015.744      5413.8588    
   1871000   809.48648     -2821.2648      52.31717      -2768.9477      55499.348      5413.8588    
   1872000   817.83115     -2820.299       52.856486     -2767.4426      56189.395      5413.8588    
   1873000   846.77978     -2816.0011      54.727438     -2761.2737      60366.209      5413.8588    
   1874000   819.36238     -2820.2771      52.95545      -2767.3216      56403.943      5413.8588    
   1875000   772.53946     -2819.8477      49.929281     -2769.9184      56088.02       5413.8588    
   1876000   770.38005     -2817.8424      49.789718     -2768.0527      57820.708      5413.8588    
   1877000   828.18804     -2818.2353      53.525853     -2764.7095      58547.391      5413.8588    
   1878000   831.22973     -2820.733       53.722438     -2767.0106      56366.787      5413.8588    
   1879000   766.42788     -2819.7967      49.534289     -2770.2624      56184.518      5413.8588    
   1880000   770.4394      -2823.7592      49.793554     -2773.9657      52248.611      5413.8588    
   1881000   798.67848     -2818.8668      51.618648     -2767.2482      57267.268      5413.8588    
   1882000   869.24656     -2821.8751      56.179468     -2765.6957      55861.089      5413.8588    
   1883000   789.262       -2820.8081      51.010061     -2769.7981      55836.621      5413.8588    
   1884000   775.03213     -2821.2144      50.090382     -2771.1241      54584.354      5413.8588    
   1885000   805.75965     -2819.3905      52.076305     -2767.3142      57380.662      5413.8588    
   1886000   793.3256      -2822.8413      51.272691     -2771.5686      54568.816      5413.8588    
   1887000   765.331       -2821.014       49.463398     -2771.5506      54988.378      5413.8588    
   1888000   799.14284     -2819.8627      51.64866      -2768.214       56562.452      5413.8588    
   1889000   851.40068     -2819.7127      55.026087     -2764.6866      57784.101      5413.8588    
   1890000   798.54227     -2819.4911      51.609845     -2767.8813      56738.928      5413.8588    
   1891000   768.76284     -2818.5629      49.685198     -2768.8777      57181.592      5413.8588    
   1892000   827.19016     -2818.2321      53.46136      -2764.7708      58858.318      5413.8588    
   1893000   799.85467     -2817.708       51.694665     -2766.0134      58649.474      5413.8588    
   1894000   770.21206     -2818.5565      49.778861     -2768.7776      56966.466      5413.8588    
   1895000   813.51885     -2817.4624      52.577782     -2764.8846      58229.459      5413.8588    
   1896000   819.95213     -2818.8886      52.993566     -2765.8951      57608.053      5413.8588    
   1897000   828.88464     -2820.683       53.570874     -2767.1122      56905.109      5413.8588    
   1898000   779.22216     -2821.8706      50.361185     -2771.5094      54846.703      5413.8588    
   1899000   840.81677     -2821.7567      54.342049     -2767.4146      55927.028      5413.8588    
   1900000   804.00686     -2817.9254      51.963022     -2765.9624      58586.045      5413.8588    
   1901000   821.60209     -2819.7957      53.100203     -2766.6955      56915.236      5413.8588    
   1902000   749.18107     -2821.7288      48.419627     -2773.3092      54518.147      5413.8588    
   1903000   755.58097     -2821.0102      48.833253     -2772.1769      54944.314      5413.8588    
   1904000   820.96533     -2822.7103      53.059049     -2769.6513      54568.088      5413.8588    
   1905000   804.89244     -2816.9177      52.020257     -2764.8975      59089.361      5413.8588    
   1906000   822.55833     -2818.4083      53.162005     -2765.2463      58119.488      5413.8588    
   1907000   804.87602     -2821.492       52.019195     -2769.4728      55280.785      5413.8588    
   1908000   799.76092     -2821.5589      51.688606     -2769.8703      55397.753      5413.8588    
   1909000   848.77052     -2822.3013      54.8561       -2767.4452      54905.05       5413.8588    
   1910000   848.26664     -2818.1684      54.823534     -2763.3449      58710.043      5413.8588    
   1911000   834.2936      -2819.5123      53.920456     -2765.5919      57096.965      5413.8588    
   1912000   811.31262     -2821.9818      52.435193     -2769.5466      54813.148      5413.8588    
   1913000   787.33118     -2819.5305      50.885271     -2768.6453      56700.777      5413.8588    
   1914000   826.19535     -2817.9413      53.397066     -2764.5442      58689.436      5413.8588    
   1915000   815.31322     -2816.0907      52.693752     -2763.397       59756.964      5413.8588    
   1916000   761.89688     -2819.4913      49.241451     -2770.2498      56372.438      5413.8588    
   1917000   782.98248     -2820.2143      50.604215     -2769.6101      56629.6        5413.8588    
   1918000   795.8714      -2818.1764      51.437226     -2766.7392      57855.082      5413.8588    
   1919000   860.38755     -2820.5195      55.606909     -2764.9126      56296.764      5413.8588    
   1920000   774.17113     -2818.2717      50.034736     -2768.2369      57345.766      5413.8588    
   1921000   826.8448      -2822.5757      53.439039     -2769.1366      54482.074      5413.8588    
   1922000   806.44019     -2817.9135      52.120288     -2765.7932      57630.627      5413.8588    
   1923000   814.11187     -2818.0166      52.616109     -2765.4005      58783.063      5413.8588    
   1924000   792.77906     -2820.0294      51.237368     -2768.7921      56255.585      5413.8588    
   1925000   825.16017     -2819.5667      53.330162     -2766.2366      57324.172      5413.8588    
   1926000   846.54217     -2818.063       54.712082     -2763.3509      58214.375      5413.8588    
   1927000   869.53353     -2821.1291      56.198015     -2764.9311      56027.513      5413.8588    
   1928000   788.13929     -2820.1877      50.9375       -2769.2502      56241.489      5413.8588    
   1929000   785.48399     -2819.3404      50.765887     -2768.5745      57446.527      5413.8588    
   1930000   852.3945      -2822.8496      55.090319     -2767.7593      54271.721      5413.8588    
   1931000   827.27534     -2816.4125      53.466865     -2762.9457      60173.941      5413.8588    
   1932000   851.8498      -2821.0735      55.055114     -2766.0183      56169.675      5413.8588    
   1933000   790.56407     -2820.1759      51.094213     -2769.0816      56204.874      5413.8588    
   1934000   745.57781     -2817.4262      48.186748     -2769.2395      58491.295      5413.8588    
   1935000   794.52853     -2816.245       51.350437     -2764.8946      60175.58       5413.8588    
   1936000   846.91646     -2818.5449      54.736272     -2763.8086      59004.688      5413.8588    
   1937000   851.13998     -2820.5626      55.009238     -2765.5533      57166.433      5413.8588    
   1938000   779.65955     -2820.5708      50.389453     -2770.1813      55921.399      5413.8588    
   1939000   799.27024     -2822.8439      51.656894     -2771.187       54187.884      5413.8588    
   1940000   763.47836     -2816.9881      49.343662     -2767.6444      58674.85       5413.8588    
   1941000   826.78419     -2821.9193      53.435122     -2768.4842      55294.283      5413.8588    
   1942000   756.24193     -2821.8771      48.875971     -2773.0012      54553.467      5413.8588    
   1943000   734.68447     -2818.6428      47.482711     -2771.1601      56820.052      5413.8588    
   1944000   811.37153     -2820.145       52.439001     -2767.706       56746.97       5413.8588    
   1945000   798.89606     -2818.4863      51.63271      -2766.8536      57687.362      5413.8588    
   1946000   838.05535     -2819.0622      54.163578     -2764.8986      58024.99       5413.8588    
   1947000   835.50341     -2817.6127      53.998646     -2763.6141      59468.31       5413.8588    
   1948000   824.66372     -2818.0833      53.298076     -2764.7852      57497.815      5413.8588    
   1949000   795.55789     -2822.1498      51.416964     -2770.7328      54094.178      5413.8588    
   1950000   790.33978     -2820.9222      51.079717     -2769.8425      55526.747      5413.8588    
   1951000   771.88061     -2818.4299      49.8867       -2768.5432      57261.035      5413.8588    
   1952000   791.86096     -2814.8667      51.178032     -2763.6887      60820.795      5413.8588    
   1953000   896.18603     -2821.026       57.920568     -2763.1054      56091.142      5413.8588    
   1954000   776.234       -2819.6965      50.16806      -2769.5285      55494.717      5413.8588    
   1955000   790.88796     -2819.8704      51.115146     -2768.7553      56429.686      5413.8588    
   1956000   825.10965     -2819.7516      53.326896     -2766.4247      57409.642      5413.8588    
   1957000   854.30082     -2817.3709      55.213524     -2762.1574      59915.474      5413.8588    
   1958000   808.19422     -2818.9057      52.233651     -2766.672       57938.401      5413.8588    
   1959000   798.79357     -2820.3792      51.626086     -2768.7531      55905.539      5413.8588    
   1960000   739.43051     -2818.806       47.789447     -2771.0166      56321.912      5413.8588    
   1961000   807.38331     -2819.4866      52.181242     -2767.3053      56772.151      5413.8588    
   1962000   811.361       -2818.7519      52.43832      -2766.3136      57377.981      5413.8588    
   1963000   795.54162     -2823.0525      51.415912     -2771.6366      53704.849      5413.8588    
   1964000   778.67491     -2821.856       50.325816     -2771.5302      54158.127      5413.8588    
   1965000   810.26459     -2820.635       52.367459     -2768.2675      56037.557      5413.8588    
   1966000   786.55711     -2817.7147      50.835243     -2766.8794      59562.165      5413.8588    
   1967000   794.30573     -2820.2058      51.336037     -2768.8697      56522.158      5413.8588    
   1968000   812.72374     -2824.0929      52.526394     -2771.5665      52820.387      5413.8588    
   1969000   802.59193     -2822.482       51.871575     -2770.6104      53992.946      5413.8588    
   1970000   793.68608     -2814.9354      51.295989     -2763.6394      61047.38       5413.8588    
   1971000   784.33225     -2815.8118      50.69145      -2765.1203      60277.526      5413.8588    
   1972000   794.92575     -2818.2493      51.376109     -2766.8732      58316.048      5413.8588    
   1973000   798.21963     -2822.0921      51.588992     -2770.5031      54725.132      5413.8588    
   1974000   773.69242     -2823.6404      50.003797     -2773.6366      53224.892      5413.8588    
   1975000   786.1825      -2819.8428      50.811032     -2769.0317      56956.664      5413.8588    
   1976000   801.9648      -2816.9203      51.831043     -2765.0892      59857.256      5413.8588    
   1977000   820.3464      -2820.2692      53.019047     -2767.2501      56164.335      5413.8588    
   1978000   814.65421     -2822.9496      52.651161     -2770.2985      54125.681      5413.8588    
   1979000   739.65166     -2822.2386      47.80374      -2774.4348      53656.904      5413.8588    
   1980000   834.37372     -2819.9911      53.925634     -2766.0655      56586.698      5413.8588    
   1981000   812.10222     -2817.6784      52.486225     -2765.1922      58555.918      5413.8588    
   1982000   776.18745     -2819.4644      50.165051     -2769.2993      56577.485      5413.8588    
   1983000   815.6129      -2819.8649      52.713121     -2767.1518      57451.255      5413.8588    
   1984000   829.21631     -2820.6518      53.59231      -2767.0595      56179.509      5413.8588    
   1985000   861.46515     -2822.6408      55.676555     -2766.9642      54625.081      5413.8588    
   1986000   769.2664      -2819.4901      49.717743     -2769.7724      56736.03       5413.8588    
   1987000   831.40697     -2822.4445      53.733893     -2768.7106      55290.577      5413.8588    
   1988000   825.61299     -2818.7856      53.359427     -2765.4262      58366.153      5413.8588    
   1989000   831.59206     -2818.5533      53.745855     -2764.8074      58162.443      5413.8588    
   1990000   791.67198     -2821.0904      51.165818     -2769.9246      55634.118      5413.8588    
   1991000   806.95402     -2822.0484      52.153497     -2769.8949      55042.689      5413.8588    
   1992000   835.30253     -2818.9383      53.985663     -2764.9526      57698.735      5413.8588    
   1993000   896.38673     -2819.7877      57.933539     -2761.8542      57506.587      5413.8588    
   1994000   756.04517     -2819.16        48.863254     -2770.2967      56374.197      5413.8588    
   1995000   772.29849     -2820.2612      49.913708     -2770.3475      55356.426      5413.8588    
   1996000   783.68094     -2819.8369      50.649356     -2769.1876      55883.009      5413.8588    
   1997000   799.24518     -2818.494       51.655274     -2766.8387      58540.531      5413.8588    
   1998000   778.67495     -2820.7281      50.325819     -2770.4022      55555.305      5413.8588    
   1999000   798.18619     -2823.7569      51.586831     -2772.17        53173.55       5413.8588    
   2000000   760.62378     -2817.2021      49.15917      -2768.0429      58702.538      5413.8588    
Loop time of 46811.2 on 1 procs for 1500000 steps with 501 atoms

Performance: 1.384 ns/day, 17.337 hours/ns, 32.044 timesteps/s, 16.054 katom-step/s
99.2% CPU use with 1 MPI tasks x 1 OpenMP threads

MPI task timing breakdown:
Section |  min time  |  avg time  |  max time  |%varavg| %total
---------------------------------------------------------------
Pair    | 45866      | 45866      | 45866      |   0.0 | 97.98
Neigh   | 0.55201    | 0.55201    | 0.55201    |   0.0 |  0.00
Comm    | 54.952     | 54.952     | 54.952     |   0.0 |  0.12
Output  | 0.99416    | 0.99416    | 0.99416    |   0.0 |  0.00
Modify  | 833.89     | 833.89     | 833.89     |   0.0 |  1.78
Other   |            | 54.41      |            |       |  0.12

Nlocal:            501 ave         501 max         501 min
Histogram: 1 0 0 0 0 0 0 0 0 0
Nghost:           2366 ave        2366 max        2366 min
Histogram: 1 0 0 0 0 0 0 0 0 0
Neighs:              0 ave           0 max           0 min
Histogram: 1 0 0 0 0 0 0 0 0 0
FullNghs:        68546 ave       68546 max       68546 min
Histogram: 1 0 0 0 0 0 0 0 0 0

Total # of neighbors = 68546
Ave neighs/atom = 136.81836
Neighbor list builds = 1061
Dangerous builds = 0

# ── Save final state ─────────────────────────────────────────
variable  pe_final  equal  pe
variable  temp_fin  equal  temp
variable  press_fin equal  press

print "EQUIL_RESULTS_START"
EQUIL_RESULTS_START
print "  T_K          : 800"
  T_K          : 800
print "  pe_final_eV  : ${pe_final}"
  pe_final_eV  : -2817.2020792283
print "  temp_final_K : ${temp_fin}"
  temp_final_K : 760.623779683502
print "  press_final  : ${press_fin}"
  press_final  : 58702.5377385093
print "EQUIL_RESULTS_END"
EQUIL_RESULTS_END

write_data     structures/notebook10-bulk-equilibration/Pure_Nickel/Pure_Nickel_H_800K.lammps
System init for write_data ...
Total wall time: 17:14:12
