LAMMPS (11 Feb 2026 - Development - patch_11Feb2026-99-gb75dfcc930-modified)
KOKKOS mode with Kokkos version 5.0.2 is enabled
  using double precision
  using view layout = legacy
  will use up to 1 GPU(s) per node
  using 1 OpenMP thread(s) per MPI task
package kokkos
package kokkos newton on neigh half
# LAMMPS NVT bulk equilibration — Hastelloy N + 1H
# T = 400 K | Notebook 10
# Phase 1: 250 ps equilibration
# Phase 2: 750 ps production (trajectory for NB11 MSD)
# Refs: NVT [6]; H diffusion [1,2]

units          metal
atom_style     atomic
newton         on
boundary       p p p

read_data      structures/notebook10-bulk-equilibration/Pure_Nickel/Pure_Nickel_H_initial.lammps
Reading data file ...
  orthogonal box = (0 0 0) to (17.559102 17.559102 17.559102)
  1 by 1 by 1 MPI processor grid
  reading atoms ...
  501 atoms
  read_data CPU = 0.025 seconds

pair_style     mliap unified /projects/westgroup/akinyemi.az/mace_lammps/models/mace-mp-0b2-medium.model-mliap_lammps.pt 0
pair_coeff     * * Al B C Cr Fe Mo Ni O H

neighbor       2.0 bin
neigh_modify   every 1 delay 0 check yes

# ── Identify H atom for tracking ─────────────────────────────
group          H_atom   type 9
1 atoms in group H_atom
group          metal    subtract all H_atom
500 atoms in group metal

# ── Thermo ───────────────────────────────────────────────────
thermo         1000
thermo_style   custom step temp pe ke etotal press vol

# ── Timestep ─────────────────────────────────────────────────
timestep       0.0005

# ── Initialize velocities ────────────────────────────────────
velocity       all create 400.0 42 mom yes rot yes dist gaussian

# ── Phase 1: Equilibration ───────────────────────────────────
fix            nvt_equil  all  nvt  temp  400.0  400.0  0.1
print "### Phase 1: Equilibration 250 ps at 400 K ###"
### Phase 1: Equilibration 250 ps at 400 K ###
run            500000

CITE-CITE-CITE-CITE-CITE-CITE-CITE-CITE-CITE-CITE-CITE-CITE-CITE

Your simulation uses code contributions which should be cited:

- KOKKOS package: https://doi.org/10.1145/3731599.3767498

@inproceedings{Johansson25,
 author = {A. Johansson and E. Weinberg and C. Trott and M. McCarthy and S. Moore},
 title = {{LAMMPS-KOKKOS}: {P}erformance Portable Molecular Dynamics Across Exascale Architectures},
 year = 2025,
 booktitle = {Proceedings of the SC '25 Workshops of the International Conference for High Performance Computing,
  Networking, Storage and Analysis},
 pages = {1217–1232},
}

CITE-CITE-CITE-CITE-CITE-CITE-CITE-CITE-CITE-CITE-CITE-CITE-CITE

Neighbor list info ...
  update: every = 1 steps, delay = 0 steps, check = yes
  max neighbors/atom: 2000, page size: 100000
  master list distance cutoff = 7
  ghost atom cutoff = 7
  binsize = 7, bins = 3 3 3
  1 neighbor lists, perpetual/occasional/extra = 1 0 0
  (1) pair mliap/kk, perpetual
      attributes: full, newton on, kokkos_device
      pair build: full/bin/kk/device
      stencil: full/bin/3d
      bin: kk/device
Per MPI rank memory allocation (min/avg/max) = 89.56 | 89.56 | 89.56 Mbytes
   Step          Temp          PotEng         KinEng         TotEng         Press          Volume    
         0   400           -2871.7085      25.852029     -2845.8565      6203.8272      5413.8588    
      1000   331.64727     -2843.5051      21.434387     -2822.0707      29276.017      5413.8588    
      2000   420.94513     -2849.8578      27.205714     -2822.6521      25292.601      5413.8588    
      3000   389.90812     -2845.9054      25.19979      -2820.7056      28278.567      5413.8588    
      4000   399.23265     -2844.4291      25.802435     -2818.6267      30109.93       5413.8588    
      5000   403.59289     -2845.178       26.084238     -2819.0937      28888.266      5413.8588    
      6000   377.67405     -2845.4307      24.409101     -2821.0216      28484.82       5413.8588    
      7000   413.85028     -2845.9958      26.747173     -2819.2486      28749.628      5413.8588    
      8000   427.81042     -2846.0464      27.649418     -2818.397       28714.075      5413.8588    
      9000   420.43103     -2844.6649      27.172488     -2817.4925      29949.816      5413.8588    
     10000   400.72174     -2846.3308      25.898675     -2820.4322      27997.06       5413.8588    
     11000   394.3927      -2846.4878      25.489629     -2820.9982      27776.041      5413.8588    
     12000   384.06721     -2846.3861      24.822292     -2821.5638      27971.043      5413.8588    
     13000   392.7267      -2846.9095      25.381955     -2821.5275      27370.773      5413.8588    
     14000   408.60028     -2845.7241      26.407866     -2819.3162      28365.998      5413.8588    
     15000   379.48908     -2846.2406      24.526406     -2821.7142      28241.696      5413.8588    
     16000   384.59444     -2846.0652      24.856367     -2821.2088      28096.938      5413.8588    
     17000   405.19831     -2842.9416      26.187996     -2816.7536      31287.488      5413.8588    
     18000   402.48898     -2845.8499      26.012892     -2819.837       28267.01       5413.8588    
     19000   393.84413     -2845.9981      25.454174     -2820.5439      28381.666      5413.8588    
     20000   393.0387      -2847.0221      25.40212      -2821.62        27550.091      5413.8588    
     21000   392.53853     -2845.0428      25.369794     -2819.673       29037.565      5413.8588    
     22000   409.86208     -2845.9855      26.489416     -2819.496       28423.733      5413.8588    
     23000   390.90005     -2846.1025      25.263898     -2820.8386      28280.387      5413.8588    
     24000   385.12509     -2845.2864      24.890663     -2820.3958      28423.691      5413.8588    
     25000   410.74565     -2846.0565      26.546521     -2819.51        28390.544      5413.8588    
     26000   415.20176     -2845.3741      26.83452      -2818.5396      29081.766      5413.8588    
     27000   421.12424     -2844.9424      27.21729      -2817.7251      29097.648      5413.8588    
     28000   414.31319     -2845.6447      26.777092     -2818.8676      28841.773      5413.8588    
     29000   392.63924     -2846.3092      25.376303     -2820.9329      27857.681      5413.8588    
     30000   418.37691     -2847.574       27.03973      -2820.5343      26999.573      5413.8588    
     31000   414.08332     -2845.3838      26.762235     -2818.6216      28922.162      5413.8588    
     32000   416.76948     -2845.7796      26.935842     -2818.8438      28574.189      5413.8588    
     33000   389.29824     -2845.6291      25.160374     -2820.4687      28614.865      5413.8588    
     34000   424.52674     -2846.247       27.437194     -2818.8098      28419.458      5413.8588    
     35000   409.58412     -2844.3963      26.471452     -2817.9248      30052.407      5413.8588    
     36000   387.99043     -2845.9337      25.075849     -2820.8578      28152.216      5413.8588    
     37000   402.33806     -2845.3107      26.003138     -2819.3075      29172.48       5413.8588    
     38000   410.75522     -2845.4282      26.54714      -2818.8811      28826.088      5413.8588    
     39000   411.48353     -2846.9025      26.59421      -2820.3082      27442.464      5413.8588    
     40000   397.33707     -2847.8515      25.679924     -2822.1715      26872.845      5413.8588    
     41000   390.01375     -2848.1154      25.206617     -2822.9088      26480.352      5413.8588    
     42000   409.25199     -2845.6455      26.449986     -2819.1955      28869.576      5413.8588    
     43000   397.14313     -2844.5361      25.667389     -2818.8688      29644.844      5413.8588    
     44000   377.93887     -2847.8913      24.426217     -2823.4651      26348.098      5413.8588    
     45000   398.21362     -2845.8408      25.736575     -2820.1042      28317.918      5413.8588    
     46000   410.33801     -2846.1827      26.520175     -2819.6625      28377.357      5413.8588    
     47000   429.82005     -2846.0896      27.779301     -2818.3103      28541.568      5413.8588    
     48000   404.22351     -2846.1672      26.124995     -2820.0422      28229.361      5413.8588    
     49000   411.65838     -2846.8014      26.605511     -2820.1959      27530.679      5413.8588    
     50000   417.18681     -2845.0603      26.962813     -2818.0975      29223.675      5413.8588    
     51000   417.96457     -2845.3487      27.01308      -2818.3356      28955.62       5413.8588    
     52000   400.73292     -2845.1248      25.899398     -2819.2255      28989.155      5413.8588    
     53000   408.81916     -2846.4812      26.422012     -2820.0592      28364.065      5413.8588    
     54000   394.97823     -2845.0951      25.527472     -2819.5676      29099.085      5413.8588    
     55000   395.96527     -2846.3075      25.591264     -2820.7162      28135.722      5413.8588    
     56000   385.94305     -2846.7547      24.943527     -2821.8112      27699.235      5413.8588    
     57000   364.43547     -2846.7668      23.553491     -2823.2133      27398.673      5413.8588    
     58000   413.06899     -2845.4795      26.696679     -2818.7828      29046.797      5413.8588    
     59000   402.6907      -2845.1709      26.025929     -2819.145       29149.106      5413.8588    
     60000   380.47869     -2847.5581      24.590365     -2822.9678      26580.954      5413.8588    
     61000   397.37669     -2846.1408      25.682484     -2820.4583      28174.689      5413.8588    
     62000   409.64304     -2846.2422      26.475259     -2819.7669      27913.41       5413.8588    
     63000   420.69784     -2846.1374      27.189732     -2818.9477      28407.592      5413.8588    
     64000   396.0462      -2846.2625      25.596495     -2820.666       28228.92       5413.8588    
     65000   397.59519     -2846.7518      25.696606     -2821.0552      27571.814      5413.8588    
     66000   397.32402     -2846.3338      25.67908      -2820.6547      28293.607      5413.8588    
     67000   403.97118     -2845.6223      26.108687     -2819.5136      28644.808      5413.8588    
     68000   389.70152     -2844.4538      25.186437     -2819.2674      29583.98       5413.8588    
     69000   411.17303     -2846.27        26.574143     -2819.6959      28085.205      5413.8588    
     70000   386.20073     -2846.9246      24.960181     -2821.9644      27413.878      5413.8588    
     71000   379.93171     -2845.6269      24.555014     -2821.0719      28314.355      5413.8588    
     72000   407.43164     -2845.8996      26.332336     -2819.5673      28579.49       5413.8588    
     73000   393.09792     -2845.2647      25.405947     -2819.8588      28990.313      5413.8588    
     74000   394.69236     -2846.918       25.508996     -2821.409       27741.434      5413.8588    
     75000   409.53383     -2846.7461      26.468201     -2820.2779      27870.455      5413.8588    
     76000   407.31149     -2845.0961      26.324571     -2818.7716      29297.045      5413.8588    
     77000   408.34778     -2845.9164      26.391547     -2819.5249      28730.871      5413.8588    
     78000   380.40482     -2847.5813      24.585591     -2822.9957      26468.306      5413.8588    
     79000   396.46136     -2847.4031      25.623326     -2821.7798      27053.831      5413.8588    
     80000   392.60947     -2845.0875      25.374379     -2819.7131      29108.939      5413.8588    
     81000   417.87404     -2845.9         27.007229     -2818.8928      28555.53       5413.8588    
     82000   418.28495     -2845.1628      27.033787     -2818.129       29560.827      5413.8588    
     83000   404.48657     -2845.9404      26.141996     -2819.7984      28703.831      5413.8588    
     84000   390.39232     -2846.1175      25.231084     -2820.8864      28033.472      5413.8588    
     85000   403.29529     -2846.531       26.065004     -2820.466       28085.038      5413.8588    
     86000   389.15316     -2844.6876      25.150997     -2819.5366      29653.343      5413.8588    
     87000   405.9205      -2845.8451      26.234671     -2819.6105      28570.884      5413.8588    
     88000   390.82261     -2846.2716      25.258893     -2821.0127      27780.381      5413.8588    
     89000   387.2722      -2847.6222      25.02943      -2822.5928      26779.869      5413.8588    
     90000   408.47628     -2847.6893      26.399852     -2821.2895      26997.257      5413.8588    
     91000   407.20978     -2845.7662      26.317998     -2819.4482      28615.573      5413.8588    
     92000   404.09341     -2845.1223      26.116586     -2819.0057      28871.36       5413.8588    
     93000   420.15311     -2845.4341      27.154526     -2818.2796      29177.058      5413.8588    
     94000   399.31418     -2845.696       25.807705     -2819.8883      28418.085      5413.8588    
     95000   381.73543     -2846.1402      24.671588     -2821.4686      27832.088      5413.8588    
     96000   407.00848     -2847.4258      26.304988     -2821.1208      27245.868      5413.8588    
     97000   415.55129     -2845.4316      26.85711      -2818.5745      29340.495      5413.8588    
     98000   414.01745     -2844.733       26.757978     -2817.9751      29276.585      5413.8588    
     99000   430.44494     -2846.5741      27.819687     -2818.7544      28204.687      5413.8588    
    100000   403.36793     -2846.5551      26.069698     -2820.4854      27571.375      5413.8588    
    101000   404.86283     -2846.1945      26.166314     -2820.0282      28180.689      5413.8588    
    102000   408.66047     -2844.8591      26.411756     -2818.4473      29251.041      5413.8588    
    103000   403.13746     -2844.6353      26.054803     -2818.5805      29631.156      5413.8588    
    104000   390.66203     -2846.1889      25.248515     -2820.9404      27712.739      5413.8588    
    105000   383.61705     -2846.4753      24.793198     -2821.6821      27811.886      5413.8588    
    106000   387.4175      -2845.4506      25.038821     -2820.4118      28463.261      5413.8588    
    107000   410.39711     -2845.3605      26.523995     -2818.8365      28759.332      5413.8588    
    108000   390.64212     -2844.8464      25.247228     -2819.5992      29285.109      5413.8588    
    109000   389.34802     -2846.4242      25.163591     -2821.2606      28042.956      5413.8588    
    110000   373.82348     -2846.8678      24.160239     -2822.7075      26931.856      5413.8588    
    111000   400.56413     -2845.6807      25.888489     -2819.7922      28366.759      5413.8588    
    112000   417.83422     -2846.6685      27.004656     -2819.6638      28011.084      5413.8588    
    113000   400.37039     -2846.3567      25.875968     -2820.4808      27445.877      5413.8588    
    114000   396.99308     -2848.4371      25.657691     -2822.7794      26211.007      5413.8588    
    115000   384.87635     -2846.296       24.874586     -2821.4214      27747.079      5413.8588    
    116000   419.05889     -2846.5621      27.083806     -2819.4783      28112.216      5413.8588    
    117000   369.33136     -2844.8073      23.869913     -2820.9374      29081.457      5413.8588    
    118000   389.38486     -2847.3675      25.165972     -2822.2015      26621.497      5413.8588    
    119000   387.6637      -2846.4433      25.054733     -2821.3886      27895.705      5413.8588    
    120000   398.42945     -2846.3914      25.750525     -2820.6409      27880.703      5413.8588    
    121000   399.94892     -2845.8272      25.848728     -2819.9784      28438.752      5413.8588    
    122000   415.02911     -2845.5136      26.823362     -2818.6902      29111.609      5413.8588    
    123000   393.30064     -2845.4292      25.419049     -2820.0101      28546.249      5413.8588    
    124000   382.89412     -2846.2495      24.746475     -2821.503       27926.306      5413.8588    
    125000   371.01138     -2847.1459      23.978492     -2823.1674      27131.098      5413.8588    
    126000   397.75349     -2846.4691      25.706837     -2820.7622      28250.535      5413.8588    
    127000   397.06722     -2844.9778      25.662483     -2819.3153      29323.459      5413.8588    
    128000   394.47777     -2845.5653      25.495127     -2820.0702      28659.322      5413.8588    
    129000   385.04798     -2846.0622      24.885679     -2821.1765      28004.857      5413.8588    
    130000   415.15903     -2847.8945      26.831758     -2821.0628      26888.545      5413.8588    
    131000   408.83724     -2847.5971      26.42318      -2821.1739      27231.131      5413.8588    
    132000   400.36048     -2845.4138      25.875327     -2819.5385      28830.073      5413.8588    
    133000   410.66938     -2847.1784      26.541592     -2820.6368      27359.243      5413.8588    
    134000   386.83822     -2847.3677      25.001382     -2822.3663      26987.371      5413.8588    
    135000   396.94833     -2846.9587      25.654799     -2821.3039      27305.272      5413.8588    
    136000   383.86517     -2844.6535      24.809234     -2819.8443      29408.912      5413.8588    
    137000   389.61099     -2845.5402      25.180587     -2820.3597      28470.577      5413.8588    
    138000   368.82722     -2846.2333      23.83733      -2822.396       27796.965      5413.8588    
    139000   378.59066     -2845.7779      24.468342     -2821.3095      28187.908      5413.8588    
    140000   403.4089      -2845.8804      26.072346     -2819.808       28230.701      5413.8588    
    141000   414.34128     -2846.0254      26.778907     -2819.2465      28483.837      5413.8588    
    142000   415.53366     -2846.3798      26.855971     -2819.5238      28223.092      5413.8588    
    143000   392.709       -2847.7622      25.380811     -2822.3814      26534.854      5413.8588    
    144000   384.59047     -2847.0836      24.85611      -2822.2275      27234.304      5413.8588    
    145000   400.06782     -2845.8415      25.856412     -2819.9851      28178.434      5413.8588    
    146000   407.33279     -2845.4166      26.325948     -2819.0907      29185.731      5413.8588    
    147000   386.07642     -2846.6353      24.952147     -2821.6832      27623.193      5413.8588    
    148000   385.02917     -2847.2618      24.884463     -2822.3774      27319.78       5413.8588    
    149000   412.38446     -2846.8725      26.652438     -2820.2201      27855.57       5413.8588    
    150000   396.74212     -2844.7363      25.641472     -2819.0949      29549.65       5413.8588    
    151000   398.2341      -2846.234       25.737899     -2820.4961      28346.789      5413.8588    
    152000   372.55591     -2847.2808      24.078315     -2823.2025      27016.376      5413.8588    
    153000   411.9408      -2847.0781      26.623764     -2820.4544      27582.878      5413.8588    
    154000   402.63464     -2845.5546      26.022306     -2819.5322      28881.887      5413.8588    
    155000   410.93915     -2846.5535      26.559027     -2819.9944      28075.696      5413.8588    
    156000   384.19253     -2846.3801      24.830391     -2821.5497      27996.606      5413.8588    
    157000   389.4371      -2846.4567      25.169348     -2821.2873      27913.75       5413.8588    
    158000   385.29134     -2844.8116      24.901408     -2819.9101      29364.427      5413.8588    
    159000   421.75702     -2846.0648      27.258187     -2818.8066      28376.636      5413.8588    
    160000   407.19165     -2845.7063      26.316826     -2819.3895      28858.353      5413.8588    
    161000   381.92545     -2847.227       24.683869     -2822.5431      27169.27       5413.8588    
    162000   384.30043     -2845.5506      24.837365     -2820.7132      28357.27       5413.8588    
    163000   415.19779     -2846.2423      26.834264     -2819.408       28288.955      5413.8588    
    164000   408.74422     -2845.5823      26.417169     -2819.1651      28645.776      5413.8588    
    165000   411.86138     -2846.3148      26.618631     -2819.6961      28289.925      5413.8588    
    166000   385.01055     -2846.1434      24.88326      -2821.2601      28082.955      5413.8588    
    167000   394.08662     -2846.607       25.469847     -2821.1372      27763.957      5413.8588    
    168000   423.05122     -2847.9508      27.341831     -2820.609       26949.829      5413.8588    
    169000   415.76201     -2846.0721      26.870729     -2819.2014      28197.824      5413.8588    
    170000   379.98191     -2846.9404      24.558258     -2822.3821      26918.15       5413.8588    
    171000   376.94358     -2846.3918      24.361891     -2822.0299      27252.944      5413.8588    
    172000   404.68159     -2846.6832      26.154601     -2820.5286      27851.959      5413.8588    
    173000   402.07204     -2845.3828      25.985945     -2819.3968      28746.029      5413.8588    
    174000   402.80947     -2845.774       26.033605     -2819.7404      28180.786      5413.8588    
    175000   390.73126     -2844.8909      25.25299      -2819.6379      29168.362      5413.8588    
    176000   399.34806     -2847.866       25.809894     -2822.0561      26493.833      5413.8588    
    177000   391.53632     -2847.5652      25.305021     -2822.2602      26633.542      5413.8588    
    178000   406.06907     -2846.1683      26.244273     -2819.9241      28372.442      5413.8588    
    179000   420.77367     -2845.6109      27.194633     -2818.4163      28686.601      5413.8588    
    180000   404.13763     -2846.296       26.119444     -2820.1766      28151.076      5413.8588    
    181000   402.03        -2847.2253      25.983228     -2821.2421      27594.64       5413.8588    
    182000   391.46191     -2846.8988      25.300212     -2821.5986      27487.743      5413.8588    
    183000   415.36647     -2846.6529      26.845165     -2819.8078      27887.194      5413.8588    
    184000   379.09128     -2845.1348      24.500697     -2820.6341      28836.321      5413.8588    
    185000   401.21201     -2848.1606      25.930362     -2822.2303      26641.197      5413.8588    
    186000   398.21081     -2847.1835      25.736394     -2821.4471      27082.649      5413.8588    
    187000   406.30979     -2845.9977      26.259831     -2819.7379      28655.716      5413.8588    
    188000   407.41015     -2846.076       26.330947     -2819.745       28418.702      5413.8588    
    189000   401.52879     -2847.0582      25.950835     -2821.1073      27268.01       5413.8588    
    190000   395.27968     -2847.743       25.546954     -2822.196       26734.647      5413.8588    
    191000   388.287       -2844.4658      25.095017     -2819.3708      29695.108      5413.8588    
    192000   408.12598     -2845.0907      26.377212     -2818.7134      29580.552      5413.8588    
    193000   406.08726     -2845.4043      26.245449     -2819.1588      28910.733      5413.8588    
    194000   403.07069     -2846.6916      26.050488     -2820.6411      27736.436      5413.8588    
    195000   401.03599     -2845.2333      25.918985     -2819.3143      29089.321      5413.8588    
    196000   393.98298     -2843.1038      25.463149     -2817.6406      31170.691      5413.8588    
    197000   424.59301     -2846.6383      27.441477     -2819.1968      28453.972      5413.8588    
    198000   367.21244     -2844.5298      23.732967     -2820.7968      29344.826      5413.8588    
    199000   411.84483     -2847.9922      26.617561     -2821.3746      26884.35       5413.8588    
    200000   385.67885     -2846.1013      24.926452     -2821.1749      28220.256      5413.8588    
    201000   403.9352      -2845.4952      26.106361     -2819.3889      28794.781      5413.8588    
    202000   398.38949     -2845.5798      25.747942     -2819.8318      28885.842      5413.8588    
    203000   400.33421     -2846.2883      25.873629     -2820.4146      28115.311      5413.8588    
    204000   376.9022      -2847.3946      24.359217     -2823.0354      26726.165      5413.8588    
    205000   408.37758     -2846.0316      26.393472     -2819.6382      28659.865      5413.8588    
    206000   393.09196     -2843.7937      25.405562     -2818.3882      29918.913      5413.8588    
    207000   407.82986     -2846.5393      26.358073     -2820.1812      27748.286      5413.8588    
    208000   366.43045     -2845.8863      23.682426     -2822.2039      28277.602      5413.8588    
    209000   379.14252     -2847.1455      24.504009     -2822.6415      27127.018      5413.8588    
    210000   406.74559     -2845.4209      26.287997     -2819.1329      28860.416      5413.8588    
    211000   402.13656     -2845.3375      25.990115     -2819.3474      28940.51       5413.8588    
    212000   382.23014     -2847.8882      24.703562     -2823.1847      26210.731      5413.8588    
    213000   383.62812     -2846.4845      24.793913     -2821.6906      27618.476      5413.8588    
    214000   407.42961     -2846.5238      26.332205     -2820.1916      27894.318      5413.8588    
    215000   392.40702     -2845.1908      25.361294     -2819.8295      28561.117      5413.8588    
    216000   382.43606     -2844.4775      24.71687      -2819.7607      29237.351      5413.8588    
    217000   406.08189     -2848.2359      26.245102     -2821.9907      26437.572      5413.8588    
    218000   404.02532     -2846.0872      26.112185     -2819.975       27838.579      5413.8588    
    219000   420.10812     -2846.1263      27.151618     -2818.9747      28282.5        5413.8588    
    220000   401.99365     -2847.4587      25.980879     -2821.4778      26961.858      5413.8588    
    221000   383.89379     -2847.09        24.811084     -2822.279       27208.999      5413.8588    
    222000   374.75891     -2845.4113      24.220695     -2821.1906      28644.21       5413.8588    
    223000   387.93997     -2845.3864      25.072588     -2820.3138      28680.922      5413.8588    
    224000   444.37435     -2845.2574      28.719947     -2816.5374      29612.532      5413.8588    
    225000   382.57279     -2844.7389      24.725707     -2820.0132      29286.748      5413.8588    
    226000   400.37141     -2846.868       25.876033     -2820.9919      27806.012      5413.8588    
    227000   365.42736     -2846.3821      23.617597     -2822.7645      27444.302      5413.8588    
    228000   381.45246     -2846.7332      24.6533       -2822.0799      26925.596      5413.8588    
    229000   405.13613     -2845.8974      26.183978     -2819.7134      28529.931      5413.8588    
    230000   402.54063     -2844.8213      26.01623      -2818.805       29239.675      5413.8588    
    231000   421.29293     -2845.2287      27.228193     -2818.0005      29223.038      5413.8588    
    232000   388.6225      -2845.4404      25.1167       -2820.3237      28563.087      5413.8588    
    233000   390.57593     -2846.8742      25.242951     -2821.6313      27580.945      5413.8588    
    234000   408.23602     -2846.019       26.384324     -2819.6347      28595.26       5413.8588    
    235000   387.31181     -2844.9548      25.03199      -2819.9228      28942.98       5413.8588    
    236000   407.74956     -2847.7999      26.352884     -2821.447       26731.169      5413.8588    
    237000   388.74738     -2846.0592      25.124772     -2820.9344      28315.323      5413.8588    
    238000   413.44097     -2844.9102      26.72072      -2818.1895      29234.031      5413.8588    
    239000   414.46632     -2845.0353      26.786988     -2818.2483      29181.304      5413.8588    
    240000   410.03576     -2847.4683      26.500641     -2820.9677      27223.99       5413.8588    
    241000   378.16902     -2845.2155      24.441091     -2820.7744      28755.011      5413.8588    
    242000   411.95102     -2844.879       26.624424     -2818.2546      29364.617      5413.8588    
    243000   404.55247     -2844.7708      26.146256     -2818.6246      29352.799      5413.8588    
    244000   391.53085     -2845.9265      25.304667     -2820.6219      28289.479      5413.8588    
    245000   381.94541     -2846.5828      24.68516      -2821.8977      27616.1        5413.8588    
    246000   388.94011     -2845.3329      25.137227     -2820.1956      29257.857      5413.8588    
    247000   401.77333     -2845.8473      25.96664      -2819.8806      28330.591      5413.8588    
    248000   381.87207     -2846.0063      24.68042      -2821.3258      27850.633      5413.8588    
    249000   386.15697     -2846.8346      24.957353     -2821.8773      27402.813      5413.8588    
    250000   378.23264     -2845.9975      24.445203     -2821.5523      28192.396      5413.8588    
    251000   408.71342     -2844.2817      26.415178     -2817.8665      29637.034      5413.8588    
    252000   425.73505     -2845.6475      27.515287     -2818.1322      28816.002      5413.8588    
    253000   405.40548     -2846.5194      26.201386     -2820.318       27851.526      5413.8588    
    254000   411.55992     -2847.4635      26.599148     -2820.8643      27085.816      5413.8588    
    255000   393.13813     -2845.0168      25.408546     -2819.6083      29006.8        5413.8588    
    256000   425.92335     -2846.471       27.527457     -2818.9435      28488.565      5413.8588    
    257000   396.48954     -2846.0979      25.625148     -2820.4727      28329.032      5413.8588    
    258000   372.06654     -2846.8147      24.046687     -2822.768       27591.16       5413.8588    
    259000   404.50876     -2845.5213      26.14343      -2819.3779      28801.804      5413.8588    
    260000   403.16111     -2845.563       26.056332     -2819.5067      28548.417      5413.8588    
    261000   396.99971     -2846.3288      25.65812      -2820.6706      27697.569      5413.8588    
    262000   405.5668      -2847.81        26.211812     -2821.5982      26848.298      5413.8588    
    263000   407.42642     -2845.1976      26.331999     -2818.8656      29252.53       5413.8588    
    264000   421.91266     -2845.1584      27.268246     -2817.8902      29330.776      5413.8588    
    265000   401.67119     -2846.461       25.960038     -2820.5009      28069.345      5413.8588    
    266000   415.1051      -2845.4658      26.828272     -2818.6375      29081.811      5413.8588    
    267000   405.26744     -2845.7319      26.192464     -2819.5394      28583.22       5413.8588    
    268000   408.96386     -2847.3309      26.431364     -2820.8995      27672.61       5413.8588    
    269000   373.29308     -2846.2049      24.125959     -2822.079       27927.899      5413.8588    
    270000   401.41744     -2846.0524      25.943638     -2820.1087      28063.109      5413.8588    
    271000   401.71385     -2846.8735      25.962795     -2820.9107      27515.846      5413.8588    
    272000   406.57873     -2845.9213      26.277213     -2819.6441      28597.534      5413.8588    
    273000   410.27631     -2845.5455      26.516187     -2819.0293      28790.146      5413.8588    
    274000   414.73599     -2846.5807      26.804417     -2819.7763      28078.635      5413.8588    
    275000   382.43996     -2846.1364      24.717122     -2821.4192      28183.097      5413.8588    
    276000   393.38693     -2845.6985      25.424626     -2820.2738      28526.297      5413.8588    
    277000   397.00249     -2845.7066      25.6583       -2820.0483      28679.325      5413.8588    
    278000   385.6298      -2847.0921      24.923282     -2822.1688      27217.576      5413.8588    
    279000   391.64401     -2846.6367      25.311981     -2821.3247      27699.531      5413.8588    
    280000   389.25854     -2845.859       25.157808     -2820.7012      28258.198      5413.8588    
    281000   425.33478     -2845.8469      27.489417     -2818.3575      28909.519      5413.8588    
    282000   412.60047     -2844.3726      26.666398     -2817.7062      30042.046      5413.8588    
    283000   418.86135     -2846.7094      27.071039     -2819.6384      28014.485      5413.8588    
    284000   404.5497      -2846.953       26.146076     -2820.8069      27428          5413.8588    
    285000   397.4106      -2845.3098      25.684676     -2819.6251      28728.878      5413.8588    
    286000   408.03603     -2844.9351      26.371398     -2818.5637      29298.641      5413.8588    
    287000   406.87162     -2846.2484      26.296142     -2819.9522      27941.427      5413.8588    
    288000   392.83842     -2845.6055      25.389176     -2820.2163      28143.282      5413.8588    
    289000   420.01519     -2847.5469      27.145612     -2820.4013      27224.152      5413.8588    
    290000   389.6962      -2844.5065      25.186094     -2819.3204      29606.816      5413.8588    
    291000   404.18918     -2844.2407      26.122776     -2818.1179      30109.019      5413.8588    
    292000   400.69698     -2847.1168      25.897075     -2821.2198      27333.762      5413.8588    
    293000   375.58868     -2845.8167      24.274324     -2821.5423      28035.781      5413.8588    
    294000   408.52855     -2846.7568      26.40323      -2820.3536      27726.253      5413.8588    
    295000   400.52323     -2845.3307      25.885846     -2819.4448      29157.817      5413.8588    
    296000   400.45202     -2845.5631      25.881243     -2819.6819      28565.849      5413.8588    
    297000   403.86828     -2847.302       26.102036     -2821.2         27192.681      5413.8588    
    298000   412.89953     -2847.5777      26.685727     -2820.892       27173.54       5413.8588    
    299000   386.54635     -2845.4855      24.982518     -2820.503       28776.032      5413.8588    
    300000   405.99409     -2844.6765      26.239428     -2818.437       29707.024      5413.8588    
    301000   416.0178      -2844.9994      26.887261     -2818.1122      29707.731      5413.8588    
    302000   412.02096     -2846.6656      26.628944     -2820.0367      27997.768      5413.8588    
    303000   411.8461      -2847.5207      26.617643     -2820.903       27060.57       5413.8588    
    304000   399.00529     -2847.2943      25.787741     -2821.5065      27277.665      5413.8588    
    305000   411.44476     -2845.9958      26.591704     -2819.4041      28441.331      5413.8588    
    306000   427.09574     -2845.7985      27.603229     -2818.1953      28715.096      5413.8588    
    307000   404.58391     -2846.0102      26.148288     -2819.8619      28292.514      5413.8588    
    308000   396.60443     -2846.5032      25.632573     -2820.8706      27880.249      5413.8588    
    309000   386.39791     -2846.348       24.972925     -2821.3751      28011.058      5413.8588    
    310000   413.47508     -2846.2123      26.722924     -2819.4894      28233.261      5413.8588    
    311000   382.90654     -2845.9318      24.747277     -2821.1845      28350.219      5413.8588    
    312000   376.83052     -2846.8271      24.354584     -2822.4726      27102.074      5413.8588    
    313000   386.33576     -2843.9978      24.968908     -2819.0289      29892.707      5413.8588    
    314000   420.60579     -2846.1859      27.183783     -2819.0021      28443.511      5413.8588    
    315000   366.60352     -2847.0868      23.693612     -2823.3932      26905.813      5413.8588    
    316000   382.52068     -2846.1768      24.72234      -2821.4545      28063.107      5413.8588    
    317000   376.90445     -2845.2064      24.359362     -2820.847       28703.755      5413.8588    
    318000   404.82041     -2845.0568      26.163572     -2818.8932      29339.715      5413.8588    
    319000   420.99187     -2845.9525      27.208735     -2818.7438      28667.31       5413.8588    
    320000   390.91506     -2845.7601      25.264869     -2820.4952      28293.07       5413.8588    
    321000   406.21656     -2846.4226      26.253806     -2820.1688      28092.397      5413.8588    
    322000   410.33797     -2845.0004      26.520173     -2818.4802      29372.524      5413.8588    
    323000   438.47154     -2847.6265      28.338447     -2819.288       27680.268      5413.8588    
    324000   395.63192     -2846.4191      25.569719     -2820.8494      27974.955      5413.8588    
    325000   400.59065     -2845.4062      25.890203     -2819.516       28617.355      5413.8588    
    326000   405.55561     -2845.2171      26.211089     -2819.006       28975.317      5413.8588    
    327000   399.91381     -2845.6417      25.846459     -2819.7952      28961.236      5413.8588    
    328000   383.98942     -2846.0259      24.817264     -2821.2086      27990.626      5413.8588    
    329000   422.79026     -2845.3683      27.324965     -2818.0434      29491.399      5413.8588    
    330000   400.16614     -2845.3508      25.862766     -2819.4881      28876.262      5413.8588    
    331000   398.25758     -2847.6526      25.739416     -2821.9132      26777.894      5413.8588    
    332000   405.04464     -2847.9779      26.178064     -2821.7998      26912.557      5413.8588    
    333000   411.17823     -2845.8049      26.574479     -2819.2304      28746.569      5413.8588    
    334000   399.09527     -2845.5374      25.793556     -2819.7439      28847.342      5413.8588    
    335000   405.50866     -2847.3902      26.208054     -2821.1821      27136.685      5413.8588    
    336000   355.23495     -2845.791       22.958861     -2822.8321      27979.296      5413.8588    
    337000   405.58787     -2845.0347      26.213174     -2818.8216      29275.206      5413.8588    
    338000   412.24745     -2844.9515      26.643582     -2818.3079      29244.631      5413.8588    
    339000   401.13275     -2845.0834      25.925239     -2819.1581      28988.669      5413.8588    
    340000   395.83779     -2846.1537      25.583025     -2820.5707      28157.418      5413.8588    
    341000   394.46048     -2844.8649      25.494009     -2819.3709      29017.058      5413.8588    
    342000   410.96104     -2846.0095      26.560442     -2819.4491      28242.37       5413.8588    
    343000   395.80517     -2845.3495      25.580917     -2819.7686      28984.835      5413.8588    
    344000   393.29077     -2846.2017      25.418411     -2820.7833      28026.493      5413.8588    
    345000   397.78275     -2845.466       25.708728     -2819.7573      28654.794      5413.8588    
    346000   426.88921     -2845.929       27.589881     -2818.3391      28609.723      5413.8588    
    347000   411.75162     -2846.5406      26.611537     -2819.929       28107.246      5413.8588    
    348000   396.59706     -2846.7325      25.632097     -2821.1004      27624.771      5413.8588    
    349000   399.39306     -2845.9463      25.812802     -2820.1335      28361.697      5413.8588    
    350000   415.74105     -2846.4024      26.869374     -2819.533       28184.101      5413.8588    
    351000   428.88692     -2846.0096      27.718993     -2818.2906      28846.505      5413.8588    
    352000   382.14063     -2844.9921      24.697777     -2820.2943      29128.172      5413.8588    
    353000   401.34143     -2844.3781      25.938726     -2818.4394      29948.568      5413.8588    
    354000   420.54705     -2846.1619      27.179986     -2818.9819      28579.845      5413.8588    
    355000   380.01317     -2846.3244      24.560279     -2821.7641      27841.661      5413.8588    
    356000   384.63271     -2846.4142      24.85884      -2821.5554      28034.27       5413.8588    
    357000   400.8069      -2845.7587      25.904179     -2819.8546      28546.256      5413.8588    
    358000   391.50187     -2844.1029      25.302794     -2818.8001      29860.646      5413.8588    
    359000   427.6996      -2847.5541      27.642256     -2819.9118      27299.059      5413.8588    
    360000   376.86594     -2846.2704      24.356873     -2821.9135      27873.505      5413.8588    
    361000   388.67239     -2846.2017      25.119925     -2821.0818      28214.409      5413.8588    
    362000   404.2494      -2845.7596      26.126668     -2819.6329      28930.627      5413.8588    
    363000   392.84523     -2844.5815      25.389616     -2819.1919      29747.461      5413.8588    
    364000   395.55192     -2846.0122      25.564549     -2820.4476      28588.477      5413.8588    
    365000   375.73491     -2847.5622      24.283774     -2823.2784      26812.628      5413.8588    
    366000   388.9484      -2845.5878      25.137763     -2820.45        28767.572      5413.8588    
    367000   429.94314     -2847.1642      27.787256     -2819.3769      27533.714      5413.8588    
    368000   405.69643     -2845.3487      26.220189     -2819.1285      28786.812      5413.8588    
    369000   387.71631     -2845.9098      25.058133     -2820.8517      28156.008      5413.8588    
    370000   400.89686     -2846.3829      25.909993     -2820.4729      27947.622      5413.8588    
    371000   403.70739     -2845.1208      26.091638     -2819.0292      29261.609      5413.8588    
    372000   395.75717     -2845.2226      25.577815     -2819.6448      29396.205      5413.8588    
    373000   388.94117     -2846.5267      25.137296     -2821.3894      27998.292      5413.8588    
    374000   381.33106     -2846.2397      24.645454     -2821.5942      28128.236      5413.8588    
    375000   381.22932     -2846.3033      24.638879     -2821.6644      28129.752      5413.8588    
    376000   387.95742     -2845.3117      25.073716     -2820.238       28901.105      5413.8588    
    377000   392.34868     -2847.2721      25.357524     -2821.9146      27303.599      5413.8588    
    378000   378.7985      -2845.1915      24.481774     -2820.7098      29202.921      5413.8588    
    379000   425.60744     -2846.8549      27.50704      -2819.3479      28159.155      5413.8588    
    380000   381.88213     -2844.8635      24.68107      -2820.1824      29183.168      5413.8588    
    381000   390.36626     -2846.1814      25.2294       -2820.952       28293.156      5413.8588    
    382000   408.45402     -2845.2889      26.398413     -2818.8905      29068.57       5413.8588    
    383000   408.89846     -2844.5576      26.427137     -2818.1304      30113.194      5413.8588    
    384000   406.93605     -2845.4047      26.300306     -2819.1044      29333.495      5413.8588    
    385000   389.99684     -2846.9876      25.205524     -2821.782       27450.348      5413.8588    
    386000   394.44976     -2845.6827      25.493317     -2820.1894      28668.155      5413.8588    
    387000   396.14552     -2845.3061      25.602914     -2819.7032      28710.738      5413.8588    
    388000   407.16188     -2845.5523      26.314902     -2819.2374      28949.8        5413.8588    
    389000   381.17402     -2844.9917      24.635305     -2820.3564      28906.403      5413.8588    
    390000   377.60193     -2846.4344      24.40444      -2822.0299      27691.089      5413.8588    
    391000   386.60409     -2846.1142      24.98625      -2821.128       28041.946      5413.8588    
    392000   418.54312     -2845.4659      27.050472     -2818.4155      29158.564      5413.8588    
    393000   414.29325     -2845.0136      26.775803     -2818.2378      29514.811      5413.8588    
    394000   376.43788     -2846.2191      24.329207     -2821.8899      27548.935      5413.8588    
    395000   384.25768     -2846.1922      24.834602     -2821.3576      28230.423      5413.8588    
    396000   441.63884     -2847.014       28.543151     -2818.4709      27891.774      5413.8588    
    397000   420.07105     -2845.4153      27.149222     -2818.266       29270.132      5413.8588    
    398000   391.85497     -2846.2157      25.325615     -2820.8901      27826.313      5413.8588    
    399000   412.52768     -2848.013       26.661694     -2821.3513      27000.405      5413.8588    
    400000   392.12515     -2845.406       25.343077     -2820.0629      28803.183      5413.8588    
    401000   409.90722     -2846.2929      26.492333     -2819.8005      28405.87       5413.8588    
    402000   379.14118     -2845.3319      24.503922     -2820.828       28724.725      5413.8588    
    403000   378.20161     -2846.9425      24.443197     -2822.4993      27188.203      5413.8588    
    404000   395.75701     -2848.2067      25.577804     -2822.6289      26431.533      5413.8588    
    405000   375.11947     -2843.6625      24.243999     -2819.4185      30233.863      5413.8588    
    406000   413.20089     -2845.5177      26.705203     -2818.8125      29049.768      5413.8588    
    407000   399.69535     -2846.1451      25.83234      -2820.3128      28453.71       5413.8588    
    408000   394.17519     -2846.3436      25.475571     -2820.868       27919.596      5413.8588    
    409000   416.7961      -2847.7899      26.937562     -2820.8524      27157.952      5413.8588    
    410000   391.145       -2846.1557      25.27973      -2820.876       28000.787      5413.8588    
    411000   413.83159     -2846.2921      26.745966     -2819.5461      28224.79       5413.8588    
    412000   404.54187     -2846.8595      26.14557      -2820.7139      27602.639      5413.8588    
    413000   401.45311     -2847.6494      25.945943     -2821.7035      26798.618      5413.8588    
    414000   395.87102     -2845.5625      25.585172     -2819.9773      28674.393      5413.8588    
    415000   402.04885     -2846.5354      25.984446     -2820.551       27972.601      5413.8588    
    416000   383.4479      -2846.3918      24.782265     -2821.6096      28056.53       5413.8588    
    417000   379.44013     -2847.4761      24.523243     -2822.9529      26960.279      5413.8588    
    418000   389.07003     -2845.9108      25.145624     -2820.7652      28473.158      5413.8588    
    419000   396.14023     -2845.1827      25.602572     -2819.5801      29178.098      5413.8588    
    420000   415.83839     -2848.2748      26.875665     -2821.3991      26698.142      5413.8588    
    421000   399.23022     -2847.1684      25.802278     -2821.3662      27294.487      5413.8588    
    422000   401.99933     -2846.9683      25.981246     -2820.9871      27393.892      5413.8588    
    423000   404.58582     -2844.8399      26.148411     -2818.6915      29314.694      5413.8588    
    424000   408.27563     -2845.3826      26.386884     -2818.9958      29250.029      5413.8588    
    425000   372.0988      -2844.6594      24.048773     -2820.6107      29346.196      5413.8588    
    426000   380.53562     -2845.1458      24.594045     -2820.5518      29202.293      5413.8588    
    427000   401.50912     -2847.0232      25.949564     -2821.0736      27887.648      5413.8588    
    428000   411.57448     -2844.5696      26.600088     -2817.9695      30067.067      5413.8588    
    429000   410.02084     -2845.2822      26.499677     -2818.7825      29273.476      5413.8588    
    430000   420.552       -2846.5444      27.180307     -2819.3641      28350.902      5413.8588    
    431000   383.24263     -2846.6686      24.768999     -2821.8996      27616.622      5413.8588    
    432000   397.9946      -2846.0765      25.72242      -2820.3541      28198.741      5413.8588    
    433000   408.65272     -2846.0638      26.411255     -2819.6525      28463.53       5413.8588    
    434000   405.08064     -2846.9284      26.180391     -2820.748       27559.605      5413.8588    
    435000   393.18202     -2846.719       25.411382     -2821.3076      27594.868      5413.8588    
    436000   402.00916     -2845.4691      25.981881     -2819.4872      28819.939      5413.8588    
    437000   400.17184     -2844.7756      25.863135     -2818.9124      29797.561      5413.8588    
    438000   419.05954     -2845.1545      27.083849     -2818.0707      29319.586      5413.8588    
    439000   381.35897     -2844.7738      24.647258     -2820.1265      29479.142      5413.8588    
    440000   411.16        -2846.838       26.573301     -2820.2647      27934.825      5413.8588    
    441000   395.70539     -2844.2307      25.574468     -2818.6563      30045.245      5413.8588    
    442000   404.32507     -2844.3577      26.131558     -2818.2262      29939.129      5413.8588    
    443000   414.7375      -2845.5999      26.804515     -2818.7954      29012.451      5413.8588    
    444000   412.15956     -2846.5832      26.637902     -2819.9453      28369.719      5413.8588    
    445000   376.62816     -2846.6656      24.341505     -2822.3241      27507.251      5413.8588    
    446000   411.83979     -2846.2229      26.617236     -2819.6056      28415.719      5413.8588    
    447000   410.64789     -2845.1129      26.540203     -2818.5727      29373.81       5413.8588    
    448000   427.69117     -2847.6173      27.641711     -2819.9756      27174.49       5413.8588    
    449000   388.59798     -2846.2628      25.115116     -2821.1477      27891.574      5413.8588    
    450000   404.60119     -2845.8047      26.149404     -2819.6553      28602.117      5413.8588    
    451000   399.00984     -2846.7671      25.788035     -2820.9791      27487.27       5413.8588    
    452000   383.16818     -2846.9097      24.764187     -2822.1455      27103.432      5413.8588    
    453000   395.12386     -2846.6965      25.536884     -2821.1596      27574.736      5413.8588    
    454000   400.74015     -2846.0432      25.899865     -2820.1434      27866.561      5413.8588    
    455000   410.94371     -2846.5477      26.559322     -2819.9884      27908.68       5413.8588    
    456000   393.82519     -2847.5056      25.45295      -2822.0527      26917.776      5413.8588    
    457000   396.69829     -2846.8032      25.638639     -2821.1646      27626.962      5413.8588    
    458000   388.83703     -2845.1758      25.130565     -2820.0452      28898.693      5413.8588    
    459000   383.39379     -2846.6279      24.778769     -2821.8492      27786.865      5413.8588    
    460000   408.972       -2845.1769      26.43189      -2818.745       29277.964      5413.8588    
    461000   400.42044     -2844.1723      25.879202     -2818.2931      29590.584      5413.8588    
    462000   404.06463     -2844.4866      26.114727     -2818.3718      30064.061      5413.8588    
    463000   404.48108     -2846.5126      26.141641     -2820.371       28460.931      5413.8588    
    464000   398.50425     -2846.3979      25.755359     -2820.6425      28017.783      5413.8588    
    465000   385.11305     -2845.1506      24.889884     -2820.2608      29067.582      5413.8588    
    466000   418.50894     -2844.6222      27.048263     -2817.574       29989.18       5413.8588    
    467000   419.77489     -2845.7698      27.130082     -2818.6397      28951.991      5413.8588    
    468000   403.37028     -2845.1597      26.06985      -2819.0899      29201.932      5413.8588    
    469000   359.94028     -2846.9481      23.262966     -2823.6852      27473.563      5413.8588    
    470000   401.33786     -2846.7284      25.938495     -2820.7899      27710.233      5413.8588    
    471000   399.9254      -2845.6232      25.847208     -2819.776       28980.094      5413.8588    
    472000   416.50514     -2845.1689      26.918757     -2818.2502      29305.173      5413.8588    
    473000   390.57463     -2844.8755      25.242867     -2819.6327      29470.57       5413.8588    
    474000   389.61471     -2846.7846      25.180827     -2821.6038      27733.231      5413.8588    
    475000   395.97429     -2846.0882      25.591847     -2820.4963      28215.165      5413.8588    
    476000   415.82796     -2846.99        26.874991     -2820.115       27934.142      5413.8588    
    477000   389.55603     -2844.4665      25.177034     -2819.2894      29532.769      5413.8588    
    478000   394.43623     -2846.0856      25.492442     -2820.5931      28496.843      5413.8588    
    479000   395.90059     -2847.183       25.587084     -2821.5959      27374.477      5413.8588    
    480000   391.37234     -2847.575       25.294423     -2822.2806      27011.523      5413.8588    
    481000   372.78211     -2845.5183      24.092935     -2821.4254      28411.43       5413.8588    
    482000   407.45186     -2846.0306      26.333644     -2819.6969      28609.496      5413.8588    
    483000   421.18156     -2846.8335      27.220995     -2819.6125      28050.049      5413.8588    
    484000   388.67239     -2846.1751      25.119925     -2821.0552      28255.077      5413.8588    
    485000   390.76793     -2846.8176      25.255359     -2821.5623      27530.301      5413.8588    
    486000   390.67896     -2845.8745      25.249609     -2820.6249      28382.735      5413.8588    
    487000   392.38071     -2844.1626      25.359593     -2818.803       30087.579      5413.8588    
    488000   396.73795     -2845.4302      25.641202     -2819.789       29042.384      5413.8588    
    489000   380.68722     -2845.9522      24.603843     -2821.3483      28445.448      5413.8588    
    490000   378.57113     -2846.3385      24.46708      -2821.8715      28431.874      5413.8588    
    491000   403.95956     -2845.99        26.107936     -2819.882       28867.865      5413.8588    
    492000   409.58755     -2845.3094      26.471673     -2818.8377      29205.544      5413.8588    
    493000   400.03201     -2846.0079      25.854098     -2820.1538      28431.319      5413.8588    
    494000   402.59303     -2845.7103      26.019617     -2819.6907      28431.983      5413.8588    
    495000   418.05564     -2845.3145      27.018966     -2818.2955      29070.13       5413.8588    
    496000   398.92218     -2847.5255      25.78237      -2821.7432      27050.978      5413.8588    
    497000   387.10255     -2846.3876      25.018466     -2821.3691      28115.395      5413.8588    
    498000   423.25766     -2846.7672      27.355173     -2819.412       28047.048      5413.8588    
    499000   401.08809     -2845.1066      25.922352     -2819.1843      28999.435      5413.8588    
    500000   403.4326      -2846.1312      26.073878     -2820.0573      28269.531      5413.8588    
Loop time of 15862.7 on 1 procs for 500000 steps with 501 atoms

Performance: 1.362 ns/day, 17.625 hours/ns, 31.521 timesteps/s, 15.792 katom-step/s
99.1% CPU use with 1 MPI tasks x 1 OpenMP threads

MPI task timing breakdown:
Section |  min time  |  avg time  |  max time  |%varavg| %total
---------------------------------------------------------------
Pair    | 15797      | 15797      | 15797      |   0.0 | 99.59
Neigh   | 0          | 0          | 0          |   0.0 |  0.00
Comm    | 20.368     | 20.368     | 20.368     |   0.0 |  0.13
Output  | 0.067831   | 0.067831   | 0.067831   |   0.0 |  0.00
Modify  | 25.27      | 25.27      | 25.27      |   0.0 |  0.16
Other   |            | 19.61      |            |       |  0.12

Nlocal:            501 ave         501 max         501 min
Histogram: 1 0 0 0 0 0 0 0 0 0
Nghost:           2416 ave        2416 max        2416 min
Histogram: 1 0 0 0 0 0 0 0 0 0
Neighs:              0 ave           0 max           0 min
Histogram: 1 0 0 0 0 0 0 0 0 0
FullNghs:        67238 ave       67238 max       67238 min
Histogram: 1 0 0 0 0 0 0 0 0 0

Total # of neighbors = 67238
Ave neighs/atom = 134.20758
Neighbor list builds = 0
Dangerous builds = 0
unfix          nvt_equil

# ── Phase 2: Production ──────────────────────────────────────
# Dump trajectory for NB11 MSD calculation
# Dump every 1000 steps = 500 fs
dump           prod_dump  all  custom  1000  results/notebook10-bulk-equilibration/Pure_Nickel/Pure_Nickel_H_400K_prod.lammpstrj                id type x y z
dump_modify    prod_dump  sort id

fix            nvt_prod  all  nvt  temp  400.0  400.0  0.1

# Compute MSD for H atom
compute        msd_H  H_atom  msd
fix            msd_out  all  ave/time  1  1  1000                c_msd_H[4]  file  results/notebook10-bulk-equilibration/Pure_Nickel/Pure_Nickel_msd_H_400K.txt  mode scalar

print "### Phase 2: Production 750 ps at 400 K ###"
### Phase 2: Production 750 ps at 400 K ###
run            1500000
WARNING: Fix STORE/ATOM not compatible with sending data in Kokkos communication (src/KOKKOS/comm_kokkos.cpp:842)
WARNING: Fix with atom-based arrays not compatible with sending data in Kokkos communication, switching to legacy exchange/border communication (src/KOKKOS/comm_kokkos.cpp:849)
WARNING: Fix STORE/ATOM not (yet) compatible with Kokkos sorting on device (src/KOKKOS/atom_kokkos.cpp:219)
WARNING: Fix with atom-based arrays not (yet) compatible with Kokkos sorting on device, switching to legacy host sorting (src/KOKKOS/atom_kokkos.cpp:225)
Per MPI rank memory allocation (min/avg/max) = 97.46 | 97.46 | 97.46 Mbytes
   Step          Temp          PotEng         KinEng         TotEng         Press          Volume    
    500000   403.4326      -2846.1312      26.073878     -2820.0573      28269.531      5413.8588    
    501000   392.77644     -2846.1561      25.38517      -2820.7709      27870.451      5413.8588    
    502000   400.36555     -2847.2675      25.875654     -2821.3919      27432.538      5413.8588    
    503000   389.11202     -2847.2289      25.148338     -2822.0806      27038.862      5413.8588    
    504000   383.46353     -2845.6357      24.783275     -2820.8525      28413.729      5413.8588    
    505000   430.25883     -2846.452       27.807659     -2818.6443      28725.407      5413.8588    
    506000   413.98513     -2845.5699      26.755889     -2818.814       29208.511      5413.8588    
    507000   386.059       -2845.7926      24.951021     -2820.8416      28562.77       5413.8588    
    508000   380.62755     -2846.6455      24.599986     -2822.0455      27655.476      5413.8588    
    509000   391.94439     -2845.7738      25.331395     -2820.4424      28677.793      5413.8588    
    510000   410.36518     -2845.5582      26.521931     -2819.0363      29044.407      5413.8588    
    511000   412.61986     -2846.2736      26.667651     -2819.606       28318.755      5413.8588    
    512000   389.58891     -2846.7324      25.179159     -2821.5532      27729.147      5413.8588    
    513000   392.84163     -2846.6644      25.389383     -2821.275       27668.065      5413.8588    
    514000   409.05202     -2847.0587      26.437061     -2820.6216      27519.186      5413.8588    
    515000   393.7711      -2844.9867      25.449455     -2819.5373      29263.674      5413.8588    
    516000   407.34494     -2845.0626      26.326733     -2818.7359      29091.841      5413.8588    
    517000   402.88306     -2846.0444      26.038361     -2820.0061      28558.31       5413.8588    
    518000   404.11363     -2846.9878      26.117893     -2820.8699      27501.205      5413.8588    
    519000   408.28678     -2844.9776      26.387604     -2818.59        29428.257      5413.8588    
    520000   398.27905     -2845.2261      25.740804     -2819.4853      28877.07       5413.8588    
    521000   398.54691     -2846.2397      25.758116     -2820.4815      28143.065      5413.8588    
    522000   395.41573     -2846.0005      25.555747     -2820.4447      28341.054      5413.8588    
    523000   401.31887     -2846.0516      25.937268     -2820.1143      28291.815      5413.8588    
    524000   374.98242     -2845.5759      24.235141     -2821.3408      28619.27       5413.8588    
    525000   418.87252     -2846.6866      27.071761     -2819.6149      28150.981      5413.8588    
    526000   402.66321     -2845.0554      26.024152     -2819.0312      29292.144      5413.8588    
    527000   393.44064     -2846.1808      25.428097     -2820.7527      28088.118      5413.8588    
    528000   396.89656     -2847.5132      25.651454     -2821.8618      27204.676      5413.8588    
    529000   386.95197     -2847.1139      25.008734     -2822.1051      27379.262      5413.8588    
    530000   397.28068     -2846.8801      25.676279     -2821.2038      27552.009      5413.8588    
    531000   403.71653     -2846.4475      26.092228     -2820.3553      28270.452      5413.8588    
    532000   387.36192     -2845.0621      25.035229     -2820.0269      29403.612      5413.8588    
    533000   388.91438     -2846.536       25.135564     -2821.4005      27912.165      5413.8588    
    534000   388.02724     -2847.4256      25.078229     -2822.3474      26779.152      5413.8588    
    535000   410.47091     -2847.2117      26.528764     -2820.6829      27385.007      5413.8588    
    536000   383.66237     -2844.4981      24.796127     -2819.702       30104.993      5413.8588    
    537000   390.91668     -2846.3792      25.264973     -2821.1142      27663.076      5413.8588    
    538000   380.75644     -2845.7847      24.608316     -2821.1764      28463.155      5413.8588    
    539000   403.99724     -2845.6551      26.110371     -2819.5447      28623.359      5413.8588    
    540000   420.06062     -2845.7944      27.148548     -2818.6458      28653.295      5413.8588    
    541000   406.46639     -2846.9642      26.269952     -2820.6942      27890.254      5413.8588    
    542000   399.30668     -2844.2147      25.80722      -2818.4075      29959.362      5413.8588    
    543000   415.25074     -2844.9563      26.837685     -2818.1186      29615.51       5413.8588    
    544000   399.34758     -2846.8671      25.809863     -2821.0573      27897.55       5413.8588    
    545000   399.14945     -2846.7452      25.797058     -2820.9481      27839.943      5413.8588    
    546000   382.90811     -2844.4399      24.747379     -2819.6925      29443.498      5413.8588    
    547000   418.48631     -2846.4026      27.046801     -2819.3558      28341.866      5413.8588    
    548000   402.10369     -2846.1637      25.987991     -2820.1757      28213.968      5413.8588    
    549000   397.713       -2847.6598      25.70422      -2821.9556      26826.681      5413.8588    
    550000   386.33123     -2847.1329      24.968615     -2822.1643      27260.078      5413.8588    
    551000   407.59792     -2846.0343      26.343083     -2819.6912      28867.219      5413.8588    
    552000   403.07367     -2845.9771      26.05068      -2819.9265      28506.627      5413.8588    
    553000   389.73867     -2846.4735      25.188839     -2821.2847      27808.276      5413.8588    
    554000   367.43516     -2846.6192      23.747361     -2822.8719      27551.878      5413.8588    
    555000   426.15593     -2846.5746      27.542489     -2819.0321      28261.541      5413.8588    
    556000   400.81319     -2845.5259      25.904586     -2819.6213      29023.14       5413.8588    
    557000   357.82275     -2846.0193      23.12611      -2822.8932      27956.433      5413.8588    
    558000   403.43954     -2847.7235      26.074327     -2821.6492      27328.811      5413.8588    
    559000   389.09084     -2845.8833      25.146969     -2820.7364      28504.547      5413.8588    
    560000   393.47351     -2844.3853      25.430222     -2818.955       29500          5413.8588    
    561000   388.6707      -2845.3109      25.119816     -2820.1911      28786.597      5413.8588    
    562000   401.26387     -2846.5277      25.933713     -2820.594       27952.593      5413.8588    
    563000   403.31045     -2844.5947      26.065984     -2818.5287      29768.554      5413.8588    
    564000   406.1034      -2844.3281      26.246492     -2818.0816      29961.62       5413.8588    
    565000   419.43454     -2846.981       27.108085     -2819.873       27867.892      5413.8588    
    566000   397.48087     -2846.5522      25.689218     -2820.8629      28055.474      5413.8588    
    567000   415.56326     -2846.3671      26.857884     -2819.5092      28244.625      5413.8588    
    568000   418.88847     -2845.0519      27.072792     -2817.9791      29660.773      5413.8588    
    569000   388.03549     -2844.6352      25.078762     -2819.5564      29357.277      5413.8588    
    570000   385.89273     -2846.0639      24.940275     -2821.1236      28059.593      5413.8588    
    571000   419.32058     -2848.3539      27.10072      -2821.2531      26374.672      5413.8588    
    572000   402.73447     -2845.146       26.028758     -2819.1173      29108.265      5413.8588    
    573000   416.26127     -2846.6902      26.902996     -2819.7872      28168.582      5413.8588    
    574000   413.74829     -2847.0548      26.740582     -2820.3142      27361.471      5413.8588    
    575000   380.1893      -2845.9018      24.571662     -2821.3301      28258.149      5413.8588    
    576000   372.21003     -2847.0951      24.055961     -2823.0391      27200.526      5413.8588    
    577000   396.10466     -2846.6189      25.600273     -2821.0187      27665.851      5413.8588    
    578000   394.83856     -2845.3501      25.518445     -2819.8317      28873.914      5413.8588    
    579000   410.20625     -2845.3616      26.51166      -2818.85        29012.714      5413.8588    
    580000   382.53987     -2845.4084      24.723579     -2820.6848      28678.887      5413.8588    
    581000   405.64637     -2847.8022      26.216954     -2821.5853      26742.605      5413.8588    
    582000   394.30987     -2845.2755      25.484275     -2819.7912      28988.84       5413.8588    
    583000   435.25571     -2845.0352      28.130608     -2816.9046      29544.143      5413.8588    
    584000   408.49224     -2846.0533      26.400883     -2819.6524      28587.833      5413.8588    
    585000   397.30568     -2846.3357      25.677895     -2820.6578      28092.012      5413.8588    
    586000   406.57893     -2847.2242      26.277226     -2820.947       27557.272      5413.8588    
    587000   391.07273     -2844.8957      25.275059     -2819.6206      29202.61       5413.8588    
    588000   398.5929      -2845.5474      25.761088     -2819.7863      29020.884      5413.8588    
    589000   378.57531     -2845.9825      24.46735      -2821.5152      28143.305      5413.8588    
    590000   382.20539     -2846.1846      24.701962     -2821.4826      28150.525      5413.8588    
    591000   403.64772     -2846.9119      26.087781     -2820.8242      27554.812      5413.8588    
    592000   432.55772     -2844.3425      27.956237     -2816.3863      30183.063      5413.8588    
    593000   409.76518     -2846.2105      26.483153     -2819.7274      28349.56       5413.8588    
    594000   382.25003     -2845.6621      24.704847     -2820.9573      28589.805      5413.8588    
    595000   404.15406     -2847.0788      26.120506     -2820.9583      27658.862      5413.8588    
    596000   393.4658      -2845.5988      25.429723     -2820.1691      28646.806      5413.8588    
    597000   410.9005      -2845.6122      26.556529     -2819.0557      28798.383      5413.8588    
    598000   406.62816     -2845.4308      26.280408     -2819.1504      29423.917      5413.8588    
    599000   363.05837     -2845.2755      23.464489     -2821.811       28379.98       5413.8588    
    600000   380.35278     -2846.2602      24.582228     -2821.6779      27959.749      5413.8588    
    601000   400.2504      -2845.8613      25.868212     -2819.9931      28395.644      5413.8588    
    602000   399.10967     -2846.2979      25.794487     -2820.5034      28113.061      5413.8588    
    603000   374.13362     -2846.3027      24.180283     -2822.1224      27548.204      5413.8588    
    604000   392.95781     -2846.3796      25.396892     -2820.9827      27736.951      5413.8588    
    605000   415.66281     -2846.9563      26.864317     -2820.0919      27713.75       5413.8588    
    606000   440.30259     -2845.2215      28.456789     -2816.7647      29539.72       5413.8588    
    607000   384.17545     -2845.7215      24.829287     -2820.8922      28503.771      5413.8588    
    608000   375.28662     -2846.1668      24.254802     -2821.912       27869.397      5413.8588    
    609000   388.97628     -2846.9075      25.139565     -2821.768       27487.536      5413.8588    
    610000   412.20474     -2846.404       26.640822     -2819.7632      28487.38       5413.8588    
    611000   399.1384      -2845.8182      25.796344     -2820.0219      28790.355      5413.8588    
    612000   380.67831     -2846.5905      24.603267     -2821.9872      27567.807      5413.8588    
    613000   400.79011     -2847.1435      25.903094     -2821.2404      27567.815      5413.8588    
    614000   381.74865     -2845.7394      24.672443     -2821.067       28199.248      5413.8588    
    615000   383.67465     -2845.0329      24.796921     -2820.236       28982.736      5413.8588    
    616000   404.75253     -2845.5851      26.159185     -2819.426       29050.314      5413.8588    
    617000   424.5242      -2846.241       27.43703      -2818.804       28386.715      5413.8588    
    618000   396.3942      -2843.345       25.618986     -2817.726       30600.007      5413.8588    
    619000   425.92754     -2847.1654      27.527728     -2819.6376      27548.328      5413.8588    
    620000   395.60699     -2845.9369      25.568109     -2820.3688      28225.594      5413.8588    
    621000   412.5088      -2845.1704      26.660473     -2818.5099      29355.257      5413.8588    
    622000   399.92847     -2845.4836      25.847406     -2819.6362      28942.118      5413.8588    
    623000   388.00052     -2846.2669      25.076501     -2821.1904      28101.986      5413.8588    
    624000   424.80771     -2847.8256      27.455353     -2820.3702      27136.796      5413.8588    
    625000   402.34908     -2844.8021      26.00385      -2818.7982      29742.208      5413.8588    
    626000   407.62853     -2845.3595      26.345062     -2819.0145      29105.471      5413.8588    
    627000   407.38839     -2848.0797      26.329541     -2821.7501      26740.816      5413.8588    
    628000   396.99381     -2847.7232      25.657739     -2822.0655      27082.326      5413.8588    
    629000   397.82697     -2844.97        25.711586     -2819.2584      29326.474      5413.8588    
    630000   401.81184     -2845.2154      25.969128     -2819.2463      28994.697      5413.8588    
    631000   365.10203     -2846.3191      23.596571     -2822.7225      27733.746      5413.8588    
    632000   378.16014     -2845.7373      24.440518     -2821.2967      28750.829      5413.8588    
    633000   402.17005     -2845.9224      25.992279     -2819.9301      28698.682      5413.8588    
    634000   425.90549     -2845.7539      27.526302     -2818.2276      29068.888      5413.8588    
    635000   433.65909     -2845.3992      28.027418     -2817.3718      29623.074      5413.8588    
    636000   380.36721     -2845.2725      24.58316      -2820.6893      29183.148      5413.8588    
    637000   389.06315     -2846.5056      25.145179     -2821.3604      27874.667      5413.8588    
    638000   376.56395     -2846.4185      24.337355     -2822.0812      27860.426      5413.8588    
    639000   407.70796     -2846.723       26.350195     -2820.3728      27974.782      5413.8588    
    640000   408.25901     -2846.1371      26.385809     -2819.7512      28119.544      5413.8588    
    641000   404.22452     -2847.4163      26.12506      -2821.2912      27377.16       5413.8588    
    642000   398.92244     -2846.1944      25.782386     -2820.412       28255.607      5413.8588    
    643000   401.89482     -2846.2832      25.974491     -2820.3087      27904.857      5413.8588    
    644000   403.83117     -2843.5227      26.099638     -2817.4231      30604.495      5413.8588    
    645000   406.24344     -2845.2645      26.255543     -2819.009       29203.701      5413.8588    
    646000   388.84964     -2845.4872      25.13138      -2820.3558      28418.032      5413.8588    
    647000   399.15613     -2846.8276      25.797489     -2821.0301      27703.174      5413.8588    
    648000   410.14041     -2845.3654      26.507404     -2818.858       28967.578      5413.8588    
    649000   388.04019     -2847.3495      25.079066     -2822.2704      26934.62       5413.8588    
    650000   393.31472     -2847.9739      25.419959     -2822.5539      26400.546      5413.8588    
    651000   392.1029      -2845.1886      25.341639     -2819.847       28843.261      5413.8588    
    652000   408.43314     -2846.3119      26.397063     -2819.9148      27894.237      5413.8588    
    653000   413.70439     -2846.8333      26.737745     -2820.0956      27520.368      5413.8588    
    654000   367.65529     -2845.1403      23.761588     -2821.3788      28459.731      5413.8588    
    655000   388.5664      -2846.3917      25.113075     -2821.2786      27642.587      5413.8588    
    656000   416.78355     -2845.9063      26.936751     -2818.9695      28492.939      5413.8588    
    657000   394.48731     -2845.4358      25.495744     -2819.9401      28666.102      5413.8588    
    658000   384.23025     -2847.7222      24.832829     -2822.8894      26798.01       5413.8588    
    659000   396.06807     -2846.9943      25.597908     -2821.3964      27550.714      5413.8588    
    660000   403.41107     -2845.6999      26.072487     -2819.6275      28908.601      5413.8588    
    661000   385.34053     -2844.8908      24.904587     -2819.9862      29196.687      5413.8588    
    662000   393.57202     -2847.2161      25.436588     -2821.7795      27446.928      5413.8588    
    663000   388.98381     -2846.0118      25.140052     -2820.8718      28083.321      5413.8588    
    664000   408.86344     -2846.6004      26.424874     -2820.1756      28176.466      5413.8588    
    665000   423.30284     -2846.2163      27.358093     -2818.8582      28567.715      5413.8588    
    666000   383.91486     -2844.7736      24.812445     -2819.9612      29453.962      5413.8588    
    667000   374.22988     -2846.2897      24.186504     -2822.1032      27806.226      5413.8588    
    668000   389.83826     -2846.7921      25.195275     -2821.5968      27942.343      5413.8588    
    669000   421.44351     -2846.6577      27.237924     -2819.4198      28252.251      5413.8588    
    670000   401.79302     -2847.3056      25.967912     -2821.3377      27167.921      5413.8588    
    671000   396.83751     -2847.1644      25.647637     -2821.5168      27205.979      5413.8588    
    672000   395.12825     -2846.7681      25.537167     -2821.2309      27730.357      5413.8588    
    673000   422.85159     -2847.1054      27.328929     -2819.7764      27630.713      5413.8588    
    674000   399.08054     -2845.2711      25.792604     -2819.4785      28633.59       5413.8588    
    675000   380.69646     -2847.0518      24.60444      -2822.4474      27168.609      5413.8588    
    676000   387.1582      -2847.0359      25.022063     -2822.0138      27214.148      5413.8588    
    677000   408.13779     -2847.4923      26.377975     -2821.1143      27422.957      5413.8588    
    678000   392.63504     -2845.5058      25.376031     -2820.1298      28620.887      5413.8588    
    679000   424.21407     -2844.7289      27.416986     -2817.3119      29766.393      5413.8588    
    680000   404.03819     -2846.6074      26.113017     -2820.4944      27746.081      5413.8588    
    681000   391.98674     -2846.5804      25.334132     -2821.2463      27661.918      5413.8588    
    682000   361.06451     -2846.5342      23.335626     -2823.1985      27348.407      5413.8588    
    683000   404.41282     -2846.4605      26.13723      -2820.3232      27899.885      5413.8588    
    684000   387.55267     -2844.5148      25.047557     -2819.4673      29353.895      5413.8588    
    685000   395.08251     -2844.3787      25.534211     -2818.8445      30007.167      5413.8588    
    686000   407.49512     -2847.2147      26.336439     -2820.8782      27267.206      5413.8588    
    687000   385.00164     -2845.174       24.882684     -2820.2914      29041.616      5413.8588    
    688000   412.40701     -2845.2381      26.653895     -2818.5842      28877.538      5413.8588    
    689000   409.97982     -2846.2863      26.497026     -2819.7892      28319.472      5413.8588    
    690000   395.72886     -2846.509       25.575985     -2820.9331      27868.389      5413.8588    
    691000   411.92295     -2846.2478      26.62261      -2819.6252      28124.277      5413.8588    
    692000   407.38464     -2844.6269      26.329299     -2818.2976      29295.791      5413.8588    
    693000   416.63048     -2846.6412      26.926858     -2819.7144      27877.823      5413.8588    
    694000   404.01599     -2846.5938      26.111583     -2820.4822      27942.379      5413.8588    
    695000   411.153       -2845.6425      26.572848     -2819.0697      28696.871      5413.8588    
    696000   409.97539     -2845.637       26.496739     -2819.1403      28905.804      5413.8588    
    697000   422.747       -2846.7331      27.322169     -2819.4109      28246.698      5413.8588    
    698000   390.17034     -2845.5663      25.216737     -2820.3496      28726.585      5413.8588    
    699000   383.94729     -2845.6149      24.814541     -2820.8004      28421.15       5413.8588    
    700000   421.73869     -2846.8033      27.257002     -2819.5463      28182.331      5413.8588    
    701000   419.19685     -2845.5722      27.092723     -2818.4795      29027.691      5413.8588    
    702000   411.6094      -2844.5847      26.602345     -2817.9824      29573.213      5413.8588    
    703000   412.05071     -2847.4346      26.630867     -2820.8037      27109.827      5413.8588    
    704000   414.45127     -2845.5217      26.786016     -2818.7357      28995.001      5413.8588    
    705000   410.49046     -2845.9305      26.530028     -2819.4005      28667.068      5413.8588    
    706000   392.86921     -2846.3768      25.391166     -2820.9856      27852.807      5413.8588    
    707000   394.56259     -2847.3631      25.500609     -2821.8625      27115.322      5413.8588    
    708000   408.45598     -2846.699       26.398539     -2820.3005      28158.951      5413.8588    
    709000   413.79653     -2846.1394      26.7437       -2819.3957      28584.989      5413.8588    
    710000   391.1775      -2845.4954      25.28183      -2820.2136      28892.904      5413.8588    
    711000   398.19741     -2846.8655      25.735528     -2821.13        27804.81       5413.8588    
    712000   379.52103     -2845.4638      24.528472     -2820.9353      28652.974      5413.8588    
    713000   407.17532     -2846.3543      26.31577      -2820.0385      28138.142      5413.8588    
    714000   411.03565     -2845.9825      26.565264     -2819.4172      28424.914      5413.8588    
    715000   385.65925     -2847.9909      24.925185     -2823.0657      26780.817      5413.8588    
    716000   400.25332     -2845.7767      25.868401     -2819.9083      28567.968      5413.8588    
    717000   408.70812     -2846.2316      26.414835     -2819.8168      28066.102      5413.8588    
    718000   390.50082     -2845.349       25.238096     -2820.1109      28880.89       5413.8588    
    719000   399.95369     -2848.5127      25.849036     -2822.6637      26401.706      5413.8588    
    720000   392.58775     -2847.1292      25.372975     -2821.7562      27177.625      5413.8588    
    721000   390.36452     -2846.1724      25.229287     -2820.9431      28358.219      5413.8588    
    722000   416.93968     -2846.3409      26.946842     -2819.394       28262.964      5413.8588    
    723000   398.19908     -2844.3769      25.735635     -2818.6413      29944.623      5413.8588    
    724000   412.87037     -2846.6999      26.683842     -2820.016       28117.973      5413.8588    
    725000   393.38412     -2846.3499      25.424444     -2820.9254      28149.397      5413.8588    
    726000   416.41        -2845.8916      26.912608     -2818.979       28851.22       5413.8588    
    727000   388.95838     -2844.5904      25.138409     -2819.452       29744.678      5413.8588    
    728000   418.96971     -2847.5051      27.078042     -2820.4271      27660.924      5413.8588    
    729000   386.10292     -2848.7827      24.95386      -2823.8288      25834.799      5413.8588    
    730000   391.60626     -2845.5212      25.309541     -2820.2117      28677.674      5413.8588    
    731000   424.9889      -2846.7821      27.467063     -2819.315       28187.862      5413.8588    
    732000   397.15138     -2844.652       25.667923     -2818.9841      29563.319      5413.8588    
    733000   429.22648     -2846.2852      27.740939     -2818.5443      28749.516      5413.8588    
    734000   391.59867     -2845.8946      25.309051     -2820.5855      28308.683      5413.8588    
    735000   394.96048     -2847.0212      25.526325     -2821.4949      27491.581      5413.8588    
    736000   400.60509     -2846.1354      25.891136     -2820.2443      28536.085      5413.8588    
    737000   418.98773     -2846.5119      27.079208     -2819.4326      28279.556      5413.8588    
    738000   406.48916     -2844.2914      26.271424     -2818.02        30023.205      5413.8588    
    739000   394.77788     -2845.9008      25.514523     -2820.3863      28366.995      5413.8588    
    740000   391.36526     -2847.4061      25.293965     -2822.1122      27119.126      5413.8588    
    741000   417.39065     -2847.7204      26.975988     -2820.7444      27406.495      5413.8588    
    742000   399.38703     -2845.5936      25.812413     -2819.7812      28470.45       5413.8588    
    743000   409.16353     -2846.5068      26.444269     -2820.0625      28088.674      5413.8588    
    744000   384.38829     -2845.6242      24.843043     -2820.7812      28454.964      5413.8588    
    745000   404.02574     -2845.5881      26.112213     -2819.4759      28724.201      5413.8588    
    746000   416.45716     -2846.4262      26.915657     -2819.5105      28051.481      5413.8588    
    747000   396.36029     -2846.7894      25.616794     -2821.1726      27372.18       5413.8588    
    748000   413.89622     -2847.737       26.750143     -2820.9868      27124.156      5413.8588    
    749000   405.35384     -2846.7538      26.198048     -2820.5557      27685.687      5413.8588    
    750000   398.48855     -2845.15        25.754344     -2819.3957      29235.62       5413.8588    
    751000   389.87985     -2844.9771      25.197963     -2819.7791      29327.262      5413.8588    
    752000   392.84119     -2846.7658      25.389355     -2821.3764      27567.605      5413.8588    
    753000   394.47279     -2846.7051      25.494805     -2821.2103      27564.127      5413.8588    
    754000   410.44594     -2846.3217      26.527151     -2819.7946      28422.81       5413.8588    
    755000   416.95504     -2844.853       26.947835     -2817.9052      29673.223      5413.8588    
    756000   418.22837     -2845.1058      27.03013      -2818.0757      29281.382      5413.8588    
    757000   382.36963     -2846.1841      24.712577     -2821.4715      27983.75       5413.8588    
    758000   400.36644     -2846.2207      25.875712     -2820.345       28364.771      5413.8588    
    759000   413.95409     -2846.1554      26.753883     -2819.4015      28765.036      5413.8588    
    760000   369.70168     -2844.5478      23.893846     -2820.654       29498.79       5413.8588    
    761000   408.33395     -2847.1913      26.390653     -2820.8006      27604.246      5413.8588    
    762000   409.15316     -2844.7543      26.443598     -2818.3107      29683.076      5413.8588    
    763000   402.83143     -2844.4083      26.035025     -2818.3732      30318.256      5413.8588    
    764000   396.65844     -2845.4095      25.636064     -2819.7735      28950.228      5413.8588    
    765000   399.05018     -2846.8469      25.790642     -2821.0563      27418.401      5413.8588    
    766000   399.25704     -2847.5194      25.804011     -2821.7154      27107.219      5413.8588    
    767000   401.01336     -2846.4337      25.917523     -2820.5161      28004.551      5413.8588    
    768000   415.43156     -2846.2577      26.849372     -2819.4083      28395.838      5413.8588    
    769000   401.89843     -2845.5072      25.974725     -2819.5325      28656.199      5413.8588    
    770000   387.58154     -2848.2525      25.049423     -2823.2031      26001.924      5413.8588    
    771000   396.45944     -2845.3583      25.623203     -2819.735       28677.583      5413.8588    
    772000   401.66279     -2845.2375      25.959495     -2819.278       28965.46       5413.8588    
    773000   414.78809     -2846.1378      26.807785     -2819.3301      28671.854      5413.8588    
    774000   384.14179     -2845.8226      24.827111     -2820.9955      28243.354      5413.8588    
    775000   377.75108     -2847.4252      24.41408      -2823.0111      26996.521      5413.8588    
    776000   398.14709     -2847.1607      25.732275     -2821.4284      27656.073      5413.8588    
    777000   388.59125     -2845.1224      25.11468      -2820.0077      28914.867      5413.8588    
    778000   398.21502     -2844.7419      25.736665     -2819.0053      29286.366      5413.8588    
    779000   366.72036     -2848.8088      23.701163     -2825.1077      25974.903      5413.8588    
    780000   395.01238     -2845.0905      25.529679     -2819.5608      29050.145      5413.8588    
    781000   417.59578     -2845.711       26.989246     -2818.7217      28992.693      5413.8588    
    782000   421.01116     -2844.7926      27.209982     -2817.5826      29857.426      5413.8588    
    783000   424.84457     -2846.9036      27.457736     -2819.4459      27643.303      5413.8588    
    784000   383.89444     -2845.5701      24.811126     -2820.7589      28470.516      5413.8588    
    785000   422.1163      -2847.499       27.281407     -2820.2176      27431.97       5413.8588    
    786000   390.86044     -2843.6554      25.261338     -2818.3941      30215.769      5413.8588    
    787000   418.73991     -2845.59        27.063191     -2818.5268      29205.47       5413.8588    
    788000   401.04168     -2845.1947      25.919353     -2819.2753      29139.225      5413.8588    
    789000   390.79804     -2845.8073      25.257305     -2820.55        28482.543      5413.8588    
    790000   392.24749     -2846.2415      25.350984     -2820.8905      27803.452      5413.8588    
    791000   376.14076     -2843.9702      24.310004     -2819.6602      29860.535      5413.8588    
    792000   418.26377     -2844.7845      27.032418     -2817.752       29757.406      5413.8588    
    793000   414.29329     -2846.751       26.775806     -2819.9752      27948.07       5413.8588    
    794000   393.60666     -2845.6149      25.438827     -2820.1761      28647.201      5413.8588    
    795000   428.50075     -2845.7183      27.694035     -2818.0243      28825.309      5413.8588    
    796000   395.57431     -2844.6849      25.565996     -2819.1189      29232.948      5413.8588    
    797000   393.05402     -2845.199       25.40311      -2819.7959      28873.234      5413.8588    
    798000   371.59792     -2847.57        24.016401     -2823.5536      26814.739      5413.8588    
    799000   414.86925     -2846.1971      26.81303      -2819.3841      28659.111      5413.8588    
    800000   415.05718     -2845.7883      26.825176     -2818.9631      28646.23       5413.8588    
    801000   380.84929     -2847.3086      24.614317     -2822.6943      27277.833      5413.8588    
    802000   390.95084     -2847.4709      25.267181     -2822.2037      26650.69       5413.8588    
    803000   412.52844     -2846.7401      26.661743     -2820.0784      28114.314      5413.8588    
    804000   395.0092      -2844.5378      25.529473     -2819.0083      29820.576      5413.8588    
    805000   397.89597     -2845.2389      25.716045     -2819.5229      28843.998      5413.8588    
    806000   376.23361     -2845.2131      24.316006     -2820.897       28942.766      5413.8588    
    807000   399.38482     -2847.1922      25.81227      -2821.3799      27381.651      5413.8588    
    808000   383.94358     -2845.5072      24.814301     -2820.6928      28536.149      5413.8588    
    809000   416.54645     -2843.8398      26.921427     -2816.9184      30313.786      5413.8588    
    810000   422.85048     -2845.912       27.328857     -2818.5832      29020.677      5413.8588    
    811000   396.89941     -2845.977       25.651637     -2820.3254      28229.076      5413.8588    
    812000   392.49678     -2846.3752      25.367096     -2821.0081      28146.808      5413.8588    
    813000   381.49766     -2846.9765      24.656222     -2822.3203      27352.078      5413.8588    
    814000   369.34433     -2845.817       23.870751     -2821.9462      27932.249      5413.8588    
    815000   399.97235     -2845.7071      25.850242     -2819.8569      28686.274      5413.8588    
    816000   388.82115     -2844.9653      25.129539     -2819.8357      29473.878      5413.8588    
    817000   386.4011      -2846.3939      24.973131     -2821.4207      28055.545      5413.8588    
    818000   391.58514     -2846.6877      25.308176     -2821.3795      27963.323      5413.8588    
    819000   399.39752     -2846.8328      25.813091     -2821.0197      28021.088      5413.8588    
    820000   383.34079     -2844.8937      24.775343     -2820.1184      29354.633      5413.8588    
    821000   401.28243     -2844.4278      25.934912     -2818.4929      30185.789      5413.8588    
    822000   397.41627     -2844.6278      25.685042     -2818.9428      29838.682      5413.8588    
    823000   382.69911     -2847.567       24.733871     -2822.8331      27026.428      5413.8588    
    824000   382.55055     -2846.6063      24.72427      -2821.8821      27581.632      5413.8588    
    825000   398.96697     -2846.2688      25.785264     -2820.4835      28165.671      5413.8588    
    826000   426.76927     -2846.4437      27.582129     -2818.8616      28180.987      5413.8588    
    827000   414.03211     -2845.7452      26.758925     -2818.9863      28521.095      5413.8588    
    828000   417.17037     -2847.4609      26.961751     -2820.4991      27383.731      5413.8588    
    829000   407.96188     -2846.3387      26.366606     -2819.9721      28090.944      5413.8588    
    830000   417.38132     -2845.5109      26.975385     -2818.5355      28962.876      5413.8588    
    831000   405.6386      -2844.3955      26.216452     -2818.179       29897.056      5413.8588    
    832000   387.18504     -2846.1359      25.023797     -2821.1121      28441.751      5413.8588    
    833000   386.51899     -2846.3325      24.98075      -2821.3517      27935.732      5413.8588    
    834000   371.80649     -2846.0912      24.029881     -2822.0613      27900.629      5413.8588    
    835000   412.27378     -2846.7691      26.645284     -2820.1238      27411.707      5413.8588    
    836000   405.82317     -2845.8053      26.228381     -2819.5769      28479.141      5413.8588    
    837000   407.92693     -2847.3289      26.364347     -2820.9645      27483.806      5413.8588    
    838000   380.62077     -2847.3117      24.599548     -2822.7122      27169.662      5413.8588    
    839000   385.29039     -2845.8614      24.901346     -2820.9601      28479.7        5413.8588    
    840000   390.89945     -2844.5495      25.26386      -2819.2857      29651.815      5413.8588    
    841000   398.14286     -2844.6518      25.732002     -2818.9198      29626.461      5413.8588    
    842000   380.88911     -2845.937       24.616891     -2821.3201      28323.134      5413.8588    
    843000   388.84708     -2845.9791      25.131215     -2820.8478      28218.162      5413.8588    
    844000   415.23775     -2845.5669      26.836846     -2818.7301      28707.448      5413.8588    
    845000   402.88119     -2843.5978      26.03824      -2817.5596      30408.368      5413.8588    
    846000   409.54094     -2845.4594      26.468661     -2818.9907      29286.542      5413.8588    
    847000   401.43619     -2846.2911      25.94485      -2820.3463      28200.449      5413.8588    
    848000   369.93246     -2845.9828      23.908762     -2822.0741      27911.672      5413.8588    
    849000   415.74866     -2846.0889      26.869866     -2819.219       28314.383      5413.8588    
    850000   402.66989     -2845.8043      26.024584     -2819.7797      28501.435      5413.8588    
    851000   387.59458     -2847.2589      25.050266     -2822.2087      26769.004      5413.8588    
    852000   383.35395     -2846.3377      24.776193     -2821.5615      27973.173      5413.8588    
    853000   415.23047     -2845.0885      26.836375     -2818.2521      29240.629      5413.8588    
    854000   421.13855     -2846.8114      27.218215     -2819.5932      27901.393      5413.8588    
    855000   390.12879     -2846.0382      25.214052     -2820.8242      28197.752      5413.8588    
    856000   411.46433     -2845.8079      26.592969     -2819.2149      28822.937      5413.8588    
    857000   407.44228     -2845.6223      26.333024     -2819.2893      29022.208      5413.8588    
    858000   410.99383     -2846.0569      26.562561     -2819.4944      28542.284      5413.8588    
    859000   399.56622     -2846.146       25.823994     -2820.322       28826.033      5413.8588    
    860000   373.33172     -2846.2511      24.128456     -2822.1227      28121.724      5413.8588    
    861000   382.24715     -2845.5405      24.704661     -2820.8358      28718.227      5413.8588    
    862000   400.12073     -2846.0897      25.859832     -2820.2298      28490.548      5413.8588    
    863000   418.6535      -2845.4959      27.057606     -2818.4383      28947.071      5413.8588    
    864000   412.10481     -2846.963       26.634364     -2820.3286      27786.516      5413.8588    
    865000   389.39216     -2846.7523      25.166444     -2821.5858      27556.683      5413.8588    
    866000   391.93097     -2845.8086      25.330527     -2820.4781      28391.29       5413.8588    
    867000   406.24309     -2845.5343      26.25552      -2819.2788      29045.336      5413.8588    
    868000   400.04342     -2845.4014      25.854835     -2819.5466      29116.112      5413.8588    
    869000   383.69684     -2846.7585      24.798354     -2821.9601      27533.512      5413.8588    
    870000   390.42295     -2846.5877      25.233064     -2821.3546      27796.85       5413.8588    
    871000   399.27644     -2844.7239      25.805265     -2818.9187      29076.027      5413.8588    
    872000   418.32683     -2846.8326      27.036494     -2819.7961      27889.904      5413.8588    
    873000   387.80622     -2846.7759      25.063944     -2821.7119      27656.663      5413.8588    
    874000   407.2088      -2847.6005      26.317934     -2821.2826      27001.581      5413.8588    
    875000   409.77219     -2845.831       26.483607     -2819.3474      28700.839      5413.8588    
    876000   392.72528     -2844.221       25.381863     -2818.8391      30129.224      5413.8588    
    877000   398.61567     -2844.9901      25.762559     -2819.2275      29288.201      5413.8588    
    878000   400.82203     -2846.3794      25.905157     -2820.4742      28153.671      5413.8588    
    879000   395.5605      -2845.6247      25.565104     -2820.0596      28693.523      5413.8588    
    880000   421.59964     -2845.713       27.248015     -2818.465       28986.003      5413.8588    
    881000   416.53331     -2845.5085      26.920578     -2818.5879      29107.47       5413.8588    
    882000   399.19096     -2846.0897      25.799741     -2820.29        28366.582      5413.8588    
    883000   405.00839     -2846.35        26.175721     -2820.1743      28227.868      5413.8588    
    884000   404.089       -2844.3556      26.116301     -2818.2393      30286.25       5413.8588    
    885000   399.57527     -2845.0096      25.824579     -2819.185       29517.809      5413.8588    
    886000   413.57562     -2846.8509      26.729422     -2820.1215      28193.083      5413.8588    
    887000   388.20795     -2846.634       25.089908     -2821.5441      27766.429      5413.8588    
    888000   404.62908     -2846.8727      26.151207     -2820.7215      28104.194      5413.8588    
    889000   393.5875      -2845.6433      25.437588     -2820.2057      28504.238      5413.8588    
    890000   403.6199      -2847.1253      26.085983     -2821.0394      27583.217      5413.8588    
    891000   406.32889     -2845.9878      26.261066     -2819.7267      28635.848      5413.8588    
    892000   407.48356     -2845.6513      26.335692     -2819.3156      28749.236      5413.8588    
    893000   377.48716     -2845.1633      24.397023     -2820.7663      28823.432      5413.8588    
    894000   399.2575      -2846.6967      25.804041     -2820.8927      28005.198      5413.8588    
    895000   415.87371     -2845.524       26.877948     -2818.646       28887.468      5413.8588    
    896000   399.1756      -2846.1341      25.798748     -2820.3353      28015.258      5413.8588    
    897000   400.76724     -2846.8544      25.901616     -2820.9528      27559.653      5413.8588    
    898000   424.33624     -2845.9084      27.424882     -2818.4835      28953.766      5413.8588    
    899000   418.68741     -2844.9236      27.059798     -2817.8638      29721.708      5413.8588    
    900000   418.80235     -2845.9877      27.067227     -2818.9205      28634.363      5413.8588    
    901000   395.87038     -2845.4671      25.585132     -2819.882       28780.251      5413.8588    
    902000   387.48699     -2847.1603      25.043313     -2822.117       27391.857      5413.8588    
    903000   378.20695     -2847.0476      24.443542     -2822.6041      27381.606      5413.8588    
    904000   404.79064     -2846.0676      26.161649     -2819.9059      28423.968      5413.8588    
    905000   409.20839     -2844.9536      26.447168     -2818.5064      29866.054      5413.8588    
    906000   359.84682     -2844.2018      23.256926     -2820.9449      29268.229      5413.8588    
    907000   393.66324     -2846.3352      25.442484     -2820.8927      28143.695      5413.8588    
    908000   399.97004     -2845.2684      25.850092     -2819.4183      29008.574      5413.8588    
    909000   435.28383     -2845.6181      28.132426     -2817.4857      29233.59       5413.8588    
    910000   415.68311     -2844.6546      26.865629     -2817.789       29902.981      5413.8588    
    911000   391.59576     -2845.6324      25.308862     -2820.3235      28237.571      5413.8588    
    912000   397.32469     -2846.2506      25.679124     -2820.5715      27892.008      5413.8588    
    913000   406.4464      -2846.1266      26.26866      -2819.8579      28128.039      5413.8588    
    914000   435.79962     -2844.2229      28.165761     -2816.0571      30143.151      5413.8588    
    915000   389.04702     -2846.1811      25.144137     -2821.037       28128.56       5413.8588    
    916000   398.64936     -2847.312       25.764737     -2821.5473      27152.438      5413.8588    
    917000   378.43951     -2846.8829      24.458573     -2822.4243      27334.413      5413.8588    
    918000   401.30387     -2846.9141      25.936298     -2820.9778      27387.513      5413.8588    
    919000   401.81668     -2845.5705      25.969441     -2819.6011      28710.895      5413.8588    
    920000   381.23807     -2846.5781      24.639444     -2821.9386      27499.596      5413.8588    
    921000   377.97037     -2845.5153      24.428252     -2821.087       28567.749      5413.8588    
    922000   406.20567     -2845.8707      26.253102     -2819.6176      28548.211      5413.8588    
    923000   411.38407     -2846.4454      26.587782     -2819.8576      27968.611      5413.8588    
    924000   399.1133      -2846.1667      25.794721     -2820.372       28488.894      5413.8588    
    925000   389.21602     -2847.4838      25.15506      -2822.3287      27114.163      5413.8588    
    926000   387.6003      -2846.406       25.050635     -2821.3553      27925.551      5413.8588    
    927000   440.78365     -2847.2334      28.487879     -2818.7455      28005.339      5413.8588    
    928000   384.7079      -2844.8714      24.8637       -2820.0077      29323.731      5413.8588    
    929000   393.79158     -2846.5123      25.450778     -2821.0615      27732.853      5413.8588    
    930000   413.02006     -2845.7702      26.693516     -2819.0766      28691.808      5413.8588    
    931000   426.63483     -2845.1897      27.57344      -2817.6163      29794.812      5413.8588    
    932000   403.02622     -2845.6516      26.047614     -2819.604       28961.008      5413.8588    
    933000   398.94261     -2846.3039      25.78369      -2820.5202      28119.16       5413.8588    
    934000   409.7062      -2845.0934      26.479341     -2818.614       29334.533      5413.8588    
    935000   389.89515     -2843.9743      25.198952     -2818.7754      29980.076      5413.8588    
    936000   391.03505     -2844.5331      25.272624     -2819.2604      29714.505      5413.8588    
    937000   387.23894     -2847.3236      25.027281     -2822.2963      26928.537      5413.8588    
    938000   392.41318     -2847.5024      25.361693     -2822.1407      27057.083      5413.8588    
    939000   404.18647     -2846.4935      26.122601     -2820.3709      27799.344      5413.8588    
    940000   429.29676     -2846.6314      27.745481     -2818.8859      28161.672      5413.8588    
    941000   383.68471     -2845.384       24.797571     -2820.5864      28704.224      5413.8588    
    942000   397.83727     -2847.6341      25.712252     -2821.9219      26974.188      5413.8588    
    943000   383.05271     -2845.5905      24.756724     -2820.8337      29096.893      5413.8588    
    944000   391.35767     -2845.5529      25.293475     -2820.2594      28835.827      5413.8588    
    945000   415.49118     -2845.6425      26.853225     -2818.7893      29198.433      5413.8588    
    946000   409.32122     -2843.7555      26.45446      -2817.3011      30699.608      5413.8588    
    947000   407.55644     -2846.2826      26.340402     -2819.9422      28445.61       5413.8588    
    948000   370.8907      -2845.438       23.970693     -2821.4673      28511.389      5413.8588    
    949000   393.98962     -2846.1102      25.463578     -2820.6466      28331.422      5413.8588    
    950000   372.47111     -2843.9315      24.072835     -2819.8587      29558.233      5413.8588    
    951000   417.3036      -2846.8604      26.970362     -2819.89        27894.076      5413.8588    
    952000   382.47259     -2846.5824      24.719231     -2821.8631      27907.257      5413.8588    
    953000   392.55592     -2846.8807      25.370917     -2821.5098      27436.487      5413.8588    
    954000   422.09545     -2847.4802      27.280059     -2820.2002      27311.873      5413.8588    
    955000   403.26859     -2845.2177      26.063278     -2819.1544      29111.879      5413.8588    
    956000   412.72882     -2846.1541      26.674694     -2819.4794      28386.563      5413.8588    
    957000   381.74709     -2848.256       24.672342     -2823.5836      25720.162      5413.8588    
    958000   394.35427     -2845.3302      25.487145     -2819.8431      28880.81       5413.8588    
    959000   416.82232     -2845.9648      26.939257     -2819.0255      28726.701      5413.8588    
    960000   430.58149     -2845.8338      27.828513     -2818.0053      28757.012      5413.8588    
    961000   398.55769     -2846.094       25.758813     -2820.3351      28183.943      5413.8588    
    962000   402.20196     -2847.1194      25.994342     -2821.1251      27406.545      5413.8588    
    963000   398.7774      -2847.3918      25.773012     -2821.6188      27454.88       5413.8588    
    964000   403.44378     -2846.1439      26.074601     -2820.0693      28409.84       5413.8588    
    965000   410.128       -2846.0261      26.506602     -2819.5195      28622.568      5413.8588    
    966000   399.81969     -2845.8828      25.840376     -2820.0424      28602.979      5413.8588    
    967000   398.03497     -2846.4601      25.725029     -2820.7351      28016.535      5413.8588    
    968000   392.59401     -2846.2586      25.373379     -2820.8852      27944.123      5413.8588    
    969000   386.13791     -2845.7606      24.956121     -2820.8045      28224.818      5413.8588    
    970000   423.23347     -2846.1357      27.35361      -2818.7821      28327.892      5413.8588    
    971000   409.64714     -2845.0404      26.475525     -2818.5649      29367.414      5413.8588    
    972000   405.1758      -2844.8788      26.186541     -2818.6923      29300.38       5413.8588    
    973000   401.09837     -2846.3755      25.923017     -2820.4525      28079.462      5413.8588    
    974000   408.06361     -2844.6659      26.373181     -2818.2928      29440.013      5413.8588    
    975000   417.91641     -2845.9056      27.009968     -2818.8956      28591.45       5413.8588    
    976000   378.47457     -2846.5532      24.460839     -2822.0923      27458.715      5413.8588    
    977000   377.53376     -2845.0416      24.400034     -2820.6416      28969.188      5413.8588    
    978000   414.25124     -2845.5496      26.773088     -2818.7766      29099.116      5413.8588    
    979000   396.55963     -2845.7225      25.629678     -2820.0928      28525.35       5413.8588    
    980000   381.08375     -2846.0497      24.62947      -2821.4202      28434.068      5413.8588    
    981000   383.90673     -2847.0066      24.81192      -2822.1947      26989.717      5413.8588    
    982000   392.0275      -2845.2389      25.336766     -2819.9021      28935.338      5413.8588    
    983000   405.17864     -2845.2756      26.186725     -2819.0888      29180.969      5413.8588    
    984000   391.67314     -2846.1651      25.313864     -2820.8512      28059.694      5413.8588    
    985000   399.38164     -2846.3822      25.812064     -2820.5701      28017.284      5413.8588    
    986000   405.55009     -2844.7927      26.210732     -2818.582       29528.381      5413.8588    
    987000   402.57744     -2845.806       26.018609     -2819.7874      28544.99       5413.8588    
    988000   398.62071     -2847.6227      25.762885     -2821.8598      27150.938      5413.8588    
    989000   361.83496     -2846.1275      23.385419     -2822.742       28048.741      5413.8588    
    990000   396.94011     -2845.3781      25.654268     -2819.7238      28980.867      5413.8588    
    991000   424.91598     -2846.4675      27.462351     -2819.0051      28340.569      5413.8588    
    992000   374.14647     -2846.8306      24.181114     -2822.6495      27214.415      5413.8588    
    993000   380.0746      -2846.4561      24.564249     -2821.8918      27805.729      5413.8588    
    994000   394.29836     -2846.1623      25.483532     -2820.6788      28017.072      5413.8588    
    995000   404.7066      -2844.8957      26.156217     -2818.7395      29529.816      5413.8588    
    996000   408.65379     -2846.4647      26.411324     -2820.0533      28326.03       5413.8588    
    997000   386.17775     -2845.6543      24.958696     -2820.6956      28282.76       5413.8588    
    998000   448.7558      -2844.3193      29.00312      -2815.3162      30454.803      5413.8588    
    999000   403.83588     -2847.3991      26.099942     -2821.2991      27255.577      5413.8588    
   1000000   411.74484     -2846.8309      26.611099     -2820.2198      27709.65       5413.8588    
   1001000   414.03079     -2845.5059      26.75884      -2818.7471      28969.279      5413.8588    
   1002000   432.19288     -2845.2174      27.932657     -2817.2847      29483.926      5413.8588    
   1003000   397.53391     -2846.4493      25.692646     -2820.7567      27997.821      5413.8588    
   1004000   417.33862     -2847.8221      26.972625     -2820.8495      27382.68       5413.8588    
   1005000   369.88354     -2845.2778      23.9056       -2821.3722      28533.925      5413.8588    
   1006000   410.99016     -2846.0218      26.562324     -2819.4594      28314.234      5413.8588    
   1007000   412.21291     -2845.2642      26.64135      -2818.6229      29087.116      5413.8588    
   1008000   395.39596     -2845.6838      25.55447      -2820.1293      28406.784      5413.8588    
   1009000   406.31719     -2847.1611      26.26031      -2820.9008      27250.131      5413.8588    
   1010000   401.9994      -2845.3248      25.98125      -2819.3435      28736.851      5413.8588    
   1011000   409.61408     -2844.8215      26.473387     -2818.3481      29324.711      5413.8588    
   1012000   422.97281     -2845.6622      27.336763     -2818.3254      29244.983      5413.8588    
   1013000   383.76154     -2846.3         24.802536     -2821.4974      27996.158      5413.8588    
   1014000   404.66979     -2847.5603      26.153838     -2821.4065      27156.169      5413.8588    
   1015000   367.80986     -2843.6295      23.771578     -2819.8579      29837.651      5413.8588    
   1016000   409.16259     -2846.1699      26.444208     -2819.7256      28427.799      5413.8588    
   1017000   393.34655     -2846.8236      25.422016     -2821.4016      27519.481      5413.8588    
   1018000   380.01587     -2846.2613      24.560453     -2821.7008      28070.249      5413.8588    
   1019000   407.02313     -2847.0202      26.305934     -2820.7143      27430.944      5413.8588    
   1020000   417.50599     -2845.3857      26.983442     -2818.4023      29260.164      5413.8588    
   1021000   411.10333     -2845.4788      26.569638     -2818.9091      29039.579      5413.8588    
   1022000   375.64952     -2847.226       24.278256     -2822.9478      27143.452      5413.8588    
   1023000   386.03098     -2846.5114      24.94921      -2821.5622      28027.218      5413.8588    
   1024000   418.23963     -2846.5305      27.030858     -2819.4996      28234.205      5413.8588    
   1025000   390.62209     -2846.378       25.245934     -2821.132       27911.077      5413.8588    
   1026000   409.77596     -2847.2073      26.48385      -2820.7234      27425.685      5413.8588    
   1027000   409.34466     -2845.8485      26.455975     -2819.3925      28707.24       5413.8588    
   1028000   409.77422     -2845.4984      26.483737     -2819.0147      29038.641      5413.8588    
   1029000   417.38304     -2846.4272      26.975496     -2819.4517      28059.25       5413.8588    
   1030000   382.20072     -2845.5609      24.70166      -2820.8593      28544.074      5413.8588    
   1031000   400.60455     -2847.1454      25.891101     -2821.2543      27488.81       5413.8588    
   1032000   392.60285     -2844.9711      25.37395      -2819.5972      29385.715      5413.8588    
   1033000   421.92627     -2845.1913      27.269125     -2817.9221      29526.148      5413.8588    
   1034000   390.38265     -2845.1198      25.230459     -2819.8893      29250.176      5413.8588    
   1035000   391.92966     -2845.9692      25.330442     -2820.6388      28232.811      5413.8588    
   1036000   396.78907     -2845.1604      25.644506     -2819.5159      28943.276      5413.8588    
   1037000   387.96986     -2844.2656      25.074521     -2819.1911      29781.881      5413.8588    
   1038000   390.94557     -2845.9578      25.266841     -2820.691       28181.35       5413.8588    
   1039000   396.08753     -2846.0124      25.599166     -2820.4132      28741.974      5413.8588    
   1040000   401.86709     -2845.3166      25.972699     -2819.3439      29407.387      5413.8588    
   1041000   392.36013     -2843.9363      25.358264     -2818.578       30108.47       5413.8588    
   1042000   437.45967     -2845.6647      28.27305      -2817.3916      29302.203      5413.8588    
   1043000   403.7102      -2845.9712      26.091819     -2819.8794      28502.949      5413.8588    
   1044000   404.71491     -2846.6644      26.156754     -2820.5076      27970.981      5413.8588    
   1045000   407.19694     -2846.8279      26.317167     -2820.5107      28030.711      5413.8588    
   1046000   391.96152     -2843.1794      25.332502     -2817.8469      31115.521      5413.8588    
   1047000   436.60379     -2846.1549      28.217735     -2817.9372      28767.126      5413.8588    
   1048000   384.67946     -2845.5665      24.861861     -2820.7047      28805.869      5413.8588    
   1049000   377.27647     -2845.8341      24.383406     -2821.4507      28339.638      5413.8588    
   1050000   376.49631     -2846.552       24.332984     -2822.219       27737.479      5413.8588    
   1051000   394.38709     -2848.1466      25.489266     -2822.6574      26597.003      5413.8588    
   1052000   399.17774     -2845.2242      25.798887     -2819.4253      29024.212      5413.8588    
   1053000   413.46263     -2846.2156      26.72212      -2819.4935      28625.158      5413.8588    
   1054000   402.28974     -2846.688       26.000015     -2820.6879      27796.031      5413.8588    
   1055000   398.04872     -2848.2723      25.725917     -2822.5464      26398.01       5413.8588    
   1056000   394.80572     -2846.6094      25.516322     -2821.0931      27727.894      5413.8588    
   1057000   411.0664      -2845.5963      26.567251     -2819.029       29044.867      5413.8588    
   1058000   391.86805     -2845.6366      25.326461     -2820.3101      28540.006      5413.8588    
   1059000   374.24856     -2846.2033      24.187711     -2822.0156      28137.824      5413.8588    
   1060000   369.67098     -2846.9711      23.891862     -2823.0792      27541.777      5413.8588    
   1061000   397.72139     -2845.3436      25.704762     -2819.6388      29125.102      5413.8588    
   1062000   413.01536     -2845.5985      26.693212     -2818.9053      29354.789      5413.8588    
   1063000   402.24653     -2846.6904      25.997223     -2820.6932      27682.603      5413.8588    
   1064000   414.9804      -2847.3096      26.820213     -2820.4894      27481.786      5413.8588    
   1065000   407.66148     -2845.3936      26.347191     -2819.0464      28982.733      5413.8588    
   1066000   407.27425     -2845.2111      26.322164     -2818.8889      29557.093      5413.8588    
   1067000   406.8676      -2845.9446      26.295882     -2819.6487      28539.134      5413.8588    
   1068000   381.05138     -2846.4475      24.627378     -2821.8201      27723.937      5413.8588    
   1069000   414.65523     -2846.5863      26.799198     -2819.7871      28119.413      5413.8588    
   1070000   415.6929      -2845.7753      26.866262     -2818.909       28709.688      5413.8588    
   1071000   427.73761     -2845.1939      27.644713     -2817.5492      29423.567      5413.8588    
   1072000   404.57046     -2845.6431      26.147418     -2819.4957      28796.577      5413.8588    
   1073000   393.46551     -2845.9457      25.429704     -2820.516       28257.124      5413.8588    
   1074000   405.19205     -2844.9491      26.187591     -2818.7616      29583.395      5413.8588    
   1075000   417.17584     -2846.664       26.962105     -2819.7019      27829.896      5413.8588    
   1076000   415.40657     -2846.8323      26.847757     -2819.9846      27647.369      5413.8588    
   1077000   404.80761     -2845.7651      26.162745     -2819.6024      28205.513      5413.8588    
   1078000   397.72685     -2846.899       25.705115     -2821.1939      27280.969      5413.8588    
   1079000   395.03625     -2847.0016      25.531222     -2821.4703      27555.492      5413.8588    
   1080000   406.51952     -2846.9992      26.273386     -2820.7258      27597.283      5413.8588    
   1081000   429.24156     -2846.9962      27.741913     -2819.2543      27724.575      5413.8588    
   1082000   367.25138     -2845.1709      23.735483     -2821.4354      28712.044      5413.8588    
   1083000   403.91977     -2846.0421      26.105364     -2819.9368      28592.16       5413.8588    
   1084000   407.92943     -2846.2276      26.364509     -2819.8631      28381.461      5413.8588    
   1085000   372.59693     -2846.1003      24.080966     -2822.0194      27982.441      5413.8588    
   1086000   404.787       -2847.5857      26.161413     -2821.4243      26944.142      5413.8588    
   1087000   404.19728     -2846.9408      26.123299     -2820.8175      27687.806      5413.8588    
   1088000   409.59383     -2845.6439      26.472079     -2819.1718      28888.634      5413.8588    
   1089000   394.91931     -2844.8838      25.523663     -2819.3602      29266.105      5413.8588    
   1090000   400.82197     -2845.6263      25.905153     -2819.7211      28757.188      5413.8588    
   1091000   390.00419     -2845.8929      25.205999     -2820.6869      28134.001      5413.8588    
   1092000   397.52108     -2845.6699      25.691816     -2819.9781      28436.198      5413.8588    
   1093000   405.94622     -2845.0628      26.236334     -2818.8265      29219.819      5413.8588    
   1094000   399.58958     -2845.3286      25.825504     -2819.5031      29009.791      5413.8588    
   1095000   398.57408     -2846.0004      25.759872     -2820.2406      28099.452      5413.8588    
   1096000   383.86236     -2845.8479      24.809052     -2821.0389      28336.616      5413.8588    
   1097000   402.49795     -2845.8628      26.013471     -2819.8493      29056.432      5413.8588    
   1098000   414.98035     -2845.6898      26.82021      -2818.8696      28659.518      5413.8588    
   1099000   418.20102     -2843.4392      27.028362     -2816.4108      31185.918      5413.8588    
   1100000   397.59215     -2847.1816      25.69641      -2821.4852      27295.271      5413.8588    
   1101000   404.67466     -2846.9505      26.154153     -2820.7964      27651.662      5413.8588    
   1102000   426.75978     -2845.3717      27.581516     -2817.7902      29342.98       5413.8588    
   1103000   416.63081     -2846.704       26.92688      -2819.7772      27860.297      5413.8588    
   1104000   389.40306     -2845.4807      25.167148     -2820.3135      28459.435      5413.8588    
   1105000   394.45035     -2847.7104      25.493354     -2822.2171      26948.563      5413.8588    
   1106000   390.44203     -2846.3764      25.234297     -2821.1421      28025.925      5413.8588    
   1107000   387.76091     -2844.8751      25.061016     -2819.8141      29284.46       5413.8588    
   1108000   437.63641     -2847.3773      28.284473     -2819.0929      27383.389      5413.8588    
   1109000   399.51641     -2844.9579      25.820774     -2819.1371      29361.921      5413.8588    
   1110000   402.83553     -2847.1525      26.03529      -2821.1172      27208.85       5413.8588    
   1111000   375.24271     -2846.4511      24.251964     -2822.1991      27568.303      5413.8588    
   1112000   412.44768     -2846.4768      26.656523     -2819.8203      28045.77       5413.8588    
   1113000   400.07393     -2845.7955      25.856807     -2819.9387      28492.439      5413.8588    
   1114000   385.10094     -2846.4772      24.889101     -2821.5881      27707.843      5413.8588    
   1115000   383.44073     -2847.3457      24.781802     -2822.5639      26957.641      5413.8588    
   1116000   399.51246     -2844.9666      25.820519     -2819.1461      29538.064      5413.8588    
   1117000   401.64682     -2845.9641      25.958463     -2820.0056      28602.864      5413.8588    
   1118000   395.07447     -2846.6829      25.533692     -2821.1492      27259.179      5413.8588    
   1119000   396.80351     -2848.5351      25.64544      -2822.8897      26011.795      5413.8588    
   1120000   373.81173     -2844.7957      24.159479     -2820.6363      28765.838      5413.8588    
   1121000   426.30023     -2846.7545      27.551815     -2819.2027      28025.23       5413.8588    
   1122000   418.39176     -2845.8181      27.04069      -2818.7775      28657.881      5413.8588    
   1123000   421.49441     -2845.5885      27.241214     -2818.3473      29098.814      5413.8588    
   1124000   417.46496     -2845.5816      26.98079      -2818.6008      28785.386      5413.8588    
   1125000   409.04004     -2846.8421      26.436288     -2820.4058      27651.245      5413.8588    
   1126000   383.932       -2845.7233      24.813553     -2820.9098      28332.655      5413.8588    
   1127000   388.00191     -2845.4438      25.076592     -2820.3672      28716.701      5413.8588    
   1128000   415.76732     -2844.5165      26.871072     -2817.6454      29940.691      5413.8588    
   1129000   411.13947     -2844.5264      26.571973     -2817.9544      30081.595      5413.8588    
   1130000   409.72414     -2845.5208      26.480501     -2819.0403      29136.671      5413.8588    
   1131000   393.00018     -2845.3205      25.39963      -2819.9209      28647.987      5413.8588    
   1132000   388.43383     -2846.8689      25.104507     -2821.7644      27406.248      5413.8588    
   1133000   374.68624     -2847.3955      24.215999     -2823.1795      27196.333      5413.8588    
   1134000   386.53727     -2844.3282      24.981932     -2819.3462      29702.918      5413.8588    
   1135000   422.1059      -2845.7622      27.280735     -2818.4814      29114.389      5413.8588    
   1136000   405.63847     -2846.6889      26.216444     -2820.4725      28039.451      5413.8588    
   1137000   393.38365     -2845.2695      25.424414     -2819.8451      29072.403      5413.8588    
   1138000   418.15178     -2845.1702      27.02518      -2818.145       29457.535      5413.8588    
   1139000   382.50387     -2844.8879      24.721253     -2820.1666      29308.157      5413.8588    
   1140000   386.75341     -2845.3394      24.995901     -2820.3435      28879.554      5413.8588    
   1141000   423.75622     -2845.8272      27.387395     -2818.4398      29136.798      5413.8588    
   1142000   419.26892     -2845.0515      27.097381     -2817.9541      29350.418      5413.8588    
   1143000   405.96099     -2845.2286      26.237288     -2818.9913      29133.74       5413.8588    
   1144000   390.56692     -2846.0317      25.242368     -2820.7893      28108.737      5413.8588    
   1145000   405.31317     -2846.3119      26.19542      -2820.1165      28380.633      5413.8588    
   1146000   396.47627     -2843.8934      25.62429      -2818.2691      30298.445      5413.8588    
   1147000   393.85593     -2844.0664      25.454937     -2818.6114      29647.191      5413.8588    
   1148000   408.88878     -2846.0345      26.426511     -2819.608       28512.39       5413.8588    
   1149000   394.96975     -2846.4335      25.526924     -2820.9066      27981.935      5413.8588    
   1150000   410.82211     -2847.1582      26.551463     -2820.6068      27424.678      5413.8588    
   1151000   404.52054     -2843.1548      26.144192     -2817.0106      31270.81       5413.8588    
   1152000   413.30471     -2845.5915      26.711913     -2818.8796      28752.439      5413.8588    
   1153000   411.38376     -2847.1708      26.587762     -2820.583       27486.615      5413.8588    
   1154000   396.28756     -2846.9315      25.612094     -2821.3194      27550.624      5413.8588    
   1155000   414.88375     -2845.186       26.813967     -2818.372       29442.052      5413.8588    
   1156000   417.66011     -2844.5878      26.993403     -2817.5944      29935.109      5413.8588    
   1157000   395.17888     -2846.6444      25.540439     -2821.1039      27862.297      5413.8588    
   1158000   392.78408     -2847.0554      25.385663     -2821.6698      27590.579      5413.8588    
   1159000   393.07872     -2845.705       25.404706     -2820.3003      28876.871      5413.8588    
   1160000   401.90597     -2845.7856      25.975212     -2819.8104      28496.759      5413.8588    
   1161000   427.03785     -2845.3266      27.599487     -2817.7271      29250.443      5413.8588    
   1162000   415.1408      -2845.3494      26.83058      -2818.5188      28886.691      5413.8588    
   1163000   392.50506     -2844.6356      25.367631     -2819.268       29534.392      5413.8588    
   1164000   393.76805     -2848.8316      25.449257     -2823.3823      25956.547      5413.8588    
   1165000   405.05382     -2845.8413      26.178658     -2819.6626      28501.942      5413.8588    
   1166000   411.64716     -2845.5345      26.604786     -2818.9297      28952.453      5413.8588    
   1167000   433.46713     -2845.9293      28.015012     -2817.9143      28837.626      5413.8588    
   1168000   393.60045     -2844.6008      25.438425     -2819.1623      29334.133      5413.8588    
   1169000   382.83153     -2845.9214      24.742429     -2821.1789      28325.766      5413.8588    
   1170000   409.28766     -2846.4329      26.452291     -2819.9806      27883.427      5413.8588    
   1171000   435.7864      -2845.2224      28.164906     -2817.0575      29649.289      5413.8588    
   1172000   410.47805     -2845.7395      26.529226     -2819.2103      28715.847      5413.8588    
   1173000   411.09285     -2847.2644      26.56896      -2820.6955      27335.663      5413.8588    
   1174000   383.30266     -2846.6084      24.772879     -2821.8355      27712.885      5413.8588    
   1175000   388.26177     -2847.7535      25.093387     -2822.6601      26962.684      5413.8588    
   1176000   414.16499     -2846.7953      26.767514     -2820.0278      27527.658      5413.8588    
   1177000   417.07478     -2846.7172      26.955573     -2819.7616      27805.61       5413.8588    
   1178000   400.32942     -2846.5042      25.873319     -2820.6309      28017.503      5413.8588    
   1179000   377.60932     -2845.2138      24.404918     -2820.8089      28869.029      5413.8588    
   1180000   408.04899     -2845.4401      26.372236     -2819.0679      28843.368      5413.8588    
   1181000   412.24151     -2845.2008      26.643199     -2818.5576      29187.329      5413.8588    
   1182000   406.77635     -2846.274       26.289985     -2819.984       28047.763      5413.8588    
   1183000   391.64274     -2846.3107      25.311898     -2820.9988      27913.766      5413.8588    
   1184000   398.63595     -2846.1942      25.763871     -2820.4303      28235.708      5413.8588    
   1185000   394.7418      -2845.0799      25.512191     -2819.5677      29065.173      5413.8588    
   1186000   421.1635      -2843.8507      27.219827     -2816.6308      30541.105      5413.8588    
   1187000   405.24046     -2845.0117      26.19072      -2818.821       29282.812      5413.8588    
   1188000   418.75557     -2847.0054      27.064203     -2819.9412      27848.867      5413.8588    
   1189000   382.97933     -2847.982       24.751982     -2823.23        26440.767      5413.8588    
   1190000   401.03634     -2846.844       25.919007     -2820.925       27524.214      5413.8588    
   1191000   397.97974     -2845.7753      25.72146      -2820.0538      28866.076      5413.8588    
   1192000   395.51672     -2844.3762      25.562274     -2818.814       29886.616      5413.8588    
   1193000   365.58644     -2847.8966      23.627878     -2824.2687      26421.22       5413.8588    
   1194000   425.94543     -2846.7074      27.528884     -2819.1785      28212.073      5413.8588    
   1195000   397.49752     -2845.259       25.690293     -2819.5687      29131.028      5413.8588    
   1196000   398.26382     -2845.9064      25.739819     -2820.1665      28674.454      5413.8588    
   1197000   386.40061     -2846.5618      24.973099     -2821.5887      27666.407      5413.8588    
   1198000   386.11108     -2847.919       24.954387     -2822.9646      26384.424      5413.8588    
   1199000   385.52924     -2845.5484      24.916783     -2820.6316      28546.4        5413.8588    
   1200000   393.14893     -2845.2606      25.409244     -2819.8514      28797.565      5413.8588    
   1201000   394.0073      -2844.6451      25.46472      -2819.1803      29407.552      5413.8588    
   1202000   423.03964     -2846.5094      27.341082     -2819.1683      28152.718      5413.8588    
   1203000   379.17631     -2845.1849      24.506192     -2820.6787      28478.106      5413.8588    
   1204000   388.79482     -2845.624       25.127837     -2820.4961      28461.159      5413.8588    
   1205000   380.18896     -2845.0138      24.57164      -2820.4422      29398.003      5413.8588    
   1206000   420.27293     -2844.6749      27.16227      -2817.5127      29995.538      5413.8588    
   1207000   423.88218     -2845.4534      27.395536     -2818.0578      28942.026      5413.8588    
   1208000   379.04484     -2843.7283      24.497695     -2819.2306      29755.742      5413.8588    
   1209000   411.68685     -2846.8858      26.607351     -2820.2784      27691.064      5413.8588    
   1210000   394.15991     -2846.8958      25.474583     -2821.4212      27447.376      5413.8588    
   1211000   397.75017     -2845.8681      25.706622     -2820.1615      28492.167      5413.8588    
   1212000   376.21232     -2844.0089      24.31463      -2819.6943      29917.134      5413.8588    
   1213000   391.15308     -2846.0844      25.280252     -2820.8042      28100.262      5413.8588    
   1214000   398.81066     -2846.2666      25.775162     -2820.4914      28279.121      5413.8588    
   1215000   410.68308     -2845.2714      26.542477     -2818.7289      29209.885      5413.8588    
   1216000   407.6382      -2846.5935      26.345687     -2820.2478      27927.795      5413.8588    
   1217000   383.63898     -2846.9042      24.794615     -2822.1096      27308.989      5413.8588    
   1218000   395.53728     -2846.4433      25.563603     -2820.8797      27773.939      5413.8588    
   1219000   413.25751     -2845.9473      26.708863     -2819.2385      28370.266      5413.8588    
   1220000   403.87457     -2846.9226      26.102443     -2820.8202      27667.959      5413.8588    
   1221000   390.3654      -2846.4606      25.229344     -2821.2313      27588.135      5413.8588    
   1222000   407.60801     -2846.119       26.343735     -2819.7753      27997.465      5413.8588    
   1223000   415.4123      -2846.266       26.848127     -2819.4179      27999.45       5413.8588    
   1224000   406.60961     -2847.2315      26.279209     -2820.9523      26958.026      5413.8588    
   1225000   400.10899     -2846.1762      25.859073     -2820.3172      28365.45       5413.8588    
   1226000   421.84007     -2845.9788      27.263554     -2818.7153      28654.199      5413.8588    
   1227000   413.24961     -2844.553       26.708352     -2817.8447      29632.111      5413.8588    
   1228000   389.67388     -2845.6305      25.184651     -2820.4459      28537.597      5413.8588    
   1229000   391.95209     -2846.4123      25.331892     -2821.0804      27684.243      5413.8588    
   1230000   392.56659     -2846.4248      25.371607     -2821.0532      27815.618      5413.8588    
   1231000   385.19804     -2845.1556      24.895377     -2820.2602      28887.604      5413.8588    
   1232000   417.42175     -2846.1634      26.977998     -2819.1854      28557.057      5413.8588    
   1233000   407.4331      -2845.6697      26.332431     -2819.3373      28533.329      5413.8588    
   1234000   400.47139     -2846.0473      25.882495     -2820.1648      28338.312      5413.8588    
   1235000   384.86337     -2847.8387      24.873747     -2822.9649      26571.121      5413.8588    
   1236000   381.24611     -2846.0231      24.639964     -2821.3832      28172.905      5413.8588    
   1237000   395.39248     -2845.3752      25.554245     -2819.8209      28858.488      5413.8588    
   1238000   427.23038     -2846.6577      27.61193      -2819.0458      28293.308      5413.8588    
   1239000   410.97482     -2844.4118      26.561332     -2817.8505      29751.05       5413.8588    
   1240000   410.33491     -2845.7887      26.519975     -2819.2688      28838.27       5413.8588    
   1241000   398.40865     -2846.2552      25.74918      -2820.5061      28058.564      5413.8588    
   1242000   401.76733     -2846.7003      25.966252     -2820.734       27739.917      5413.8588    
   1243000   411.44875     -2845.5478      26.591963     -2818.9559      28819.375      5413.8588    
   1244000   418.05484     -2845.7366      27.018914     -2818.7177      28657.2        5413.8588    
   1245000   397.16386     -2844.8136      25.668729     -2819.1448      29162.259      5413.8588    
   1246000   391.20096     -2845.2181      25.283346     -2819.9348      28894.108      5413.8588    
   1247000   370.49124     -2845.9272      23.944876     -2821.9823      27820.872      5413.8588    
   1248000   400.68635     -2846.8915      25.896388     -2820.9951      27734.292      5413.8588    
   1249000   401.23719     -2845.6081      25.931989     -2819.6761      28594.586      5413.8588    
   1250000   392.91653     -2846.852       25.394224     -2821.4578      27373.455      5413.8588    
   1251000   378.88086     -2846.9869      24.487097     -2822.4998      27023.542      5413.8588    
   1252000   405.66509     -2846.1006      26.218164     -2819.8824      28535.475      5413.8588    
   1253000   407.39737     -2844.6101      26.330122     -2818.28        29443.586      5413.8588    
   1254000   403.94136     -2846.1166      26.106759     -2820.0099      28335.1        5413.8588    
   1255000   397.61466     -2847.0265      25.697864     -2821.3286      27146.567      5413.8588    
   1256000   381.80628     -2846.7758      24.676167     -2822.0996      27538.541      5413.8588    
   1257000   395.20327     -2847.0533      25.542016     -2821.5113      27310.475      5413.8588    
   1258000   407.55722     -2846.0637      26.340453     -2819.7233      28490.057      5413.8588    
   1259000   391.20423     -2845.4774      25.283557     -2820.1938      28783.155      5413.8588    
   1260000   381.57973     -2846.02        24.661526     -2821.3584      28218.258      5413.8588    
   1261000   390.51308     -2846.9695      25.238889     -2821.7306      27454.06       5413.8588    
   1262000   396.95181     -2845.6786      25.655024     -2820.0236      28745.951      5413.8588    
   1263000   376.23888     -2844.1326      24.316346     -2819.8163      29586.977      5413.8588    
   1264000   413.64575     -2846.9649      26.733955     -2820.2309      27791.829      5413.8588    
   1265000   394.63824     -2847.6892      25.505498     -2822.1837      26689.601      5413.8588    
   1266000   394.87587     -2846.8462      25.520856     -2821.3253      27557.561      5413.8588    
   1267000   419.5283      -2846.4928      27.114144     -2819.3787      28251.39       5413.8588    
   1268000   397.99513     -2845.7616      25.722454     -2820.0391      28790.475      5413.8588    
   1269000   389.82193     -2846.6461      25.194219     -2821.4519      27874.637      5413.8588    
   1270000   396.98427     -2847.258       25.657122     -2821.6009      27249.385      5413.8588    
   1271000   401.4817      -2845.06        25.947792     -2819.1122      29232.881      5413.8588    
   1272000   418.16671     -2845.5345      27.026145     -2818.5084      29194.979      5413.8588    
   1273000   391.85502     -2845.9692      25.325618     -2820.6435      28209.968      5413.8588    
   1274000   400.61214     -2846.8169      25.891591     -2820.9253      28085.075      5413.8588    
   1275000   387.9249      -2845.4872      25.071614     -2820.4156      28641.481      5413.8588    
   1276000   413.81026     -2844.9795      26.744587     -2818.2349      29201.658      5413.8588    
   1277000   435.14573     -2845.5104      28.1235       -2817.3869      29302.179      5413.8588    
   1278000   402.75271     -2846.3064      26.029937     -2820.2764      28052.811      5413.8588    
   1279000   413.17271     -2847.9726      26.703382     -2821.2693      26999.988      5413.8588    
   1280000   379.07712     -2846.7884      24.499782     -2822.2886      27568.29       5413.8588    
   1281000   387.91906     -2845.5409      25.071237     -2820.4697      29002.709      5413.8588    
   1282000   414.25693     -2846.3346      26.773455     -2819.5612      28475.111      5413.8588    
   1283000   393.98825     -2845.5508      25.463489     -2820.0873      28795.147      5413.8588    
   1284000   384.93816     -2847.1992      24.878581     -2822.3206      27343.494      5413.8588    
   1285000   388.50403     -2846.7219      25.109044     -2821.6129      27439.426      5413.8588    
   1286000   370.84909     -2844.1213      23.968003     -2820.1533      29323.285      5413.8588    
   1287000   402.06251     -2844.754       25.985329     -2818.7687      29389.346      5413.8588    
   1288000   413.23939     -2846.4397      26.707692     -2819.732       28383.124      5413.8588    
   1289000   386.04157     -2847.2541      24.949895     -2822.3042      27107.076      5413.8588    
   1290000   401.18814     -2846.7961      25.928818     -2820.8673      27948.489      5413.8588    
   1291000   388.34024     -2844.5115      25.098458     -2819.413       29367.108      5413.8588    
   1292000   404.46082     -2845.8874      26.140332     -2819.747       28171.166      5413.8588    
   1293000   382.07155     -2845.1271      24.693312     -2820.4337      28950.388      5413.8588    
   1294000   389.13765     -2845.8805      25.149995     -2820.7305      28285.313      5413.8588    
   1295000   398.71909     -2844.898       25.769244     -2819.1287      29449.988      5413.8588    
   1296000   423.23089     -2845.4149      27.353443     -2818.0615      29201.025      5413.8588    
   1297000   389.04498     -2845.1652      25.144005     -2820.0212      29050.827      5413.8588    
   1298000   403.65353     -2846.9957      26.088157     -2820.9075      27520.541      5413.8588    
   1299000   399.35807     -2846.9552      25.810541     -2821.1447      27636.028      5413.8588    
   1300000   386.51634     -2846.2279      24.980579     -2821.2474      28095.514      5413.8588    
   1301000   405.98747     -2845.4035      26.239        -2819.1645      28645.751      5413.8588    
   1302000   408.66244     -2847.2315      26.411883     -2820.8197      27221.329      5413.8588    
   1303000   394.25593     -2847.1041      25.480789     -2821.6233      27447.013      5413.8588    
   1304000   403.1636      -2847.4972      26.056493     -2821.4407      27020.905      5413.8588    
   1305000   406.32185     -2845.9867      26.260611     -2819.7261      28474.361      5413.8588    
   1306000   411.29718     -2847.3222      26.582166     -2820.7401      27007.843      5413.8588    
   1307000   392.98141     -2848.0659      25.398417     -2822.6675      26465          5413.8588    
   1308000   384.69957     -2846.4712      24.863161     -2821.608       28088.556      5413.8588    
   1309000   397.91319     -2846.3789      25.717158     -2820.6618      28043.344      5413.8588    
   1310000   388.24594     -2844.9934      25.092363     -2819.901       28988.761      5413.8588    
   1311000   398.15176     -2846.8231      25.732577     -2821.0905      27864.611      5413.8588    
   1312000   399.45934     -2844.88        25.817086     -2819.0629      29556.93       5413.8588    
   1313000   425.15144     -2845.4661      27.477568     -2817.9886      29029.818      5413.8588    
   1314000   420.65959     -2847.1561      27.18726      -2819.9688      27843.43       5413.8588    
   1315000   397.53222     -2846.6607      25.692536     -2820.9682      27753.61       5413.8588    
   1316000   388.51353     -2847.2201      25.109657     -2822.1104      27310.535      5413.8588    
   1317000   393.06097     -2847.3477      25.403559     -2821.9441      27295.447      5413.8588    
   1318000   409.68805     -2846.4849      26.478169     -2820.0067      28055.936      5413.8588    
   1319000   408.80208     -2846.3242      26.420908     -2819.9033      28076.455      5413.8588    
   1320000   418.32932     -2847.2655      27.036654     -2820.2288      27612.096      5413.8588    
   1321000   400.80018     -2847.896       25.903745     -2821.9923      26553.466      5413.8588    
   1322000   362.34107     -2845.4983      23.418129     -2822.0802      28466.26       5413.8588    
   1323000   403.89572     -2845.9618      26.10381      -2819.858       28208.314      5413.8588    
   1324000   400.53017     -2845.9416      25.886294     -2820.0553      28402.176      5413.8588    
   1325000   413.70287     -2845.4155      26.737647     -2818.6778      29017.132      5413.8588    
   1326000   420.07231     -2846.2468      27.149304     -2819.0975      28063.192      5413.8588    
   1327000   397.48368     -2846.9891      25.689399     -2821.2997      27585.224      5413.8588    
   1328000   399.99222     -2847.4181      25.851526     -2821.5665      27424.198      5413.8588    
   1329000   398.76133     -2845.218       25.771973     -2819.446       28933.262      5413.8588    
   1330000   366.23957     -2845.0598      23.67009      -2821.3898      28524.865      5413.8588    
   1331000   407.30018     -2847.6579      26.32384      -2821.334       26950.884      5413.8588    
   1332000   396.42827     -2846.7572      25.621188     -2821.136       27634.467      5413.8588    
   1333000   390.27709     -2845.1098      25.223636     -2819.8862      29002.877      5413.8588    
   1334000   373.21924     -2846.2503      24.121187     -2822.1291      27928.932      5413.8588    
   1335000   399.30735     -2847.2767      25.807263     -2821.4694      27221.165      5413.8588    
   1336000   402.2586      -2844.8378      25.998003     -2818.8398      29586.723      5413.8588    
   1337000   400.61629     -2846.3798      25.89186      -2820.4879      27965.96       5413.8588    
   1338000   382.63874     -2846.1535      24.72997      -2821.4235      28077.354      5413.8588    
   1339000   396.39258     -2846.5929      25.618881     -2820.974       28028.597      5413.8588    
   1340000   374.70677     -2844.5352      24.217326     -2820.3179      29545.962      5413.8588    
   1341000   419.69081     -2845.8872      27.124647     -2818.7625      28594.112      5413.8588    
   1342000   409.1979      -2846.4958      26.44649      -2820.0493      28154.734      5413.8588    
   1343000   377.27194     -2845.4937      24.383113     -2821.1106      28582.785      5413.8588    
   1344000   418.37883     -2846.3774      27.039854     -2819.3375      28070.857      5413.8588    
   1345000   396.19851     -2844.7348      25.606338     -2819.1285      29515.617      5413.8588    
   1346000   394.87633     -2845.1251      25.520886     -2819.6043      29386.97       5413.8588    
   1347000   394.86895     -2846.6634      25.520409     -2821.143       27782.477      5413.8588    
   1348000   384.79809     -2846.1023      24.869528     -2821.2327      28046.878      5413.8588    
   1349000   411.51983     -2846.4411      26.596557     -2819.8445      28250.886      5413.8588    
   1350000   410.26216     -2845.6388      26.515273     -2819.1235      28794.084      5413.8588    
   1351000   384.14804     -2845.7719      24.827516     -2820.9443      28040.172      5413.8588    
   1352000   393.0618      -2845.4845      25.403613     -2820.0809      28411.224      5413.8588    
   1353000   402.69651     -2844.8277      26.026305     -2818.8014      29442.224      5413.8588    
   1354000   401.74007     -2846.1716      25.96449      -2820.2072      28087.099      5413.8588    
   1355000   386.94544     -2845.5468      25.008312     -2820.5385      28462.489      5413.8588    
   1356000   403.99039     -2845.0534      26.109928     -2818.9435      29289.836      5413.8588    
   1357000   396.35124     -2845.1172      25.616209     -2819.501       28921.731      5413.8588    
   1358000   388.47823     -2845.3682      25.107376     -2820.2608      28910.243      5413.8588    
   1359000   378.11721     -2847.3217      24.437743     -2822.884       27015.777      5413.8588    
   1360000   383.96128     -2846.4125      24.815446     -2821.597       27770.12       5413.8588    
   1361000   403.98341     -2846.0311      26.109477     -2819.9216      28303.37       5413.8588    
   1362000   411.74155     -2845.6105      26.610886     -2818.9996      28772.278      5413.8588    
   1363000   427.08428     -2844.9839      27.602488     -2817.3814      29610.638      5413.8588    
   1364000   398.03972     -2845.4456      25.725336     -2819.7202      28947.319      5413.8588    
   1365000   394.53401     -2846.0975      25.498761     -2820.5988      28244.703      5413.8588    
   1366000   389.83787     -2845.3037      25.19525      -2820.1085      29146.613      5413.8588    
   1367000   408.51915     -2844.5026      26.402622     -2818.1         29535.563      5413.8588    
   1368000   402.83101     -2845.0634      26.034998     -2819.0284      29347.125      5413.8588    
   1369000   421.76057     -2847.0558      27.258416     -2819.7974      27839.781      5413.8588    
   1370000   379.49063     -2846.1249      24.526507     -2821.5984      27862.544      5413.8588    
   1371000   386.79572     -2847.9818      24.998635     -2822.9831      26372.818      5413.8588    
   1372000   425.17914     -2846.4495      27.479358     -2818.9701      28100.655      5413.8588    
   1373000   404.2863      -2844.728       26.129053     -2818.5989      29852.306      5413.8588    
   1374000   408.11358     -2846.8187      26.37641      -2820.4422      27918.293      5413.8588    
   1375000   375.42706     -2844.4492      24.263878     -2820.1853      29405.267      5413.8588    
   1376000   392.35439     -2847.1         25.357893     -2821.7421      27598.997      5413.8588    
   1377000   378.97326     -2844.9677      24.49307      -2820.4747      29185.793      5413.8588    
   1378000   412.53161     -2845.7595      26.661948     -2819.0976      28806.918      5413.8588    
   1379000   414.44542     -2846.6137      26.785638     -2819.828       28147.864      5413.8588    
   1380000   385.7425      -2845.707       24.930566     -2820.7765      28488.064      5413.8588    
   1381000   393.27781     -2846.7363      25.417573     -2821.3187      27818.369      5413.8588    
   1382000   379.63894     -2847.3215      24.536092     -2822.7854      27022.711      5413.8588    
   1383000   394.79846     -2846.1129      25.515853     -2820.597       28244.83       5413.8588    
   1384000   399.8428      -2845.3565      25.841869     -2819.5146      29117.573      5413.8588    
   1385000   398.08758     -2845.7362      25.728429     -2820.0078      28633.536      5413.8588    
   1386000   376.9352      -2846.3256      24.361349     -2821.9642      27638.207      5413.8588    
   1387000   384.48872     -2846.5263      24.849534     -2821.6768      27935.389      5413.8588    
   1388000   421.38289     -2845.862       27.234007     -2818.628       28866.981      5413.8588    
   1389000   416.523       -2846.3004      26.919911     -2819.3804      28363.91       5413.8588    
   1390000   389.60522     -2848.3716      25.180214     -2823.1914      26243.599      5413.8588    
   1391000   375.57901     -2845.982       24.273699     -2821.7083      28127.822      5413.8588    
   1392000   398.80153     -2846.5299      25.774572     -2820.7553      27851.088      5413.8588    
   1393000   391.39866     -2845.2643      25.296124     -2819.9681      29155.949      5413.8588    
   1394000   396.7038      -2845.9184      25.638995     -2820.2794      28391.864      5413.8588    
   1395000   391.31574     -2846.4521      25.290765     -2821.1613      28100.081      5413.8588    
   1396000   397.7643      -2847.1959      25.707535     -2821.4883      27365.543      5413.8588    
   1397000   390.7304      -2845.1069      25.252934     -2819.8539      29037.217      5413.8588    
   1398000   408.91975     -2846.4557      26.428513     -2820.0272      28659.8        5413.8588    
   1399000   390.3511      -2845.6329      25.22842      -2820.4045      28649.508      5413.8588    
   1400000   407.99523     -2845.2649      26.368761     -2818.8961      29096.647      5413.8588    
   1401000   399.10275     -2845.8175      25.79404      -2820.0235      28542.23       5413.8588    
   1402000   396.71308     -2847.3189      25.639595     -2821.6793      27294.344      5413.8588    
   1403000   408.13668     -2846.5622      26.377903     -2820.1843      27909.599      5413.8588    
   1404000   407.60587     -2845.3941      26.343597     -2819.0505      29128.498      5413.8588    
   1405000   399.65851     -2846.3065      25.829959     -2820.4765      28135.508      5413.8588    
   1406000   393.0962      -2848.332       25.405836     -2822.9262      26072.943      5413.8588    
   1407000   387.19835     -2847.0044      25.024657     -2821.9797      27145.409      5413.8588    
   1408000   398.23147     -2845.3615      25.737729     -2819.6238      29216.492      5413.8588    
   1409000   399.709       -2845.8922      25.833222     -2820.059       28528.669      5413.8588    
   1410000   376.20306     -2846.3476      24.314031     -2822.0336      27669.52       5413.8588    
   1411000   384.22489     -2846.7844      24.832482     -2821.9519      27212.768      5413.8588    
   1412000   404.27215     -2845.4405      26.128138     -2819.3123      28733.814      5413.8588    
   1413000   405.89136     -2846.3097      26.232788     -2820.0769      27910.054      5413.8588    
   1414000   355.21827     -2844.9074      22.957782     -2821.9496      28843.75       5413.8588    
   1415000   405.24809     -2846.8504      26.191213     -2820.6592      27581.296      5413.8588    
   1416000   399.96111     -2845.1687      25.849515     -2819.3192      29067.976      5413.8588    
   1417000   424.84888     -2846.4302      27.458014     -2818.9722      28436.111      5413.8588    
   1418000   407.20767     -2847.7472      26.317861     -2821.4293      26871.591      5413.8588    
   1419000   377.66694     -2846.0493      24.408642     -2821.6406      27967.39       5413.8588    
   1420000   398.61271     -2847.0851      25.762368     -2821.3228      27273.425      5413.8588    
   1421000   396.61485     -2844.9962      25.633247     -2819.3629      29384.878      5413.8588    
   1422000   402.05855     -2844.4486      25.985073     -2818.4635      29716.497      5413.8588    
   1423000   384.67455     -2845.3092      24.861544     -2820.4476      28241.3        5413.8588    
   1424000   401.02848     -2845.925       25.918499     -2820.0065      28808.235      5413.8588    
   1425000   411.02186     -2845.2638      26.564372     -2818.6994      29247.292      5413.8588    
   1426000   391.68876     -2845.8433      25.314873     -2820.5284      28265.837      5413.8588    
   1427000   412.90819     -2846.8148      26.686286     -2820.1285      27736.166      5413.8588    
   1428000   397.77053     -2845.8257      25.707938     -2820.1177      28383.196      5413.8588    
   1429000   401.1632      -2844.4465      25.927207     -2818.5193      29636.305      5413.8588    
   1430000   404.95598     -2845.3704      26.172334     -2819.1981      29273.927      5413.8588    
   1431000   402.96542     -2846.2419      26.043684     -2820.1983      28010.976      5413.8588    
   1432000   375.53417     -2845.1795      24.270801     -2820.9087      28559.356      5413.8588    
   1433000   391.90913     -2845.6189      25.329116     -2820.2898      28563.652      5413.8588    
   1434000   408.26795     -2845.6993      26.386387     -2819.3129      28838.232      5413.8588    
   1435000   403.66079     -2845.4609      26.088626     -2819.3722      29234.87       5413.8588    
   1436000   395.81278     -2845.6446      25.581409     -2820.0632      28580.252      5413.8588    
   1437000   409.79234     -2846.6301      26.484909     -2820.1452      28226.679      5413.8588    
   1438000   366.72884     -2846.4169      23.701712     -2822.7152      27594.602      5413.8588    
   1439000   405.26004     -2846.0369      26.191986     -2819.8449      28722.609      5413.8588    
   1440000   418.83146     -2845.9727      27.069107     -2818.9036      28598.222      5413.8588    
   1441000   419.3059      -2844.8023      27.099771     -2817.7025      29535.964      5413.8588    
   1442000   414.02596     -2844.5311      26.758528     -2817.7726      30376.866      5413.8588    
   1443000   402.48337     -2846.3287      26.012529     -2820.3161      28140.293      5413.8588    
   1444000   384.58824     -2845.7805      24.855966     -2820.9245      28342.795      5413.8588    
   1445000   406.13468     -2845.6741      26.248514     -2819.4256      28915.364      5413.8588    
   1446000   408.69849     -2844.3912      26.414213     -2817.977       29746.804      5413.8588    
   1447000   415.79        -2846.1237      26.872538     -2819.2512      28322.833      5413.8588    
   1448000   406.03733     -2847.2325      26.242222     -2820.9903      27138.61       5413.8588    
   1449000   405.40999     -2847.6698      26.201677     -2821.4681      27012.123      5413.8588    
   1450000   375.0367      -2846.6195      24.238649     -2822.3808      27812.813      5413.8588    
   1451000   418.70201     -2846.3456      27.060741     -2819.2849      28120.99       5413.8588    
   1452000   405.92631     -2845.987       26.235047     -2819.7519      28360.797      5413.8588    
   1453000   400.58177     -2846.1601      25.889629     -2820.2705      28501.547      5413.8588    
   1454000   381.42563     -2847.9325      24.651566     -2823.2809      26541.145      5413.8588    
   1455000   391.68761     -2846.6326      25.314799     -2821.3178      27789.688      5413.8588    
   1456000   385.32611     -2844.6098      24.903654     -2819.7061      29184.852      5413.8588    
   1457000   410.48966     -2845.2719      26.529976     -2818.742       29091.573      5413.8588    
   1458000   427.33265     -2845.6969      27.61854      -2818.0783      29224.85       5413.8588    
   1459000   372.56779     -2845.4653      24.079083     -2821.3862      28434.434      5413.8588    
   1460000   407.53879     -2846.5855      26.339262     -2820.2462      27907.563      5413.8588    
   1461000   418.60851     -2845.1994      27.054698     -2818.1447      29378.028      5413.8588    
   1462000   422.55657     -2846.2133      27.309862     -2818.9034      28441.571      5413.8588    
   1463000   394.25483     -2846.3004      25.480718     -2820.8197      27861.449      5413.8588    
   1464000   397.0597      -2846.6581      25.661997     -2820.9961      27737.338      5413.8588    
   1465000   417.09794     -2844.3089      26.95707      -2817.3518      29940.323      5413.8588    
   1466000   392.5851      -2844.053       25.372804     -2818.6802      30061.544      5413.8588    
   1467000   401.534       -2845.7524      25.951171     -2819.8012      28771.254      5413.8588    
   1468000   403.02578     -2847.41        26.047586     -2821.3624      26970.474      5413.8588    
   1469000   364.10925     -2843.7107      23.532407     -2820.1783      29816.982      5413.8588    
   1470000   397.84827     -2846.9718      25.712962     -2821.2588      27693.321      5413.8588    
   1471000   398.51727     -2846.5832      25.7562       -2820.827       27674.244      5413.8588    
   1472000   434.15492     -2845.5533      28.059464     -2817.4938      29241.844      5413.8588    
   1473000   412.84416     -2844.487       26.682148     -2817.8049      29824.088      5413.8588    
   1474000   406.20415     -2846.519       26.253004     -2820.266       28018.837      5413.8588    
   1475000   389.95099     -2846.7983      25.202561     -2821.5957      27476.184      5413.8588    
   1476000   394.60145     -2848.829       25.50312      -2823.3259      25441.141      5413.8588    
   1477000   410.84675     -2845.6247      26.553056     -2819.0716      28811.778      5413.8588    
   1478000   396.32586     -2845.1783      25.614569     -2819.5637      28972.342      5413.8588    
   1479000   396.28524     -2848.0186      25.611944     -2822.4067      27089.23       5413.8588    
   1480000   368.74931     -2846.4709      23.832295     -2822.6387      27668.633      5413.8588    
   1481000   398.4248      -2845.1465      25.750224     -2819.3962      29149.019      5413.8588    
   1482000   427.31792     -2846.9928      27.617588     -2819.3752      27845.51       5413.8588    
   1483000   380.44121     -2846.5702      24.587943     -2821.9823      27986.719      5413.8588    
   1484000   385.68534     -2847.1028      24.926871     -2822.1759      26919.992      5413.8588    
   1485000   407.13278     -2847.0084      26.313021     -2820.6954      27729.367      5413.8588    
   1486000   413.61957     -2845.0539      26.732263     -2818.3217      29383.477      5413.8588    
   1487000   423.91752     -2845.7226      27.39782      -2818.3247      28765.741      5413.8588    
   1488000   427.36376     -2846.5803      27.62055      -2818.9597      28113.292      5413.8588    
   1489000   395.00303     -2846.3198      25.529074     -2820.7908      27989.685      5413.8588    
   1490000   433.46819     -2846.9571      28.015081     -2818.942       27979.813      5413.8588    
   1491000   385.22674     -2844.525       24.897232     -2819.6277      29812.025      5413.8588    
   1492000   376.43321     -2846.5226      24.328906     -2822.1937      27743.123      5413.8588    
   1493000   369.29173     -2846.5741      23.867351     -2822.7068      27150.257      5413.8588    
   1494000   403.77653     -2847.2001      26.096107     -2821.104       27334.816      5413.8588    
   1495000   401.01332     -2845.9063      25.91752      -2819.9888      28347.264      5413.8588    
   1496000   408.33765     -2846.2847      26.390892     -2819.8938      28264.677      5413.8588    
   1497000   395.7452      -2845.8546      25.577041     -2820.2775      28351.342      5413.8588    
   1498000   376.21812     -2846.6437      24.315004     -2822.3287      27435.76       5413.8588    
   1499000   403.66106     -2847.0295      26.088643     -2820.9409      27497.142      5413.8588    
   1500000   385.47337     -2844.4145      24.913172     -2819.5013      29374.641      5413.8588    
   1501000   392.91537     -2846.3349      25.394149     -2820.9407      28164.618      5413.8588    
   1502000   378.22844     -2846.3507      24.444932     -2821.9057      27696.347      5413.8588    
   1503000   402.35081     -2846.9583      26.003962     -2820.9544      27642.168      5413.8588    
   1504000   390.19362     -2845.3648      25.218242     -2820.1465      28612.101      5413.8588    
   1505000   420.08555     -2844.5561      27.15016      -2817.406       29629.746      5413.8588    
   1506000   404.42421     -2845.6606      26.137966     -2819.5227      28729.535      5413.8588    
   1507000   395.45587     -2846.4767      25.558342     -2820.9184      27895.783      5413.8588    
   1508000   398.41407     -2847.6825      25.74953      -2821.933       27171.471      5413.8588    
   1509000   372.30898     -2846.7424      24.062356     -2822.6801      27265.074      5413.8588    
   1510000   414.11902     -2845.5607      26.764542     -2818.7961      28952.156      5413.8588    
   1511000   417.34982     -2846.2935      26.973349     -2819.3201      28301.366      5413.8588    
   1512000   396.51222     -2846.4578      25.626613     -2820.8311      27962.187      5413.8588    
   1513000   397.61717     -2846.414       25.698027     -2820.716       27977.228      5413.8588    
   1514000   397.34917     -2846.4821      25.680706     -2820.8014      27832.271      5413.8588    
   1515000   423.82759     -2846.9457      27.392008     -2819.5537      27507.59       5413.8588    
   1516000   412.65443     -2845.6743      26.669886     -2819.0044      29045.809      5413.8588    
   1517000   392.05937     -2846.3501      25.338825     -2821.0113      27923.407      5413.8588    
   1518000   373.31128     -2846.3266      24.127135     -2822.1995      27850.713      5413.8588    
   1519000   388.59334     -2847.5118      25.114816     -2822.397       26781.698      5413.8588    
   1520000   409.4315      -2846.1561      26.461587     -2819.6945      28146.328      5413.8588    
   1521000   427.06776     -2846.6604      27.60142      -2819.059       28063.893      5413.8588    
   1522000   377.78326     -2847.4865      24.416159     -2823.0703      26649.425      5413.8588    
   1523000   401.67788     -2846.5824      25.960471     -2820.6219      28191.051      5413.8588    
   1524000   409.31681     -2845.835       26.454175     -2819.3808      28815.925      5413.8588    
   1525000   402.86036     -2844.4296      26.036894     -2818.3927      29584.71       5413.8588    
   1526000   388.40768     -2845.2278      25.102817     -2820.1249      29047.227      5413.8588    
   1527000   390.1572      -2846.9784      25.215888     -2821.7625      26975.146      5413.8588    
   1528000   383.19216     -2845.345       24.765737     -2820.5793      29096.285      5413.8588    
   1529000   404.0136      -2845.1329      26.111428     -2819.0215      29303.109      5413.8588    
   1530000   412.53613     -2845.0195      26.66224      -2818.3573      29411.935      5413.8588    
   1531000   379.06647     -2844.1719      24.499093     -2819.6728      30157.106      5413.8588    
   1532000   388.55709     -2845.5309      25.112473     -2820.4185      28892.6        5413.8588    
   1533000   393.65635     -2846.1234      25.442039     -2820.6813      28198.242      5413.8588    
   1534000   400.03033     -2844.7034      25.853989     -2818.8494      29449.098      5413.8588    
   1535000   405.9955      -2844.4561      26.239519     -2818.2166      29819.921      5413.8588    
   1536000   415.0586      -2845.6562      26.825268     -2818.8309      29101.935      5413.8588    
   1537000   397.91036     -2845.3214      25.716976     -2819.6044      29104.193      5413.8588    
   1538000   394.92967     -2846.977       25.524333     -2821.4527      27698.136      5413.8588    
   1539000   389.7328      -2848.181       25.188459     -2822.9925      26631.105      5413.8588    
   1540000   391.62222     -2845.2761      25.310572     -2819.9656      28986.437      5413.8588    
   1541000   412.52549     -2845.0815      26.661552     -2818.4199      29348.85       5413.8588    
   1542000   402.39234     -2845.9674      26.006646     -2819.9608      28444.205      5413.8588    
   1543000   389.29673     -2846.7278      25.160276     -2821.5676      27726.424      5413.8588    
   1544000   392.96028     -2846.2585      25.397051     -2820.8614      28122.549      5413.8588    
   1545000   376.29108     -2843.7569      24.31972      -2819.4371      30064.741      5413.8588    
   1546000   404.19583     -2845.9478      26.123206     -2819.8246      28760.678      5413.8588    
   1547000   399.56757     -2847.5221      25.824081     -2821.6981      27083.448      5413.8588    
   1548000   375.23285     -2847.2233      24.251326     -2822.972       26923.937      5413.8588    
   1549000   384.39636     -2844.0872      24.843565     -2819.2437      30000.602      5413.8588    
   1550000   403.3873      -2845.3087      26.070951     -2819.2377      29036.635      5413.8588    
   1551000   396.20496     -2847.2743      25.606756     -2821.6675      27405.536      5413.8588    
   1552000   370.22248     -2846.953       23.927505     -2823.0255      27322.753      5413.8588    
   1553000   395.23745     -2844.8018      25.544225     -2819.2575      29629.14       5413.8588    
   1554000   395.03874     -2844.9659      25.531382     -2819.4345      29352.327      5413.8588    
   1555000   388.70673     -2846.6626      25.122144     -2821.5404      27728.44       5413.8588    
   1556000   380.74944     -2847.0388      24.607864     -2822.431       27433.911      5413.8588    
   1557000   408.03035     -2846.9876      26.371031     -2820.6166      27751.259      5413.8588    
   1558000   401.01892     -2845.1394      25.917882     -2819.2215      29095.339      5413.8588    
   1559000   408.57142     -2844.9322      26.406001     -2818.5262      29502.375      5413.8588    
   1560000   415.48592     -2844.8753      26.852885     -2818.0224      29312.27       5413.8588    
   1561000   413.45692     -2846.7358      26.721751     -2820.0141      28107.755      5413.8588    
   1562000   403.01405     -2846.7456      26.046827     -2820.6988      27384.191      5413.8588    
   1563000   398.48348     -2846.3001      25.754017     -2820.5461      27957.834      5413.8588    
   1564000   407.97278     -2843.7866      26.367311     -2817.4193      30340.08       5413.8588    
   1565000   426.79759     -2845.3333      27.583959     -2817.7494      28916.792      5413.8588    
   1566000   396.57001     -2844.8989      25.630348     -2819.2685      29176.579      5413.8588    
   1567000   404.08023     -2846.4027      26.115735     -2820.287       28290.769      5413.8588    
   1568000   391.6321      -2845.5701      25.311211     -2820.2589      28564.442      5413.8588    
   1569000   406.27094     -2845.7524      26.257321     -2819.4951      28694.172      5413.8588    
   1570000   387.51478     -2843.3834      25.045108     -2818.3383      30784.126      5413.8588    
   1571000   410.87544     -2844.8414      26.55491      -2818.2865      29587.672      5413.8588    
   1572000   404.13186     -2846.5478      26.119072     -2820.4287      27697.83       5413.8588    
   1573000   398.66359     -2845.834       25.765657     -2820.0683      28483.092      5413.8588    
   1574000   437.86106     -2845.6585      28.298992     -2817.3595      29452.403      5413.8588    
   1575000   425.40689     -2845.611       27.494078     -2818.1169      29145.592      5413.8588    
   1576000   384.26585     -2845.2475      24.83513      -2820.4124      28696.14       5413.8588    
   1577000   393.43022     -2845.7144      25.427424     -2820.287       28299.504      5413.8588    
   1578000   416.41983     -2845.1607      26.913244     -2818.2474      29357.939      5413.8588    
   1579000   388.77498     -2844.6589      25.126555     -2819.5323      29419.064      5413.8588    
   1580000   400.62006     -2847.2184      25.892104     -2821.3263      27408.174      5413.8588    
   1581000   388.40072     -2846.0645      25.102367     -2820.9621      27978.177      5413.8588    
   1582000   395.06522     -2846.4098      25.533094     -2820.8767      28080.578      5413.8588    
   1583000   417.31178     -2845.9781      26.970891     -2819.0072      28586.063      5413.8588    
   1584000   391.06845     -2843.1738      25.274783     -2817.899       30757.516      5413.8588    
   1585000   396.99654     -2845.5668      25.657915     -2819.9089      28355.044      5413.8588    
   1586000   384.06459     -2845.2806      24.822122     -2820.4585      29024.932      5413.8588    
   1587000   411.03439     -2847.5686      26.565182     -2821.0034      26941.583      5413.8588    
   1588000   413.12434     -2843.3132      26.700256     -2816.613       30681.99       5413.8588    
   1589000   400.95066     -2846.5059      25.91347      -2820.5925      27743.795      5413.8588    
   1590000   421.96382     -2847.7615      27.271552     -2820.4899      27058          5413.8588    
   1591000   396.22538     -2845.1349      25.608075     -2819.5268      28908.499      5413.8588    
   1592000   423.78976     -2844.7538      27.389563     -2817.3642      29886.455      5413.8588    
   1593000   409.76523     -2845.2917      26.483157     -2818.8085      29391.721      5413.8588    
   1594000   396.0712      -2845.5392      25.59811      -2819.941       28818.75       5413.8588    
   1595000   369.43386     -2845.5203      23.876537     -2821.6438      28287.157      5413.8588    
   1596000   400.94204     -2846.5966      25.912913     -2820.6837      27868.565      5413.8588    
   1597000   417.6153      -2846.6192      26.990507     -2819.6287      28080.828      5413.8588    
   1598000   392.60103     -2847.7448      25.373833     -2822.371       26802.137      5413.8588    
   1599000   379.72491     -2845.1765      24.541649     -2820.6349      28570.311      5413.8588    
   1600000   428.88902     -2846.669       27.719128     -2818.9499      27974.038      5413.8588    
   1601000   402.18635     -2844.6294      25.993333     -2818.6361      29409.408      5413.8588    
   1602000   425.87599     -2846.3984      27.524396     -2818.874       28587.687      5413.8588    
   1603000   395.76609     -2846.5959      25.578391     -2821.0175      27667.86       5413.8588    
   1604000   391.24748     -2844.5262      25.286353     -2819.2398      29565.049      5413.8588    
   1605000   404.90855     -2844.7234      26.169269     -2818.5542      29638.244      5413.8588    
   1606000   427.99436     -2845.5063      27.661307     -2817.845       29189.442      5413.8588    
   1607000   422.59296     -2846.245       27.312214     -2818.9328      28470.091      5413.8588    
   1608000   404.65788     -2846.8557      26.153068     -2820.7026      27326.89       5413.8588    
   1609000   403.19157     -2847.2372      26.058301     -2821.1789      27428.691      5413.8588    
   1610000   401.95213     -2846.2611      25.978195     -2820.2829      28306.092      5413.8588    
   1611000   402.63575     -2844.8546      26.022378     -2818.8322      29238.727      5413.8588    
   1612000   408.17003     -2844.4971      26.380059     -2818.117       29857.025      5413.8588    
   1613000   424.6095      -2846.8339      27.442543     -2819.3914      27826.727      5413.8588    
   1614000   408.44087     -2846.6106      26.397563     -2820.213       27925.826      5413.8588    
   1615000   371.45428     -2847.4073      24.007117     -2823.4002      26429.611      5413.8588    
   1616000   416.27493     -2846.3911      26.903879     -2819.4872      28243.947      5413.8588    
   1617000   411.71812     -2845.6136      26.609372     -2819.0042      29259.624      5413.8588    
   1618000   396.61943     -2848.1443      25.633543     -2822.5107      26012.393      5413.8588    
   1619000   395.20781     -2846.5859      25.542309     -2821.0436      27601.64       5413.8588    
   1620000   418.85904     -2846.0287      27.07089      -2818.9579      28301.925      5413.8588    
   1621000   424.9564      -2845.4145      27.464963     -2817.9495      29335.715      5413.8588    
   1622000   408.90864     -2846.5112      26.427795     -2820.0834      28031.408      5413.8588    
   1623000   395.41033     -2846.5701      25.555398     -2821.0147      27991.28       5413.8588    
   1624000   409.85039     -2845.7632      26.48866      -2819.2745      28964.67       5413.8588    
   1625000   424.01933     -2844.6029      27.4044       -2817.1985      29843.098      5413.8588    
   1626000   416.14129     -2846.0844      26.895242     -2819.1891      28439.676      5413.8588    
   1627000   384.59952     -2845.2808      24.856695     -2820.4242      28632.871      5413.8588    
   1628000   395.90357     -2846.3822      25.587276     -2820.795       28096.963      5413.8588    
   1629000   406.99902     -2845.7268      26.304376     -2819.4224      28797.81       5413.8588    
   1630000   404.2553      -2845.0089      26.12705      -2818.8818      29136.152      5413.8588    
   1631000   412.74485     -2845.7287      26.67573      -2819.053       28943.247      5413.8588    
   1632000   395.77979     -2846.3498      25.579277     -2820.7706      27742.148      5413.8588    
   1633000   395.30712     -2846.0686      25.548728     -2820.5198      28200.307      5413.8588    
   1634000   404.95957     -2844.8388      26.172566     -2818.6663      29555.276      5413.8588    
   1635000   387.63167     -2844.4961      25.052663     -2819.4434      29517.079      5413.8588    
   1636000   389.26224     -2846.1473      25.158047     -2820.9892      28186.207      5413.8588    
   1637000   395.19578     -2846.0769      25.541532     -2820.5354      28374.824      5413.8588    
   1638000   387.48548     -2843.7919      25.043215     -2818.7486      30636.614      5413.8588    
   1639000   409.68045     -2845.3913      26.477677     -2818.9136      29087.108      5413.8588    
   1640000   388.16498     -2844.87        25.087131     -2819.7829      29362.196      5413.8588    
   1641000   386.10277     -2848.1392      24.95385      -2823.1853      26361.377      5413.8588    
   1642000   396.81115     -2845.0984      25.645933     -2819.4525      29027.61       5413.8588    
   1643000   411.52944     -2845.4054      26.597177     -2818.8082      28987.763      5413.8588    
   1644000   431.69285     -2846.1273      27.90034      -2818.227       28803.507      5413.8588    
   1645000   384.36692     -2844.9583      24.841662     -2820.1167      28998.469      5413.8588    
   1646000   397.17871     -2845.8334      25.669689     -2820.1637      28259.362      5413.8588    
   1647000   416.40633     -2845.0362      26.912371     -2818.1238      29336.534      5413.8588    
   1648000   423.16973     -2845.9903      27.34949      -2818.6408      28962.97       5413.8588    
   1649000   412.04082     -2847.298       26.630228     -2820.6677      27305.941      5413.8588    
   1650000   394.45139     -2847.0601      25.493422     -2821.5667      27119.856      5413.8588    
   1651000   391.35864     -2847.0077      25.293537     -2821.7142      27306.735      5413.8588    
   1652000   391.32902     -2845.2306      25.291623     -2819.939       28535.872      5413.8588    
   1653000   402.00206     -2845.9827      25.981422     -2820.0012      28359.398      5413.8588    
   1654000   387.6033      -2846.1659      25.05083      -2821.1151      28312.064      5413.8588    
   1655000   389.65096     -2845.4706      25.18317      -2820.2874      28645.364      5413.8588    
   1656000   429.88012     -2846.6436      27.783183     -2818.8605      28319.757      5413.8588    
   1657000   415.49687     -2845.5367      26.853593     -2818.6831      29019.34       5413.8588    
   1658000   396.64386     -2844.2373      25.635122     -2818.6021      29490.279      5413.8588    
   1659000   395.98783     -2845.9503      25.592722     -2820.3576      28478.782      5413.8588    
   1660000   414.76829     -2847.2885      26.806504     -2820.482       27366.236      5413.8588    
   1661000   398.99079     -2846.4605      25.786803     -2820.6737      27782.757      5413.8588    
   1662000   419.18218     -2846.2563      27.091775     -2819.1646      28222.541      5413.8588    
   1663000   412.63556     -2846.7113      26.668666     -2820.0426      27889.284      5413.8588    
   1664000   393.55382     -2847.177       25.435412     -2821.7416      27204.08       5413.8588    
   1665000   401.83768     -2846.439       25.970799     -2820.4682      28075.915      5413.8588    
   1666000   398.38328     -2845.8441      25.74754      -2820.0965      28255.888      5413.8588    
   1667000   389.32203     -2846.9565      25.161911     -2821.7946      27240.209      5413.8588    
   1668000   398.82857     -2846.8007      25.776319     -2821.0244      27931.16       5413.8588    
   1669000   400.16619     -2846.6219      25.86277      -2820.7592      27589.464      5413.8588    
   1670000   408.30294     -2845.7022      26.388649     -2819.3136      28761.367      5413.8588    
   1671000   396.82942     -2844.0733      25.647114     -2818.4262      30273.933      5413.8588    
   1672000   409.56447     -2846.1446      26.470181     -2819.6744      28101.628      5413.8588    
   1673000   372.57294     -2845.4545      24.079416     -2821.3751      28530.085      5413.8588    
   1674000   390.4224      -2846.8084      25.233028     -2821.5753      27276.288      5413.8588    
   1675000   399.32467     -2845.7189      25.808383     -2819.9105      28490.209      5413.8588    
   1676000   408.63695     -2846.2613      26.410236     -2819.8511      28188.039      5413.8588    
   1677000   398.95174     -2847.4871      25.78428      -2821.7028      26864.542      5413.8588    
   1678000   402.12965     -2846.4577      25.989669     -2820.468       27940.93       5413.8588    
   1679000   425.99502     -2844.5261      27.532089     -2816.994       29780.883      5413.8588    
   1680000   413.54672     -2845.9417      26.727554     -2819.2141      28965.411      5413.8588    
   1681000   403.90615     -2846.6352      26.104484     -2820.5307      28067.928      5413.8588    
   1682000   380.58825     -2845.7987      24.597446     -2821.2013      28504.963      5413.8588    
   1683000   381.49147     -2846.6467      24.655822     -2821.9909      27763.24       5413.8588    
   1684000   405.34881     -2846.221       26.197723     -2820.0233      28310.31       5413.8588    
   1685000   399.53332     -2846.3041      25.821868     -2820.4822      27892.531      5413.8588    
   1686000   401.35592     -2847.4043      25.939662     -2821.4646      27218.008      5413.8588    
   1687000   391.40465     -2848.5372      25.296511     -2823.2407      25778.996      5413.8588    
   1688000   408.04884     -2846.5649      26.372226     -2820.1927      27864.765      5413.8588    
   1689000   404.34803     -2846.0314      26.133042     -2819.8983      28074.852      5413.8588    
   1690000   386.38922     -2846.5374      24.972363     -2821.565       27729.542      5413.8588    
   1691000   396.78975     -2846.3877      25.64455      -2820.7431      27965.007      5413.8588    
   1692000   399.6141      -2842.7965      25.827088     -2816.9694      31226.546      5413.8588    
   1693000   410.09832     -2845.3033      26.504684     -2818.7987      29499.748      5413.8588    
   1694000   371.64822     -2844.3362      24.019651     -2820.3165      29670.491      5413.8588    
   1695000   388.77929     -2846.3702      25.126834     -2821.2433      28218.401      5413.8588    
   1696000   380.08588     -2845.3211      24.564978     -2820.7561      29105.136      5413.8588    
   1697000   392.0293      -2844.7632      25.336882     -2819.4263      29464.868      5413.8588    
   1698000   403.82698     -2846.1092      26.099367     -2820.0099      28246.968      5413.8588    
   1699000   371.61657     -2846.2805      24.017606     -2822.2629      27914.03       5413.8588    
   1700000   394.48061     -2846.97        25.49531      -2821.4747      27406.156      5413.8588    
   1701000   399.39168     -2846.744       25.812713     -2820.9313      27525.899      5413.8588    
   1702000   426.08142     -2846.5726      27.537673     -2819.0349      28057.477      5413.8588    
   1703000   398.91302     -2845.2898      25.781778     -2819.508       29121.825      5413.8588    
   1704000   393.24886     -2846.6498      25.415702     -2821.2341      27477.866      5413.8588    
   1705000   397.9955      -2847.0356      25.722478     -2821.3132      27387.012      5413.8588    
   1706000   384.62494     -2844.5233      24.858338     -2819.6649      29333.09       5413.8588    
   1707000   389.11702     -2846.2767      25.148661     -2821.128       28053.753      5413.8588    
   1708000   391.7823      -2847.4438      25.320919     -2822.1229      26664.404      5413.8588    
   1709000   414.40014     -2846.711       26.782711     -2819.9283      28001.176      5413.8588    
   1710000   407.59937     -2845.3811      26.343177     -2819.0379      29240.151      5413.8588    
   1711000   377.60939     -2846.6346      24.404922     -2822.2297      27635.648      5413.8588    
   1712000   379.80114     -2846.8271      24.546575     -2822.2805      27547.795      5413.8588    
   1713000   403.30645     -2846.3544      26.065725     -2820.2887      28246.417      5413.8588    
   1714000   390.95676     -2844.5067      25.267564     -2819.2391      29699.049      5413.8588    
   1715000   404.08884     -2845.4726      26.116291     -2819.3563      28856.319      5413.8588    
   1716000   403.84079     -2846.7798      26.10026      -2820.6795      27874.526      5413.8588    
   1717000   393.57912     -2847.0369      25.437047     -2821.5998      27349.487      5413.8588    
   1718000   409.52567     -2846.4916      26.467674     -2820.0239      28262.272      5413.8588    
   1719000   417.39363     -2845.8686      26.97618      -2818.8924      28794.269      5413.8588    
   1720000   422.13319     -2845.475       27.282499     -2818.1925      29079.557      5413.8588    
   1721000   413.07683     -2846.1016      26.697185     -2819.4044      27816.978      5413.8588    
   1722000   379.18644     -2845.1472      24.506847     -2820.6404      28804.291      5413.8588    
   1723000   385.51053     -2845.593       24.915573     -2820.6774      28345.7        5413.8588    
   1724000   384.57293     -2844.4971      24.854977     -2819.6421      29307.422      5413.8588    
   1725000   447.22755     -2845.8987      28.904349     -2816.9943      29114.522      5413.8588    
   1726000   402.77903     -2845.6587      26.031638     -2819.6271      28896.661      5413.8588    
   1727000   392.67041     -2846.317       25.378317     -2820.9387      28070.16       5413.8588    
   1728000   400.94722     -2847.5809      25.913248     -2821.6677      27155.344      5413.8588    
   1729000   382.78768     -2846.7741      24.739596     -2822.0345      27659.691      5413.8588    
   1730000   404.57481     -2845.7303      26.147699     -2819.5826      28601.746      5413.8588    
   1731000   401.15924     -2845.66        25.926951     -2819.7331      28610.256      5413.8588    
   1732000   396.5713      -2846.2375      25.630432     -2820.6071      28031.72       5413.8588    
   1733000   386.42686     -2847.5335      24.974796     -2822.5587      26794.584      5413.8588    
   1734000   389.40855     -2846.5489      25.167503     -2821.3814      27655.95       5413.8588    
   1735000   407.73161     -2845.6582      26.351723     -2819.3065      28715.861      5413.8588    
   1736000   400.71791     -2844.7581      25.898427     -2818.8597      29397.776      5413.8588    
   1737000   394.11181     -2845.7669      25.471475     -2820.2954      28613.486      5413.8588    
   1738000   380.57862     -2845.8882      24.596824     -2821.2914      28380.262      5413.8588    
   1739000   387.57939     -2845.3433      25.049284     -2820.294       29014.313      5413.8588    
   1740000   412.31494     -2845.1474      26.647945     -2818.4995      29322.299      5413.8588    
   1741000   411.17759     -2845.0134      26.574437     -2818.439       29413.14       5413.8588    
   1742000   405.62383     -2846.6094      26.215497     -2820.3939      27775.68       5413.8588    
   1743000   380.51714     -2846.2649      24.59285      -2821.6721      28242.485      5413.8588    
   1744000   412.1801      -2846.5901      26.639229     -2819.9509      28047.619      5413.8588    
   1745000   414.19126     -2845.6388      26.769211     -2818.8695      29042.567      5413.8588    
   1746000   399.00556     -2846.0575      25.787758     -2820.2697      28366.681      5413.8588    
   1747000   385.50604     -2845.8846      24.915283     -2820.9693      28327.122      5413.8588    
   1748000   402.86873     -2845.7021      26.037435     -2819.6647      28927.843      5413.8588    
   1749000   405.35117     -2845.1624      26.197875     -2818.9645      29184.657      5413.8588    
   1750000   429.50447     -2846.8437      27.758905     -2819.0848      27979.856      5413.8588    
   1751000   405.86094     -2848.1831      26.230822     -2821.9522      26522.034      5413.8588    
   1752000   372.78439     -2845.9716      24.093082     -2821.8786      28027.276      5413.8588    
   1753000   381.61307     -2845.9368      24.66368      -2821.2731      28198.515      5413.8588    
   1754000   386.93265     -2844.455       25.007486     -2819.4475      29601.229      5413.8588    
   1755000   385.26831     -2843.0942      24.899919     -2818.1943      30716.316      5413.8588    
   1756000   400.65617     -2845.914       25.894437     -2820.0195      28343.561      5413.8588    
   1757000   392.842       -2846.3669      25.389407     -2820.9775      27768.735      5413.8588    
   1758000   432.07997     -2846.2792      27.92536      -2818.3539      28627.582      5413.8588    
   1759000   410.15606     -2844.2585      26.508416     -2817.7501      30010.897      5413.8588    
   1760000   405.96918     -2846.2109      26.237817     -2819.9731      28019.595      5413.8588    
   1761000   391.73413     -2846.4526      25.317806     -2821.1348      27910.127      5413.8588    
   1762000   427.78303     -2846.1713      27.647649     -2818.5237      28354.028      5413.8588    
   1763000   403.96414     -2843.9814      26.108232     -2817.8731      30328.826      5413.8588    
   1764000   413.57151     -2845.5537      26.729156     -2818.8246      28690.927      5413.8588    
   1765000   412.78456     -2846.1671      26.678296     -2819.4888      28441.49       5413.8588    
   1766000   372.75426     -2847.2376      24.091135     -2823.1465      27107.146      5413.8588    
   1767000   376.33593     -2846.0463      24.322618     -2821.7236      27962.332      5413.8588    
   1768000   387.99542     -2844.6531      25.076172     -2819.577       29275.215      5413.8588    
   1769000   406.05807     -2845.2242      26.243562     -2818.9806      29365.6        5413.8588    
   1770000   401.79845     -2846.4659      25.968263     -2820.4976      28114.963      5413.8588    
   1771000   393.5602      -2845.8814      25.435824     -2820.4456      28718.803      5413.8588    
   1772000   417.44817     -2845.395       26.979706     -2818.4153      29495.808      5413.8588    
   1773000   406.21428     -2844.9461      26.253658     -2818.6924      29651.457      5413.8588    
   1774000   387.91635     -2845.6526      25.071062     -2820.5815      28685.059      5413.8588    
   1775000   383.80213     -2845.5191      24.80516      -2820.714       28703.496      5413.8588    
   1776000   414.1211      -2847.6325      26.764677     -2820.8678      27319.163      5413.8588    
   1777000   409.93987     -2842.6814      26.494444     -2816.187       31708.085      5413.8588    
   1778000   395.60229     -2846.0293      25.567805     -2820.4615      28424.365      5413.8588    
   1779000   386.48331     -2845.5837      24.978444     -2820.6053      28774.721      5413.8588    
   1780000   403.59811     -2846.7113      26.084575     -2820.6268      27830.879      5413.8588    
   1781000   398.91665     -2844.0545      25.782012     -2818.2725      30137.542      5413.8588    
   1782000   405.77144     -2844.4786      26.225038     -2818.2535      29787.261      5413.8588    
   1783000   423.72389     -2845.9967      27.385306     -2818.6114      28789.951      5413.8588    
   1784000   391.80289     -2845.9566      25.322249     -2820.6344      28027.61       5413.8588    
   1785000   404.35755     -2844.8843      26.133658     -2818.7506      29121.494      5413.8588    
   1786000   418.87896     -2846.6105      27.072178     -2819.5383      28003.431      5413.8588    
   1787000   390.39946     -2847.5557      25.231545     -2822.3241      26587.092      5413.8588    
   1788000   374.80312     -2846.3461      24.223553     -2822.1226      27501.57       5413.8588    
   1789000   400.31746     -2846.1214      25.872546     -2820.2489      28077.221      5413.8588    
   1790000   403.23213     -2845.5652      26.060922     -2819.5042      28698.846      5413.8588    
   1791000   393.81067     -2846.2039      25.452012     -2820.7519      27700.058      5413.8588    
   1792000   366.28754     -2845.4739      23.67319      -2821.8007      28108.441      5413.8588    
   1793000   395.28851     -2846.6649      25.547525     -2821.1173      27855.089      5413.8588    
   1794000   418.80974     -2844.5422      27.067704     -2817.4745      30138.149      5413.8588    
   1795000   421.62345     -2845.4088      27.249554     -2818.1592      29223.503      5413.8588    
   1796000   392.02006     -2844.7208      25.336285     -2819.3845      29488.684      5413.8588    
   1797000   401.30454     -2846.759       25.936342     -2820.8227      27562.928      5413.8588    
   1798000   386.29615     -2845.2587      24.966348     -2820.2923      28798.135      5413.8588    
   1799000   419.97677     -2846.4812      27.143129     -2819.3381      28184.151      5413.8588    
   1800000   384.94973     -2845.8313      24.879329     -2820.9519      28232.809      5413.8588    
   1801000   407.20031     -2846.7506      26.317386     -2820.4332      28087.053      5413.8588    
   1802000   416.23444     -2845.3885      26.901262     -2818.4872      28878.802      5413.8588    
   1803000   393.69722     -2845.1335      25.44468      -2819.6888      29292.423      5413.8588    
   1804000   405.65424     -2846.3912      26.217463     -2820.1737      28268.954      5413.8588    
   1805000   391.92319     -2845.6101      25.330024     -2820.28        28619.353      5413.8588    
   1806000   414.30234     -2845.8749      26.77639      -2819.0985      28583.362      5413.8588    
   1807000   390.91832     -2845.4816      25.265079     -2820.2165      28490.862      5413.8588    
   1808000   390.68117     -2846.8692      25.249752     -2821.6195      27574.264      5413.8588    
   1809000   391.8576      -2846.5136      25.325785     -2821.1879      27872.348      5413.8588    
   1810000   398.47489     -2845.2647      25.753461     -2819.5113      28968.022      5413.8588    
   1811000   390.70354     -2845.1552      25.251198     -2819.904       28978.246      5413.8588    
   1812000   398.07137     -2847.2089      25.727382     -2821.4815      27218.845      5413.8588    
   1813000   390.17245     -2847.0736      25.216874     -2821.8568      27375.697      5413.8588    
   1814000   410.48929     -2846.4278      26.529953     -2819.8979      28053.036      5413.8588    
   1815000   407.15655     -2846.4683      26.314557     -2820.1538      28349.144      5413.8588    
   1816000   378.02634     -2846.5836      24.43187      -2822.1517      27764.259      5413.8588    
   1817000   388.72124     -2846.5197      25.123082     -2821.3966      27574.485      5413.8588    
   1818000   394.54741     -2846.1688      25.499628     -2820.6691      28197.286      5413.8588    
   1819000   432.78444     -2844.1821      27.97089      -2816.2112      30755.761      5413.8588    
   1820000   380.00919     -2845.0244      24.560022     -2820.4644      28837.585      5413.8588    
   1821000   409.15867     -2846.9445      26.443954     -2820.5005      27610.084      5413.8588    
   1822000   398.40879     -2846.13        25.749189     -2820.3808      28476.544      5413.8588    
   1823000   404.00508     -2842.4779      26.110877     -2816.367       31603.267      5413.8588    
   1824000   410.22019     -2845.6994      26.512561     -2819.1868      28567.937      5413.8588    
   1825000   410.98084     -2847.7151      26.561722     -2821.1534      27031.599      5413.8588    
   1826000   368.17202     -2843.7271      23.794984     -2819.9322      29530.187      5413.8588    
   1827000   398.70343     -2845.9066      25.768232     -2820.1384      28596.18       5413.8588    
   1828000   388.5216      -2846.9122      25.110179     -2821.8021      27440.204      5413.8588    
   1829000   396.52205     -2846.4318      25.627249     -2820.8046      27807.603      5413.8588    
   1830000   404.95765     -2845.4979      26.172442     -2819.3255      28709.404      5413.8588    
   1831000   425.52554     -2845.8835      27.501746     -2818.3817      28465.762      5413.8588    
   1832000   406.59535     -2844.4811      26.278287     -2818.2028      29476.479      5413.8588    
   1833000   407.41769     -2846.3366      26.331435     -2820.0052      28129.643      5413.8588    
   1834000   387.14778     -2845.7906      25.021389     -2820.7692      27951.133      5413.8588    
   1835000   422.27523     -2847.8357      27.291679     -2820.544       26914.441      5413.8588    
   1836000   399.64056     -2846.1172      25.828798     -2820.2884      27745.515      5413.8588    
   1837000   406.65113     -2845.7155      26.281892     -2819.4336      28595.022      5413.8588    
   1838000   390.61548     -2846.7079      25.245507     -2821.4624      27492.145      5413.8588    
   1839000   371.31032     -2845.9908      23.997813     -2821.993       28301.702      5413.8588    
   1840000   415.69824     -2847.3016      26.866607     -2820.435       27560.8        5413.8588    
   1841000   404.55883     -2845.0075      26.146667     -2818.8609      29050.696      5413.8588    
   1842000   398.78981     -2845.991       25.773814     -2820.2172      28463.804      5413.8588    
   1843000   416.14448     -2847.1283      26.895448     -2820.2328      27692.135      5413.8588    
   1844000   398.77238     -2844.9284      25.772688     -2819.1557      29040.907      5413.8588    
   1845000   441.60275     -2845.6128      28.540818     -2817.072       29518.138      5413.8588    
   1846000   413.76109     -2846.162       26.74141      -2819.4206      28214.199      5413.8588    
   1847000   407.64797     -2846.9159      26.346318     -2820.5696      27747.228      5413.8588    
   1848000   389.10286     -2845.1801      25.147746     -2820.0323      28968.672      5413.8588    
   1849000   430.75784     -2845.8126      27.839911     -2817.9726      28876.969      5413.8588    
   1850000   404.90046     -2845.7478      26.168746     -2819.579       28712.999      5413.8588    
   1851000   394.01267     -2846.5095      25.465067     -2821.0445      27954.004      5413.8588    
   1852000   390.92439     -2846.2097      25.265472     -2820.9443      28073.83       5413.8588    
   1853000   389.76841     -2844.9212      25.19076      -2819.7304      29081.254      5413.8588    
   1854000   411.48139     -2845.9976      26.594072     -2819.4035      28444.451      5413.8588    
   1855000   413.35308     -2847.7566      26.71504      -2821.0416      27015.168      5413.8588    
   1856000   372.84358     -2846.0712      24.096908     -2821.9743      28196.504      5413.8588    
   1857000   402.15188     -2846.4093      25.991105     -2820.4182      27832.108      5413.8588    
   1858000   420.06761     -2846.0218      27.149        -2818.8728      28655.585      5413.8588    
   1859000   401.26569     -2846.102       25.933831     -2820.1682      28585.932      5413.8588    
   1860000   392.43112     -2846.4538      25.362852     -2821.0909      27564.775      5413.8588    
   1861000   381.99364     -2844.785       24.688277     -2820.0967      29292.205      5413.8588    
   1862000   405.60422     -2845.471       26.21423      -2819.2568      29050.307      5413.8588    
   1863000   371.60475     -2848.0434      24.016842     -2824.0265      26386.482      5413.8588    
   1864000   395.89455     -2846.8251      25.586693     -2821.2384      27602.268      5413.8588    
   1865000   394.47291     -2845.6758      25.494813     -2820.1809      28581.465      5413.8588    
   1866000   434.8652      -2845.4022      28.105369     -2817.2968      29407.349      5413.8588    
   1867000   395.60026     -2845.2672      25.567673     -2819.6995      29008.112      5413.8588    
   1868000   377.25122     -2845.0697      24.381774     -2820.6879      29064.591      5413.8588    
   1869000   410.10533     -2846.2139      26.505137     -2819.7088      28248.969      5413.8588    
   1870000   423.87194     -2845.3412      27.394874     -2817.9463      29024.384      5413.8588    
   1871000   402.5397      -2847.1551      26.01617      -2821.139       27124.976      5413.8588    
   1872000   403.75388     -2847.4643      26.094642     -2821.3697      27432.392      5413.8588    
   1873000   385.87965     -2844.9383      24.939429     -2819.9989      29489.382      5413.8588    
   1874000   383.53643     -2845.7725      24.787987     -2820.9845      28721.61       5413.8588    
   1875000   386.37546     -2847.7301      24.971474     -2822.7586      26961          5413.8588    
   1876000   376.29109     -2845.9371      24.319721     -2821.6174      28421.052      5413.8588    
   1877000   387.00106     -2845.7584      25.011906     -2820.7465      28493.259      5413.8588    
   1878000   405.42732     -2846.2119      26.202797     -2820.0091      28135.999      5413.8588    
   1879000   401.97655     -2845.8045      25.979774     -2819.8248      28797.021      5413.8588    
   1880000   386.14295     -2846.7898      24.956447     -2821.8334      27544.641      5413.8588    
   1881000   378.97357     -2846.0973      24.493089     -2821.6042      28344.923      5413.8588    
   1882000   390.1737      -2846.4657      25.216955     -2821.2488      28134.604      5413.8588    
   1883000   399.31899     -2843.1822      25.808015     -2817.3742      30889.634      5413.8588    
   1884000   424.45093     -2845.4327      27.432295     -2818.0004      29571.477      5413.8588    
   1885000   397.94043     -2846.7016      25.718919     -2820.9827      27998.596      5413.8588    
   1886000   411.4887      -2847.8328      26.594544     -2821.2383      27067.325      5413.8588    
   1887000   398.82208     -2845.6305      25.7759       -2819.8546      28696.534      5413.8588    
   1888000   412.88564     -2845.8987      26.684829     -2819.2139      28513.683      5413.8588    
   1889000   410.18604     -2847.4995      26.510353     -2820.9891      27142.536      5413.8588    
   1890000   393.19091     -2846.0734      25.411957     -2820.6614      28074.282      5413.8588    
   1891000   411.31619     -2845.9476      26.583395     -2819.3642      28829.074      5413.8588    
   1892000   425.14855     -2843.8146      27.477381     -2816.3373      30476.374      5413.8588    
   1893000   413.22138     -2847.2433      26.706528     -2820.5368      27335.738      5413.8588    
   1894000   413.05273     -2846.9554      26.695628     -2820.2598      27879.158      5413.8588    
   1895000   396.11241     -2845.1721      25.600774     -2819.5713      29099.369      5413.8588    
   1896000   420.85327     -2844.6856      27.199778     -2817.4858      29650.859      5413.8588    
   1897000   394.46291     -2844.1864      25.494166     -2818.6922      29985.799      5413.8588    
   1898000   379.75705     -2845.1199      24.543726     -2820.5762      28474.4        5413.8588    
   1899000   396.51188     -2846.5091      25.626592     -2820.8826      27759.687      5413.8588    
   1900000   372.50675     -2844.0105      24.075138     -2819.9353      29630.308      5413.8588    
   1901000   382.79865     -2846.3577      24.740305     -2821.6174      28073.513      5413.8588    
   1902000   403.15123     -2846.2328      26.055693     -2820.1772      28548.925      5413.8588    
   1903000   419.21626     -2845.355       27.093977     -2818.261       29383.137      5413.8588    
   1904000   424.06883     -2844.9068      27.407599     -2817.4992      29789.85       5413.8588    
   1905000   380.8248      -2846.1947      24.612734     -2821.582       28088.719      5413.8588    
   1906000   371.74674     -2846.5797      24.026019     -2822.5537      27658.227      5413.8588    
   1907000   402.24163     -2847.046       25.996906     -2821.049       27424.393      5413.8588    
   1908000   401.21664     -2845.5553      25.930661     -2819.6247      28897.604      5413.8588    
   1909000   434.90839     -2847.3512      28.108161     -2819.243       27677.847      5413.8588    
   1910000   386.70366     -2845.9934      24.992686     -2821.0007      28048.916      5413.8588    
   1911000   390.53395     -2846.8957      25.240237     -2821.6555      27633.59       5413.8588    
   1912000   404.57688     -2847.1503      26.147833     -2821.0024      27396.7        5413.8588    
   1913000   395.28742     -2845.569       25.547455     -2820.0215      28296.582      5413.8588    
   1914000   435.19743     -2844.888       28.126841     -2816.7611      29625.962      5413.8588    
   1915000   401.30287     -2844.979       25.936233     -2819.0428      29234.416      5413.8588    
   1916000   408.35292     -2846.4621      26.391879     -2820.0702      28176.157      5413.8588    
   1917000   393.00805     -2846.9963      25.400139     -2821.5962      27213.674      5413.8588    
   1918000   385.64156     -2845.5221      24.924042     -2820.5981      28572.429      5413.8588    
   1919000   405.72001     -2844.6308      26.221714     -2818.4091      29652.2        5413.8588    
   1920000   412.11726     -2846.4453      26.635169     -2819.8101      28235.363      5413.8588    
   1921000   384.43588     -2845.5674      24.846119     -2820.7213      28663.43       5413.8588    
   1922000   392.69292     -2845.9071      25.379772     -2820.5274      28383.887      5413.8588    
   1923000   440.82191     -2845.2256      28.490352     -2816.7352      29551.59       5413.8588    
   1924000   395.6321      -2844.7057      25.569731     -2819.136       29646.691      5413.8588    
   1925000   388.03413     -2845.4212      25.078674     -2820.3425      28996.206      5413.8588    
   1926000   410.73794     -2847.507       26.546023     -2820.961       27272.963      5413.8588    
   1927000   448.25674     -2844.708       28.970865     -2815.7371      30257.32       5413.8588    
   1928000   410.65671     -2845.8212      26.540773     -2819.2804      28407.791      5413.8588    
   1929000   388.36579     -2845.5194      25.100109     -2820.4193      28293.58       5413.8588    
   1930000   378.07489     -2846.2859      24.435007     -2821.8509      27642.261      5413.8588    
   1931000   408.45798     -2845.9877      26.398669     -2819.589       28553.512      5413.8588    
   1932000   388.54339     -2844.2796      25.111588     -2819.168       29724.736      5413.8588    
   1933000   409.92573     -2845.5649      26.49353      -2819.0713      28906.27       5413.8588    
   1934000   402.65904     -2846.5508      26.023883     -2820.5269      27855.733      5413.8588    
   1935000   394.59678     -2846.2622      25.502818     -2820.7594      27988.448      5413.8588    
   1936000   400.05362     -2845.2246      25.855494     -2819.3691      28946.645      5413.8588    
   1937000   423.33297     -2845.3601      27.360041     -2818.0001      29599.629      5413.8588    
   1938000   383.40125     -2844.4919      24.779251     -2819.7126      29868.363      5413.8588    
   1939000   395.90749     -2846.4634      25.58753      -2820.8759      27879.26       5413.8588    
   1940000   416.11383     -2846.5961      26.893467     -2819.7026      28108.345      5413.8588    
   1941000   403.77127     -2844.3841      26.095767     -2818.2883      29450.176      5413.8588    
   1942000   421.22654     -2846.6106      27.223902     -2819.3867      28396.584      5413.8588    
   1943000   396.03833     -2845.6396      25.595986     -2820.0436      28583.481      5413.8588    
   1944000   388.8217      -2846.8521      25.129575     -2821.7225      27596.552      5413.8588    
   1945000   380.07429     -2847.4271      24.564229     -2822.8629      26984.133      5413.8588    
   1946000   411.83394     -2846.8698      26.616857     -2820.253       27845.884      5413.8588    
   1947000   388.11839     -2844.537       25.08412      -2819.4529      29589.374      5413.8588    
   1948000   402.63255     -2844.6801      26.022171     -2818.658       29702.933      5413.8588    
   1949000   452.19899     -2847.8201      29.225654     -2818.5944      27593.313      5413.8588    
   1950000   384.1272      -2845.5057      24.826169     -2820.6795      28980.818      5413.8588    
   1951000   401.51237     -2846.4628      25.949774     -2820.5131      28114.91       5413.8588    
   1952000   403.63572     -2846.4488      26.087006     -2820.3618      28195.346      5413.8588    
   1953000   417.27391     -2845.085       26.968443     -2818.1165      29609.592      5413.8588    
   1954000   404.89863     -2844.3428      26.168628     -2818.1742      29956.001      5413.8588    
   1955000   412.94333     -2845.4047      26.688557     -2818.7161      28845.783      5413.8588    
   1956000   380.98375     -2846.1296      24.623008     -2821.5066      28238.617      5413.8588    
   1957000   403.44558     -2846.3624      26.074717     -2820.2876      27988.904      5413.8588    
   1958000   414.45333     -2846.2728      26.786149     -2819.4867      28442.946      5413.8588    
   1959000   404.59023     -2847.1134      26.148696     -2820.9647      27255.682      5413.8588    
   1960000   397.54054     -2846.3186      25.693074     -2820.6256      28080.598      5413.8588    
   1961000   417.56459     -2846.0119      26.98723      -2819.0247      28711.525      5413.8588    
   1962000   359.1268      -2846.179       23.210391     -2822.9686      27903.25       5413.8588    
   1963000   393.08831     -2847.3521      25.405326     -2821.9468      27183.335      5413.8588    
   1964000   412.79913     -2846.8368      26.679238     -2820.1575      27780.676      5413.8588    
   1965000   416.00827     -2845.5914      26.886645     -2818.7047      28722.347      5413.8588    
   1966000   383.90507     -2849.1865      24.811813     -2824.3747      25353.744      5413.8588    
   1967000   415.04516     -2846.6062      26.824399     -2819.7818      27929.881      5413.8588    
   1968000   394.71048     -2845.325       25.510167     -2819.8148      29033.789      5413.8588    
   1969000   417.94672     -2847.5928      27.011927     -2820.5809      27189.24       5413.8588    
   1970000   399.98712     -2846.3537      25.851196     -2820.5025      28323.234      5413.8588    
   1971000   400.6083      -2845.3436      25.891343     -2819.4523      29105.477      5413.8588    
   1972000   428.39164     -2845.9727      27.686983     -2818.2857      28809.364      5413.8588    
   1973000   375.81022     -2844.3741      24.288642     -2820.0855      29389.036      5413.8588    
   1974000   407.99149     -2847.1057      26.36852      -2820.7372      27533.272      5413.8588    
   1975000   400.48105     -2845.9833      25.88312      -2820.1002      28244.194      5413.8588    
   1976000   404.16382     -2844.8665      26.121137     -2818.7454      29271.659      5413.8588    
   1977000   434.46396     -2846.8331      28.079437     -2818.7537      28013.681      5413.8588    
   1978000   380.24689     -2847.9941      24.575384     -2823.4187      26461.084      5413.8588    
   1979000   398.13309     -2847.0058      25.73137      -2821.2744      27438.824      5413.8588    
   1980000   396.08457     -2845.7165      25.598974     -2820.1175      28358.178      5413.8588    
   1981000   407.23453     -2845.1016      26.319597     -2818.782       29011.304      5413.8588    
   1982000   419.42109     -2844.1497      27.107216     -2817.0425      30140.82       5413.8588    
   1983000   389.96062     -2845.0886      25.203183     -2819.8854      28858.31       5413.8588    
   1984000   385.7144      -2845.5024      24.92875      -2820.5736      28616.774      5413.8588    
   1985000   393.61327     -2846.9627      25.439254     -2821.5235      27430.779      5413.8588    
   1986000   401.86545     -2848.0816      25.972593     -2822.109       26605.308      5413.8588    
   1987000   383.01067     -2845.4194      24.754007     -2820.6654      28380.43       5413.8588    
   1988000   403.40212     -2845.6351      26.071908     -2819.5632      28873.421      5413.8588    
   1989000   409.54941     -2846.2358      26.469208     -2819.7666      28351.292      5413.8588    
   1990000   377.43888     -2847.6482      24.393902     -2823.2543      26210.873      5413.8588    
   1991000   420.84423     -2846.5553      27.199193     -2819.3561      28156.67       5413.8588    
   1992000   417.89358     -2845.9369      27.008493     -2818.9284      28462.647      5413.8588    
   1993000   418.03387     -2844.6084      27.01756      -2817.5908      29915.69       5413.8588    
   1994000   392.95781     -2845.2486      25.396892     -2819.8517      29236.832      5413.8588    
   1995000   402.25394     -2846.5241      25.997701     -2820.5264      27807.572      5413.8588    
   1996000   400.78145     -2845.9235      25.902534     -2820.021       28076.648      5413.8588    
   1997000   423.10004     -2845.6389      27.344986     -2818.294       29251.735      5413.8588    
   1998000   380.89723     -2845.7042      24.617415     -2821.0868      28249.875      5413.8588    
   1999000   407.22351     -2846.6966      26.318885     -2820.3777      28081.811      5413.8588    
   2000000   415.14787     -2844.9714      26.831037     -2818.1403      29322.81       5413.8588    
Loop time of 48158.4 on 1 procs for 1500000 steps with 501 atoms

Performance: 1.346 ns/day, 17.836 hours/ns, 31.147 timesteps/s, 15.605 katom-step/s
99.2% CPU use with 1 MPI tasks x 1 OpenMP threads

MPI task timing breakdown:
Section |  min time  |  avg time  |  max time  |%varavg| %total
---------------------------------------------------------------
Pair    | 46561      | 46561      | 46561      |   0.0 | 96.68
Neigh   | 0          | 0          | 0          |   0.0 |  0.00
Comm    | 60.131     | 60.131     | 60.131     |   0.0 |  0.12
Output  | 1.1789     | 1.1789     | 1.1789     |   0.0 |  0.00
Modify  | 1476.2     | 1476.2     | 1476.2     |   0.0 |  3.07
Other   |            | 59.6       |            |       |  0.12

Nlocal:            501 ave         501 max         501 min
Histogram: 1 0 0 0 0 0 0 0 0 0
Nghost:           2416 ave        2416 max        2416 min
Histogram: 1 0 0 0 0 0 0 0 0 0
Neighs:              0 ave           0 max           0 min
Histogram: 1 0 0 0 0 0 0 0 0 0
FullNghs:        68476 ave       68476 max       68476 min
Histogram: 1 0 0 0 0 0 0 0 0 0

Total # of neighbors = 68476
Ave neighs/atom = 136.67864
Neighbor list builds = 0
Dangerous builds = 0

# ── Save final state ─────────────────────────────────────────
variable  pe_final  equal  pe
variable  temp_fin  equal  temp
variable  press_fin equal  press

print "EQUIL_RESULTS_START"
EQUIL_RESULTS_START
print "  T_K          : 400"
  T_K          : 400
print "  pe_final_eV  : ${pe_final}"
  pe_final_eV  : -2844.9713603321
print "  temp_final_K : ${temp_fin}"
  temp_final_K : 415.147869793314
print "  press_final  : ${press_fin}"
  press_final  : 29322.809563172
print "EQUIL_RESULTS_END"
EQUIL_RESULTS_END

write_data     structures/notebook10-bulk-equilibration/Pure_Nickel/Pure_Nickel_H_400K.lammps
System init for write_data ...
Total wall time: 17:47:27
