LAMMPS (11 Feb 2026 - Development - patch_11Feb2026-99-gb75dfcc930-modified)
KOKKOS mode with Kokkos version 5.0.2 is enabled
  using double precision
  using view layout = legacy
  will use up to 1 GPU(s) per node
  using 1 OpenMP thread(s) per MPI task
package kokkos
package kokkos newton on neigh half
# LAMMPS NVT bulk equilibration — Hastelloy N + 1H
# T = 1200 K | Notebook 10
# Phase 1: 250 ps equilibration
# Phase 2: 750 ps production (trajectory for NB11 MSD)
# Refs: NVT [6]; H diffusion [1,2]

units          metal
atom_style     atomic
newton         on
boundary       p p p

read_data      structures/notebook10-bulk-equilibration/Pure_Nickel/Pure_Nickel_H_initial.lammps
Reading data file ...
  orthogonal box = (0 0 0) to (17.559102 17.559102 17.559102)
  1 by 1 by 1 MPI processor grid
  reading atoms ...
  501 atoms
  read_data CPU = 0.009 seconds

pair_style     mliap unified /projects/westgroup/akinyemi.az/mace_lammps/models/mace-mp-0b2-medium.model-mliap_lammps.pt 0
pair_coeff     * * Al B C Cr Fe Mo Ni O H

neighbor       2.0 bin
neigh_modify   every 1 delay 0 check yes

# ── Identify H atom for tracking ─────────────────────────────
group          H_atom   type 9
1 atoms in group H_atom
group          metal    subtract all H_atom
500 atoms in group metal

# ── Thermo ───────────────────────────────────────────────────
thermo         1000
thermo_style   custom step temp pe ke etotal press vol

# ── Timestep ─────────────────────────────────────────────────
timestep       0.0005

# ── Initialize velocities ────────────────────────────────────
velocity       all create 1200.0 42 mom yes rot yes dist gaussian

# ── Phase 1: Equilibration ───────────────────────────────────
fix            nvt_equil  all  nvt  temp  1200.0  1200.0  0.1
print "### Phase 1: Equilibration 250 ps at 1200 K ###"
### Phase 1: Equilibration 250 ps at 1200 K ###
run            500000

CITE-CITE-CITE-CITE-CITE-CITE-CITE-CITE-CITE-CITE-CITE-CITE-CITE

Your simulation uses code contributions which should be cited:

- KOKKOS package: https://doi.org/10.1145/3731599.3767498

@inproceedings{Johansson25,
 author = {A. Johansson and E. Weinberg and C. Trott and M. McCarthy and S. Moore},
 title = {{LAMMPS-KOKKOS}: {P}erformance Portable Molecular Dynamics Across Exascale Architectures},
 year = 2025,
 booktitle = {Proceedings of the SC '25 Workshops of the International Conference for High Performance Computing,
  Networking, Storage and Analysis},
 pages = {1217–1232},
}

CITE-CITE-CITE-CITE-CITE-CITE-CITE-CITE-CITE-CITE-CITE-CITE-CITE

Neighbor list info ...
  update: every = 1 steps, delay = 0 steps, check = yes
  max neighbors/atom: 2000, page size: 100000
  master list distance cutoff = 7
  ghost atom cutoff = 7
  binsize = 7, bins = 3 3 3
  1 neighbor lists, perpetual/occasional/extra = 1 0 0
  (1) pair mliap/kk, perpetual
      attributes: full, newton on, kokkos_device
      pair build: full/bin/kk/device
      stencil: full/bin/3d
      bin: kk/device
Per MPI rank memory allocation (min/avg/max) = 89.56 | 89.56 | 89.56 Mbytes
   Step          Temp          PotEng         KinEng         TotEng         Press          Volume    
         0   1200          -2871.7085      77.556087     -2794.1524      16404.688      5413.8588    
      1000   1107.5165     -2793.7273      71.578875     -2722.1484      83345.757      5413.8588    
      2000   1170.0328     -2799.7362      75.619305     -2724.1169      79194.748      5413.8588    
      3000   1154.2222     -2790.1344      74.597463     -2715.5369      88058.746      5413.8588    
      4000   1248.5922     -2790.8952      80.696605     -2710.1986      88280.592      5413.8588    
      5000   1153.2012     -2789.9544      74.531474     -2715.4229      87857.701      5413.8588    
      6000   1129.6224     -2792.8501      73.007576     -2719.8425      84342.715      5413.8588    
      7000   1220.5537     -2787.7961      78.884475     -2708.9117      90682.937      5413.8588    
      8000   1238.576      -2794.7936      80.049256     -2714.7444      84965.801      5413.8588    
      9000   1223.7951     -2798.181       79.093968     -2719.0871      81432.841      5413.8588    
     10000   1149.265      -2795.0538      74.277078     -2720.7767      83104.878      5413.8588    
     11000   1235.438      -2794.9277      79.84645      -2715.0812      84661.867      5413.8588    
     12000   1285.7331     -2789.9878      83.097022     -2706.8907      90369.541      5413.8588    
     13000   1225.4322     -2790.8944      79.199772     -2711.6947      87660.733      5413.8588    
     14000   1142.486      -2789.8686      73.838952     -2716.0296      87564.364      5413.8588    
     15000   1143.2318     -2793.3084      73.887154     -2719.4213      85149.727      5413.8588    
     16000   1221.0298     -2793.8955      78.915246     -2714.9803      84996.545      5413.8588    
     17000   1276.6202     -2795.3508      82.508058     -2712.8427      85108.352      5413.8588    
     18000   1194.4709     -2794.1324      77.19874      -2716.9337      85407.473      5413.8588    
     19000   1152.643      -2792.6612      74.495402     -2718.1658      85473.54       5413.8588    
     20000   1298.3326     -2795.9664      83.91133      -2712.0551      84524.371      5413.8588    
     21000   1218.8309     -2791.4457      78.773131     -2712.6726      87110.066      5413.8588    
     22000   1223.5557     -2793.2069      79.078493     -2714.1284      85901.255      5413.8588    
     23000   1143.9564     -2798.7271      73.933983     -2724.7931      79313.503      5413.8588    
     24000   1212.1963     -2791.9598      78.344336     -2713.6154      86095.6        5413.8588    
     25000   1171.0802     -2789.2414      75.687001     -2713.5544      88482.111      5413.8588    
     26000   1124.4071     -2789.5578      72.670513     -2716.8873      87977.298      5413.8588    
     27000   1135.0216     -2791.6936      73.35653      -2718.337       84763.792      5413.8588    
     28000   1167.8704     -2790.2415      75.479546     -2714.762       86847.294      5413.8588    
     29000   1157.0754     -2788.3322      74.781866     -2713.5503      90278.378      5413.8588    
     30000   1217.4007     -2797.6352      78.680696     -2718.9545      81598.361      5413.8588    
     31000   1178.8673     -2798.7268      76.190281     -2722.5365      80318.23       5413.8588    
     32000   1125.2574     -2789.226       72.725466     -2716.5005      88897.479      5413.8588    
     33000   1171.8136     -2792.1843      75.7344       -2716.4499      85081.222      5413.8588    
     34000   1183.9133     -2795.3827      76.516401     -2718.8663      82982.426      5413.8588    
     35000   1299.372      -2791.3113      83.978504     -2707.3328      88031.892      5413.8588    
     36000   1242.2578     -2790.0201      80.287212     -2709.7328      88939.609      5413.8588    
     37000   1243.2187     -2794.1157      80.349317     -2713.7664      84904.052      5413.8588    
     38000   1105.9593     -2798.0589      71.478233     -2726.5807      80291.777      5413.8588    
     39000   1184.4468     -2794.4292      76.55088      -2717.8784      85131.165      5413.8588    
     40000   1211.4584     -2793.2892      78.296647     -2714.9925      85461.589      5413.8588    
     41000   1207.0114     -2792.7724      78.009236     -2714.7631      86769.854      5413.8588    
     42000   1169.6236     -2798.6255      75.59286      -2723.0326      80003.878      5413.8588    
     43000   1203.3065     -2800.1952      77.769788     -2722.4255      78989.658      5413.8588    
     44000   1254.148      -2797.3305      81.055674     -2716.2749      82266.549      5413.8588    
     45000   1271.5323     -2796.9467      82.179228     -2714.7675      82698.245      5413.8588    
     46000   1248.4254     -2788.5471      80.685822     -2707.8613      89497.502      5413.8588    
     47000   1261.684      -2791.489       81.542728     -2709.9462      87077.432      5413.8588    
     48000   1182.6611     -2795.9788      76.435474     -2719.5433      81681.043      5413.8588    
     49000   1210.4134     -2793.1962      78.229107     -2714.967       84870.834      5413.8588    
     50000   1252.1246     -2793.0512      80.924904     -2712.1263      86745.647      5413.8588    
     51000   1187.6152     -2790.2373      76.755658     -2713.4816      87827.599      5413.8588    
     52000   1184.3883     -2800.0939      76.547103     -2723.5468      79195.418      5413.8588    
     53000   1196.6294     -2795.0733      77.338245     -2717.7351      82978.586      5413.8588    
     54000   1153.9648     -2790.2412      74.580826     -2715.6604      87125.808      5413.8588    
     55000   1206.0169     -2788.6071      77.944958     -2710.6621      89431.59       5413.8588    
     56000   1223.6924     -2793.9712      79.087326     -2714.8839      85280.147      5413.8588    
     57000   1183.1284     -2792.6639      76.465672     -2716.1982      86329.689      5413.8588    
     58000   1199.5366     -2786.9065      77.52614      -2709.3803      89926.267      5413.8588    
     59000   1270.406      -2794.6479      82.10643      -2712.5415      85205.052      5413.8588    
     60000   1220.9856     -2794.1102      78.912387     -2715.1978      85295.593      5413.8588    
     61000   1168.8456     -2795.3372      75.542578     -2719.7946      83296.028      5413.8588    
     62000   1174.2806     -2796.1628      75.893843     -2720.269       82244.709      5413.8588    
     63000   1195.4722     -2792.5348      77.263458     -2715.2714      85789.571      5413.8588    
     64000   1186.7262     -2794.5781      76.698201     -2717.8799      84168.669      5413.8588    
     65000   1142.7189     -2796.4143      73.854008     -2722.5603      81832.831      5413.8588    
     66000   1209.8267     -2793.5874      78.191185     -2715.3962      85194.166      5413.8588    
     67000   1240.7456     -2793.6027      80.18948      -2713.4132      85136.656      5413.8588    
     68000   1124.3252     -2793.3807      72.665221     -2720.7155      85688.545      5413.8588    
     69000   1190.8125     -2797.6024      76.962299     -2720.6401      81416.858      5413.8588    
     70000   1184.4571     -2791.6463      76.551546     -2715.0947      86709.388      5413.8588    
     71000   1245.7918     -2793.0755      80.515613     -2712.5599      85885.051      5413.8588    
     72000   1227.3805     -2788.0885      79.32569      -2708.7628      91232.076      5413.8588    
     73000   1142.1764     -2791.8998      73.818941     -2718.0809      85996.158      5413.8588    
     74000   1138.1277     -2794.4088      73.557275     -2720.8516      83386.888      5413.8588    
     75000   1189.1418     -2799.3262      76.854321     -2722.4719      79403.476      5413.8588    
     76000   1238.7643     -2793.9247      80.061424     -2713.8632      85000.669      5413.8588    
     77000   1208.4482     -2791.83        78.102097     -2713.7279      87334.468      5413.8588    
     78000   1203.7005     -2795.9139      77.795248     -2718.1186      83127.332      5413.8588    
     79000   1189.1249     -2796.3234      76.853228     -2719.4702      82679.425      5413.8588    
     80000   1188.3501     -2794.8302      76.803151     -2718.0271      84137.96       5413.8588    
     81000   1215.2524     -2794.8977      78.541849     -2716.3559      83532.11       5413.8588    
     82000   1343.3632     -2791.6012      86.821659     -2704.7796      88358.131      5413.8588    
     83000   1170.8825     -2791.7016      75.674218     -2716.0274      86183.114      5413.8588    
     84000   1155.309      -2794.3403      74.667706     -2719.6726      84018.724      5413.8588    
     85000   1221.9856     -2795.8358      78.977018     -2716.8588      83788.014      5413.8588    
     86000   1192.2584     -2794.0743      77.055746     -2717.0185      84507.776      5413.8588    
     87000   1225.3711     -2789.2178      79.195826     -2710.022       89514.936      5413.8588    
     88000   1195.4761     -2791.6027      77.263706     -2714.339       87213.903      5413.8588    
     89000   1161.1441     -2794.3294      75.044827     -2719.2846      84420.67       5413.8588    
     90000   1209.8817     -2795.1593      78.194743     -2716.9645      84261.13       5413.8588    
     91000   1239.8138     -2791.6279      80.129256     -2711.4986      87931.106      5413.8588    
     92000   1199.4358     -2791.9719      77.519623     -2714.4523      86492.526      5413.8588    
     93000   1161.7505     -2793.4503      75.084021     -2718.3662      84926.753      5413.8588    
     94000   1246.004      -2798.3739      80.529331     -2717.8446      80525.282      5413.8588    
     95000   1273.7861     -2794.5088      82.32489      -2712.1839      84801.878      5413.8588    
     96000   1228.5269     -2792.125       79.39978      -2712.7252      86347.022      5413.8588    
     97000   1230.5451     -2793.5361      79.53022      -2714.0059      84607.78       5413.8588    
     98000   1215.1782     -2794.1282      78.537055     -2715.5912      84102.867      5413.8588    
     99000   1243.2989     -2793.249       80.354499     -2712.8945      85009.848      5413.8588    
    100000   1290.0966     -2796.3638      83.379039     -2712.9847      82873.246      5413.8588    
    101000   1180.9465     -2796.9858      76.324659     -2720.6612      81921.714      5413.8588    
    102000   1123.992      -2794.2918      72.643686     -2721.6481      83274.675      5413.8588    
    103000   1186.5657     -2792.0537      76.687825     -2715.3659      86300.71       5413.8588    
    104000   1219.882      -2791.6307      78.84106      -2712.7896      87901.83       5413.8588    
    105000   1260.3947     -2792.9569      81.459401     -2711.4975      86894.772      5413.8588    
    106000   1224.6259     -2793.1405      79.14766      -2713.9929      85826.151      5413.8588    
    107000   1181.4754     -2794.7932      76.358841     -2718.4344      83150.443      5413.8588    
    108000   1122.7322     -2794.5338      72.562263     -2721.9716      83021.133      5413.8588    
    109000   1246.7241     -2796.1626      80.57587      -2715.5867      83111.68       5413.8588    
    110000   1189.3224     -2788.2674      76.865995     -2711.4014      89949.303      5413.8588    
    111000   1253.8964     -2789.5646      81.039415     -2708.5252      89139.418      5413.8588    
    112000   1226.067      -2795.9348      79.240799     -2716.694       82601.619      5413.8588    
    113000   1149.8266     -2792.6543      74.313374     -2718.3409      85419.305      5413.8588    
    114000   1161.2405     -2790.0615      75.05106      -2715.0105      87197.653      5413.8588    
    115000   1221.3908     -2789.178       78.938573     -2710.2394      89402.824      5413.8588    
    116000   1179.5792     -2792.2624      76.236289     -2716.0261      85749.017      5413.8588    
    117000   1142.4        -2795.0873      73.833395     -2721.2539      83678.806      5413.8588    
    118000   1201.7049     -2794.9142      77.666272     -2717.2479      83238.839      5413.8588    
    119000   1224.8386     -2793.1184      79.161408     -2713.957       85651.311      5413.8588    
    120000   1191.9742     -2790.2023      77.03738      -2713.1649      88394.261      5413.8588    
    121000   1179.4075     -2788.7084      76.22519      -2712.4832      88795.744      5413.8588    
    122000   1187.1676     -2794.3809      76.726729     -2717.6542      82916.996      5413.8588    
    123000   1152.8851     -2791.8934      74.51105      -2717.3823      85614.487      5413.8588    
    124000   1242.2065     -2793.809       80.283897     -2713.5251      85890.797      5413.8588    
    125000   1227.9588     -2787.7732      79.363065     -2708.4102      90252.041      5413.8588    
    126000   1250.6036     -2793.0221      80.826602     -2712.1955      85073.37       5413.8588    
    127000   1226.3222     -2797.6011      79.257296     -2718.3438      81361.585      5413.8588    
    128000   1208.0049     -2794.5917      78.073442     -2716.5182      84392.105      5413.8588    
    129000   1242.8119     -2792.2243      80.32302      -2711.9012      87473.778      5413.8588    
    130000   1274.8982     -2792.1236      82.396764     -2709.7268      86995.713      5413.8588    
    131000   1201.9087     -2793.7164      77.679448     -2716.0369      84443.066      5413.8588    
    132000   1180.1036     -2794.4532      76.270182     -2718.1831      83829.711      5413.8588    
    133000   1182.1131     -2792.5257      76.400058     -2716.1257      84733.606      5413.8588    
    134000   1240.6256     -2790.6715      80.181721     -2710.4898      88635.845      5413.8588    
    135000   1251.3778     -2796.7193      80.876635     -2715.8427      83022.7        5413.8588    
    136000   1237.412      -2793.5032      79.974025     -2713.5291      86439.918      5413.8588    
    137000   1114.5347     -2789.858       72.032456     -2717.8255      88300.659      5413.8588    
    138000   1229.2655     -2799.0071      79.44752      -2719.5596      81094.9        5413.8588    
    139000   1197.061      -2790.8122      77.36614      -2713.446       87350.349      5413.8588    
    140000   1145.1502     -2792.0747      74.011137     -2718.0635      86022.53       5413.8588    
    141000   1165.5573     -2798.3943      75.330055     -2723.0642      80495.191      5413.8588    
    142000   1153.0378     -2796.2117      74.520918     -2721.6908      81929.731      5413.8588    
    143000   1139.7064     -2787.0765      73.659308     -2713.4172      89558.308      5413.8588    
    144000   1174.8167     -2788.7714      75.928492     -2712.8429      87682.096      5413.8588    
    145000   1253.0547     -2792.6067      80.985018     -2711.6216      86646.596      5413.8588    
    146000   1171.6065     -2792.0864      75.721013     -2716.3654      85308.49       5413.8588    
    147000   1163.328      -2793.5852      75.185975     -2718.3992      84160.51       5413.8588    
    148000   1190.6788     -2793.7548      76.953657     -2716.8012      85238.649      5413.8588    
    149000   1213.6127     -2789.3452      78.435876     -2710.9093      89169.304      5413.8588    
    150000   1175.7212     -2790.8202      75.986945     -2714.8333      87716.678      5413.8588    
    151000   1140.8242     -2796.76        73.731554     -2723.0284      82464.951      5413.8588    
    152000   1174.9507     -2794.9906      75.93715      -2719.0534      83717.782      5413.8588    
    153000   1212.759      -2792.6306      78.380703     -2714.2499      86308.45       5413.8588    
    154000   1215.8074     -2797.0448      78.57772      -2718.4671      83023.004      5413.8588    
    155000   1165.9292     -2796.2574      75.354089     -2720.9033      82445.361      5413.8588    
    156000   1159.1944     -2794.9686      74.918817     -2720.0497      83686.015      5413.8588    
    157000   1210.5347     -2792.4068      78.236942     -2714.1698      87780.003      5413.8588    
    158000   1177.875      -2788.0201      76.12615      -2711.8939      90093.697      5413.8588    
    159000   1205.3941     -2789.9428      77.90471      -2712.0381      89042.637      5413.8588    
    160000   1146.5073     -2795.8842      74.098847     -2721.7853      82246.733      5413.8588    
    161000   1130.7775     -2794.0132      73.082232     -2720.931       83535.459      5413.8588    
    162000   1195.4728     -2793.1856      77.263497     -2715.9221      84680.532      5413.8588    
    163000   1173.8672     -2794.4656      75.867124     -2718.5985      83678.743      5413.8588    
    164000   1117.0792     -2796.0104      72.196908     -2723.8134      81643.083      5413.8588    
    165000   1148.9199     -2792.7283      74.254774     -2718.4736      84496.416      5413.8588    
    166000   1186.6607     -2790.8387      76.693969     -2714.1447      87198.746      5413.8588    
    167000   1224.3594     -2796.1604      79.130436     -2717.03        82138.447      5413.8588    
    168000   1144.5951     -2796.9071      73.975264     -2722.9318      81100.444      5413.8588    
    169000   1155.4964     -2790.2918      74.679819     -2715.6119      86447.395      5413.8588    
    170000   1177.7367     -2797.1039      76.117206     -2720.9866      81909.925      5413.8588    
    171000   1133.584      -2792.0026      73.263615     -2718.7389      85418.233      5413.8588    
    172000   1184.6689     -2793.6577      76.565236     -2717.0925      85580.125      5413.8588    
    173000   1168.4475     -2791.2997      75.516847     -2715.7829      86840.232      5413.8588    
    174000   1138.474      -2792.4482      73.579657     -2718.8685      85518.468      5413.8588    
    175000   1181.5629     -2793.721       76.364493     -2717.3565      85615.311      5413.8588    
    176000   1178.0118     -2793.1415      76.134985     -2717.0065      84123.468      5413.8588    
    177000   1233.1182     -2792.9474      79.696522     -2713.2508      86360.901      5413.8588    
    178000   1282.3143     -2791.7178      82.876065     -2708.8418      86956.166      5413.8588    
    179000   1310.5441     -2792.0172      84.700561     -2707.3166      87629.444      5413.8588    
    180000   1183.1907     -2796.2424      76.469701     -2719.7727      82936.11       5413.8588    
    181000   1271.4979     -2795.4032      82.177001     -2713.2262      84177.803      5413.8588    
    182000   1217.8659     -2789.7407      78.710762     -2711.03        88739.863      5413.8588    
    183000   1218.1366     -2786.1992      78.728256     -2707.4709      92554.662      5413.8588    
    184000   1212.4816     -2792.2303      78.362771     -2713.8675      86690.858      5413.8588    
    185000   1136.8297     -2790.5645      73.473388     -2717.0911      87471.552      5413.8588    
    186000   1216.7437     -2795.204       78.638232     -2716.5658      84277.002      5413.8588    
    187000   1233.0053     -2793.0857      79.689223     -2713.3965      86115.301      5413.8588    
    188000   1311.3774     -2790.7938      84.754417     -2706.0393      88488.856      5413.8588    
    189000   1235.0113     -2792.758       79.818871     -2712.9391      86290.072      5413.8588    
    190000   1209.9145     -2795.8541      78.196859     -2717.6572      83186.318      5413.8588    
    191000   1240.1981     -2790.8653      80.15409      -2710.7112      87230.969      5413.8588    
    192000   1171.4708     -2789.0353      75.712241     -2713.3231      89780.424      5413.8588    
    193000   1174.0046     -2796.4381      75.876001     -2720.5621      82267.742      5413.8588    
    194000   1222.9021     -2792.877       79.036251     -2713.8408      86123.288      5413.8588    
    195000   1220.047      -2792.0304      78.851728     -2713.1786      85893.599      5413.8588    
    196000   1232.2885     -2795.0026      79.642894     -2715.3597      83526.718      5413.8588    
    197000   1155.7162     -2793.7663      74.694024     -2719.0723      84689.445      5413.8588    
    198000   1214.1262     -2795.5568      78.469065     -2717.0877      83534.045      5413.8588    
    199000   1169.0815     -2796.3887      75.557823     -2720.8309      82322.684      5413.8588    
    200000   1192.472      -2792.8889      77.06955      -2715.8194      85057.767      5413.8588    
    201000   1236.7285     -2793.5415      79.929854     -2713.6116      86291.261      5413.8588    
    202000   1124.7558     -2794.591       72.693046     -2721.898       84325.253      5413.8588    
    203000   1185.4492     -2797.0069      76.615666     -2720.3912      81540.484      5413.8588    
    204000   1191.3306     -2792.9402      76.995786     -2715.9444      85722.396      5413.8588    
    205000   1204.3894     -2793.8892      77.839774     -2716.0494      84430.994      5413.8588    
    206000   1138.6283     -2794.4391      73.589628     -2720.8495      83494.74       5413.8588    
    207000   1124.7244     -2788.4749      72.691016     -2715.7839      89868.783      5413.8588    
    208000   1312.0908     -2797.9023      84.800525     -2713.1018      81890.638      5413.8588    
    209000   1199.6671     -2795.5159      77.534573     -2717.9814      82605.155      5413.8588    
    210000   1119.6624     -2795.3043      72.363859     -2722.9405      82258.985      5413.8588    
    211000   1177.6169     -2795.3462      76.109465     -2719.2367      83519.008      5413.8588    
    212000   1268.8475     -2794.5176      82.005705     -2712.5119      85882.729      5413.8588    
    213000   1185.5203     -2793.1818      76.620265     -2716.5615      84990.882      5413.8588    
    214000   1125.3477     -2790.5994      72.731303     -2717.8681      85776.961      5413.8588    
    215000   1245.4876     -2791.8779      80.495951     -2711.3819      86461.63       5413.8588    
    216000   1242.8906     -2790.4827      80.328111     -2710.1546      88446.07       5413.8588    
    217000   1236.0458     -2794.3623      79.885731     -2714.4766      85591.033      5413.8588    
    218000   1207.5718     -2796.6974      78.045452     -2718.6519      82422.169      5413.8588    
    219000   1201.8879     -2794.3279      77.678103     -2716.6498      84984.163      5413.8588    
    220000   1223.4905     -2789.715       79.074278     -2710.6407      89118.923      5413.8588    
    221000   1175.6875     -2788.3949      75.98477      -2712.4101      89716.73       5413.8588    
    222000   1231.4837     -2796.564       79.590883     -2716.9731      82922.8        5413.8588    
    223000   1161.5144     -2794.8369      75.068758     -2719.7682      83475.505      5413.8588    
    224000   1186.7431     -2790.515       76.699295     -2713.8157      87694.893      5413.8588    
    225000   1254.4753     -2792.6006      81.076827     -2711.5238      85886.336      5413.8588    
    226000   1100.0053     -2802.0984      71.093419     -2731.005       75875.274      5413.8588    
    227000   1261.9722     -2792.1878      81.561357     -2710.6264      86954.211      5413.8588    
    228000   1188.333      -2790.9758      76.802047     -2714.1738      87006.991      5413.8588    
    229000   1143.9322     -2798.9925      73.932424     -2725.0601      78916.371      5413.8588    
    230000   1210.2572     -2794.592       78.21901      -2716.3729      83853.93       5413.8588    
    231000   1168.8545     -2790.49        75.54315      -2714.9468      87034.085      5413.8588    
    232000   1207.8481     -2789.741       78.063311     -2711.6777      88305.726      5413.8588    
    233000   1200.5167     -2794.3962      77.58948      -2716.8067      84322.062      5413.8588    
    234000   1213.0247     -2795.6668      78.397872     -2717.2689      84056.379      5413.8588    
    235000   1269.432      -2792.7479      82.043481     -2710.7045      86362.329      5413.8588    
    236000   1285.6541     -2793.3479      83.091917     -2710.256       86143.348      5413.8588    
    237000   1205.0945     -2791.6209      77.885347     -2713.7355      87388.175      5413.8588    
    238000   1205.3988     -2798.7922      77.905014     -2720.8872      80092.545      5413.8588    
    239000   1197.1839     -2792.6726      77.374083     -2715.2985      85850.217      5413.8588    
    240000   1168.2352     -2791.6135      75.503127     -2716.1103      86042.99       5413.8588    
    241000   1142.1612     -2795.6675      73.817961     -2721.8496      81749.911      5413.8588    
    242000   1177.3342     -2794.2808      76.091193     -2718.1896      84373.168      5413.8588    
    243000   1239.6032     -2792.3559      80.115644     -2712.2402      87255.216      5413.8588    
    244000   1203.2809     -2794.4246      77.768132     -2716.6564      84849.712      5413.8588    
    245000   1208.1237     -2788.9792      78.08112      -2710.8981      88734.048      5413.8588    
    246000   1249.1836     -2795.1133      80.734828     -2714.3784      84700.885      5413.8588    
    247000   1121.1817     -2792.4664      72.462057     -2720.0044      84372.05       5413.8588    
    248000   1259.5839     -2796.9466      81.407        -2715.5396      82993.103      5413.8588    
    249000   1218.0943     -2793.007       78.725524     -2714.2815      85381.163      5413.8588    
    250000   1192.0007     -2790.4992      77.039094     -2713.4601      86900.337      5413.8588    
    251000   1156.9578     -2792.6673      74.774269     -2717.893       85626.532      5413.8588    
    252000   1166.1203     -2796.9131      75.366441     -2721.5467      81401.727      5413.8588    
    253000   1203.7942     -2796.9046      77.801308     -2719.1033      81744.306      5413.8588    
    254000   1206.3279     -2791.44        77.965062     -2713.475       87003.102      5413.8588    
    255000   1205.8247     -2793.7496      77.932539     -2715.8171      84489.821      5413.8588    
    256000   1109.1301     -2796.388       71.683156     -2724.7049      81480.473      5413.8588    
    257000   1183.153      -2791.3722      76.467265     -2714.905       86891.989      5413.8588    
    258000   1228.9815     -2791.4939      79.429163     -2712.0648      85878.426      5413.8588    
    259000   1136.0044     -2799.0708      73.420049     -2725.6507      79336.401      5413.8588    
    260000   1214.9735     -2795.1637      78.523825     -2716.6399      83218.061      5413.8588    
    261000   1225.8452     -2794.3969      79.226462     -2715.1705      84249.01       5413.8588    
    262000   1197.1112     -2788.1098      77.369381     -2710.7404      89224.224      5413.8588    
    263000   1279.3467     -2796.107       82.684268     -2713.4228      83268.263      5413.8588    
    264000   1229.5519     -2795.3257      79.466032     -2715.8596      82581.491      5413.8588    
    265000   1160.9391     -2796.5823      75.03158      -2721.5507      81727.962      5413.8588    
    266000   1122.6678     -2792.6898      72.558101     -2720.1317      85560.095      5413.8588    
    267000   1200.4401     -2795.8034      77.584532     -2718.2189      83619.466      5413.8588    
    268000   1230.4075     -2788.696       79.521327     -2709.1747      89651.011      5413.8588    
    269000   1126.5074     -2794.6934      72.806253     -2721.8871      82283.374      5413.8588    
    270000   1214.0829     -2801.1143      78.466266     -2722.6481      79281.928      5413.8588    
    271000   1178.3513     -2795.86        76.156931     -2719.7031      82279.46       5413.8588    
    272000   1164.2885     -2792.786       75.248049     -2717.538       85234.912      5413.8588    
    273000   1222.3997     -2783.2962      79.003781     -2704.2924      94796.028      5413.8588    
    274000   1219.537      -2796.4734      78.818764     -2717.6546      82672.426      5413.8588    
    275000   1222.4438     -2797.6266      79.006634     -2718.6199      81752.304      5413.8588    
    276000   1248.1772     -2791.7443      80.669781     -2711.0745      87373.182      5413.8588    
    277000   1256.6529     -2790.5792      81.217569     -2709.3616      88915.682      5413.8588    
    278000   1181.4321     -2792.5328      76.356044     -2716.1767      85709.393      5413.8588    
    279000   1171.5801     -2795.6446      75.719309     -2719.9253      83025.599      5413.8588    
    280000   1260.8885     -2790.8843      81.491313     -2709.393       87973.142      5413.8588    
    281000   1269.4717     -2792.9286      82.046048     -2710.8825      87044.591      5413.8588    
    282000   1207.6934     -2793.4083      78.053313     -2715.355       85236.602      5413.8588    
    283000   1147.5924     -2793.3914      74.168981     -2719.2224      83502.821      5413.8588    
    284000   1186.202      -2794.4346      76.664323     -2717.7703      84039.292      5413.8588    
    285000   1184.4847     -2791.6213      76.553333     -2715.068       86260.944      5413.8588    
    286000   1194.5519     -2792.6704      77.203977     -2715.4665      86039.044      5413.8588    
    287000   1226.286      -2798.8949      79.254954     -2719.64        81262.21       5413.8588    
    288000   1150.6169     -2793.0025      74.364456     -2718.638       84818.061      5413.8588    
    289000   1241.3612     -2797.0523      80.229262     -2716.8231      83028.023      5413.8588    
    290000   1251.4116     -2791.1759      80.878823     -2710.2971      88646.111      5413.8588    
    291000   1230.6663     -2790.9928      79.538053     -2711.4548      87363.979      5413.8588    
    292000   1198.6296     -2793.3387      77.467517     -2715.8711      85147.514      5413.8588    
    293000   1208.1194     -2797.0317      78.080845     -2718.9508      82564.299      5413.8588    
    294000   1232.4791     -2798.2405      79.655215     -2718.5852      81981.261      5413.8588    
    295000   1242.752      -2788.8314      80.319153     -2708.5123      90122.44       5413.8588    
    296000   1235.7679     -2795.0958      79.867766     -2715.228       83735.975      5413.8588    
    297000   1182.7277     -2794.6331      76.439778     -2718.1934      84074.542      5413.8588    
    298000   1204.4135     -2792.9103      77.841329     -2715.069       86169.409      5413.8588    
    299000   1255.2012     -2796.6981      81.123741     -2715.5743      82484.566      5413.8588    
    300000   1182.6124     -2795.3627      76.432328     -2718.9303      83655.464      5413.8588    
    301000   1281.7226     -2792.9329      82.837823     -2710.095       86500.002      5413.8588    
    302000   1273.2874     -2795.4137      82.292659     -2713.121       84226.405      5413.8588    
    303000   1162.2024     -2792.5536      75.113224     -2717.4404      85322.214      5413.8588    
    304000   1227.9285     -2795.7761      79.361111     -2716.415       83484.809      5413.8588    
    305000   1213.7802     -2790.6563      78.4467       -2712.2096      88701.298      5413.8588    
    306000   1154.2541     -2794.6422      74.599528     -2720.0427      83225.507      5413.8588    
    307000   1184.2361     -2798.9671      76.537262     -2722.4299      79540.877      5413.8588    
    308000   1187.9139     -2792.7814      76.774961     -2716.0064      85726.328      5413.8588    
    309000   1210.629      -2792.91        78.243042     -2714.6669      85641.197      5413.8588    
    310000   1178.1013     -2796.7265      76.140775     -2720.5857      81523.224      5413.8588    
    311000   1161.6278     -2797.0911      75.076092     -2722.015       80782.015      5413.8588    
    312000   1159.9814     -2794.0511      74.969682     -2719.0815      84437.807      5413.8588    
    313000   1154.4634     -2790.2756      74.613053     -2715.6625      86960.52       5413.8588    
    314000   1196.1658     -2793.6562      77.308283     -2716.3479      85536.96       5413.8588    
    315000   1216.7732     -2798.7224      78.640138     -2720.0823      81131.033      5413.8588    
    316000   1155.6539     -2797.0795      74.689995     -2722.3895      81906.19       5413.8588    
    317000   1192.3473     -2792.9541      77.061491     -2715.8926      85926.72       5413.8588    
    318000   1145.7195     -2788.8514      74.047933     -2714.8035      88690.005      5413.8588    
    319000   1132.995      -2800.7607      73.225548     -2727.5352      76679.973      5413.8588    
    320000   1203.8574     -2794.6409      77.805388     -2716.8356      84169.322      5413.8588    
    321000   1318.9312     -2797.8671      85.242617     -2712.6245      82600.083      5413.8588    
    322000   1221.5021     -2789.4288      78.945771     -2710.483       89033.284      5413.8588    
    323000   1190.7049     -2792.8305      76.955343     -2715.8752      84778.821      5413.8588    
    324000   1171.8086     -2794.5087      75.734073     -2718.7746      84647.449      5413.8588    
    325000   1225.8159     -2793.8658      79.224569     -2714.6412      84580.389      5413.8588    
    326000   1185.1672     -2791.2962      76.597444     -2714.6988      87500.68       5413.8588    
    327000   1143.5098     -2794.363       73.905122     -2720.4579      83673.233      5413.8588    
    328000   1220.2464     -2798.3511      78.864613     -2719.4865      81409.576      5413.8588    
    329000   1191.1345     -2796.5881      76.983109     -2719.605       82577.184      5413.8588    
    330000   1221.7065     -2792.7059      78.958978     -2713.7469      86379.252      5413.8588    
    331000   1275.9396     -2794.4437      82.464067     -2711.9796      83938.09       5413.8588    
    332000   1209.5625     -2793.3092      78.174112     -2715.1351      86272.029      5413.8588    
    333000   1176.3934     -2795.3808      76.03039      -2719.3504      83761.072      5413.8588    
    334000   1216.7425     -2796.834       78.638153     -2718.1959      82662.292      5413.8588    
    335000   1194.3354     -2790.8465      77.189981     -2713.6565      87541.027      5413.8588    
    336000   1257.131      -2788.545       81.248466     -2707.2965      90729.724      5413.8588    
    337000   1202.2427     -2794.0788      77.70103      -2716.3778      85186.135      5413.8588    
    338000   1212.6502     -2798.4771      78.37367      -2720.1034      82082.224      5413.8588    
    339000   1248.5406     -2795.9283      80.693271     -2715.235       83690.217      5413.8588    
    340000   1224.6154     -2789.2887      79.146985     -2710.1417      88768.728      5413.8588    
    341000   1212.6345     -2791.7857      78.372656     -2713.413       86928.492      5413.8588    
    342000   1194.8309     -2791.8465      77.222005     -2714.6245      86148.584      5413.8588    
    343000   1170.8177     -2797.3887      75.670035     -2721.7187      81636.239      5413.8588    
    344000   1207.4677     -2792.7022      78.038722     -2714.6634      86180.552      5413.8588    
    345000   1246.0593     -2790.2783      80.532905     -2709.7454      88869.11       5413.8588    
    346000   1231.2601     -2794.9937      79.576428     -2715.4172      84562.631      5413.8588    
    347000   1221.1892     -2795.6264      78.925545     -2716.7008      83164.474      5413.8588    
    348000   1185.6595     -2792.1511      76.629259     -2715.5219      86162.325      5413.8588    
    349000   1249.9321     -2792.11        80.783204     -2711.3268      87013.405      5413.8588    
    350000   1249.7822     -2792.4974      80.773511     -2711.7239      86278.048      5413.8588    
    351000   1174.0153     -2794.5896      75.876696     -2718.7129      83818.859      5413.8588    
    352000   1165.3697     -2793.5361      75.317927     -2718.2182      84433.586      5413.8588    
    353000   1193.1769     -2790.6246      77.115107     -2713.5095      86576.104      5413.8588    
    354000   1177.9136     -2792.0888      76.128643     -2715.9601      86865.196      5413.8588    
    355000   1217.2138     -2796.4702      78.668615     -2717.8015      82028.524      5413.8588    
    356000   1245.3838     -2786.628       80.489244     -2706.1388      91978.868      5413.8588    
    357000   1247.4349     -2791.7006      80.621809     -2711.0788      85569.089      5413.8588    
    358000   1246.3794     -2795.0125      80.553591     -2714.4589      84823.791      5413.8588    
    359000   1137.0975     -2791.2002      73.490695     -2717.7095      86259.247      5413.8588    
    360000   1152.786      -2799.8811      74.504644     -2725.3765      79045.434      5413.8588    
    361000   1128.0949     -2787.1905      72.908856     -2714.2817      89958.669      5413.8588    
    362000   1143.5248     -2788.1419      73.906093     -2714.2358      88254.859      5413.8588    
    363000   1215.7998     -2798.2374      78.577228     -2719.6601      81145.178      5413.8588    
    364000   1119.8124     -2796.7316      72.373557     -2724.3581      80992.976      5413.8588    
    365000   1204.1637     -2797.2732      77.825185     -2719.448       82231.345      5413.8588    
    366000   1105.9204     -2790.2869      71.475717     -2718.8112      86788.736      5413.8588    
    367000   1277.568      -2792.7631      82.569311     -2710.1938      87210.821      5413.8588    
    368000   1231.7922     -2797.0379      79.610821     -2717.427       83237.669      5413.8588    
    369000   1174.5195     -2792.0752      75.90928      -2716.166       86101.984      5413.8588    
    370000   1207.6624     -2791.6964      78.051308     -2713.6451      87088.924      5413.8588    
    371000   1129.1299     -2792.2239      72.975744     -2719.2482      84855.456      5413.8588    
    372000   1278.3528     -2796.1825      82.620036     -2713.5625      83515.755      5413.8588    
    373000   1216.6457     -2790.1382      78.631897     -2711.5063      89320.767      5413.8588    
    374000   1253.6791     -2796.8656      81.025372     -2715.8402      82915.982      5413.8588    
    375000   1218.56       -2797.3219      78.755621     -2718.5662      81281.977      5413.8588    
    376000   1223.7998     -2797.1154      79.094267     -2718.0211      81743.983      5413.8588    
    377000   1155.2464     -2791.754       74.663657     -2717.0903      85684.733      5413.8588    
    378000   1270.6345     -2796.3067      82.1212       -2714.1855      83878.332      5413.8588    
    379000   1231.4677     -2795.325       79.589847     -2715.7351      83706.265      5413.8588    
    380000   1181.0553     -2794.275       76.331691     -2717.9433      83077.207      5413.8588    
    381000   1219.0889     -2797.7778      78.789805     -2718.988       81613.996      5413.8588    
    382000   1160.6942     -2793.7602      75.015753     -2718.7445      83538.505      5413.8588    
    383000   1175.4067     -2794.8019      75.966622     -2718.8353      82707.342      5413.8588    
    384000   1114.7645     -2790.6471      72.047313     -2718.5998      87383.031      5413.8588    
    385000   1193.6653     -2792.6351      77.146674     -2715.4884      85330.186      5413.8588    
    386000   1220.5595     -2794.2509      78.884847     -2715.3661      84692.08       5413.8588    
    387000   1226.994      -2796.7313      79.300714     -2717.4306      82546.194      5413.8588    
    388000   1081.1058     -2799.3908      69.871948     -2729.5188      78438.314      5413.8588    
    389000   1193.8981     -2790.6609      77.161721     -2713.4992      87928.779      5413.8588    
    390000   1238.2518     -2795.4911      80.028306     -2715.4628      84821.799      5413.8588    
    391000   1231.104      -2792.4109      79.566343     -2712.8445      85956.682      5413.8588    
    392000   1187.9757     -2787.6455      76.778954     -2710.8665      90598.774      5413.8588    
    393000   1261.6788     -2790.728       81.542394     -2709.1856      88435.495      5413.8588    
    394000   1218.7259     -2795.1863      78.766345     -2716.42        84284.124      5413.8588    
    395000   1193.785      -2794.6354      77.15441      -2717.481       84656.261      5413.8588    
    396000   1213.9934     -2792.8318      78.460484     -2714.3713      85819.082      5413.8588    
    397000   1266.352      -2792.3578      81.84442      -2710.5134      87613.013      5413.8588    
    398000   1242.2209     -2789.6725      80.284824     -2709.3877      89454.422      5413.8588    
    399000   1191.0153     -2791.4592      76.975404     -2714.4838      86285.194      5413.8588    
    400000   1196.8986     -2794.0818      77.355643     -2716.7261      84593.108      5413.8588    
    401000   1142.2306     -2790.8008      73.822447     -2716.9783      87423.501      5413.8588    
    402000   1327.8462     -2792.5357      85.818795     -2706.7169      87645.971      5413.8588    
    403000   1276.1087     -2794.6267      82.474997     -2712.1517      84792.529      5413.8588    
    404000   1156.3803     -2790.5675      74.73694      -2715.8305      86365.229      5413.8588    
    405000   1172.1651     -2796.4189      75.757116     -2720.6618      82543.053      5413.8588    
    406000   1214.2043     -2794.7641      78.474113     -2716.29        84175.929      5413.8588    
    407000   1179.0206     -2791.4701      76.200184     -2715.2699      85525.674      5413.8588    
    408000   1172.2577     -2796.8497      75.763102     -2721.0866      82079.45       5413.8588    
    409000   1107.0672     -2792.5707      71.549837     -2721.0208      84875.353      5413.8588    
    410000   1246.395      -2793.1624      80.5546       -2712.6078      85413.157      5413.8588    
    411000   1231.2185     -2791.0525      79.573738     -2711.4788      86828.674      5413.8588    
    412000   1232.331      -2789.0775      79.645642     -2709.4318      89693.182      5413.8588    
    413000   1219.785      -2792.2005      78.834793     -2713.3657      86036.784      5413.8588    
    414000   1133.9022     -2790.3807      73.284183     -2717.0965      87431.833      5413.8588    
    415000   1184.3278     -2792.0997      76.543193     -2715.5565      85389.858      5413.8588    
    416000   1186.05       -2790.0407      76.654495     -2713.3862      87743.821      5413.8588    
    417000   1188.6603     -2793.6195      76.823203     -2716.7963      84689.651      5413.8588    
    418000   1167.7533     -2802.004       75.471979     -2726.532       76201.046      5413.8588    
    419000   1180.3749     -2792.8228      76.287714     -2716.5351      85690.749      5413.8588    
    420000   1193.9323     -2791.277       77.163933     -2714.113       86598.952      5413.8588    
    421000   1264.8253     -2793.3837      81.745752     -2711.6379      87196.698      5413.8588    
    422000   1226.7766     -2798.0521      79.28666      -2718.7654      81624.468      5413.8588    
    423000   1127.3129     -2795.2395      72.858315     -2722.3812      82026.524      5413.8588    
    424000   1140.501      -2794.0442      73.710662     -2720.3336      83191.882      5413.8588    
    425000   1203.5862     -2794.0519      77.787861     -2716.2641      85403.277      5413.8588    
    426000   1251.0345     -2791.2962      80.854448     -2710.4418      86792.195      5413.8588    
    427000   1276.2569     -2794.2566      82.484575     -2711.772       85972.604      5413.8588    
    428000   1164.1913     -2791.6923      75.241771     -2716.4505      86575.957      5413.8588    
    429000   1172.7019     -2791.3944      75.791809     -2715.6026      85956.712      5413.8588    
    430000   1254.7313     -2791.2658      81.093377     -2710.1724      86016.406      5413.8588    
    431000   1201.1014     -2789.3352      77.62727      -2711.7079      89568.417      5413.8588    
    432000   1154.6873     -2792.0703      74.627523     -2717.4428      86481.177      5413.8588    
    433000   1190.1874     -2793.5097      76.921897     -2716.5879      85135.562      5413.8588    
    434000   1202.8595     -2788.4297      77.740899     -2710.6888      89877.567      5413.8588    
    435000   1257.5716     -2789.9326      81.276941     -2708.6556      88888.127      5413.8588    
    436000   1122.3445     -2791.7451      72.537205     -2719.2079      85318.16       5413.8588    
    437000   1179.3174     -2794.6233      76.219368     -2718.4039      84000.623      5413.8588    
    438000   1190.1094     -2790.9883      76.91686      -2714.0715      87066.272      5413.8588    
    439000   1223.138      -2792.1739      79.051497     -2713.1224      86290.103      5413.8588    
    440000   1212.4206     -2797.2611      78.35883      -2718.9023      81624.131      5413.8588    
    441000   1126.2202     -2795.445       72.787692     -2722.6574      83064.742      5413.8588    
    442000   1168.8662     -2791.9079      75.543908     -2716.3639      86138.914      5413.8588    
    443000   1211.8768     -2794.0294      78.323688     -2715.7057      84996.927      5413.8588    
    444000   1170.9343     -2796.5667      75.677569     -2720.8892      81735.513      5413.8588    
    445000   1173.0315     -2792.3077      75.813113     -2716.4946      85926.447      5413.8588    
    446000   1271.8563     -2788.3456      82.200168     -2706.1455      89232.888      5413.8588    
    447000   1165.5333     -2786.4804      75.328504     -2711.1519      90020.767      5413.8588    
    448000   1172.8231     -2790.5404      75.799645     -2714.7408      88433.365      5413.8588    
    449000   1101.4037     -2790.6136      71.183799     -2719.4298      86332.984      5413.8588    
    450000   1219.3114     -2791.1211      78.804181     -2712.3169      87269.441      5413.8588    
    451000   1236.3745     -2794.3765      79.906971     -2714.4695      85281.632      5413.8588    
    452000   1264.5007     -2793.7976      81.724772     -2712.0728      85636.387      5413.8588    
    453000   1177.5544     -2792.9847      76.105426     -2716.8793      85248.113      5413.8588    
    454000   1226.0961     -2795.588       79.242682     -2716.3453      83245.147      5413.8588    
    455000   1263.5709     -2791.8002      81.664679     -2710.1355      87107.795      5413.8588    
    456000   1178.3845     -2790.7922      76.159079     -2714.6331      87768.476      5413.8588    
    457000   1205.7511     -2794.4709      77.92778      -2716.5431      84418.348      5413.8588    
    458000   1094.6498     -2793.8569      70.747296     -2723.1096      83338.453      5413.8588    
    459000   1240.0205     -2792.7022      80.142612     -2712.5596      86451.297      5413.8588    
    460000   1211.1567     -2794.2929      78.277148     -2716.0158      84244.344      5413.8588    
    461000   1216.2778     -2797.3184      78.608122     -2718.7103      81787.722      5413.8588    
    462000   1193.2098     -2792.291       77.117235     -2715.1738      84700.885      5413.8588    
    463000   1203.0076     -2788.9897      77.750468     -2711.2393      88531.195      5413.8588    
    464000   1227.4837     -2796.5691      79.332358     -2717.2367      82836.244      5413.8588    
    465000   1158.7983     -2793.1468      74.893215     -2718.2535      83698.177      5413.8588    
    466000   1203.998      -2791.839       77.814478     -2714.0245      86489.392      5413.8588    
    467000   1217.7828     -2787.4162      78.705389     -2708.7108      89961.825      5413.8588    
    468000   1166.0894     -2791.4609      75.364441     -2716.0965      86262.583      5413.8588    
    469000   1233.2045     -2791.7545      79.702096     -2712.0524      87940.395      5413.8588    
    470000   1270.9861     -2797.502       82.143924     -2715.358       81947.206      5413.8588    
    471000   1144.7883     -2793.8528      73.987754     -2719.8651      84622.852      5413.8588    
    472000   1176.565      -2798.9745      76.041482     -2722.933       80054.56       5413.8588    
    473000   1204.6704     -2792.8555      77.857934     -2714.9976      85557.915      5413.8588    
    474000   1221.2725     -2792.7528      78.930931     -2713.8219      86740.506      5413.8588    
    475000   1238.1358     -2795.8297      80.020807     -2715.8088      84584.023      5413.8588    
    476000   1082.8434     -2792.1465      69.984248     -2722.1623      83981.187      5413.8588    
    477000   1189.5761     -2793.9497      76.882388     -2717.0673      84930.05       5413.8588    
    478000   1182.6014     -2788.8493      76.431613     -2712.4177      88684.471      5413.8588    
    479000   1249.5613     -2788.728       80.759237     -2707.9688      91048.365      5413.8588    
    480000   1287.8688     -2794.4622      83.235055     -2711.2271      85637.72       5413.8588    
    481000   1175.6522     -2790.0909      75.982489     -2714.1084      88559.382      5413.8588    
    482000   1177.9749     -2793.1606      76.132604     -2717.028       85556.503      5413.8588    
    483000   1177.4765     -2794.44        76.100394     -2718.3396      84075.665      5413.8588    
    484000   1222.3121     -2793.9981      78.998117     -2714.9999      84638.158      5413.8588    
    485000   1213.8947     -2793.9844      78.454106     -2715.5302      85860.59       5413.8588    
    486000   1228.7243     -2796.4179      79.412539     -2717.0053      82122.665      5413.8588    
    487000   1146.556      -2797.6095      74.101996     -2723.5075      79937.805      5413.8588    
    488000   1191.0724     -2792.1785      76.979097     -2715.1995      86502.12       5413.8588    
    489000   1268.1307     -2795.2563      81.959377     -2713.2969      84136.981      5413.8588    
    490000   1245.9991     -2790.9289      80.529015     -2710.3999      88948.048      5413.8588    
    491000   1200.1023     -2794.354       77.562698     -2716.7913      83726.738      5413.8588    
    492000   1217.5417     -2790.3541      78.689808     -2711.6643      88022.646      5413.8588    
    493000   1253.6852     -2788.5186      81.025768     -2707.4929      90288.773      5413.8588    
    494000   1225.9932     -2791.1819      79.236032     -2711.9459      88454.769      5413.8588    
    495000   1193.6965     -2791.622       77.148689     -2714.4733      85775.352      5413.8588    
    496000   1190.3782     -2796.1177      76.93423      -2719.1834      82988.682      5413.8588    
    497000   1241.094      -2791.0663      80.211996     -2710.8544      88344.581      5413.8588    
    498000   1188.5979     -2791.1295      76.819166     -2714.3103      87145.138      5413.8588    
    499000   1112.8257     -2794.6437      71.922009     -2722.7217      82942.499      5413.8588    
    500000   1202.8774     -2796.8818      77.742052     -2719.1398      82509.385      5413.8588    
Loop time of 15281.4 on 1 procs for 500000 steps with 501 atoms

Performance: 1.413 ns/day, 16.979 hours/ns, 32.719 timesteps/s, 16.392 katom-step/s
99.1% CPU use with 1 MPI tasks x 1 OpenMP threads

MPI task timing breakdown:
Section |  min time  |  avg time  |  max time  |%varavg| %total
---------------------------------------------------------------
Pair    | 15215      | 15215      | 15215      |   0.0 | 99.57
Neigh   | 0.90642    | 0.90642    | 0.90642    |   0.0 |  0.01
Comm    | 20.605     | 20.605     | 20.605     |   0.0 |  0.13
Output  | 0.044087   | 0.044087   | 0.044087   |   0.0 |  0.00
Modify  | 25.006     | 25.006     | 25.006     |   0.0 |  0.16
Other   |            | 19.4       |            |       |  0.13

Nlocal:            501 ave         501 max         501 min
Histogram: 1 0 0 0 0 0 0 0 0 0
Nghost:           2385 ave        2385 max        2385 min
Histogram: 1 0 0 0 0 0 0 0 0 0
Neighs:              0 ave           0 max           0 min
Histogram: 1 0 0 0 0 0 0 0 0 0
FullNghs:        68400 ave       68400 max       68400 min
Histogram: 1 0 0 0 0 0 0 0 0 0

Total # of neighbors = 68400
Ave neighs/atom = 136.52695
Neighbor list builds = 2157
Dangerous builds = 0
unfix          nvt_equil

# ── Phase 2: Production ──────────────────────────────────────
# Dump trajectory for NB11 MSD calculation
# Dump every 1000 steps = 500 fs
dump           prod_dump  all  custom  1000  results/notebook10-bulk-equilibration/Pure_Nickel/Pure_Nickel_H_1200K_prod.lammpstrj                id type x y z
dump_modify    prod_dump  sort id

fix            nvt_prod  all  nvt  temp  1200.0  1200.0  0.1

# Compute MSD for H atom
compute        msd_H  H_atom  msd
fix            msd_out  all  ave/time  1  1  1000                c_msd_H[4]  file  results/notebook10-bulk-equilibration/Pure_Nickel/Pure_Nickel_msd_H_1200K.txt  mode scalar

print "### Phase 2: Production 750 ps at 1200 K ###"
### Phase 2: Production 750 ps at 1200 K ###
run            1500000
WARNING: Fix STORE/ATOM not compatible with sending data in Kokkos communication (src/KOKKOS/comm_kokkos.cpp:842)
WARNING: Fix with atom-based arrays not compatible with sending data in Kokkos communication, switching to legacy exchange/border communication (src/KOKKOS/comm_kokkos.cpp:849)
WARNING: Fix STORE/ATOM not (yet) compatible with Kokkos sorting on device (src/KOKKOS/atom_kokkos.cpp:219)
WARNING: Fix with atom-based arrays not (yet) compatible with Kokkos sorting on device, switching to legacy host sorting (src/KOKKOS/atom_kokkos.cpp:225)
Per MPI rank memory allocation (min/avg/max) = 97.42 | 97.42 | 97.42 Mbytes
   Step          Temp          PotEng         KinEng         TotEng         Press          Volume    
    500000   1202.8774     -2796.8818      77.742052     -2719.1398      82509.385      5413.8588    
    501000   1227.5128     -2794.4453      79.334238     -2715.1111      84467.379      5413.8588    
    502000   1233.8151     -2789.6066      79.741559     -2709.865       88715.871      5413.8588    
    503000   1247.3972     -2792.9757      80.619374     -2712.3563      86485.567      5413.8588    
    504000   1192.1537     -2794.1447      77.04898      -2717.0957      84861.17       5413.8588    
    505000   1233.4252     -2796.5729      79.716361     -2716.8565      82388.444      5413.8588    
    506000   1158.786      -2793.8174      74.89242      -2718.925       84144.792      5413.8588    
    507000   1214.2055     -2794.2849      78.474188     -2715.8107      84361.883      5413.8588    
    508000   1271.0608     -2791.8348      82.148749     -2709.686       87801.169      5413.8588    
    509000   1199.5929     -2786.5901      77.529778     -2709.0603      90855.325      5413.8588    
    510000   1228.3128     -2792.3088      79.385944     -2712.9228      86571.005      5413.8588    
    511000   1249.117      -2796.5891      80.730524     -2715.8585      83000.22       5413.8588    
    512000   1154.3258     -2795.8933      74.604158     -2721.2892      83227.591      5413.8588    
    513000   1188.0406     -2791.5612      76.783148     -2714.7781      87702.314      5413.8588    
    514000   1211.3742     -2793.5902      78.291202     -2715.299       85325.873      5413.8588    
    515000   1191.3568     -2795.0038      76.997474     -2718.0063      83576.583      5413.8588    
    516000   1223.9736     -2791.0513      79.105505     -2711.9458      87880.586      5413.8588    
    517000   1282.6147     -2789.4811      82.895483     -2706.5856      89977.883      5413.8588    
    518000   1255.4351     -2794.3379      81.138863     -2713.1991      84691.33       5413.8588    
    519000   1216.8818     -2797.2114      78.647156     -2718.5642      81192.613      5413.8588    
    520000   1143.7754     -2790.9392      73.922286     -2717.0169      86914.978      5413.8588    
    521000   1177.4964     -2786.2557      76.101675     -2710.154       91849.877      5413.8588    
    522000   1295.5018     -2792.388       83.728375     -2708.6596      86799.517      5413.8588    
    523000   1159.9899     -2793.5915      74.970232     -2718.6213      84531.452      5413.8588    
    524000   1195.7866     -2796.2009      77.283778     -2718.9171      82135.224      5413.8588    
    525000   1196.2845     -2792.572       77.315955     -2715.256       85769.57       5413.8588    
    526000   1241.256      -2794.7026      80.222464     -2714.4801      84691.365      5413.8588    
    527000   1127.9461     -2796.5797      72.899235     -2723.6804      82004.881      5413.8588    
    528000   1177.9874     -2792.8935      76.133414     -2716.76        85282.425      5413.8588    
    529000   1243.7287     -2793.3106      80.382275     -2712.9284      87439.916      5413.8588    
    530000   1212.3255     -2788.0167      78.352684     -2709.664       90989.094      5413.8588    
    531000   1253.3819     -2789.8012      81.006165     -2708.7951      88771.321      5413.8588    
    532000   1169.1969     -2792.6905      75.565278     -2717.1252      85117.279      5413.8588    
    533000   1218.8486     -2795.1861      78.774271     -2716.4119      82501.288      5413.8588    
    534000   1239.2948     -2791.4075      80.095713     -2711.3117      87266.858      5413.8588    
    535000   1259.3325     -2796.4687      81.390753     -2715.0779      83885.375      5413.8588    
    536000   1139.896      -2798.4426      73.671563     -2724.771       79490.22       5413.8588    
    537000   1147.5636     -2792.6273      74.167121     -2718.4602      85154.71       5413.8588    
    538000   1238.7804     -2792.8544      80.062464     -2712.7919      85400.162      5413.8588    
    539000   1243.0907     -2795.9456      80.341041     -2715.6045      84175.824      5413.8588    
    540000   1287.7091     -2799.4851      83.224734     -2716.2604      81424.87       5413.8588    
    541000   1279.4974     -2793.8551      82.694012     -2711.1611      85137.406      5413.8588    
    542000   1227.4298     -2792.3147      79.328875     -2712.9858      87097.423      5413.8588    
    543000   1173.3591     -2792.6105      75.834287     -2716.7762      85371.801      5413.8588    
    544000   1090.0786     -2792.2835      70.451862     -2721.8317      85657.023      5413.8588    
    545000   1212.8043     -2794.8575      78.383627     -2716.4738      84333.332      5413.8588    
    546000   1252.6283     -2793.4877      80.957461     -2712.5302      86554.127      5413.8588    
    547000   1166.6876     -2789.5665      75.403107     -2714.1634      88225.03       5413.8588    
    548000   1216.5286     -2795.0991      78.624332     -2716.4747      83811.69       5413.8588    
    549000   1249.9819     -2797.9258      80.786423     -2717.1394      81266.182      5413.8588    
    550000   1231.8358     -2788.78        79.61364      -2709.1663      88968.435      5413.8588    
    551000   1157.5527     -2795.9561      74.812713     -2721.1434      81993.273      5413.8588    
    552000   1160.2385     -2793.9889      74.986298     -2719.0026      83865.892      5413.8588    
    553000   1169.6327     -2789.5199      75.593448     -2713.9264      88294.96       5413.8588    
    554000   1208.8009     -2792.3694      78.124889     -2714.2446      85544.084      5413.8588    
    555000   1203.9385     -2796.2087      77.810632     -2718.3981      83026.443      5413.8588    
    556000   1093.5517     -2793.9215      70.676326     -2723.2452      83305.872      5413.8588    
    557000   1178.2836     -2795.1923      76.152554     -2719.0397      82956.905      5413.8588    
    558000   1289.615      -2796.7356      83.347911     -2713.3877      83298.498      5413.8588    
    559000   1219.5787     -2787.1925      78.821457     -2708.371       90932.683      5413.8588    
    560000   1159.6045     -2789.8462      74.945325     -2714.9009      87012.253      5413.8588    
    561000   1200.4693     -2794.7656      77.58642      -2717.1792      84026.105      5413.8588    
    562000   1128.2856     -2788.8333      72.921182     -2715.9121      88945.144      5413.8588    
    563000   1218.8068     -2789.2684      78.771571     -2710.4969      88926.483      5413.8588    
    564000   1206.7344     -2793.5618      77.991331     -2715.5704      85278.821      5413.8588    
    565000   1154.7291     -2793.7908      74.630222     -2719.1605      84301.19       5413.8588    
    566000   1085.5254     -2790.7788      70.157582     -2720.6212      86502.5        5413.8588    
    567000   1276.9266     -2795.515       82.527857     -2712.9871      84545.493      5413.8588    
    568000   1234.5093     -2793.6759      79.786427     -2713.8894      84972.603      5413.8588    
    569000   1160.7126     -2792.2979      75.016936     -2717.281       85167.242      5413.8588    
    570000   1167.2526     -2792.7663      75.439617     -2717.3266      85963.559      5413.8588    
    571000   1134.4943     -2790.1873      73.322446     -2716.8649      87563.12       5413.8588    
    572000   1236.9066     -2789.6693      79.94136      -2709.7279      89914.832      5413.8588    
    573000   1293.9654     -2793.3806      83.629078     -2709.7515      85713.241      5413.8588    
    574000   1161.5059     -2789.5079      75.068213     -2714.4397      88723.564      5413.8588    
    575000   1210.6543     -2796.2129      78.244674     -2717.9682      83305.312      5413.8588    
    576000   1117.065      -2790.6238      72.195989     -2718.4278      86563.959      5413.8588    
    577000   1198.429      -2795.8492      77.454553     -2718.3947      82161.18       5413.8588    
    578000   1174.7236     -2791.9888      75.922471     -2716.0664      86300.175      5413.8588    
    579000   1237.7255     -2792.059       79.994291     -2712.0647      87438.264      5413.8588    
    580000   1153.1627     -2791.3915      74.528988     -2716.8625      86124.225      5413.8588    
    581000   1121.6225     -2797.5044      72.490542     -2725.0138      80588.281      5413.8588    
    582000   1181.9256     -2790.4274      76.387935     -2714.0394      87805.039      5413.8588    
    583000   1238.0808     -2793.4865      80.017252     -2713.4693      86098.233      5413.8588    
    584000   1153.7605     -2793.9468      74.567625     -2719.3791      83959.172      5413.8588    
    585000   1098.1095     -2795.9306      70.970898     -2724.9597      82650.268      5413.8588    
    586000   1175.1863     -2791.4166      75.952377     -2715.4642      86106.062      5413.8588    
    587000   1258.3302     -2794.5852      81.325969     -2713.2593      84174.228      5413.8588    
    588000   1242.0225     -2795.7508      80.272006     -2715.4788      83366.935      5413.8588    
    589000   1216.9078     -2799.7129      78.648839     -2721.0641      80531.078      5413.8588    
    590000   1125.4961     -2794.5338      72.740896     -2721.7929      84386.232      5413.8588    
    591000   1179.751      -2792.5232      76.247391     -2716.2758      86376.226      5413.8588    
    592000   1169.1482     -2789.7728      75.562136     -2714.2107      88016.681      5413.8588    
    593000   1235.1703     -2792.8501      79.829146     -2713.021       86315.071      5413.8588    
    594000   1155.7039     -2793.9803      74.693227     -2719.287       84320.838      5413.8588    
    595000   1121.0957     -2795.8772      72.456499     -2723.4207      82006.26       5413.8588    
    596000   1232.6868     -2794.6429      79.668638     -2714.9743      84059.558      5413.8588    
    597000   1139.0207     -2789.4927      73.614989     -2715.8777      87232.573      5413.8588    
    598000   1168.114      -2796.2528      75.495292     -2720.7575      81307.491      5413.8588    
    599000   1189.812      -2796.9917      76.897638     -2720.094       82327.851      5413.8588    
    600000   1212.0473     -2792.2375      78.334706     -2713.9028      86147.904      5413.8588    
    601000   1221.5837     -2792.9884      78.951042     -2714.0373      86276.205      5413.8588    
    602000   1124.9449     -2793.8081      72.70527      -2721.1028      83319.982      5413.8588    
    603000   1159.4351     -2795.6113      74.934372     -2720.6769      82401.817      5413.8588    
    604000   1177.7278     -2791.6536      76.116636     -2715.537       86256.937      5413.8588    
    605000   1171.0876     -2791.3705      75.687473     -2715.683       85971.928      5413.8588    
    606000   1152.138      -2793.9407      74.46276      -2719.4779      84352.615      5413.8588    
    607000   1179.0748     -2793.095       76.203693     -2716.8913      84497.689      5413.8588    
    608000   1225.4894     -2794.2274      79.203467     -2715.0239      83995.577      5413.8588    
    609000   1158.7234     -2789.8349      74.888381     -2714.9465      87890.289      5413.8588    
    610000   1235.5967     -2796.8625      79.856702     -2717.0058      82478.961      5413.8588    
    611000   1260.4837     -2787.6796      81.465151     -2706.2145      89427.609      5413.8588    
    612000   1170.8932     -2795.129       75.674913     -2719.4541      83133.49       5413.8588    
    613000   1129.2527     -2793.9501      72.983681     -2720.9664      83280.118      5413.8588    
    614000   1120.984      -2795.4455      72.449279     -2722.9962      82341.684      5413.8588    
    615000   1208.759      -2793.4162      78.122181     -2715.294       84423.868      5413.8588    
    616000   1205.8301     -2794.9568      77.932888     -2717.0239      84776.738      5413.8588    
    617000   1165.6484     -2798.4471      75.335939     -2723.1112      80185.027      5413.8588    
    618000   1151.1079     -2794.7673      74.396187     -2720.3711      83582.294      5413.8588    
    619000   1137.4269     -2791.5207      73.511983     -2718.0087      86407.443      5413.8588    
    620000   1248.7342     -2793.5617      80.705784     -2712.8559      85140.889      5413.8588    
    621000   1258.1701     -2791.5666      81.315625     -2710.2509      86847.573      5413.8588    
    622000   1213.9514     -2792.8971      78.457767     -2714.4393      85559.982      5413.8588    
    623000   1151.5944     -2792.0776      74.427631     -2717.65        86079.924      5413.8588    
    624000   1165.8061     -2792.2565      75.346131     -2716.9103      86044.922      5413.8588    
    625000   1235.9646     -2794.6483      79.880483     -2714.7678      84953.117      5413.8588    
    626000   1261.3788     -2795.4079      81.523006     -2713.8849      83996.094      5413.8588    
    627000   1189.0923     -2796.0987      76.851122     -2719.2476      81972.096      5413.8588    
    628000   1161.8216     -2796.5315      75.088613     -2721.4428      81575.696      5413.8588    
    629000   1195.146      -2793.3779      77.242373     -2716.1356      85562.448      5413.8588    
    630000   1168.0229     -2791.2349      75.489402     -2715.7455      87138.188      5413.8588    
    631000   1163.0191     -2797.3752      75.166009     -2722.2092      80524.067      5413.8588    
    632000   1143.5713     -2794.3097      73.909097     -2720.4006      84210.125      5413.8588    
    633000   1176.5623     -2791.3793      76.041309     -2715.3379      86660.117      5413.8588    
    634000   1090.2619     -2791.1689      70.463703     -2720.7052      85632.325      5413.8588    
    635000   1204.9155     -2796.6698      77.873778     -2718.796       81770.736      5413.8588    
    636000   1266.1457     -2789.1491      81.831087     -2707.318       89856.845      5413.8588    
    637000   1206.7883     -2789.5274      77.994813     -2711.5326      89947.004      5413.8588    
    638000   1232.2262     -2796.6165      79.638871     -2716.9777      83631.56       5413.8588    
    639000   1138.1473     -2794.7887      73.558543     -2721.2301      83994.453      5413.8588    
    640000   1167.7435     -2796.7982      75.471348     -2721.3269      81956.779      5413.8588    
    641000   1198.9203     -2792.5501      77.486306     -2715.0637      85497.82       5413.8588    
    642000   1135.8541     -2797.2736      73.410332     -2723.8633      79887.049      5413.8588    
    643000   1169.8168     -2798.1326      75.605346     -2722.5273      79778.647      5413.8588    
    644000   1302.6235     -2795.437       84.188654     -2711.2484      84517.484      5413.8588    
    645000   1217.1198     -2794.2797      78.662541     -2715.6171      84986.058      5413.8588    
    646000   1218.6594     -2794.0807      78.762047     -2715.3186      84545.44       5413.8588    
    647000   1193.0032     -2790.9251      77.103884     -2713.8212      87492.021      5413.8588    
    648000   1070.4949     -2802.7532      69.186162     -2733.567       74980.375      5413.8588    
    649000   1239.8374     -2791.0971      80.130778     -2710.9663      87023.484      5413.8588    
    650000   1174.4714     -2790.522       75.906174     -2714.6158      86548.878      5413.8588    
    651000   1189.8383     -2794.1892      76.899334     -2717.2898      84518.274      5413.8588    
    652000   1119.1948     -2794.4729      72.33364      -2722.1393      82673.859      5413.8588    
    653000   1227.1657     -2794.6721      79.311806     -2715.3603      84146.018      5413.8588    
    654000   1260.3767     -2794.0591      81.458238     -2712.6008      85686.315      5413.8588    
    655000   1065.6287     -2798.456       68.87166      -2729.5843      78783.735      5413.8588    
    656000   1246.1622     -2794.4266      80.539553     -2713.887       85117.485      5413.8588    
    657000   1280.0986     -2794.0826      82.732866     -2711.3497      85884.484      5413.8588    
    658000   1237.8156     -2796.2718      80.000111     -2716.2717      83142.955      5413.8588    
    659000   1177.5654     -2795.0574      76.106136     -2718.9513      83829.697      5413.8588    
    660000   1198.3845     -2792.6553      77.451679     -2715.2036      85556.963      5413.8588    
    661000   1225.2979     -2793.7224      79.191092     -2714.5313      86213.504      5413.8588    
    662000   1142.0134     -2797.0928      73.808408     -2723.2844      80891.565      5413.8588    
    663000   1237.5778     -2800.3702      79.98474      -2720.3854      79534.884      5413.8588    
    664000   1180.7563     -2794.9272      76.312368     -2718.6149      83399.242      5413.8588    
    665000   1189.6665     -2791.1896      76.888232     -2714.3014      86035.03       5413.8588    
    666000   1253.4652     -2788.4743      81.011549     -2707.4627      90038.513      5413.8588    
    667000   1227.8342     -2792.2436      79.355016     -2712.8886      86492.329      5413.8588    
    668000   1200.8918     -2795.389       77.613721     -2717.7753      82882.095      5413.8588    
    669000   1207.6676     -2791.7881      78.051644     -2713.7365      87252.043      5413.8588    
    670000   1220.2744     -2789.6289      78.866422     -2710.7624      88634.436      5413.8588    
    671000   1163.6296     -2793.668       75.205466     -2718.4626      83499.136      5413.8588    
    672000   1187.1291     -2796.9176      76.724241     -2720.1934      82457.21       5413.8588    
    673000   1200.3839     -2793.8614      77.580901     -2716.2805      85250.914      5413.8588    
    674000   1253.462      -2793.6284      81.011342     -2712.6171      85983.775      5413.8588    
    675000   1287.3167     -2796.763       83.199371     -2713.5636      83474.285      5413.8588    
    676000   1208.4377     -2794.4934      78.101416     -2716.392       84391.597      5413.8588    
    677000   1164.4056     -2795.4032      75.255617     -2720.1476      83796.177      5413.8588    
    678000   1181.3097     -2790.5967      76.348133     -2714.2486      87920.153      5413.8588    
    679000   1202.3351     -2795.7341      77.707005     -2718.0271      83261.677      5413.8588    
    680000   1172.3045     -2798.1176      75.766124     -2722.3514      80384.068      5413.8588    
    681000   1152.0611     -2792.6729      74.457794     -2718.2151      85521.744      5413.8588    
    682000   1222.7578     -2790.2677      79.026925     -2711.2408      88501.903      5413.8588    
    683000   1137.5898     -2792.9358      73.52251      -2719.4133      84261.72       5413.8588    
    684000   1196.3815     -2793.1125      77.322222     -2715.7903      85247.11       5413.8588    
    685000   1228.1775     -2789.5613      79.377201     -2710.1841      89134.656      5413.8588    
    686000   1204.7631     -2792.4978      77.863926     -2714.6339      86182.258      5413.8588    
    687000   1186.1271     -2793.3539      76.65948      -2716.6945      86376.321      5413.8588    
    688000   1234.5773     -2790.4123      79.790821     -2710.6215      87973.261      5413.8588    
    689000   1177.2863     -2789.0702      76.088097     -2712.9821      89008.653      5413.8588    
    690000   1171.5571     -2791.7392      75.717818     -2716.0214      86425.04       5413.8588    
    691000   1160.1655     -2790.6256      74.981579     -2715.644       85819.113      5413.8588    
    692000   1175.2526     -2795.1125      75.956662     -2719.1558      83392.203      5413.8588    
    693000   1164.9632     -2793.2764      75.291655     -2717.9847      84542.28       5413.8588    
    694000   1266.588      -2792.0025      81.859671     -2710.1428      87742.415      5413.8588    
    695000   1253.4339     -2790.4282      81.009523     -2709.4186      89811.866      5413.8588    
    696000   1206.536      -2795.0468      77.978508     -2717.0683      83273.484      5413.8588    
    697000   1175.9324     -2796.3019      76.000597     -2720.3013      81345.135      5413.8588    
    698000   1155.2097     -2795.4151      74.661289     -2720.7538      82640.84       5413.8588    
    699000   1243.0412     -2794.3583      80.337845     -2714.0204      84522.013      5413.8588    
    700000   1172.7109     -2790.77        75.792393     -2714.9776      87135.816      5413.8588    
    701000   1236.8647     -2796.1529      79.938654     -2716.2143      83152.547      5413.8588    
    702000   1107.7385     -2796.3302      71.593217     -2724.737       80898.971      5413.8588    
    703000   1262.6518     -2793.6468      81.60528      -2712.0415      85724.139      5413.8588    
    704000   1168.3053     -2792.813       75.507654     -2717.3053      85337.074      5413.8588    
    705000   1145.397      -2793.939       74.027092     -2719.9119      84191.342      5413.8588    
    706000   1182.0013     -2794.6927      76.392828     -2718.2998      83786.115      5413.8588    
    707000   1224.6851     -2792.8456      79.151486     -2713.6941      85879.528      5413.8588    
    708000   1205.3377     -2791.9286      77.901064     -2714.0275      85697.736      5413.8588    
    709000   1206.8038     -2800.0425      77.995818     -2722.0466      79109.212      5413.8588    
    710000   1137.4267     -2795.8761      73.51197      -2722.3641      82182.814      5413.8588    
    711000   1161.0376     -2788.3982      75.037943     -2713.3603      89067.643      5413.8588    
    712000   1185.2804     -2790.0222      76.604761     -2713.4174      87962.052      5413.8588    
    713000   1216.4664     -2794.5786      78.620314     -2715.9583      84226.868      5413.8588    
    714000   1182.5208     -2795.7432      76.426403     -2719.3168      83770.347      5413.8588    
    715000   1147.3327     -2787.5099      74.152198     -2713.3577      90195.388      5413.8588    
    716000   1232.703      -2795.586       79.669683     -2715.9163      83921.807      5413.8588    
    717000   1197.9379     -2793.0471      77.422815     -2715.6243      85396.665      5413.8588    
    718000   1223.2823     -2790.0181      79.060821     -2710.9573      89369.94       5413.8588    
    719000   1122.8902     -2788.9705      72.572477     -2716.398       87598.369      5413.8588    
    720000   1253.1065     -2797.1162      80.988363     -2716.1279      82091.678      5413.8588    
    721000   1153.5698     -2795.0547      74.555302     -2720.4994      82836.503      5413.8588    
    722000   1149.0912     -2790.5703      74.265846     -2716.3044      86908.104      5413.8588    
    723000   1208.17       -2795.5186      78.084117     -2717.4345      82672.868      5413.8588    
    724000   1247.6029     -2793.6699      80.632665     -2713.0373      84851.677      5413.8588    
    725000   1186.0717     -2789.1264      76.655901     -2712.4705      88114.925      5413.8588    
    726000   1201.2932     -2793.0072      77.639664     -2715.3675      85818.325      5413.8588    
    727000   1162.5877     -2792.2303      75.138126     -2717.0922      84713.712      5413.8588    
    728000   1267.5403     -2796.4819      81.921222     -2714.5606      83533.148      5413.8588    
    729000   1251.2733     -2790.9243      80.869882     -2710.0544      87410.838      5413.8588    
    730000   1247.442      -2792.5388      80.622267     -2711.9165      86877.617      5413.8588    
    731000   1216.6508     -2795.9106      78.632227     -2717.2784      82885.722      5413.8588    
    732000   1212.3767     -2795.5067      78.355996     -2717.1507      83149.18       5413.8588    
    733000   1201.6707     -2788.175       77.664067     -2710.5109      89641.25       5413.8588    
    734000   1251.4742     -2789.3847      80.882865     -2708.5018      88549.377      5413.8588    
    735000   1201.7104     -2790.6131      77.666632     -2712.9464      87075.966      5413.8588    
    736000   1215.0834     -2796.3899      78.530927     -2717.859       81938.362      5413.8588    
    737000   1194.2745     -2791.8073      77.186048     -2714.6212      86804.01       5413.8588    
    738000   1216.628      -2793.2085      78.630753     -2714.5777      86199.809      5413.8588    
    739000   1161.4649     -2793.0698      75.065562     -2718.0043      85600.322      5413.8588    
    740000   1179.1228     -2792.2617      76.206792     -2716.0549      86469.905      5413.8588    
    741000   1185.1134     -2788.2664      76.593968     -2711.6724      89758.647      5413.8588    
    742000   1251.8035     -2794.8842      80.904153     -2713.98        84732.062      5413.8588    
    743000   1177.4147     -2794.554       76.096398     -2718.4576      84201.218      5413.8588    
    744000   1130.5449     -2796.6639      73.067198     -2723.5967      82094.098      5413.8588    
    745000   1158.6651     -2793.7862      74.884612     -2718.9016      84118.925      5413.8588    
    746000   1173.872      -2789.7416      75.867433     -2713.8742      88398.762      5413.8588    
    747000   1198.2778     -2789.009       77.444782     -2711.5643      88562.327      5413.8588    
    748000   1233.4438     -2792.2286      79.71756      -2712.5111      87210.66       5413.8588    
    749000   1111.902      -2790.605       71.862306     -2718.7427      87138.209      5413.8588    
    750000   1216.553      -2789.1093      78.62591      -2710.4834      89613.585      5413.8588    
    751000   1213.3795     -2794.9681      78.420803     -2716.5473      83462.429      5413.8588    
    752000   1143.3488     -2792.5953      73.894717     -2718.7006      86211.716      5413.8588    
    753000   1188.1571     -2794.2024      76.790679     -2717.4117      84104.606      5413.8588    
    754000   1205.3843     -2792.3347      77.904073     -2714.4307      86422.036      5413.8588    
    755000   1239.7634     -2787.289       80.125997     -2707.163       92243.012      5413.8588    
    756000   1218.6195     -2792.0943      78.759467     -2713.3349      86313.185      5413.8588    
    757000   1173.2828     -2793.2852      75.82935      -2717.4558      85028.403      5413.8588    
    758000   1177.1407     -2792.9676      76.078691     -2716.889       85124.047      5413.8588    
    759000   1255.9477     -2794.5367      81.171989     -2713.3647      85134.638      5413.8588    
    760000   1300.2699     -2795.877       84.036539     -2711.8404      84491.803      5413.8588    
    761000   1255.641      -2792.3486      81.152167     -2711.1964      86867.629      5413.8588    
    762000   1147.0831     -2792.5878      74.136063     -2718.4517      85520.263      5413.8588    
    763000   1266.2193     -2789.1233      81.835843     -2707.2875      89870.586      5413.8588    
    764000   1245.2401     -2794.9852      80.479956     -2714.5053      83909.199      5413.8588    
    765000   1245.9586     -2797.9806      80.526393     -2717.4542      81298.131      5413.8588    
    766000   1152.3779     -2795.7388      74.47827      -2721.2605      82888.659      5413.8588    
    767000   1182.7175     -2798.755       76.439117     -2722.3159      79456.195      5413.8588    
    768000   1186.2868     -2792.2304      76.669802     -2715.5606      85905.674      5413.8588    
    769000   1181.1496     -2788.946       76.337783     -2712.6082      88909.237      5413.8588    
    770000   1127.0221     -2792.3844      72.839521     -2719.5449      84600.041      5413.8588    
    771000   1131.7278     -2797.46        73.143649     -2724.3164      79797.681      5413.8588    
    772000   1136.8744     -2791.6092      73.476277     -2718.1329      86789.589      5413.8588    
    773000   1220.5691     -2793.823       78.885466     -2714.9376      85141.826      5413.8588    
    774000   1248.31       -2791.6205      80.678366     -2710.9421      86242.748      5413.8588    
    775000   1163.5989     -2789.395       75.203483     -2714.1915      88280.599      5413.8588    
    776000   1158.1471     -2792.5652      74.851129     -2717.7141      85219.402      5413.8588    
    777000   1167.2822     -2794.734       75.441535     -2719.2924      83625.767      5413.8588    
    778000   1214.2319     -2794.2096      78.475895     -2715.7337      84344.672      5413.8588    
    779000   1246.7194     -2794.2921      80.575568     -2713.7165      85125.996      5413.8588    
    780000   1226.6764     -2788.7794      79.280183     -2709.4992      89444.057      5413.8588    
    781000   1162.9849     -2794.0105      75.163796     -2718.8467      84057.275      5413.8588    
    782000   1185.3749     -2796.2639      76.610869     -2719.653       82214.635      5413.8588    
    783000   1168.6999     -2790.3431      75.533162     -2714.8099      87027.456      5413.8588    
    784000   1236.5011     -2795.1059      79.915159     -2715.1907      84360.36       5413.8588    
    785000   1198.0042     -2797.0144      77.427099     -2719.5873      81916.974      5413.8588    
    786000   1116.5817     -2793.8381      72.164753     -2721.6734      83426.148      5413.8588    
    787000   1214.4936     -2793.834       78.492811     -2715.3412      84420.381      5413.8588    
    788000   1159.8513     -2789.3395      74.961273     -2714.3782      87238.467      5413.8588    
    789000   1164.1019     -2792.7498      75.235989     -2717.5138      85160.261      5413.8588    
    790000   1211.3994     -2794.4923      78.292833     -2716.1994      83834.706      5413.8588    
    791000   1226.7705     -2794.3418      79.286268     -2715.0555      84214.628      5413.8588    
    792000   1274.5402     -2793.317       82.373623     -2710.9434      86814.347      5413.8588    
    793000   1197.4463     -2793.054       77.391038     -2715.6629      85291.98       5413.8588    
    794000   1225.4481     -2797.1138      79.200799     -2717.913       80899.046      5413.8588    
    795000   1245.1776     -2792.6677      80.475918     -2712.1918      87322.307      5413.8588    
    796000   1291.7833     -2791.6122      83.488047     -2708.1241      89035.265      5413.8588    
    797000   1160.6398     -2790.9536      75.012237     -2715.9413      86290.756      5413.8588    
    798000   1215.1811     -2795.9131      78.537243     -2717.3758      82138.419      5413.8588    
    799000   1215.663      -2790.7336      78.568389     -2712.1652      88473.563      5413.8588    
    800000   1317.4065     -2793.2307      85.144079     -2708.0866      86841.119      5413.8588    
    801000   1258.476      -2793.4294      81.335395     -2712.094       85730.29       5413.8588    
    802000   1187.6846     -2792.9896      76.760145     -2716.2295      85228.16       5413.8588    
    803000   1190.1016     -2792.9778      76.916353     -2716.0615      84877.863      5413.8588    
    804000   1217.9459     -2797.6913      78.71593      -2718.9753      80979.377      5413.8588    
    805000   1192.5867     -2798.4171      77.076966     -2721.3401      80721.117      5413.8588    
    806000   1153.3259     -2796.9775      74.539536     -2722.4379      80985.554      5413.8588    
    807000   1220.0076     -2793.105       78.849178     -2714.2558      86206.206      5413.8588    
    808000   1207.4174     -2792.4013      78.035472     -2714.3658      86400.834      5413.8588    
    809000   1146.8312     -2793.028       74.119785     -2718.9082      84589.983      5413.8588    
    810000   1128.6195     -2797.0762      72.942759     -2724.1334      81317.714      5413.8588    
    811000   1203.4584     -2790.4541      77.779602     -2712.6745      88273.497      5413.8588    
    812000   1200.1282     -2796.0444      77.56437      -2718.48        83911.895      5413.8588    
    813000   1207.0917     -2796.038       78.014424     -2718.0235      83479.96       5413.8588    
    814000   1278.1868     -2798.7451      82.609308     -2716.1358      80985.894      5413.8588    
    815000   1275.2952     -2788.6454      82.422419     -2706.223       90745.398      5413.8588    
    816000   1253.4679     -2791.0494      81.011721     -2710.0377      87713.355      5413.8588    
    817000   1149.5827     -2792.1952      74.297616     -2717.8976      85747.292      5413.8588    
    818000   1181.5555     -2797.5947      76.364019     -2721.2307      80893.522      5413.8588    
    819000   1167.9447     -2793.3763      75.484353     -2717.8919      85317.617      5413.8588    
    820000   1166.052      -2790.4201      75.362026     -2715.0581      87953.979      5413.8588    
    821000   1162.9282     -2787.1651      75.160135     -2712.0049      90362.648      5413.8588    
    822000   1146.6823     -2798.3729      74.110159     -2724.2627      79507.04       5413.8588    
    823000   1151.2447     -2794.4966      74.405026     -2720.0916      83276.512      5413.8588    
    824000   1149.8012     -2790.0252      74.311735     -2715.7134      87949.887      5413.8588    
    825000   1222.1364     -2791.8187      78.986762     -2712.832       86810.854      5413.8588    
    826000   1159.0717     -2798.6097      74.910885     -2723.6988      80294.393      5413.8588    
    827000   1123.0917     -2793.7029      72.5855       -2721.1174      83723.572      5413.8588    
    828000   1204.44       -2794.0324      77.843044     -2716.1893      84770.216      5413.8588    
    829000   1238.0608     -2794.5607      80.015958     -2714.5447      84469.928      5413.8588    
    830000   1281.3214     -2794.5955      82.811893     -2711.7836      85828.804      5413.8588    
    831000   1214.3076     -2794.1881      78.480786     -2715.7073      85394.37       5413.8588    
    832000   1198.18       -2796.6234      77.438458     -2719.185       82126.542      5413.8588    
    833000   1140.3523     -2791.3722      73.701051     -2717.6712      86892.355      5413.8588    
    834000   1219.8858     -2794.1243      78.841305     -2715.283       84093.253      5413.8588    
    835000   1211.0863     -2790.954       78.272597     -2712.6814      87470.291      5413.8588    
    836000   1184.661      -2794.2336      76.564729     -2717.6689      84267.781      5413.8588    
    837000   1227.965      -2790.0382      79.36347      -2710.6747      89150.813      5413.8588    
    838000   1202.1087     -2790.0175      77.692374     -2712.3251      88233.984      5413.8588    
    839000   1180.7691     -2792.0558      76.31319      -2715.7426      85354.206      5413.8588    
    840000   1185.1571     -2795.3368      76.59679      -2718.74        82898.136      5413.8588    
    841000   1250.4255     -2791.2456      80.815091     -2710.4305      88468.641      5413.8588    
    842000   1263.4957     -2790.8211      81.659819     -2709.1613      88981.468      5413.8588    
    843000   1204.5478     -2790.3822      77.85001      -2712.5322      85963.854      5413.8588    
    844000   1200.1558     -2793.6304      77.566154     -2716.0643      83921.001      5413.8588    
    845000   1140.307      -2795.3429      73.698125     -2721.6448      82679.547      5413.8588    
    846000   1130.1086     -2795.2851      73.039002     -2722.2461      82658.698      5413.8588    
    847000   1261.6101     -2794.1818      81.537949     -2712.6438      84362.6        5413.8588    
    848000   1216.2363     -2794.3996      78.605438     -2715.7941      84330.976      5413.8588    
    849000   1090.9641     -2790.2227      70.50909      -2719.7136      86833.294      5413.8588    
    850000   1236.2641     -2796.8019      79.899837     -2716.9021      82642.753      5413.8588    
    851000   1239.1753     -2789.0889      80.087987     -2709.0009      88818.949      5413.8588    
    852000   1168.1621     -2789.0243      75.4984       -2713.5259      88972.135      5413.8588    
    853000   1195.7467     -2794.4472      77.281196     -2717.166       83983.802      5413.8588    
    854000   1214.3958     -2792.215       78.486489     -2713.7286      85396.35       5413.8588    
    855000   1258.5442     -2797.3222      81.339803     -2715.9824      81571.178      5413.8588    
    856000   1224.2282     -2791.0373      79.121958     -2711.9153      87565.353      5413.8588    
    857000   1242.9672     -2793.4845      80.333063     -2713.1514      86453.147      5413.8588    
    858000   1179.1015     -2795.0411      76.205416     -2718.8356      83554.102      5413.8588    
    859000   1258.131      -2796.447       81.313097     -2715.1339      83059.889      5413.8588    
    860000   1231.6655     -2795.7855      79.602632     -2716.1828      83258.046      5413.8588    
    861000   1199.219      -2799.3526      77.505614     -2721.847       79980.279      5413.8588    
    862000   1213.1704     -2799.1454      78.407294     -2720.7381      80295.498      5413.8588    
    863000   1246.3586     -2791.6507      80.552244     -2711.0985      87506.617      5413.8588    
    864000   1209.8271     -2789.3025      78.19121      -2711.1113      88717.681      5413.8588    
    865000   1161.5459     -2794.9167      75.070797     -2719.8459      83399.677      5413.8588    
    866000   1187.5645     -2792.16        76.752377     -2715.4076      86402.166      5413.8588    
    867000   1173.9968     -2787.8039      75.875501     -2711.9284      90566.773      5413.8588    
    868000   1237.0671     -2790.7594      79.951736     -2710.8077      87642.877      5413.8588    
    869000   1215.3552     -2795.0354      78.548492     -2716.4869      83694.583      5413.8588    
    870000   1222.6962     -2796.4269      79.022944     -2717.404       82878.838      5413.8588    
    871000   1187.1018     -2795.17        76.722473     -2718.4475      82926.02       5413.8588    
    872000   1235.6727     -2793.5698      79.861615     -2713.7082      85881.737      5413.8588    
    873000   1225.4512     -2789.2186      79.201        -2710.0176      88146.822      5413.8588    
    874000   1238.2579     -2794.8245      80.028698     -2714.7958      84481.498      5413.8588    
    875000   1175.9372     -2795.2734      76.000909     -2719.2725      82224.118      5413.8588    
    876000   1111.7634     -2794.3246      71.853348     -2722.4713      83067.1        5413.8588    
    877000   1224.8161     -2795.0279      79.159952     -2715.8679      83946.245      5413.8588    
    878000   1167.9493     -2789.0042      75.484645     -2713.5195      87869.978      5413.8588    
    879000   1120.936      -2789.4096      72.446177     -2716.9634      87492.145      5413.8588    
    880000   1230.0328     -2797.2233      79.497108     -2717.7262      83005.377      5413.8588    
    881000   1264.1083     -2794.7103      81.69941      -2713.0109      84009.201      5413.8588    
    882000   1280.2797     -2792.4498      82.744571     -2709.7052      87139.474      5413.8588    
    883000   1256.536      -2795.754       81.210011     -2714.544       83368.444      5413.8588    
    884000   1120.4243     -2793.2771      72.413103     -2720.864       84792.584      5413.8588    
    885000   1126.0796     -2794.7124      72.778605     -2721.9338      83654.381      5413.8588    
    886000   1200.6098     -2797.224       77.595497     -2719.6285      81515.888      5413.8588    
    887000   1124.1566     -2787.9844      72.654321     -2715.33        88428.523      5413.8588    
    888000   1260.3099     -2791.8657      81.453923     -2710.4118      87307.774      5413.8588    
    889000   1197.2749     -2794.738       77.379961     -2717.358       83929.896      5413.8588    
    890000   1260.3108     -2794.915       81.453977     -2713.461       85240.183      5413.8588    
    891000   1218.423      -2788.1992      78.746768     -2709.4525      89862.563      5413.8588    
    892000   1251.8434     -2790.6915      80.906729     -2709.7848      88804.547      5413.8588    
    893000   1234.3988     -2796.5237      79.779284     -2716.7444      82691.698      5413.8588    
    894000   1218.4084     -2789.8668      78.745823     -2711.121       88986.205      5413.8588    
    895000   1168.5861     -2789.5451      75.525804     -2714.0193      87593.071      5413.8588    
    896000   1180.0512     -2800.9786      76.266794     -2724.7118      78299.586      5413.8588    
    897000   1218.3408     -2795.0893      78.741454     -2716.3478      82857.671      5413.8588    
    898000   1190.0478     -2789.7883      76.912874     -2712.8755      88567.804      5413.8588    
    899000   1224.3078     -2790.7053      79.127099     -2711.5782      87395.078      5413.8588    
    900000   1260.3262     -2794.7917      81.454974     -2713.3367      84762.334      5413.8588    
    901000   1177.9793     -2794.6148      76.132888     -2718.4819      84002.838      5413.8588    
    902000   1229.4464     -2798.2227      79.459209     -2718.7635      81895.247      5413.8588    
    903000   1238.9672     -2797.4362      80.074542     -2717.3616      81515.565      5413.8588    
    904000   1193.5938     -2794.1249      77.142051     -2716.9828      84665.214      5413.8588    
    905000   1211.3911     -2792.5616      78.292293     -2714.2693      87005.723      5413.8588    
    906000   1224.0906     -2789.5409      79.113064     -2710.4278      89726.828      5413.8588    
    907000   1235.0262     -2795.8211      79.819834     -2716.0013      83844.055      5413.8588    
    908000   1169.2997     -2793.7824      75.571926     -2718.2104      84825.431      5413.8588    
    909000   1128.0128     -2794.2337      72.90355      -2721.3301      83766.665      5413.8588    
    910000   1151.3573     -2794.4014      74.412307     -2719.9891      83563.589      5413.8588    
    911000   1243.7096     -2794.1927      80.381041     -2713.8116      85712.65       5413.8588    
    912000   1254.4851     -2795.017       81.077464     -2713.9396      83801.445      5413.8588    
    913000   1180.4528     -2795.9695      76.292752     -2719.6768      81708.492      5413.8588    
    914000   1159.9009     -2796.1897      74.964476     -2721.2252      81625.246      5413.8588    
    915000   1143.8615     -2793.9876      73.927854     -2720.0598      84102.318      5413.8588    
    916000   1195.9078     -2793.7066      77.291605     -2716.415       85399.07       5413.8588    
    917000   1221.01       -2787.2875      78.913967     -2708.3735      92043.067      5413.8588    
    918000   1230.0217     -2790.5445      79.496389     -2711.0481      88362.697      5413.8588    
    919000   1190.0594     -2794.0659      76.913623     -2717.1523      84492.353      5413.8588    
    920000   1159.4683     -2792.6243      74.936517     -2717.6878      85224.103      5413.8588    
    921000   1355.4985     -2794.4171      87.605968     -2706.8111      86277.386      5413.8588    
    922000   1201.9407     -2796.5726      77.681513     -2718.8911      81749.528      5413.8588    
    923000   1192.9057     -2795.4632      77.097579     -2718.3656      84043.921      5413.8588    
    924000   1299.8915     -2790.1313      84.012083     -2706.1192      88830.067      5413.8588    
    925000   1277.7184     -2793.1193      82.579034     -2710.5403      86294.432      5413.8588    
    926000   1169.8874     -2791.8881      75.609909     -2716.2782      86351.864      5413.8588    
    927000   1164.1895     -2794.4139      75.241651     -2719.1723      83343.766      5413.8588    
    928000   1193.0168     -2792.2413      77.104765     -2715.1365      86298.317      5413.8588    
    929000   1253.6376     -2792.8166      81.022688     -2711.7939      87217.132      5413.8588    
    930000   1184.436      -2792.6479      76.550184     -2716.0977      84467.671      5413.8588    
    931000   1162.3779     -2796.8551      75.124565     -2721.7305      81334.206      5413.8588    
    932000   1197.7611     -2795.3491      77.411386     -2717.9377      83317.878      5413.8588    
    933000   1208.5239     -2793.285       78.106985     -2715.178       86006.91       5413.8588    
    934000   1163.695      -2794.1042      75.209694     -2718.8945      84135.931      5413.8588    
    935000   1115.6828     -2792.5423      72.106663     -2720.4356      85368.792      5413.8588    
    936000   1126.2793     -2795.5604      72.791516     -2722.7689      82013.788      5413.8588    
    937000   1161.2959     -2792.7505      75.05464      -2717.6958      85477.935      5413.8588    
    938000   1221.3711     -2791.6253      78.937301     -2712.688       87695.193      5413.8588    
    939000   1200.3134     -2793.7283      77.576339     -2716.1519      85376.33       5413.8588    
    940000   1208.8617     -2798.4955      78.128819     -2720.3667      81335.416      5413.8588    
    941000   1192.0247     -2798.0204      77.040644     -2720.9798      81055.784      5413.8588    
    942000   1257.0331     -2793.6984      81.242143     -2712.4562      86706.404      5413.8588    
    943000   1175.3048     -2789.6524      75.960033     -2713.6924      88148.119      5413.8588    
    944000   1135.2757     -2795.3896      73.372952     -2722.0167      81191.348      5413.8588    
    945000   1171.5009     -2798.5251      75.714191     -2722.8109      80032.579      5413.8588    
    946000   1194.2895     -2792.4569      77.187016     -2715.2698      86572.937      5413.8588    
    947000   1200.4467     -2795.2821      77.584957     -2717.6971      84168.78       5413.8588    
    948000   1128.4466     -2795.1809      72.931585     -2722.2493      82097.584      5413.8588    
    949000   1217.5674     -2794.1344      78.691471     -2715.4429      84837.554      5413.8588    
    950000   1209.0072     -2793.3163      78.13822      -2715.178       85124.811      5413.8588    
    951000   1190.4946     -2793.5897      76.941753     -2716.6479      85607.393      5413.8588    
    952000   1154.0326     -2792.1567      74.585211     -2717.5715      86385.32       5413.8588    
    953000   1261.0267     -2794.769       81.500244     -2713.2687      85378.46       5413.8588    
    954000   1181.0453     -2789.0362      76.331046     -2712.7051      89217.443      5413.8588    
    955000   1225.2072     -2795.6497      79.185232     -2716.4645      83145.059      5413.8588    
    956000   1244.3208     -2795.5101      80.420546     -2715.0895      83102.571      5413.8588    
    957000   1203.486      -2787.0053      77.781386     -2709.224       90988.147      5413.8588    
    958000   1211.1313     -2791.7979      78.275504     -2713.5224      86698.273      5413.8588    
    959000   1191.5309     -2793.8337      77.008727     -2716.825       84884.897      5413.8588    
    960000   1209.8322     -2790.5868      78.191541     -2712.3952      87297.052      5413.8588    
    961000   1222.2103     -2790.4366      78.991538     -2711.445       87461.035      5413.8588    
    962000   1151.9246     -2792.181       74.448973     -2717.732       85256.474      5413.8588    
    963000   1173.5731     -2794.293       75.848116     -2718.4449      84425.29       5413.8588    
    964000   1202.82       -2795.28        77.738345     -2717.5417      83826.277      5413.8588    
    965000   1207.2497     -2793.1754      78.024638     -2715.1508      86118.306      5413.8588    
    966000   1168.5513     -2793.1114      75.523557     -2717.5879      85233.086      5413.8588    
    967000   1092.6497     -2792.8763      70.618028     -2722.2583      84017.543      5413.8588    
    968000   1140.0897     -2793.7566      73.684079     -2720.0725      84125.469      5413.8588    
    969000   1183.5331     -2791.4503      76.491828     -2714.9585      87302.189      5413.8588    
    970000   1206.2195     -2793.5411      77.958057     -2715.583       84792.055      5413.8588    
    971000   1090.1021     -2793.7032      70.453376     -2723.2498      83032.909      5413.8588    
    972000   1179.2629     -2795.4664      76.215845     -2719.2505      83205.831      5413.8588    
    973000   1245.2793     -2795.535       80.48249      -2715.0525      83800.16       5413.8588    
    974000   1220.7885     -2792.5294      78.899651     -2713.6298      86345.31       5413.8588    
    975000   1154.066      -2796.2919      74.587372     -2721.7045      81025.856      5413.8588    
    976000   1143.9807     -2794.9631      73.935553     -2721.0275      83533.167      5413.8588    
    977000   1200.0463     -2794.2292      77.559081     -2716.6702      84215.511      5413.8588    
    978000   1246.6014     -2792.8629      80.567937     -2712.295       85739.986      5413.8588    
    979000   1234.5642     -2792.1365      79.789972     -2712.3465      85837.717      5413.8588    
    980000   1273.917      -2797.9639      82.333348     -2715.6306      81154.719      5413.8588    
    981000   1196.5625     -2796.247       77.333918     -2718.913       82980.396      5413.8588    
    982000   1181.3591     -2795.9216      76.351323     -2719.5702      82863.158      5413.8588    
    983000   1204.0532     -2791.421       77.818043     -2713.603       87004.762      5413.8588    
    984000   1156.5129     -2790.8972      74.745511     -2716.1517      85881.972      5413.8588    
    985000   1176.0776     -2795.7185      76.009978     -2719.7086      82212.248      5413.8588    
    986000   1182.8088     -2793.9536      76.445021     -2717.5086      85426.316      5413.8588    
    987000   1224.9556     -2792.7058      79.168972     -2713.5368      86583.09       5413.8588    
    988000   1236.9677     -2793.4871      79.945311     -2713.5418      85090.386      5413.8588    
    989000   1126.4123     -2796.9084      72.800112     -2724.1083      80417.842      5413.8588    
    990000   1138.289      -2790.7255      73.567704     -2717.1578      87234.6        5413.8588    
    991000   1221.1605     -2793.0555      78.923695     -2714.1318      86843.949      5413.8588    
    992000   1218.7326     -2791.2165      78.766777     -2712.4497      86838.393      5413.8588    
    993000   1157.5715     -2791.1167      74.813933     -2716.3028      86998.155      5413.8588    
    994000   1204.0054     -2796.7499      77.814956     -2718.9349      82506.396      5413.8588    
    995000   1133.4402     -2796.1671      73.254324     -2722.9128      80791.26       5413.8588    
    996000   1209.2526     -2793.6818      78.154085     -2715.5277      84870.806      5413.8588    
    997000   1217.6799     -2792.2881      78.698742     -2713.5894      86518.206      5413.8588    
    998000   1172.9747     -2791.7739      75.809438     -2715.9644      84747.133      5413.8588    
    999000   1195.7062     -2798.8281      77.278577     -2721.5495      80431.166      5413.8588    
   1000000   1220.1944     -2798.8347      78.861253     -2719.9734      80666.817      5413.8588    
   1001000   1218.0996     -2791.5682      78.725866     -2712.8423      87156.78       5413.8588    
   1002000   1164.7669     -2790.3399      75.278966     -2715.0609      87064.684      5413.8588    
   1003000   1203.2346     -2798.0621      77.765138     -2720.297       81299.75       5413.8588    
   1004000   1107.6065     -2795.4339      71.584688     -2723.8492      83031.827      5413.8588    
   1005000   1245.1355     -2792.9323      80.473198     -2712.4591      86645.436      5413.8588    
   1006000   1244.2481     -2794.8701      80.415844     -2714.4542      84627.937      5413.8588    
   1007000   1102.2394     -2798.164       71.237813     -2726.9262      79634.712      5413.8588    
   1008000   1208.5058     -2792.6788      78.105817     -2714.573       86047.63       5413.8588    
   1009000   1178.5924     -2790.42        76.172511     -2714.2475      87779.327      5413.8588    
   1010000   1227.7929     -2795.5209      79.352344     -2716.1685      83632.368      5413.8588    
   1011000   1117.6054     -2798.5198      72.23092      -2726.2889      79877.828      5413.8588    
   1012000   1186.5638     -2795.1537      76.687703     -2718.466       83825.772      5413.8588    
   1013000   1161.2993     -2789.7054      75.054859     -2714.6505      86950.94       5413.8588    
   1014000   1206.4101     -2790.063       77.970373     -2712.0927      88012.945      5413.8588    
   1015000   1217.7898     -2793.5098      78.705842     -2714.8039      85316.54       5413.8588    
   1016000   1209.8925     -2799.375       78.195441     -2721.1796      81060.256      5413.8588    
   1017000   1167.2588     -2790.3638      75.440022     -2714.9238      87565.664      5413.8588    
   1018000   1270.4145     -2792.6676      82.106979     -2710.5606      86358.857      5413.8588    
   1019000   1204.7261     -2794.6713      77.861538     -2716.8098      83919.595      5413.8588    
   1020000   1299.4669     -2795.8529      83.984643     -2711.8682      84872.774      5413.8588    
   1021000   1233.2433     -2788.7446      79.704607     -2709.04        89854.478      5413.8588    
   1022000   1245.7867     -2791.9767      80.515284     -2711.4614      87669.267      5413.8588    
   1023000   1160.2505     -2790.9035      74.987076     -2715.9164      86605.722      5413.8588    
   1024000   1165.7604     -2795.9145      75.343176     -2720.5713      82625.818      5413.8588    
   1025000   1183.4593     -2794.1915      76.487062     -2717.7045      84769.717      5413.8588    
   1026000   1219.413      -2793.4917      78.810752     -2714.6809      85875.323      5413.8588    
   1027000   1233.9443     -2795.2656      79.749908     -2715.5157      84684.991      5413.8588    
   1028000   1160.4148     -2796.4481      74.997696     -2721.4504      82061.355      5413.8588    
   1029000   1135.689      -2792.4208      73.399665     -2719.0211      84751.158      5413.8588    
   1030000   1278.8824     -2794.0566      82.654261     -2711.4023      85083.921      5413.8588    
   1031000   1233.2177     -2788.4414      79.702952     -2708.7384      89422.317      5413.8588    
   1032000   1216.7313     -2790.1061      78.637429     -2711.4686      87996.576      5413.8588    
   1033000   1149.1758     -2791.1603      74.271314     -2716.8889      86288.536      5413.8588    
   1034000   1208.3401     -2794.5918      78.095108     -2716.4967      83526.674      5413.8588    
   1035000   1234.5966     -2791.242       79.79207      -2711.4499      87633.03       5413.8588    
   1036000   1176.9191     -2791.3342      76.064366     -2715.2698      86464.592      5413.8588    
   1037000   1217.7533     -2798.2167      78.703487     -2719.5132      81115.349      5413.8588    
   1038000   1258.3177     -2796.3622      81.325164     -2715.037       83964.33       5413.8588    
   1039000   1237.7404     -2789.1602      79.995254     -2709.1649      89511.912      5413.8588    
   1040000   1215.7537     -2790.4411      78.574248     -2711.8669      88696.326      5413.8588    
   1041000   1132.8698     -2792.761       73.21746      -2719.5435      84868.314      5413.8588    
   1042000   1156.5592     -2799.0298      74.748503     -2724.2813      79515.282      5413.8588    
   1043000   1264.5789     -2795.042       81.729828     -2713.3122      84988.183      5413.8588    
   1044000   1126.2836     -2793.2376      72.79179      -2720.4458      84830.586      5413.8588    
   1045000   1178.5996     -2795.7733      76.172974     -2719.6004      83304.936      5413.8588    
   1046000   1219.109      -2796.283       78.791104     -2717.4919      82435.2        5413.8588    
   1047000   1205.3131     -2788.8446      77.899473     -2710.9451      88797.319      5413.8588    
   1048000   1253.156      -2793.322       80.991562     -2712.3305      87078.743      5413.8588    
   1049000   1207.6002     -2794.2135      78.047288     -2716.1662      83606.555      5413.8588    
   1050000   1199.1704     -2797.6368      77.502469     -2720.1344      81965.297      5413.8588    
   1051000   1142.5368     -2793.569       73.842233     -2719.7268      83365.278      5413.8588    
   1052000   1235.5711     -2792.8053      79.855047     -2712.9503      86023.715      5413.8588    
   1053000   1156.3902     -2798.3369      74.737583     -2723.5993      80665.899      5413.8588    
   1054000   1188.1525     -2794.6885      76.790382     -2717.8982      83930.065      5413.8588    
   1055000   1257.4342     -2794.3141      81.268064     -2713.0461      85552.801      5413.8588    
   1056000   1233.6099     -2788.2329      79.728299     -2708.5046      90778.198      5413.8588    
   1057000   1206.8969     -2793.2125      78.001836     -2715.2106      85827.006      5413.8588    
   1058000   1214.7507     -2798.0322      78.509428     -2719.5228      81971.486      5413.8588    
   1059000   1200.1069     -2792.808       77.562994     -2715.245       85539.415      5413.8588    
   1060000   1279.9445     -2794.0572      82.722903     -2711.3343      86240.043      5413.8588    
   1061000   1169.8685     -2791.9484      75.608684     -2716.3398      85856.745      5413.8588    
   1062000   1170.9902     -2791.7817      75.681181     -2716.1006      86110.951      5413.8588    
   1063000   1246.9074     -2792.0305      80.587719     -2711.4428      86233.164      5413.8588    
   1064000   1215.9592     -2792.8483      78.587534     -2714.2607      85155.582      5413.8588    
   1065000   1091.8866     -2793.9938      70.568712     -2723.4251      83080.979      5413.8588    
   1066000   1124.3785     -2792.5652      72.668664     -2719.8965      85909.12       5413.8588    
   1067000   1246.5049     -2793.1344      80.561703     -2712.5727      85456.356      5413.8588    
   1068000   1165.1044     -2792.2162      75.300785     -2716.9154      85961.336      5413.8588    
   1069000   1154.2532     -2790.8948      74.59947      -2716.2954      86592.388      5413.8588    
   1070000   1236.4164     -2791.1959      79.909683     -2711.2862      88151.179      5413.8588    
   1071000   1203.2096     -2793.6579      77.763524     -2715.8943      85160.088      5413.8588    
   1072000   1148.1737     -2792.6164      74.206552     -2718.4098      84725.946      5413.8588    
   1073000   1200.4189     -2791.5789      77.583158     -2713.9957      87279.297      5413.8588    
   1074000   1164.419      -2794.6256      75.256485     -2719.3691      83737.058      5413.8588    
   1075000   1194.5133     -2798.631       77.201482     -2721.4295      80321.821      5413.8588    
   1076000   1191.8111     -2794.2559      77.026836     -2717.2291      84815.002      5413.8588    
   1077000   1169.4047     -2789.2517      75.578708     -2713.673       88911.675      5413.8588    
   1078000   1199.5286     -2793.467       77.525623     -2715.9413      84811.745      5413.8588    
   1079000   1188.4289     -2792.9231      76.808247     -2716.1149      85041.247      5413.8588    
   1080000   1246.8647     -2789.5775      80.584957     -2708.9925      88721.924      5413.8588    
   1081000   1286.147      -2791.7969      83.123776     -2708.6731      88375.131      5413.8588    
   1082000   1178.2652     -2794.6373      76.151364     -2718.486       84007.754      5413.8588    
   1083000   1224.6051     -2793.6787      79.146318     -2714.5324      86269.71       5413.8588    
   1084000   1214.9941     -2786.4662      78.525157     -2707.9411      92607.326      5413.8588    
   1085000   1184.6237     -2794.1646      76.562317     -2717.6023      84568.131      5413.8588    
   1086000   1170.4762     -2795.509       75.647963     -2719.8611      82645.062      5413.8588    
   1087000   1217.7216     -2798.9599      78.701436     -2720.2584      80224.389      5413.8588    
   1088000   1197.816      -2789.0749      77.414934     -2711.66        89629.061      5413.8588    
   1089000   1261.8443     -2793.4362      81.553088     -2711.8831      85560.587      5413.8588    
   1090000   1115.1802     -2795.5318      72.074177     -2723.4576      80878.244      5413.8588    
   1091000   1191.0016     -2798.0262      76.974518     -2721.0517      81210.43       5413.8588    
   1092000   1204.1369     -2791.9156      77.823457     -2714.0921      86460.379      5413.8588    
   1093000   1204.7774     -2793.5585      77.86485      -2715.6936      85458.196      5413.8588    
   1094000   1136.5637     -2796.0699      73.456192     -2722.6137      82005.357      5413.8588    
   1095000   1173.3762     -2795.617       75.835388     -2719.7816      82687.839      5413.8588    
   1096000   1173.6884     -2794.1665      75.855567     -2718.3109      84218.005      5413.8588    
   1097000   1264.3788     -2787.4166      81.716893     -2705.6997      91249.551      5413.8588    
   1098000   1229.1288     -2793.1945      79.438685     -2713.7558      85467.157      5413.8588    
   1099000   1218.869      -2795.6152      78.775592     -2716.8397      82919.685      5413.8588    
   1100000   1193.9804     -2795.8998      77.167038     -2718.7328      83169.973      5413.8588    
   1101000   1215.8629     -2797.543       78.58131      -2718.9617      81764.32       5413.8588    
   1102000   1200.7192     -2795.1226      77.60257      -2717.52        82750.148      5413.8588    
   1103000   1193.4605     -2790.5796      77.133438     -2713.4462      87428.118      5413.8588    
   1104000   1204.82       -2791.3576      77.867601     -2713.49        86885.588      5413.8588    
   1105000   1189.058      -2794.0013      76.848903     -2717.1524      84746.327      5413.8588    
   1106000   1177.4146     -2795.9         76.09639      -2719.8036      82942.618      5413.8588    
   1107000   1240.7858     -2794.7009      80.192079     -2714.5088      84653.308      5413.8588    
   1108000   1175.6332     -2797.2427      75.981257     -2721.2614      81128.446      5413.8588    
   1109000   1149.726      -2792.4907      74.306876     -2718.1838      85974.857      5413.8588    
   1110000   1181.2925     -2790.8088      76.347019     -2714.4618      86855.923      5413.8588    
   1111000   1222.5505     -2792.7125      79.01353      -2713.699       86347.407      5413.8588    
   1112000   1145.0246     -2794.56        74.003022     -2720.557       83506.858      5413.8588    
   1113000   1157.8996     -2797.0079      74.835132     -2722.1728      82304.232      5413.8588    
   1114000   1207.9785     -2793.2033      78.07174      -2715.1316      86495.293      5413.8588    
   1115000   1253.5826     -2795.6662      81.019132     -2714.6471      83080.214      5413.8588    
   1116000   1204.2114     -2793.7366      77.828267     -2715.9084      85238.203      5413.8588    
   1117000   1156.7746     -2797.3239      74.762424     -2722.5615      81087.441      5413.8588    
   1118000   1147.0877     -2795.6077      74.136363     -2721.4713      83449.296      5413.8588    
   1119000   1283.4449     -2794.5263      82.949137     -2711.5772      86037.273      5413.8588    
   1120000   1264.3709     -2794.206       81.716383     -2712.4896      84820.491      5413.8588    
   1121000   1174.0128     -2794.8527      75.876533     -2718.9761      83441.397      5413.8588    
   1122000   1163.1326     -2795.0182      75.173345     -2719.8449      84634.002      5413.8588    
   1123000   1207.0967     -2790.8265      78.014745     -2712.8117      87438.88       5413.8588    
   1124000   1239.8306     -2791.2292      80.130342     -2711.0989      88043.317      5413.8588    
   1125000   1212.6564     -2794.6739      78.374069     -2716.2999      84193.612      5413.8588    
   1126000   1206.5441     -2793.7266      77.979036     -2715.7475      85547.343      5413.8588    
   1127000   1258.8254     -2791.6693      81.357979     -2710.3113      86910.623      5413.8588    
   1128000   1245.9206     -2793.2266      80.523937     -2712.7027      86360.863      5413.8588    
   1129000   1157.8208     -2788.2231      74.830042     -2713.3931      89611.102      5413.8588    
   1130000   1216.0557     -2795.0242      78.593771     -2716.4304      84147.64       5413.8588    
   1131000   1218.7509     -2790.0521      78.767959     -2711.2842      87278.626      5413.8588    
   1132000   1193.4215     -2789.6281      77.130921     -2712.4972      88192.792      5413.8588    
   1133000   1117.4761     -2795.2229      72.222561     -2723.0003      83170.54       5413.8588    
   1134000   1180.941      -2798.8591      76.324301     -2722.5348      80167.851      5413.8588    
   1135000   1179.0071     -2790.8004      76.199311     -2714.6011      87754.55       5413.8588    
   1136000   1233.2578     -2790.9179      79.705539     -2711.2124      88384.974      5413.8588    
   1137000   1285.854      -2793.0067      83.104837     -2709.9019      86130.59       5413.8588    
   1138000   1213.9335     -2790.7605      78.456607     -2712.3039      88186.078      5413.8588    
   1139000   1183.9062     -2792.9575      76.515944     -2716.4415      85080.391      5413.8588    
   1140000   1212.4171     -2792.4235      78.358603     -2714.0649      85145.14       5413.8588    
   1141000   1247.7437     -2790.3403      80.641767     -2709.6986      88076.899      5413.8588    
   1142000   1186.6928     -2790.9532      76.696041     -2714.2572      87094.091      5413.8588    
   1143000   1161.4837     -2795.1057      75.066774     -2720.039       83488.915      5413.8588    
   1144000   1222.9056     -2794.9789      79.036478     -2715.9424      83660.047      5413.8588    
   1145000   1244.0222     -2791.4527      80.401247     -2711.0515      87405.734      5413.8588    
   1146000   1277.552      -2791.0859      82.568278     -2708.5177      88081.668      5413.8588    
   1147000   1218.2665     -2795.2115      78.736652     -2716.4749      83641.799      5413.8588    
   1148000   1232.1955     -2799.7284      79.636883     -2720.0915      80512.719      5413.8588    
   1149000   1185.68       -2798.8968      76.630585     -2722.2662      80522.247      5413.8588    
   1150000   1152.1876     -2791.6103      74.465966     -2717.1443      86939.795      5413.8588    
   1151000   1197.0027     -2792.4026      77.362373     -2715.0402      86415.566      5413.8588    
   1152000   1209.2805     -2792.771       78.155887     -2714.6151      85780.534      5413.8588    
   1153000   1102.4385     -2790.1694      71.250677     -2718.9188      86658.12       5413.8588    
   1154000   1107.5309     -2793.5073      71.5798       -2721.9275      83564.97       5413.8588    
   1155000   1160.0932     -2790.5327      74.976911     -2715.5558      86162.358      5413.8588    
   1156000   1195.6043     -2793.8438      77.27199      -2716.5718      84552.832      5413.8588    
   1157000   1122.2835     -2794.3846      72.533264     -2721.8513      83784.797      5413.8588    
   1158000   1160.9247     -2793.067       75.030646     -2718.0363      85469.948      5413.8588    
   1159000   1248.1668     -2793.2474      80.669113     -2712.5783      86348.506      5413.8588    
   1160000   1280.5889     -2788.2722      82.764553     -2705.5076      91553.438      5413.8588    
   1161000   1142.5273     -2794.0524      73.841621     -2720.2108      83670.221      5413.8588    
   1162000   1159.1261     -2793.4833      74.914402     -2718.5689      82989.571      5413.8588    
   1163000   1156.081      -2788.6761      74.717599     -2713.9585      89062.306      5413.8588    
   1164000   1170.1921     -2788.8807      75.629601     -2713.2511      88989.925      5413.8588    
   1165000   1250.7269     -2787.0751      80.83457      -2706.2405      91201.91       5413.8588    
   1166000   1257.4522     -2797.8248      81.269225     -2716.5555      82262.362      5413.8588    
   1167000   1170.4029     -2794.2068      75.643226     -2718.5636      85001.5        5413.8588    
   1168000   1167.6601     -2794.613       75.465958     -2719.1471      83670.372      5413.8588    
   1169000   1213.257      -2791.7563      78.412888     -2713.3434      86856.85       5413.8588    
   1170000   1125.1089     -2792.8341      72.715867     -2720.1182      84822.21       5413.8588    
   1171000   1156.2003     -2796.6519      74.725306     -2721.9266      81675.425      5413.8588    
   1172000   1199.5059     -2793.2027      77.52415      -2715.6785      86356.612      5413.8588    
   1173000   1200.3906     -2789.2304      77.581333     -2711.649       89065.646      5413.8588    
   1174000   1215.0265     -2792.5487      78.52725      -2714.0215      86303.234      5413.8588    
   1175000   1225.3713     -2795.577       79.195834     -2716.3812      83205.269      5413.8588    
   1176000   1237.9472     -2793.4651      80.008616     -2713.4565      86205.285      5413.8588    
   1177000   1112.6418     -2793.8765      71.910119     -2721.9663      82561.972      5413.8588    
   1178000   1198.602      -2798.929       77.465734     -2721.4632      80607.68       5413.8588    
   1179000   1191.18       -2791.3835      76.986049     -2714.3975      86972.135      5413.8588    
   1180000   1196.0198     -2793.563       77.298844     -2716.2642      85026.516      5413.8588    
   1181000   1173.1154     -2794.6077      75.81853      -2718.7892      83439.635      5413.8588    
   1182000   1176.3705     -2794.6371      76.028908     -2718.6082      83117.501      5413.8588    
   1183000   1264.39       -2794.1013      81.71762      -2712.3836      84979.955      5413.8588    
   1184000   1233.1192     -2788.0961      79.696586     -2708.3995      90396.408      5413.8588    
   1185000   1216.3543     -2794.8252      78.613068     -2716.2122      83697.265      5413.8588    
   1186000   1198.9104     -2797.6254      77.485666     -2720.1397      81533.793      5413.8588    
   1187000   1283.6363     -2796.9593      82.961507     -2713.9978      82509.995      5413.8588    
   1188000   1231.9291     -2794.021       79.619667     -2714.4014      85152.425      5413.8588    
   1189000   1183.5248     -2794.5553      76.491296     -2718.064       83467.1        5413.8588    
   1190000   1229.9405     -2795.332       79.491141     -2715.8409      83149.985      5413.8588    
   1191000   1246.714      -2795.721       80.575217     -2715.1457      82840.729      5413.8588    
   1192000   1177.1667     -2796.7006      76.080368     -2720.6202      82233.449      5413.8588    
   1193000   1190.9438     -2795.2976      76.970781     -2718.3268      82718.675      5413.8588    
   1194000   1159.1945     -2795.9336      74.918825     -2721.0148      82175.076      5413.8588    
   1195000   1198.8875     -2792.6164      77.484187     -2715.1322      85912.513      5413.8588    
   1196000   1165.8063     -2791.8829      75.346145     -2716.5367      84881.111      5413.8588    
   1197000   1163.2466     -2797.9873      75.180715     -2722.8066      79268.015      5413.8588    
   1198000   1145.7687     -2794.0216      74.051114     -2719.9705      83534.893      5413.8588    
   1199000   1216.4134     -2788.5439      78.616888     -2709.927       89888.707      5413.8588    
   1200000   1215.2437     -2787.7792      78.541286     -2709.2379      89867.929      5413.8588    
   1201000   1223.3469     -2792.0889      79.064999     -2713.024       86226.624      5413.8588    
   1202000   1263.1121     -2797.8435      81.635028     -2716.2085      81445.705      5413.8588    
   1203000   1179.1085     -2800.1529      76.205866     -2723.9471      79506.863      5413.8588    
   1204000   1128.2547     -2793.3155      72.91918      -2720.3963      83713.259      5413.8588    
   1205000   1226.6637     -2793.1752      79.279362     -2713.8959      85728.892      5413.8588    
   1206000   1215.5334     -2789.0672      78.560009     -2710.5071      89120.683      5413.8588    
   1207000   1196.4139     -2791.473       77.324315     -2714.1487      87322.231      5413.8588    
   1208000   1175.7075     -2794.9332      75.986059     -2718.9471      82683.427      5413.8588    
   1209000   1123.9396     -2789.819       72.640297     -2717.1787      87086.369      5413.8588    
   1210000   1144.1286     -2789.6959      73.945115     -2715.7508      87346.099      5413.8588    
   1211000   1234.7126     -2792.3609      79.799563     -2712.5613      86999.952      5413.8588    
   1212000   1110.7814     -2794.9125      71.789884     -2723.1226      83160.028      5413.8588    
   1213000   1185.732      -2799.3044      76.633943     -2722.6704      80633.575      5413.8588    
   1214000   1237.483      -2793.2758      79.978616     -2713.2972      85947.415      5413.8588    
   1215000   1251.7218     -2794.0344      80.89887      -2713.1355      85522.607      5413.8588    
   1216000   1150.5255     -2798.4011      74.358548     -2724.0426      80522.92       5413.8588    
   1217000   1221.8068     -2796.1439      78.965462     -2717.1785      83637.173      5413.8588    
   1218000   1213.7803     -2791.9385      78.446707     -2713.4918      86537.464      5413.8588    
   1219000   1255.9109     -2791.7918      81.169614     -2710.6222      87904.594      5413.8588    
   1220000   1254.9887     -2789.0202      81.110011     -2707.9102      89009.65       5413.8588    
   1221000   1174.7        -2791.6381      75.920944     -2715.7172      86355.043      5413.8588    
   1222000   1219.8212     -2796.5111      78.837132     -2717.674       82267.991      5413.8588    
   1223000   1202.1003     -2794.1606      77.691827     -2716.4688      83747.596      5413.8588    
   1224000   1288.879      -2792.1059      83.300344     -2708.8055      87405.142      5413.8588    
   1225000   1195.4571     -2790.5141      77.262476     -2713.2517      87234.47       5413.8588    
   1226000   1204.5533     -2793.7405      77.850364     -2715.8902      85104.582      5413.8588    
   1227000   1126.2309     -2793.7382      72.788387     -2720.9498      83615.862      5413.8588    
   1228000   1211.9558     -2793.8827      78.328793     -2715.5539      85427.557      5413.8588    
   1229000   1140.1512     -2790.6686      73.688054     -2716.9806      86297.633      5413.8588    
   1230000   1241.108      -2792.2271      80.212902     -2712.0142      87383.68       5413.8588    
   1231000   1200.2783     -2799.1909      77.574071     -2721.6169      80491.144      5413.8588    
   1232000   1178.4542     -2796.0218      76.163579     -2719.8582      82600.416      5413.8588    
   1233000   1234.01       -2792.7942      79.754154     -2713.0401      86299.621      5413.8588    
   1234000   1187.6052     -2792.4532      76.755008     -2715.6982      85562.323      5413.8588    
   1235000   1143.9843     -2796.12        73.935791     -2722.1842      82922.872      5413.8588    
   1236000   1117.5655     -2794.2735      72.228337     -2722.0452      83781.826      5413.8588    
   1237000   1167.5937     -2792.2139      75.461663     -2716.7522      86513.763      5413.8588    
   1238000   1240.7268     -2795.8997      80.188264     -2715.7115      82935.483      5413.8588    
   1239000   1157.6257     -2794.9745      74.817432     -2720.1571      83959.058      5413.8588    
   1240000   1163.0471     -2791.7359      75.167819     -2716.568       86699.408      5413.8588    
   1241000   1261.2373     -2792.2692      81.513857     -2710.7554      87418.944      5413.8588    
   1242000   1233.6085     -2788.1128      79.728208     -2708.3846      90333.861      5413.8588    
   1243000   1234.4264     -2792.5261      79.781065     -2712.745       86628.506      5413.8588    
   1244000   1151.5453     -2792.3333      74.424454     -2717.9088      85009.518      5413.8588    
   1245000   1189.6803     -2794.0259      76.889123     -2717.1368      83994.349      5413.8588    
   1246000   1220.6044     -2790.3796      78.88775      -2711.4919      87573.851      5413.8588    
   1247000   1231.9506     -2792.4884      79.621059     -2712.8673      85941.764      5413.8588    
   1248000   1250.6335     -2795.5346      80.828532     -2714.706       83909.011      5413.8588    
   1249000   1182.2424     -2796.4873      76.40841      -2720.0789      82400.986      5413.8588    
   1250000   1161.2358     -2798.489       75.050752     -2723.4382      80137.685      5413.8588    
   1251000   1218.4794     -2791.623       78.750413     -2712.8726      87476.083      5413.8588    
   1252000   1218.4128     -2788.9836      78.746107     -2710.2375      88880.774      5413.8588    
   1253000   1193.3905     -2794.3912      77.128917     -2717.2623      84927.441      5413.8588    
   1254000   1177.4191     -2796.5172      76.096684     -2720.4205      82705.48       5413.8588    
   1255000   1191.3241     -2793.3239      76.995361     -2716.3285      84746.146      5413.8588    
   1256000   1292.24       -2794.1651      83.517564     -2710.6475      85280.248      5413.8588    
   1257000   1271.8027     -2791.1272      82.1967       -2708.9305      88749.11       5413.8588    
   1258000   1171.647      -2789.3888      75.723631     -2713.6652      89280.613      5413.8588    
   1259000   1169.1909     -2795.7538      75.564892     -2720.1889      82555.612      5413.8588    
   1260000   1246.3322     -2794.9809      80.55054      -2714.4304      84338.076      5413.8588    
   1261000   1266.1435     -2792.4282      81.830943     -2710.5973      87243.628      5413.8588    
   1262000   1181.9486     -2791.9937      76.389422     -2715.6043      85452.721      5413.8588    
   1263000   1214.1743     -2793.0617      78.472171     -2714.5895      85691.61       5413.8588    
   1264000   1189.4265     -2786.9973      76.872719     -2710.1246      90299.743      5413.8588    
   1265000   1250.4859     -2792.3321      80.818994     -2711.5131      86832.219      5413.8588    
   1266000   1188.8229     -2793.6223      76.833711     -2716.7886      84699.779      5413.8588    
   1267000   1231.0494     -2799.4484      79.562811     -2719.8856      81196.979      5413.8588    
   1268000   1195.0874     -2793.6324      77.238585     -2716.3938      84832.877      5413.8588    
   1269000   1189.2286     -2786.9827      76.859929     -2710.1228      90836.31       5413.8588    
   1270000   1259.4289     -2788.0147      81.396978     -2706.6177      91079.824      5413.8588    
   1271000   1238.0068     -2796.4526      80.012472     -2716.4401      82394.701      5413.8588    
   1272000   1203.8482     -2794.3247      77.804795     -2716.5199      84664.353      5413.8588    
   1273000   1262.971      -2792.8808      81.625905     -2711.2549      86297.695      5413.8588    
   1274000   1200.3848     -2794.2195      77.580957     -2716.6385      84651.969      5413.8588    
   1275000   1168.0815     -2794.3335      75.493194     -2718.8403      84369.615      5413.8588    
   1276000   1194.3235     -2789.4455      77.189215     -2712.2563      88796.955      5413.8588    
   1277000   1243.2569     -2789.4369      80.351784     -2709.0851      89685.875      5413.8588    
   1278000   1183.1857     -2792.1248      76.469379     -2715.6554      86087.938      5413.8588    
   1279000   1185.6476     -2792.4835      76.628487     -2715.855       84901.48       5413.8588    
   1280000   1237.1396     -2796.2305      79.956423     -2716.274       83013.199      5413.8588    
   1281000   1121.9808     -2793.3094      72.513701     -2720.7957      84172.402      5413.8588    
   1282000   1180.755      -2792.1925      76.31228      -2715.8802      85497.51       5413.8588    
   1283000   1235.6304     -2790.6229      79.858883     -2710.764       88467.953      5413.8588    
   1284000   1190.5682     -2790.8471      76.94651      -2713.9006      87904.445      5413.8588    
   1285000   1264.0764     -2797.4911      81.697352     -2715.7937      81791.383      5413.8588    
   1286000   1119.5448     -2794.9606      72.356261     -2722.6043      82388.644      5413.8588    
   1287000   1175.3744     -2795.7649      75.96453      -2719.8003      83236.59       5413.8588    
   1288000   1184.8414     -2792.0474      76.576388     -2715.471       87087.79       5413.8588    
   1289000   1240.8796     -2792.9395      80.198138     -2712.7414      85904.865      5413.8588    
   1290000   1228.2212     -2789.6208      79.380024     -2710.2407      88546.026      5413.8588    
   1291000   1250.8999     -2795.8506      80.845754     -2715.0049      83077.397      5413.8588    
   1292000   1122.6078     -2792.038       72.554221     -2719.4838      85038.963      5413.8588    
   1293000   1201.7102     -2792.482       77.666615     -2714.8154      86337.246      5413.8588    
   1294000   1307.0174     -2792.4393      84.472631     -2707.9667      87117.734      5413.8588    
   1295000   1233.8215     -2789.8957      79.741973     -2710.1537      88553.478      5413.8588    
   1296000   1163.2767     -2793.34        75.182655     -2718.1573      84515.75       5413.8588    
   1297000   1137.2731     -2796.5498      73.502043     -2723.0478      81501.416      5413.8588    
   1298000   1122.2727     -2789.886       72.532563     -2717.3534      87822.877      5413.8588    
   1299000   1234.715      -2792.9793      79.799721     -2713.1796      86875.981      5413.8588    
   1300000   1193.1349     -2797.5437      77.112397     -2720.4313      82164.563      5413.8588    
   1301000   1105.3054     -2794.7136      71.435966     -2723.2776      82622.466      5413.8588    
   1302000   1150.2348     -2792.3232      74.339761     -2717.9834      85688.11       5413.8588    
   1303000   1159.4605     -2790.0954      74.936013     -2715.1594      87774.061      5413.8588    
   1304000   1165.5187     -2796.7256      75.327555     -2721.398       81775.793      5413.8588    
   1305000   1188.595      -2795.3501      76.818983     -2718.5311      83816.769      5413.8588    
   1306000   1199.4255     -2790.4493      77.518956     -2712.9304      86690.415      5413.8588    
   1307000   1193.8519     -2793.8418      77.158736     -2716.6831      84397.78       5413.8588    
   1308000   1239.4675     -2795.2461      80.106876     -2715.1393      83471.721      5413.8588    
   1309000   1243.7719     -2787.0069      80.385065     -2706.6219      91603.481      5413.8588    
   1310000   1229.6172     -2795.0336      79.470246     -2715.5634      82650.365      5413.8588    
   1311000   1180.8277     -2792.6546      76.316981     -2716.3376      85696.659      5413.8588    
   1312000   1177.9388     -2791.6568      76.130269     -2715.5266      85697.338      5413.8588    
   1313000   1174.6397     -2787.8737      75.917046     -2711.9566      89423.523      5413.8588    
   1314000   1179.5639     -2786.7445      76.235299     -2710.5092      91409.589      5413.8588    
   1315000   1264.5599     -2794.1939      81.728595     -2712.4653      85462.78       5413.8588    
   1316000   1172.204      -2792.168       75.75963      -2716.4083      85693.87       5413.8588    
   1317000   1163.2402     -2792.6286      75.180298     -2717.4483      85492.006      5413.8588    
   1318000   1222.7191     -2790.0787      79.024424     -2711.0543      88281.852      5413.8588    
   1319000   1246.7547     -2789.85        80.577844     -2709.2721      89206.267      5413.8588    
   1320000   1282.8322     -2794.4817      82.909537     -2711.5722      84515.789      5413.8588    
   1321000   1167.6776     -2790.9037      75.467085     -2715.4366      87769.599      5413.8588    
   1322000   1139.5782     -2795.5377      73.651022     -2721.8867      82285.157      5413.8588    
   1323000   1197.3466     -2797.9466      77.384598     -2720.562       81615.531      5413.8588    
   1324000   1224.2084     -2794.2407      79.120678     -2715.1201      84665.541      5413.8588    
   1325000   1160.7652     -2795.2712      75.020336     -2720.2508      83165.11       5413.8588    
   1326000   1141.9546     -2792.6866      73.80461      -2718.882       84297.16       5413.8588    
   1327000   1232.0615     -2789.3735      79.628222     -2709.7453      89233.8        5413.8588    
   1328000   1295.437      -2796.6404      83.724188     -2712.9163      83249.546      5413.8588    
   1329000   1253.3823     -2798.336       81.006188     -2717.3298      81329.027      5413.8588    
   1330000   1240.5429     -2796.4659      80.176379     -2716.2895      83855.475      5413.8588    
   1331000   1209.9456     -2789.9007      78.198872     -2711.7018      88916.903      5413.8588    
   1332000   1200.995      -2795.5291      77.620391     -2717.9087      83454.298      5413.8588    
   1333000   1173.1034     -2797.6239      75.817759     -2721.8061      81281.372      5413.8588    
   1334000   1200.2703     -2800.6707      77.573559     -2723.0972      78492.403      5413.8588    
   1335000   1232.6964     -2791.2443      79.669255     -2711.575       87790.637      5413.8588    
   1336000   1208.7674     -2790.7068      78.122728     -2712.5841      86998.7        5413.8588    
   1337000   1134.4473     -2791.2831      73.31941      -2717.9637      86401.087      5413.8588    
   1338000   1174.7705     -2794.0529      75.9255       -2718.1275      84672.648      5413.8588    
   1339000   1233.12       -2794.2229      79.696637     -2714.5263      84540.751      5413.8588    
   1340000   1221.8765     -2790.2643      78.969969     -2711.2943      87921.277      5413.8588    
   1341000   1255.0801     -2795.6524      81.115915     -2714.5365      84033.468      5413.8588    
   1342000   1191.5286     -2793.3183      77.008577     -2716.3097      85324.979      5413.8588    
   1343000   1275.6056     -2799.6991      82.442482     -2717.2566      80184.315      5413.8588    
   1344000   1215.3019     -2789.8677      78.545051     -2711.3226      89172.002      5413.8588    
   1345000   1182.1863     -2789.9453      76.404789     -2713.5406      87481.392      5413.8588    
   1346000   1192.7123     -2796.3446      77.085079     -2719.2595      82891.583      5413.8588    
   1347000   1116.5423     -2795.4246      72.162212     -2723.2623      82328.649      5413.8588    
   1348000   1152.421      -2793.6179      74.481052     -2719.1369      84821.943      5413.8588    
   1349000   1189.9586     -2791.9566      76.907112     -2715.0495      86842.554      5413.8588    
   1350000   1146.4797     -2795.806       74.097068     -2721.709       82201.275      5413.8588    
   1351000   1138.2171     -2794.3403      73.563053     -2720.7772      83553.733      5413.8588    
   1352000   1175.3844     -2795.445       75.96518      -2719.4798      83094.156      5413.8588    
   1353000   1243.742      -2791.7835      80.383135     -2711.4004      87246.226      5413.8588    
   1354000   1239.8213     -2790.539       80.12974      -2710.4092      87719.013      5413.8588    
   1355000   1190.05       -2793.3539      76.91302      -2716.4409      86046.794      5413.8588    
   1356000   1205.4663     -2795.8306      77.909376     -2717.9212      82605.788      5413.8588    
   1357000   1214.5398     -2791.3079      78.495794     -2712.8121      87769.587      5413.8588    
   1358000   1198.4782     -2790.829       77.457734     -2713.3712      86994.351      5413.8588    
   1359000   1208.537      -2793.5462      78.107832     -2715.4384      86025.72       5413.8588    
   1360000   1156.6232     -2795.542       74.752639     -2720.7894      82830.544      5413.8588    
   1361000   1193.3193     -2796.5011      77.124313     -2719.3767      83318.221      5413.8588    
   1362000   1179.4511     -2796.3023      76.22801      -2720.0743      83017.65       5413.8588    
   1363000   1222.3486     -2793.2417      79.000478     -2714.2412      86605.224      5413.8588    
   1364000   1171.4313     -2792.2752      75.709693     -2716.5655      85529.004      5413.8588    
   1365000   1105.3163     -2793.1339      71.436674     -2721.6973      84571.2        5413.8588    
   1366000   1218.6825     -2797.1311      78.763538     -2718.3675      82922.59       5413.8588    
   1367000   1213.5435     -2793.3914      78.431404     -2714.96        86121.119      5413.8588    
   1368000   1163.0725     -2792.0903      75.169459     -2716.9209      86426.581      5413.8588    
   1369000   1151.6803     -2793.5481      74.433184     -2719.1149      85043.085      5413.8588    
   1370000   1108.1796     -2796.8121      71.621728     -2725.1904      80952.539      5413.8588    
   1371000   1197.0249     -2793.8484      77.363806     -2716.4846      85239.728      5413.8588    
   1372000   1192.3948     -2792.3701      77.064563     -2715.3055      85897.334      5413.8588    
   1373000   1199.8712     -2799.0738      77.547762     -2721.526       79736.331      5413.8588    
   1374000   1133.9657     -2794.9798      73.288288     -2721.6915      82618.902      5413.8588    
   1375000   1180.9589     -2793.1488      76.32546      -2716.8233      85027.995      5413.8588    
   1376000   1316.2985     -2788.0104      85.072466     -2702.9379      91712.346      5413.8588    
   1377000   1242.0227     -2793.575       80.272018     -2713.303       84815.491      5413.8588    
   1378000   1154.2314     -2792.5581      74.59806      -2717.9601      84985.944      5413.8588    
   1379000   1153.4727     -2800.2065      74.549022     -2725.6575      78747.075      5413.8588    
   1380000   1191.3058     -2789.6595      76.99418      -2712.6653      88534.889      5413.8588    
   1381000   1216.6879     -2793.4173      78.634628     -2714.7827      84902.161      5413.8588    
   1382000   1226.3966     -2795.9153      79.262101     -2716.6532      83102.676      5413.8588    
   1383000   1155.4127     -2799.6011      74.674406     -2724.9267      78967.659      5413.8588    
   1384000   1237.3728     -2791.6509      79.971492     -2711.6794      87135.125      5413.8588    
   1385000   1238.3237     -2791.128       80.032952     -2711.095       87687.83       5413.8588    
   1386000   1167.4554     -2793.1424      75.452726     -2717.6896      85493.475      5413.8588    
   1387000   1167.1905     -2793.147       75.435608     -2717.7114      84091.753      5413.8588    
   1388000   1233.4264     -2795.9321      79.716436     -2716.2157      83393.989      5413.8588    
   1389000   1263.8877     -2789.7838      81.685156     -2708.0987      89985.603      5413.8588    
   1390000   1228.7495     -2792.5496      79.414171     -2713.1354      87125.234      5413.8588    
   1391000   1158.6198     -2791.571       74.881679     -2716.6893      86063.319      5413.8588    
   1392000   1199.6238     -2797.7925      77.531775     -2720.2607      80996.168      5413.8588    
   1393000   1182.1394     -2791.682       76.401757     -2715.2803      87509.386      5413.8588    
   1394000   1246.7387     -2797.7427      80.576812     -2717.1659      80869.525      5413.8588    
   1395000   1194.3318     -2794.6119      77.189748     -2717.4221      84891.853      5413.8588    
   1396000   1258.2226     -2793.7874      81.319019     -2712.4684      85100.013      5413.8588    
   1397000   1206.4363     -2791.8378      77.972068     -2713.8657      86684.25       5413.8588    
   1398000   1236.4535     -2795.3629      79.91208      -2715.4508      83410.461      5413.8588    
   1399000   1129.2496     -2793.5032      72.983483     -2720.5197      84420.518      5413.8588    
   1400000   1183.3331     -2795.8146      76.478906     -2719.3357      83565.46       5413.8588    
   1401000   1275.9714     -2795.0471      82.466122     -2712.581       84498.079      5413.8588    
   1402000   1246.6068     -2789.2052      80.568289     -2708.6369      90299.419      5413.8588    
   1403000   1168.1452     -2793.5241      75.497307     -2718.0268      84710.516      5413.8588    
   1404000   1187.6082     -2797.1111      76.755203     -2720.3559      82258.049      5413.8588    
   1405000   1243.1593     -2795.5345      80.345475     -2715.189       83982.946      5413.8588    
   1406000   1265.5228     -2794.9502      81.790833     -2713.1593      84985.899      5413.8588    
   1407000   1195.9857     -2790.1907      77.296643     -2712.8941      87885.002      5413.8588    
   1408000   1178.5681     -2793.6026      76.170941     -2717.4317      84492.684      5413.8588    
   1409000   1230.8378     -2789.6008      79.549139     -2710.0517      89645.88       5413.8588    
   1410000   1322.7509     -2791.97        85.489486     -2706.4805      86915.855      5413.8588    
   1411000   1181.9272     -2793.2793      76.388043     -2716.8913      85425.247      5413.8588    
   1412000   1208.0273     -2797.2048      78.074894     -2719.1299      81323.535      5413.8588    
   1413000   1200.9948     -2790.3758      77.620383     -2712.7555      88654.478      5413.8588    
   1414000   1168.3293     -2788.3722      75.50921      -2712.863       89759.311      5413.8588    
   1415000   1154.0317     -2793.7348      74.585149     -2719.1496      84449.61       5413.8588    
   1416000   1175.4217     -2797.6687      75.967589     -2721.7011      81072.716      5413.8588    
   1417000   1184.2594     -2793.4044      76.538772     -2716.8656      84355.41       5413.8588    
   1418000   1245.5845     -2789.7865      80.502217     -2709.2843      89729.273      5413.8588    
   1419000   1240.1807     -2791.4797      80.152971     -2711.3267      87802.828      5413.8588    
   1420000   1237.7149     -2795.7601      79.993604     -2715.7665      83250.401      5413.8588    
   1421000   1185.1389     -2794.3546      76.595614     -2717.7589      84989.468      5413.8588    
   1422000   1199.7035     -2791.7283      77.536927     -2714.1913      86805.224      5413.8588    
   1423000   1280.2511     -2793.8707      82.74272      -2711.128       86175.08       5413.8588    
   1424000   1196.9842     -2796.6982      77.361175     -2719.3371      82000.08       5413.8588    
   1425000   1127.8287     -2796.899       72.89165      -2724.0074      80956.371      5413.8588    
   1426000   1195.2505     -2795.3641      77.249128     -2718.1149      83543.525      5413.8588    
   1427000   1188.2639     -2791.4123      76.797585     -2714.6147      86782.701      5413.8588    
   1428000   1160.4069     -2792.84        74.997182     -2717.8428      85250.912      5413.8588    
   1429000   1201.0173     -2791.8349      77.621834     -2714.213       85196.346      5413.8588    
   1430000   1268.4865     -2790.4052      81.982372     -2708.4228      88443.579      5413.8588    
   1431000   1137.0521     -2796.8889      73.487757     -2723.4012      81272.882      5413.8588    
   1432000   1220.7256     -2794.8124      78.895583     -2715.9168      84559.502      5413.8588    
   1433000   1294.9035     -2795.3968      83.689707     -2711.7071      85084.827      5413.8588    
   1434000   1138.815      -2783.7953      73.601694     -2710.1936      94016.166      5413.8588    
   1435000   1284.9896     -2795.2722      83.048972     -2712.2233      84068.485      5413.8588    
   1436000   1190.0454     -2794.0717      76.912723     -2717.159       84040.032      5413.8588    
   1437000   1126.9028     -2797.0851      72.831811     -2724.2533      80973.931      5413.8588    
   1438000   1163.9819     -2795.0876      75.228238     -2719.8593      83404.961      5413.8588    
   1439000   1181.7083     -2791.2336      76.373891     -2714.8597      86506.742      5413.8588    
   1440000   1148.2449     -2787.8276      74.211154     -2713.6165      90025.316      5413.8588    
   1441000   1203.0721     -2791.5741      77.754639     -2713.8194      87130.817      5413.8588    
   1442000   1211.7983     -2794.2564      78.318612     -2715.9378      83932.384      5413.8588    
   1443000   1218.1742     -2796.9089      78.730688     -2718.1782      81889.871      5413.8588    
   1444000   1171.7669     -2795.6395      75.731378     -2719.9081      81992.959      5413.8588    
   1445000   1239.4825     -2795.4338      80.107843     -2715.326       84058.776      5413.8588    
   1446000   1254.4945     -2798.5337      81.078068     -2717.4556      80336.7        5413.8588    
   1447000   1184.467      -2797.5452      76.552189     -2720.993       81424.085      5413.8588    
   1448000   1210.573      -2793.9779      78.239419     -2715.7385      84635.258      5413.8588    
   1449000   1163.1051     -2791.0583      75.171567     -2715.8867      85418.318      5413.8588    
   1450000   1182.4168     -2797.9614      76.419683     -2721.5417      80538.469      5413.8588    
   1451000   1184.4341     -2796.4409      76.550062     -2719.8908      82837.904      5413.8588    
   1452000   1220.7709     -2796.7598      78.898515     -2717.8613      81843.394      5413.8588    
   1453000   1255.6459     -2795.762       81.152487     -2714.6095      83276.759      5413.8588    
   1454000   1211.8428     -2785.357       78.321485     -2707.0355      91668.714      5413.8588    
   1455000   1203.3122     -2793.6552      77.770154     -2715.885       84851.379      5413.8588    
   1456000   1235.7836     -2796.9617      79.868784     -2717.0929      82290.517      5413.8588    
   1457000   1185.9165     -2793.0009      76.645868     -2716.355       85076.888      5413.8588    
   1458000   1232.0933     -2790.0142      79.630278     -2710.3839      88242.834      5413.8588    
   1459000   1211.0066     -2791.3051      78.267447     -2713.0377      87514.475      5413.8588    
   1460000   1176.5108     -2795.4292      76.037977     -2719.3913      83799.44       5413.8588    
   1461000   1176.7822     -2793.4761      76.055517     -2717.4205      85055.233      5413.8588    
   1462000   1209.5473     -2790.7493      78.173129     -2712.5761      87108.753      5413.8588    
   1463000   1166.7882     -2796.9586      75.409605     -2721.549       82223.245      5413.8588    
   1464000   1115.713      -2795.995       72.108613     -2723.8864      82434.73       5413.8588    
   1465000   1189.7665     -2796.3026      76.894693     -2719.4079      82036.969      5413.8588    
   1466000   1193.8244     -2792.0812      77.156959     -2714.9242      85984.29       5413.8588    
   1467000   1199.2924     -2792.8875      77.510353     -2715.3771      86542.063      5413.8588    
   1468000   1246.0959     -2799.2932      80.535269     -2718.7579      81517.02       5413.8588    
   1469000   1135.6704     -2797.4202      73.398463     -2724.0217      80951.645      5413.8588    
   1470000   1240.3007     -2793.9318      80.160726     -2713.7711      86227.36       5413.8588    
   1471000   1266.2725     -2793.8574      81.839283     -2712.0181      86082.744      5413.8588    
   1472000   1267.5706     -2800.1053      81.923183     -2718.1821      80046.779      5413.8588    
   1473000   1136.8619     -2794.6618      73.475466     -2721.1864      83642.669      5413.8588    
   1474000   1158.6014     -2791.3308      74.880495     -2716.4503      85860.099      5413.8588    
   1475000   1230.9716     -2791.7049      79.557781     -2712.1471      87668.296      5413.8588    
   1476000   1194.6858     -2793.2663      77.212627     -2716.0537      85451.165      5413.8588    
   1477000   1110.3057     -2793.6507      71.759139     -2721.8915      83437.348      5413.8588    
   1478000   1140.3578     -2796.0804      73.701406     -2722.379       82711.688      5413.8588    
   1479000   1231.0639     -2794.9238      79.563751     -2715.36        84549.908      5413.8588    
   1480000   1245.6428     -2797.3434      80.505983     -2716.8374      82416.473      5413.8588    
   1481000   1141.0017     -2797.0297      73.743023     -2723.2867      81492.248      5413.8588    
   1482000   1164.4027     -2792.7483      75.25543      -2717.4928      85243.366      5413.8588    
   1483000   1209.6538     -2790.1758      78.180012     -2711.9958      88312.757      5413.8588    
   1484000   1165.5599     -2792.0855      75.330224     -2716.7553      85722.584      5413.8588    
   1485000   1213.7502     -2799.7122      78.444765     -2721.2674      79831.088      5413.8588    
   1486000   1160.6079     -2792.4814      75.010173     -2717.4712      85777.488      5413.8588    
   1487000   1186.2793     -2791.8607      76.66932      -2715.1914      86393.032      5413.8588    
   1488000   1196.7783     -2798.513       77.347868     -2721.1652      80426.722      5413.8588    
   1489000   1125.8273     -2795.1156      72.762302     -2722.3533      83109.405      5413.8588    
   1490000   1173.3404     -2794.5317      75.833076     -2718.6986      84190.168      5413.8588    
   1491000   1172.2118     -2790.0324      75.760136     -2714.2723      88142.441      5413.8588    
   1492000   1147.1313     -2789.5783      74.139181     -2715.4391      88045.355      5413.8588    
   1493000   1155.3675     -2792.3509      74.671488     -2717.6794      85613.131      5413.8588    
   1494000   1212.4725     -2796.0687      78.362183     -2717.7066      83534.507      5413.8588    
   1495000   1231.2828     -2795.8542      79.577899     -2716.2763      83471.438      5413.8588    
   1496000   1249.0877     -2792.3122      80.728628     -2711.5836      87206.829      5413.8588    
   1497000   1152.7781     -2801.3846      74.504131     -2726.8804      77514.658      5413.8588    
   1498000   1268.4543     -2797.1817      81.980294     -2715.2014      82650.592      5413.8588    
   1499000   1244.6284     -2794.5851      80.440421     -2714.1447      85524.398      5413.8588    
   1500000   1208.4989     -2795.3648      78.105369     -2717.2594      83280.323      5413.8588    
   1501000   1191.3047     -2795.9118      76.994107     -2718.9177      83335.306      5413.8588    
   1502000   1123.0831     -2792.6095      72.584943     -2720.0246      84183.593      5413.8588    
   1503000   1109.2231     -2795.2387      71.689167     -2723.5495      83043.335      5413.8588    
   1504000   1178.6506     -2796.8893      76.176276     -2720.7131      81293.666      5413.8588    
   1505000   1246.6647     -2796.8679      80.572032     -2716.2959      83237.227      5413.8588    
   1506000   1224.0547     -2794.9494      79.110744     -2715.8387      83661.097      5413.8588    
   1507000   1229.716      -2793.6964      79.476631     -2714.2198      84444.354      5413.8588    
   1508000   1157.2915     -2798.1045      74.795834     -2723.3086      79936.596      5413.8588    
   1509000   1216.5536     -2794.2167      78.62595      -2715.5908      85395.74       5413.8588    
   1510000   1273.5602     -2791.6383      82.310288     -2709.328       88238.552      5413.8588    
   1511000   1241.0524     -2794.9197      80.209304     -2714.7104      84930.098      5413.8588    
   1512000   1162.1688     -2796.3419      75.111055     -2721.2309      82354.049      5413.8588    
   1513000   1197.762      -2793.5318      77.411444     -2716.1204      85066.797      5413.8588    
   1514000   1225.0024     -2796.8071      79.171995     -2717.6351      82263.432      5413.8588    
   1515000   1224.3173     -2792.7333      79.127718     -2713.6056      86249.53       5413.8588    
   1516000   1155.3236     -2796.132       74.668651     -2721.4634      81595.689      5413.8588    
   1517000   1189.8318     -2797.9599      76.898917     -2721.061       80359.829      5413.8588    
   1518000   1189.3369     -2792.2412      76.866928     -2715.3743      86652.609      5413.8588    
   1519000   1191.844      -2791.7942      77.028963     -2714.7652      85784.47       5413.8588    
   1520000   1206.1284     -2798.0253      77.952165     -2720.0731      80878.861      5413.8588    
   1521000   1210.0729     -2792.5791      78.207098     -2714.372       85229.705      5413.8588    
   1522000   1170.1359     -2791.4683      75.625966     -2715.8423      87227.366      5413.8588    
   1523000   1222.7581     -2796.9594      79.026944     -2717.9325      81298.307      5413.8588    
   1524000   1189.2011     -2794.2482      76.858156     -2717.39        84618.247      5413.8588    
   1525000   1235.1959     -2793.4089      79.830803     -2713.5781      85769.899      5413.8588    
   1526000   1202.3828     -2791.6779      77.710087     -2713.9678      86605.766      5413.8588    
   1527000   1202.2683     -2797.2006      77.702688     -2719.4979      82723.981      5413.8588    
   1528000   1208.8962     -2794.5799      78.131051     -2716.4489      84678.688      5413.8588    
   1529000   1178.4499     -2794.2693      76.163303     -2718.106       83841.751      5413.8588    
   1530000   1162.4277     -2788.5097      75.127787     -2713.3819      89433.793      5413.8588    
   1531000   1149.0838     -2792.0969      74.265372     -2717.8316      84838.907      5413.8588    
   1532000   1180.2966     -2797.3448      76.282653     -2721.0621      81710.753      5413.8588    
   1533000   1213.0264     -2796.0163      78.397985     -2717.6183      82906.045      5413.8588    
   1534000   1219.962      -2792.8423      78.846229     -2713.996       85941.677      5413.8588    
   1535000   1188.6674     -2791.4951      76.823663     -2714.6714      86801.611      5413.8588    
   1536000   1261.025      -2796.8695      81.500136     -2715.3694      82916.356      5413.8588    
   1537000   1092.3947     -2797.1849      70.601551     -2726.5834      80761.3        5413.8588    
   1538000   1110.2707     -2791.3049      71.756874     -2719.548       85583.956      5413.8588    
   1539000   1183.9305     -2792.9914      76.517512     -2716.4739      85695.533      5413.8588    
   1540000   1263.1307     -2796.4723      81.636228     -2714.8361      83404.516      5413.8588    
   1541000   1166.1796     -2795.9264      75.370274     -2720.5561      82705.136      5413.8588    
   1542000   1215.6113     -2794.0626      78.565045     -2715.4975      84081.894      5413.8588    
   1543000   1257.5781     -2794.65        81.277361     -2713.3727      85155.516      5413.8588    
   1544000   1211.1115     -2789.4462      78.274221     -2711.172       88984.317      5413.8588    
   1545000   1258.2789     -2788.868       81.322654     -2707.5453      89742.981      5413.8588    
   1546000   1169.0815     -2792.2918      75.557823     -2716.734       85961.153      5413.8588    
   1547000   1202.5493     -2794.7731      77.720849     -2717.0522      84969.776      5413.8588    
   1548000   1174.7116     -2792.2762      75.921698     -2716.3545      85537.527      5413.8588    
   1549000   1278.2329     -2789.9649      82.612286     -2707.3526      89123.34       5413.8588    
   1550000   1247.1462     -2796.607       80.603147     -2716.0038      82527.372      5413.8588    
   1551000   1183.8396     -2793.9501      76.511636     -2717.4385      84743.634      5413.8588    
   1552000   1164.9021     -2791.1268      75.28771      -2715.8391      85633.206      5413.8588    
   1553000   1284.6013     -2787.9891      83.023875     -2704.9653      91921.092      5413.8588    
   1554000   1173.2603     -2790.4216      75.827897     -2714.5937      87153.34       5413.8588    
   1555000   1167.8998     -2793.197       75.481446     -2717.7156      85405.998      5413.8588    
   1556000   1164.8167     -2797.5877      75.28219      -2722.3055      80704.708      5413.8588    
   1557000   1191.525      -2796.3237      77.008346     -2719.3153      82486.802      5413.8588    
   1558000   1238.7729     -2793.1294      80.061985     -2713.0674      85996.506      5413.8588    
   1559000   1189.5171     -2790.5704      76.878576     -2713.6918      86568.847      5413.8588    
   1560000   1236.9534     -2794.8176      79.944388     -2714.8732      84702.694      5413.8588    
   1561000   1229.9418     -2796.0994      79.491228     -2716.6082      84150.019      5413.8588    
   1562000   1142.346      -2792.714       73.829908     -2718.8841      86029.299      5413.8588    
   1563000   1310.1817     -2792.5359      84.677141     -2707.8588      87371.008      5413.8588    
   1564000   1217.7652     -2790.7907      78.70425      -2712.0864      87955.028      5413.8588    
   1565000   1178.4739     -2793.2981      76.164851     -2717.1333      84415.01       5413.8588    
   1566000   1167.7147     -2793.5922      75.469488     -2718.1227      85223.619      5413.8588    
   1567000   1126.3574     -2793.1058      72.79656      -2720.3092      84000.989      5413.8588    
   1568000   1148.865      -2788.6685      74.251227     -2714.4173      88940.929      5413.8588    
   1569000   1184.9077     -2789.5267      76.580669     -2712.946       87996.28       5413.8588    
   1570000   1215.3892     -2795.2973      78.550694     -2716.7466      83798.87       5413.8588    
   1571000   1176.3305     -2800.7846      76.026327     -2724.7583      78498.294      5413.8588    
   1572000   1198.1381     -2793.114       77.435753     -2715.6782      84821.311      5413.8588    
   1573000   1148.3386     -2787.4563      74.217209     -2713.2391      90527.857      5413.8588    
   1574000   1234.9529     -2795.896       79.815098     -2716.0809      84212.396      5413.8588    
   1575000   1147.4749     -2793.4944      74.161386     -2719.3331      84877.172      5413.8588    
   1576000   1178.607      -2791.8296      76.173458     -2715.6561      87008.337      5413.8588    
   1577000   1216.4945     -2788.6547      78.622125     -2710.0326      89812.872      5413.8588    
   1578000   1132.4107     -2790.2465      73.187783     -2717.0588      86212.239      5413.8588    
   1579000   1156.3551     -2791.712       74.735315     -2716.9767      87069.816      5413.8588    
   1580000   1217.9537     -2791.7873      78.716436     -2713.0709      87022.329      5413.8588    
   1581000   1222.0065     -2795.8787      78.97837      -2716.9003      82060.488      5413.8588    
   1582000   1177.7198     -2798.7416      76.116116     -2722.6255      80548.526      5413.8588    
   1583000   1096.628      -2791.9091      70.875146     -2721.034       84527.929      5413.8588    
   1584000   1208.6191     -2792.552       78.11314      -2714.4389      85547.617      5413.8588    
   1585000   1237.4135     -2792.1939      79.974125     -2712.2198      87550.612      5413.8588    
   1586000   1256.7691     -2790.0755      81.225076     -2708.8504      89476.31       5413.8588    
   1587000   1243.0383     -2791.5934      80.337658     -2711.2557      87001.214      5413.8588    
   1588000   1171.6379     -2794.4117      75.723045     -2718.6887      83780.667      5413.8588    
   1589000   1293.7415     -2797.3885      83.614606     -2713.7738      83323.416      5413.8588    
   1590000   1180.5151     -2788.0173      76.296774     -2711.7205      89573.744      5413.8588    
   1591000   1142.507      -2791.9618      73.840309     -2718.1215      84760.444      5413.8588    
   1592000   1128.9695     -2795.7707      72.965383     -2722.8054      81374.355      5413.8588    
   1593000   1167.1431     -2791.4624      75.432545     -2716.0299      86050.875      5413.8588    
   1594000   1163.06       -2790.5426      75.168649     -2715.374       87708.201      5413.8588    
   1595000   1227.7828     -2799.695       79.351693     -2720.3433      80467.469      5413.8588    
   1596000   1180.933      -2794.4294      76.323783     -2718.1056      83691.052      5413.8588    
   1597000   1237.3424     -2792.8186      79.969531     -2712.8491      85984.228      5413.8588    
   1598000   1211.5871     -2795.6813      78.304965     -2717.3763      83652.705      5413.8588    
   1599000   1202.3636     -2793.049       77.708848     -2715.3402      85672.09       5413.8588    
   1600000   1224.8575     -2789.448       79.162631     -2710.2853      89216.689      5413.8588    
   1601000   1245.6732     -2791.5037      80.50795      -2710.9957      88420.288      5413.8588    
   1602000   1226.1738     -2792.1071      79.247699     -2712.8594      86261.75       5413.8588    
   1603000   1187.8658     -2793.7492      76.771851     -2716.9773      85341.667      5413.8588    
   1604000   1184.0438     -2794.4438      76.524838     -2717.919       84169.084      5413.8588    
   1605000   1235.9247     -2793.0402      79.8779       -2713.1623      86677.216      5413.8588    
   1606000   1227.6267     -2789.0484      79.341604     -2709.7068      90465.73       5413.8588    
   1607000   1253.6371     -2795.8789      81.022657     -2714.8563      84297.082      5413.8588    
   1608000   1164.2879     -2792.3558      75.248012     -2717.1078      86142.872      5413.8588    
   1609000   1249.8556     -2791.7281      80.778257     -2710.9498      87356.174      5413.8588    
   1610000   1202.4643     -2793.2921      77.715355     -2715.5767      86245.798      5413.8588    
   1611000   1223.6926     -2794.8953      79.08734      -2715.8079      84744.003      5413.8588    
   1612000   1248.9809     -2793.5645      80.721723     -2712.8428      85359.445      5413.8588    
   1613000   1171.1704     -2800.3178      75.692829     -2724.625       78955.594      5413.8588    
   1614000   1168.7337     -2796.9521      75.535343     -2721.4167      81613.986      5413.8588    
   1615000   1226.0012     -2795.8732      79.236544     -2716.6367      82604.076      5413.8588    
   1616000   1211.8675     -2790.7412      78.323087     -2712.4181      87537.124      5413.8588    
   1617000   1140.9513     -2791.8848      73.739763     -2718.145       85893.247      5413.8588    
   1618000   1285.3605     -2793.3897      83.072943     -2710.3167      86343.093      5413.8588    
   1619000   1243.7162     -2790.0744      80.381466     -2709.6929      88674.431      5413.8588    
   1620000   1230.0913     -2795.9201      79.500887     -2716.4192      83072.951      5413.8588    
   1621000   1131.9342     -2792.2958      73.156991     -2719.1388      85680.275      5413.8588    
   1622000   1125.7232     -2793.784       72.75557      -2721.0284      83769.911      5413.8588    
   1623000   1215.4881     -2798.1785      78.557082     -2719.6215      80512.349      5413.8588    
   1624000   1203.3975     -2792.7972      77.775665     -2715.0215      85481.929      5413.8588    
   1625000   1177.8385     -2791.3024      76.123789     -2715.1787      86905.354      5413.8588    
   1626000   1219.2057     -2799.4185      78.797355     -2720.6211      80197.635      5413.8588    
   1627000   1153.7636     -2791.7606      74.567825     -2717.1927      85388.378      5413.8588    
   1628000   1191.4312     -2794.0121      77.002282     -2717.0098      84391.181      5413.8588    
   1629000   1212.999      -2796.9924      78.396214     -2718.5962      81674.147      5413.8588    
   1630000   1202.4161     -2792.8625      77.712237     -2715.1503      84306.553      5413.8588    
   1631000   1196.4253     -2791.7242      77.325051     -2714.3991      86284.704      5413.8588    
   1632000   1190.6026     -2796.634       76.94873      -2719.6852      82247.281      5413.8588    
   1633000   1159.9743     -2796.8925      74.969221     -2721.9233      80562.442      5413.8588    
   1634000   1204.2409     -2795.4         77.830179     -2717.5699      83835.276      5413.8588    
   1635000   1203.0592     -2791.5475      77.7538       -2713.7937      87200.565      5413.8588    
   1636000   1168.6671     -2793.0531      75.531037     -2717.5221      85037.73       5413.8588    
   1637000   1250.0016     -2795.8401      80.787696     -2715.0524      84511.846      5413.8588    
   1638000   1183.5533     -2791.3382      76.493135     -2714.845       87616.487      5413.8588    
   1639000   1149.9192     -2792.3276      74.319363     -2718.0082      85643.03       5413.8588    
   1640000   1194.4485     -2796.5879      77.197291     -2719.3906      82539.401      5413.8588    
   1641000   1182.8784     -2790.9772      76.449515     -2714.5277      86363.932      5413.8588    
   1642000   1265.8182     -2790.6863      81.809923     -2708.8764      88189.454      5413.8588    
   1643000   1215.9456     -2795.8569      78.586654     -2717.2703      83856.844      5413.8588    
   1644000   1177.1051     -2795.1616      76.076386     -2719.0852      84241.302      5413.8588    
   1645000   1140.0011     -2790.3096      73.678354     -2716.6312      86989.628      5413.8588    
   1646000   1220.4542     -2792.0432      78.878042     -2713.1651      87277.449      5413.8588    
   1647000   1235.5022     -2794.9138      79.850598     -2715.0632      84411.16       5413.8588    
   1648000   1216.3312     -2790.5716      78.611577     -2711.96        88404.242      5413.8588    
   1649000   1200.1048     -2796.3158      77.562858     -2718.7529      82211.277      5413.8588    
   1650000   1174.2386     -2794.553       75.891125     -2718.6619      84525.092      5413.8588    
   1651000   1204.4991     -2793.9717      77.846866     -2716.1249      84680.832      5413.8588    
   1652000   1247.2898     -2796.5198      80.61243      -2715.9074      83298.445      5413.8588    
   1653000   1123.6779     -2790.6406      72.623384     -2718.0172      87156.85       5413.8588    
   1654000   1322.3444     -2787.6096      85.463215     -2702.1464      91544.923      5413.8588    
   1655000   1234.1809     -2798.5223      79.765199     -2718.7571      81971.206      5413.8588    
   1656000   1185.7361     -2794.5109      76.634213     -2717.8767      84136.478      5413.8588    
   1657000   1234.9274     -2796.0636      79.81345      -2716.2501      84140.038      5413.8588    
   1658000   1296.9673     -2787.9794      83.823093     -2704.1563      91604.755      5413.8588    
   1659000   1242.3755     -2794.6873      80.294816     -2714.3925      85292.002      5413.8588    
   1660000   1162.027      -2793.5584      75.101892     -2718.4565      83911.472      5413.8588    
   1661000   1202.2877     -2793.6815      77.70394      -2715.9776      84144.787      5413.8588    
   1662000   1244.7829     -2793.958       80.450411     -2713.5076      85243.436      5413.8588    
   1663000   1286.9135     -2788.6134      83.173311     -2705.44        90946.078      5413.8588    
   1664000   1177.0108     -2794.4846      76.070291     -2718.4143      83287.686      5413.8588    
   1665000   1156.7703     -2795.0609      74.762148     -2720.2988      83288.689      5413.8588    
   1666000   1131.8504     -2794.2539      73.151574     -2721.1023      83694.216      5413.8588    
   1667000   1183.9964     -2793.2792      76.521776     -2716.7574      84518.507      5413.8588    
   1668000   1275.4251     -2795.6651      82.430816     -2713.2343      83736.442      5413.8588    
   1669000   1305.0794     -2792.8093      84.347373     -2708.462       87044.625      5413.8588    
   1670000   1179.8942     -2792.5148      76.256647     -2716.2582      85528.254      5413.8588    
   1671000   1194.5611     -2798.9361      77.204573     -2721.7315      81118.021      5413.8588    
   1672000   1188.2009     -2798.1982      76.793508     -2721.4047      80055.829      5413.8588    
   1673000   1190.2346     -2794.1827      76.924947     -2717.2578      84163.336      5413.8588    
   1674000   1247.0392     -2793.8019      80.596236     -2713.2056      85986.155      5413.8588    
   1675000   1216.325      -2791.5681      78.611176     -2712.957       87705.058      5413.8588    
   1676000   1207.3701     -2796.687       78.03242      -2718.6546      83022.127      5413.8588    
   1677000   1158.4761     -2791.1291      74.872393     -2716.2568      87024.359      5413.8588    
   1678000   1249.1589     -2793.3574      80.733231     -2712.6241      85310.789      5413.8588    
   1679000   1251.4464     -2789.4714      80.881069     -2708.5903      90113.397      5413.8588    
   1680000   1228.7442     -2794.7798      79.413826     -2715.366       84060.424      5413.8588    
   1681000   1216.9185     -2797.2652      78.649534     -2718.6157      82523.285      5413.8588    
   1682000   1167.5565     -2793.4891      75.459264     -2718.0299      84721.881      5413.8588    
   1683000   1327.8657     -2788.1046      85.820057     -2702.2845      92161.873      5413.8588    
   1684000   1162.2722     -2795.8098      75.117736     -2720.6921      83917.138      5413.8588    
   1685000   1135.0636     -2792.2297      73.359243     -2718.8705      84828.171      5413.8588    
   1686000   1220.9074     -2793.916       78.907333     -2715.0087      84826.719      5413.8588    
   1687000   1265.635      -2790.9564      81.798083     -2709.1583      89037.664      5413.8588    
   1688000   1188.5283     -2789.626       76.814673     -2712.8113      89951.147      5413.8588    
   1689000   1119.3136     -2790.9013      72.341322     -2718.5599      85911.841      5413.8588    
   1690000   1183.6444     -2794.2316      76.499026     -2717.7326      84304.505      5413.8588    
   1691000   1168.7893     -2796.5273      75.538937     -2720.9884      81198.583      5413.8588    
   1692000   1194.568      -2791.8445      77.205015     -2714.6394      86420.012      5413.8588    
   1693000   1191.5103     -2793.5849      77.007394     -2716.5775      83746.645      5413.8588    
   1694000   1181.2856     -2793.5351      76.346575     -2717.1885      84659.518      5413.8588    
   1695000   1193.3527     -2787.9464      77.126469     -2710.8199      90082.717      5413.8588    
   1696000   1232.0394     -2792.6515      79.626797     -2713.0247      87080.791      5413.8588    
   1697000   1216.1514     -2792.4609      78.599956     -2713.8609      85925.354      5413.8588    
   1698000   1180.6033     -2796.1558      76.302475     -2719.8533      82583.237      5413.8588    
   1699000   1174.6661     -2794.2932      75.918756     -2718.3744      83469.829      5413.8588    
   1700000   1228.1406     -2792.1166      79.374817     -2712.7418      86390.082      5413.8588    
   1701000   1271.7323     -2790.0454      82.192153     -2707.8532      89030.374      5413.8588    
   1702000   1247.2231     -2792.2397      80.608118     -2711.6316      86781.194      5413.8588    
   1703000   1163.1058     -2792.9319      75.171611     -2717.7603      85112.359      5413.8588    
   1704000   1177.523      -2795.4363      76.103397     -2719.3329      83713.5        5413.8588    
   1705000   1137.3576     -2788.998       73.507506     -2715.4905      89053.213      5413.8588    
   1706000   1229.8321     -2793.0243      79.48414      -2713.5402      85935.546      5413.8588    
   1707000   1160.8484     -2791.5189      75.025718     -2716.4932      86401.058      5413.8588    
   1708000   1187.6345     -2796.6869      76.756903     -2719.93        81491.499      5413.8588    
   1709000   1086.349      -2796.4525      70.210816     -2726.2417      82313.192      5413.8588    
   1710000   1202.6004     -2793.5053      77.724151     -2715.7811      85971.293      5413.8588    
   1711000   1220.9352     -2793.6123      78.90913      -2714.7032      85109.545      5413.8588    
   1712000   1137.1635     -2791.786       73.494961     -2718.2911      85965.526      5413.8588    
   1713000   1156.6218     -2797.9289      74.752549     -2723.1763      81140.614      5413.8588    
   1714000   1171.1404     -2795.0398      75.690889     -2719.3489      84010.919      5413.8588    
   1715000   1178.0748     -2795.4067      76.139058     -2719.2677      82417.66       5413.8588    
   1716000   1228.0858     -2795.1308      79.371272     -2715.7595      83775.059      5413.8588    
   1717000   1182.2619     -2790.815       76.40967      -2714.4053      88520.542      5413.8588    
   1718000   1197.4893     -2795.3005      77.39382      -2717.9067      83187.628      5413.8588    
   1719000   1259.7265     -2797.4562      81.416218     -2716.04        82616.82       5413.8588    
   1720000   1153.8592     -2787.8617      74.574007     -2713.2876      89571.323      5413.8588    
   1721000   1213.9248     -2791.3765      78.45605      -2712.9204      87355.578      5413.8588    
   1722000   1177.5609     -2795.5608      76.105844     -2719.4549      83729.844      5413.8588    
   1723000   1114.9718     -2794.117       72.060707     -2722.0563      83326.848      5413.8588    
   1724000   1182.1651     -2795.864       76.403415     -2719.4606      83078.32       5413.8588    
   1725000   1221.2252     -2792.1073      78.927872     -2713.1794      86969.649      5413.8588    
   1726000   1240.0104     -2795.9148      80.141959     -2715.7728      83584.565      5413.8588    
   1727000   1160.2944     -2793.2052      74.989909     -2718.2153      85867.969      5413.8588    
   1728000   1224.4378     -2794.2076      79.135507     -2715.072       86080.27       5413.8588    
   1729000   1223.8553     -2788.5072      79.097859     -2709.4093      89548.191      5413.8588    
   1730000   1206.1853     -2791.1522      77.955841     -2713.1963      87654.017      5413.8588    
   1731000   1209.4932     -2789.4461      78.169631     -2711.2765      89265.135      5413.8588    
   1732000   1257.1183     -2793.0633      81.247648     -2711.8157      86727.494      5413.8588    
   1733000   1196.0026     -2796.1413      77.297732     -2718.8435      83683.339      5413.8588    
   1734000   1174.4451     -2795.7458      75.904471     -2719.8414      82911.121      5413.8588    
   1735000   1180.7426     -2791.313       76.311482     -2715.0015      86903.58       5413.8588    
   1736000   1166.2993     -2795.9759      75.378006     -2720.5979      82268.063      5413.8588    
   1737000   1191.8539     -2796.4527      77.029606     -2719.4231      81727.717      5413.8588    
   1738000   1251.9136     -2788.5955      80.911264     -2707.6842      90033.05       5413.8588    
   1739000   1269.2304     -2792.9253      82.030455     -2710.8948      86678.727      5413.8588    
   1740000   1226.0921     -2796.3384      79.242422     -2717.0959      82990.521      5413.8588    
   1741000   1172.8213     -2794.8447      75.799524     -2719.0452      83597.354      5413.8588    
   1742000   1203.6432     -2797.1186      77.79155      -2719.3271      81411.071      5413.8588    
   1743000   1219.1895     -2794.4922      78.796307     -2715.6959      84761.6        5413.8588    
   1744000   1295.385      -2795.8562      83.720828     -2712.1354      83930.25       5413.8588    
   1745000   1149.2769     -2794.3168      74.27785      -2720.0389      83122.339      5413.8588    
   1746000   1224.0632     -2796.5279      79.111293     -2717.4166      82927.366      5413.8588    
   1747000   1211.4777     -2795.4365      78.297894     -2717.1386      82680.086      5413.8588    
   1748000   1223.6281     -2789.0014      79.08317      -2709.9182      90454.678      5413.8588    
   1749000   1246.182      -2792.0183      80.540832     -2711.4774      87071.247      5413.8588    
   1750000   1222.9423     -2792.6009      79.038847     -2713.5621      85946.69       5413.8588    
   1751000   1115.0743     -2792.2983      72.067334     -2720.231       86232.558      5413.8588    
   1752000   1154.0394     -2797.5835      74.585651     -2722.9979      81974.369      5413.8588    
   1753000   1229.6813     -2795.79        79.47439      -2716.3156      83818.383      5413.8588    
   1754000   1222.3468     -2792.1912      79.000362     -2713.1909      87092.576      5413.8588    
   1755000   1257.1987     -2787.1182      81.252846     -2705.8653      91060.507      5413.8588    
   1756000   1172.7322     -2794.9716      75.793765     -2719.1778      83423.771      5413.8588    
   1757000   1187.0907     -2793.6579      76.721761     -2716.9361      84285.419      5413.8588    
   1758000   1250.3649     -2789.6531      80.811173     -2708.8419      88334.838      5413.8588    
   1759000   1201.5554     -2790.048       77.656616     -2712.3913      89236.011      5413.8588    
   1760000   1230.8586     -2792.3784      79.550481     -2712.8279      87473.478      5413.8588    
   1761000   1172.8783     -2798.1988      75.803209     -2722.3956      80793.092      5413.8588    
   1762000   1163.2103     -2791.3619      75.178365     -2716.1835      86848.513      5413.8588    
   1763000   1286.2454     -2794.5682      83.130131     -2711.4381      85991.466      5413.8588    
   1764000   1245.6946     -2789.8728      80.509335     -2709.3635      88740.463      5413.8588    
   1765000   1208.0284     -2793.937       78.074964     -2715.8621      84103.283      5413.8588    
   1766000   1181.8239     -2794.1802      76.381367     -2717.7988      85060.366      5413.8588    
   1767000   1164.1423     -2793.878       75.238598     -2718.6394      84370.308      5413.8588    
   1768000   1196.612      -2793.8397      77.337119     -2716.5026      84255.894      5413.8588    
   1769000   1268.7742     -2792.8606      82.000966     -2710.8596      85838.116      5413.8588    
   1770000   1210.917      -2790.7895      78.261654     -2712.5279      87624.492      5413.8588    
   1771000   1147.1412     -2790.6558      74.139817     -2716.5159      86299.891      5413.8588    
   1772000   1198.3009     -2797.7399      77.446272     -2720.2936      81290.45       5413.8588    
   1773000   1185.8778     -2791.2329      76.643368     -2714.5895      86217.597      5413.8588    
   1774000   1166.8292     -2792.982       75.412258     -2717.5697      85372.547      5413.8588    
   1775000   1113.2641     -2796.867       71.95034      -2724.9167      80807.232      5413.8588    
   1776000   1133.264      -2793.8681      73.242932     -2720.6252      83815.875      5413.8588    
   1777000   1163.1142     -2791.4506      75.172154     -2716.2784      86038.322      5413.8588    
   1778000   1260.7609     -2794.9456      81.483071     -2713.4625      84773.911      5413.8588    
   1779000   1197.7554     -2795.9893      77.411018     -2718.5783      83269.064      5413.8588    
   1780000   1197.1868     -2794.3309      77.374268     -2716.9566      84281.153      5413.8588    
   1781000   1202.4425     -2792.1583      77.713946     -2714.4444      86205.101      5413.8588    
   1782000   1244.9941     -2789.5532      80.464057     -2709.0892      89435.197      5413.8588    
   1783000   1281.769      -2790.3394      82.840826     -2707.4986      89571.377      5413.8588    
   1784000   1192.7846     -2795.2561      77.089754     -2718.1663      83737.617      5413.8588    
   1785000   1172.3351     -2792.0483      75.768105     -2716.2802      85663.685      5413.8588    
   1786000   1187.3689     -2791.219       76.73974      -2714.4792      86906.325      5413.8588    
   1787000   1171.8946     -2793.2881      75.739633     -2717.5484      85008.781      5413.8588    
   1788000   1205.6788     -2795.3259      77.92311      -2717.4028      83394.947      5413.8588    
   1789000   1263.9288     -2793.5139      81.687809     -2711.8261      85074.636      5413.8588    
   1790000   1224.0247     -2790.17        79.108807     -2711.0612      89020.525      5413.8588    
   1791000   1181.5687     -2792.5601      76.364873     -2716.1952      85727.061      5413.8588    
   1792000   1140.0176     -2791.7705      73.67942      -2718.0911      85425.153      5413.8588    
   1793000   1166.0014     -2794.5576      75.358757     -2719.1989      83791.12       5413.8588    
   1794000   1168.2529     -2790.0464      75.504268     -2714.5421      88174.682      5413.8588    
   1795000   1184.6163     -2796.0291      76.561837     -2719.4673      83573.294      5413.8588    
   1796000   1139.9471     -2797.3679      73.674861     -2723.693       80795.988      5413.8588    
   1797000   1174.7699     -2795.5942      75.925461     -2719.6688      83612.362      5413.8588    
   1798000   1197.4345     -2794.2101      77.390276     -2716.8198      84281.698      5413.8588    
   1799000   1174.3745     -2791.6773      75.899908     -2715.7774      85986.143      5413.8588    
   1800000   1225.5118     -2795.4715      79.204917     -2716.2666      83016.654      5413.8588    
   1801000   1088.8821     -2792.9215      70.374526     -2722.547       84074.878      5413.8588    
   1802000   1117.2407     -2793.3948      72.207348     -2721.1874      82927.973      5413.8588    
   1803000   1213.8723     -2797.5202      78.452655     -2719.0676      81990.332      5413.8588    
   1804000   1166.1824     -2791.1988      75.370455     -2715.8284      86540.657      5413.8588    
   1805000   1266.9463     -2787.4235      81.882828     -2705.5407      90525.845      5413.8588    
   1806000   1255.946      -2796.3905      81.171884     -2715.2187      83469.353      5413.8588    
   1807000   1234.5182     -2797.662       79.787004     -2717.875       82086.353      5413.8588    
   1808000   1158.9738     -2793.4024      74.904558     -2718.4978      85715.201      5413.8588    
   1809000   1175.1665     -2795.3455      75.951095     -2719.3944      83386.852      5413.8588    
   1810000   1224.9874     -2794.2935      79.171023     -2715.1224      85571.117      5413.8588    
   1811000   1245.7602     -2794.5723      80.513573     -2714.0587      84137.512      5413.8588    
   1812000   1197.0237     -2796.7561      77.363727     -2719.3924      82348.641      5413.8588    
   1813000   1247.0142     -2788.9006      80.594616     -2708.306       88827.517      5413.8588    
   1814000   1155.4906     -2785.4261      74.679444     -2710.7467      93592.137      5413.8588    
   1815000   1221.9846     -2796.8434      78.976953     -2717.8664      81730.553      5413.8588    
   1816000   1201.9135     -2792.5926      77.679758     -2714.9129      85771.66       5413.8588    
   1817000   1258.8908     -2795.4378      81.362206     -2714.0756      84120.076      5413.8588    
   1818000   1213.1134     -2797.5937      78.403607     -2719.1901      81171.125      5413.8588    
   1819000   1155.0019     -2795.7961      74.647858     -2721.1482      82000.816      5413.8588    
   1820000   1191.8396     -2796.1861      77.028677     -2719.1574      82369.066      5413.8588    
   1821000   1248.9837     -2793.9616      80.721907     -2713.2396      84966.951      5413.8588    
   1822000   1237.4511     -2796.1824      79.976556     -2716.2058      83174.359      5413.8588    
   1823000   1122.538      -2793.5985      72.54971      -2721.0488      83881.812      5413.8588    
   1824000   1135.2102     -2791.0247      73.36872      -2717.656       87419.661      5413.8588    
   1825000   1183.6682     -2793.9692      76.50056      -2717.4686      85346.92       5413.8588    
   1826000   1262.4021     -2793.2908      81.589142     -2711.7017      86193.204      5413.8588    
   1827000   1211.4589     -2789.9111      78.296679     -2711.6144      88902.619      5413.8588    
   1828000   1137.8713     -2789.5808      73.540703     -2716.0401      88042.186      5413.8588    
   1829000   1164.6316     -2796.8614      75.270222     -2721.5912      80907.965      5413.8588    
   1830000   1169.2059     -2792.5107      75.565861     -2716.9448      84792.163      5413.8588    
   1831000   1176.9987     -2792.0045      76.069509     -2715.935       86337.172      5413.8588    
   1832000   1115.7559     -2793.8723      72.111386     -2721.7609      83084.115      5413.8588    
   1833000   1173.9083     -2797.6497      75.86978      -2721.78        80001.595      5413.8588    
   1834000   1210.8328     -2794.1388      78.256212     -2715.8826      85095.23       5413.8588    
   1835000   1175.8916     -2792.3107      75.99796      -2716.3127      85793.299      5413.8588    
   1836000   1160.8885     -2795.6013      75.028309     -2720.573       82323.825      5413.8588    
   1837000   1199.666      -2798.4901      77.534501     -2720.9556      80532.497      5413.8588    
   1838000   1207.6113     -2793.046       78.048008     -2714.998       85446.661      5413.8588    
   1839000   1213.991      -2790.7321      78.460324     -2712.2717      87696.822      5413.8588    
   1840000   1215.4539     -2793.9427      78.554876     -2715.3878      83718.98       5413.8588    
   1841000   1145.0625     -2795.9062      74.005473     -2721.9007      82902.582      5413.8588    
   1842000   1126.0943     -2796.0124      72.779556     -2723.2328      82168.232      5413.8588    
   1843000   1171.519      -2790.3135      75.715356     -2714.5981      88326.802      5413.8588    
   1844000   1169.7616     -2789.5153      75.601776     -2713.9136      87975.804      5413.8588    
   1845000   1153.0912     -2790.9331      74.524367     -2716.4087      86409.014      5413.8588    
   1846000   1185.1494     -2796.2522      76.596294     -2719.6559      83160.624      5413.8588    
   1847000   1268.3195     -2795.4218      81.971579     -2713.4502      84293.442      5413.8588    
   1848000   1307.3592     -2793.5404      84.494718     -2709.0457      87098.821      5413.8588    
   1849000   1241.1971     -2792.8475      80.218656     -2712.6288      86641.807      5413.8588    
   1850000   1222.4853     -2795.2159      79.009312     -2716.2066      83852.647      5413.8588    
   1851000   1236.9847     -2797.1226      79.946409     -2717.1762      81675.553      5413.8588    
   1852000   1163.5233     -2793.5854      75.198593     -2718.3868      84499.371      5413.8588    
   1853000   1174.4144     -2790.6539      75.902489     -2714.7514      87121.969      5413.8588    
   1854000   1201.51       -2790.1297      77.653681     -2712.476       87548.214      5413.8588    
   1855000   1220.5103     -2795.5188      78.88167      -2716.6371      82497.938      5413.8588    
   1856000   1145.6779     -2791.2251      74.045246     -2717.1798      86469.206      5413.8588    
   1857000   1167.5915     -2792.7167      75.461523     -2717.2552      85694.755      5413.8588    
   1858000   1273.5106     -2792.7377      82.30708      -2710.4306      86100.893      5413.8588    
   1859000   1244.2474     -2786.7733      80.415797     -2706.3575      90886.972      5413.8588    
   1860000   1174.4573     -2794.2549      75.905257     -2718.3496      84405.492      5413.8588    
   1861000   1177.1604     -2793.3811      76.079963     -2717.3012      85112.358      5413.8588    
   1862000   1184.8844     -2788.6691      76.579166     -2712.0899      89035.52       5413.8588    
   1863000   1230.3476     -2788.481       79.517452     -2708.9636      90050.435      5413.8588    
   1864000   1184.6777     -2790.8505      76.565809     -2714.2847      86940.74       5413.8588    
   1865000   1305.501      -2799.7759      84.374624     -2715.4013      81132.243      5413.8588    
   1866000   1166.6185     -2796.8742      75.398639     -2721.4756      81686.318      5413.8588    
   1867000   1171.6934     -2793.701       75.726627     -2717.9744      84524.616      5413.8588    
   1868000   1215.9718     -2787.119       78.588345     -2708.5307      91555.297      5413.8588    
   1869000   1259.0348     -2791.1724      81.371508     -2709.8009      88455.262      5413.8588    
   1870000   1211.2006     -2792.9506      78.279983     -2714.6707      86135.567      5413.8588    
   1871000   1163.7634     -2795.1893      75.214116     -2719.9752      83381.555      5413.8588    
   1872000   1181.3992     -2798.4299      76.353918     -2722.076       79963.227      5413.8588    
   1873000   1197.2318     -2794.8421      77.377176     -2717.4649      83509.804      5413.8588    
   1874000   1226.0928     -2794.2076      79.24247      -2714.9652      84517.991      5413.8588    
   1875000   1259.961      -2791.6989      81.431368     -2710.2675      87962.562      5413.8588    
   1876000   1227.028      -2794.7121      79.302908     -2715.4092      84380.432      5413.8588    
   1877000   1163.9366     -2793.4066      75.225307     -2718.1813      84840.892      5413.8588    
   1878000   1169.6276     -2792.7699      75.593119     -2717.1768      86197.243      5413.8588    
   1879000   1254.0695     -2793.6612      81.050602     -2712.6106      85497.828      5413.8588    
   1880000   1192.292      -2792.6333      77.057919     -2715.5754      86463.335      5413.8588    
   1881000   1170.0928     -2795.5052      75.623181     -2719.882       83162.772      5413.8588    
   1882000   1081.6656     -2793.3652      69.908129     -2723.4571      82814.743      5413.8588    
   1883000   1159.1189     -2793.1278      74.913938     -2718.2139      85324.11       5413.8588    
   1884000   1274.9072     -2796.1872      82.397346     -2713.7898      82987.025      5413.8588    
   1885000   1253.5686     -2795.6285      81.018231     -2714.6102      83750.488      5413.8588    
   1886000   1114.4359     -2791.985       72.026075     -2719.9589      85503.441      5413.8588    
   1887000   1172.6995     -2794.1349      75.791655     -2718.3432      84963.997      5413.8588    
   1888000   1243.3561     -2792.0925      80.358197     -2711.7343      88231.857      5413.8588    
   1889000   1287.9259     -2791.3433      83.238742     -2708.1045      87795.925      5413.8588    
   1890000   1215.5603     -2790.5123      78.56175      -2711.9506      87260.659      5413.8588    
   1891000   1142.8337     -2791.5382      73.861428     -2717.6767      85841.379      5413.8588    
   1892000   1238.4131     -2795.5294      80.038726     -2715.4907      84347.84       5413.8588    
   1893000   1195.5043     -2789.5142      77.26553      -2712.2486      87959.391      5413.8588    
   1894000   1235.9639     -2789.6616      79.880437     -2709.7811      89311.744      5413.8588    
   1895000   1256.8318     -2791.5174      81.229127     -2710.2882      86918.421      5413.8588    
   1896000   1186.9937     -2794.2839      76.715486     -2717.5684      84197.567      5413.8588    
   1897000   1207.1059     -2795.6361      78.015343     -2717.6207      82734.285      5413.8588    
   1898000   1212.522      -2794.0688      78.365382     -2715.7034      84889.066      5413.8588    
   1899000   1264.6609     -2791.1236      81.735126     -2709.3885      87805.437      5413.8588    
   1900000   1176.0002     -2789.8298      76.004979     -2713.8248      87898.29       5413.8588    
   1901000   1186.046      -2795.4622      76.654241     -2718.808       83676.45       5413.8588    
   1902000   1204.5107     -2793.6148      77.847613     -2715.7672      85367.452      5413.8588    
   1903000   1223.8964     -2791.5018      79.100516     -2712.4013      86970.558      5413.8588    
   1904000   1194.8791     -2795.2852      77.225126     -2718.0601      83093.118      5413.8588    
   1905000   1168.0151     -2794.1351      75.488902     -2718.6462      83126.816      5413.8588    
   1906000   1196.2953     -2794.2951      77.316651     -2716.9784      84245.941      5413.8588    
   1907000   1261.7047     -2794.141       81.544063     -2712.5969      85375.563      5413.8588    
   1908000   1277.1711     -2788.401       82.543663     -2705.8573      90913.403      5413.8588    
   1909000   1119.2353     -2791.4276      72.336259     -2719.0914      86382.55       5413.8588    
   1910000   1141.0642     -2792.9925      73.747064     -2719.2455      84589.27       5413.8588    
   1911000   1197.8609     -2789.4579      77.417839     -2712.0401      89452.04       5413.8588    
   1912000   1205.0834     -2788.6076      77.884629     -2710.7229      89918.047      5413.8588    
   1913000   1236.6945     -2793.2497      79.927657     -2713.322       86209.553      5413.8588    
   1914000   1245.0813     -2797.4084      80.469692     -2716.9387      82849.77       5413.8588    
   1915000   1228.9636     -2790.7156      79.428005     -2711.2876      87863.376      5413.8588    
   1916000   1186.2288     -2789.8806      76.666052     -2713.2145      89135.091      5413.8588    
   1917000   1157.323      -2793.0692      74.797871     -2718.2713      84757.596      5413.8588    
   1918000   1078.3941     -2796.5803      69.696689     -2726.8836      80943.31       5413.8588    
   1919000   1197.9019     -2791.0195      77.420488     -2713.599       87470.325      5413.8588    
   1920000   1253.7928     -2794.646       81.032723     -2713.6133      84756.763      5413.8588    
   1921000   1161.8834     -2791.8922      75.092608     -2716.7996      86033.437      5413.8588    
   1922000   1147.8649     -2794.6217      74.186591     -2720.4351      83245.031      5413.8588    
   1923000   1248.0912     -2797.7625      80.664222     -2717.0983      81807.031      5413.8588    
   1924000   1213.2725     -2790.8827      78.41389      -2712.4688      87912.474      5413.8588    
   1925000   1276.4958     -2794.4089      82.500013     -2711.9088      85154.966      5413.8588    
   1926000   1237.0806     -2795.3777      79.952607     -2715.4251      83751.905      5413.8588    
   1927000   1197.9993     -2794.8793      77.42678      -2717.4526      83366.878      5413.8588    
   1928000   1192.7035     -2792.1239      77.084513     -2715.0393      86416.986      5413.8588    
   1929000   1178.7176     -2785.778       76.180601     -2709.5974      92875.356      5413.8588    
   1930000   1261.7221     -2793.7927      81.545193     -2712.2475      85151.686      5413.8588    
   1931000   1230.1447     -2797.2255      79.504343     -2717.7211      81838.35       5413.8588    
   1932000   1225.837      -2789.6207      79.225934     -2710.3948      89006.081      5413.8588    
   1933000   1265.7009     -2794.2655      81.802341     -2712.4632      85324.779      5413.8588    
   1934000   1225.944      -2795.0876      79.232852     -2715.8548      83665.924      5413.8588    
   1935000   1163.1729     -2801.5916      75.175948     -2726.4156      76681.914      5413.8588    
   1936000   1215.3221     -2789.8034      78.546356     -2711.257       88581.966      5413.8588    
   1937000   1232.4516     -2791.1937      79.653436     -2711.5403      87631.911      5413.8588    
   1938000   1195.7561     -2794.9612      77.2818       -2717.6794      83667.624      5413.8588    
   1939000   1193.3247     -2794.037       77.124659     -2716.9123      84984.294      5413.8588    
   1940000   1235.1171     -2791.8006      79.825706     -2711.9749      87018.365      5413.8588    
   1941000   1203.9172     -2794.1152      77.809257     -2716.3059      84883.396      5413.8588    
   1942000   1116.2115     -2790.8103      72.140833     -2718.6695      86015.208      5413.8588    
   1943000   1169.6381     -2796.0077      75.593794     -2720.4139      82506.168      5413.8588    
   1944000   1181.3144     -2791.4845      76.348432     -2715.1361      86019.698      5413.8588    
   1945000   1188.0855     -2795.2037      76.786054     -2718.4177      84162.578      5413.8588    
   1946000   1140.9701     -2792.7043      73.740979     -2718.9633      84474.402      5413.8588    
   1947000   1188.56       -2790.1273      76.816721     -2713.3106      88003.912      5413.8588    
   1948000   1209.9653     -2790.5025      78.200144     -2712.3023      87434.129      5413.8588    
   1949000   1188.3615     -2791.8439      76.803891     -2715.04        86080.203      5413.8588    
   1950000   1179.0534     -2796.3485      76.20231      -2720.1462      82794.087      5413.8588    
   1951000   1227.5842     -2790.2074      79.338853     -2710.8685      88475.941      5413.8588    
   1952000   1227.9973     -2791.3731      79.365554     -2712.0075      87659.089      5413.8588    
   1953000   1271.8856     -2790.8354      82.202058     -2708.6333      88690.388      5413.8588    
   1954000   1144.209      -2790.9395      73.950313     -2716.9892      86325.524      5413.8588    
   1955000   1221.4746     -2796.4253      78.943989     -2717.4813      82681.39       5413.8588    
   1956000   1226.5674     -2795.0685      79.27314      -2715.7953      83575.706      5413.8588    
   1957000   1204.9199     -2788.8596      77.874062     -2710.9855      89640.124      5413.8588    
   1958000   1252.5846     -2789.2013      80.954636     -2708.2467      89660.46       5413.8588    
   1959000   1188.8243     -2789.8658      76.833803     -2713.032       87813.822      5413.8588    
   1960000   1210.932      -2794.3241      78.262626     -2716.0615      84276.764      5413.8588    
   1961000   1242.0667     -2796.9164      80.274864     -2716.6415      82997.886      5413.8588    
   1962000   1211.7335     -2791.1721      78.314422     -2712.8577      88005.914      5413.8588    
   1963000   1244.1847     -2794.8997      80.411746     -2714.488       84979.771      5413.8588    
   1964000   1211.5414     -2794.7545      78.30201      -2716.4525      84924.215      5413.8588    
   1965000   1120.116      -2800.1861      72.393181     -2727.7929      77848.146      5413.8588    
   1966000   1138.3425     -2789.0445      73.571156     -2715.4733      87270.671      5413.8588    
   1967000   1192.5933     -2790.7959      77.077391     -2713.7185      89092.442      5413.8588    
   1968000   1206.5887     -2791.1305      77.981912     -2713.1486      87848.651      5413.8588    
   1969000   1124.7272     -2797.2631      72.691197     -2724.5719      81232.074      5413.8588    
   1970000   1147.3545     -2795.07        74.153606     -2720.9164      83273.532      5413.8588    
   1971000   1176.2894     -2793.9897      76.023668     -2717.966       83442.618      5413.8588    
   1972000   1209.8206     -2793.9672      78.19079      -2715.7764      84700.058      5413.8588    
   1973000   1208.5459     -2786.3717      78.108408     -2708.2633      90560.939      5413.8588    
   1974000   1180.2282     -2793.9027      76.278234     -2717.6245      85303.619      5413.8588    
   1975000   1138.9299     -2793.5425      73.609121     -2719.9334      84698.884      5413.8588    
   1976000   1124.468      -2797.3173      72.67445      -2724.6429      81000.673      5413.8588    
   1977000   1155.8389     -2791.6233      74.701954     -2716.9213      85272.859      5413.8588    
   1978000   1225.4153     -2791.5977      79.19868      -2712.399       86710.131      5413.8588    
   1979000   1247.7061     -2793.2723      80.639334     -2712.6329      87146.545      5413.8588    
   1980000   1176.6741     -2791.8092      76.048529     -2715.7607      86969.524      5413.8588    
   1981000   1151.4727     -2793.953       74.419764     -2719.5333      84197.005      5413.8588    
   1982000   1192.4237     -2793.8243      77.066428     -2716.7578      84396.792      5413.8588    
   1983000   1264.7309     -2793.823       81.739647     -2712.0833      85927.391      5413.8588    
   1984000   1181.963      -2791.9023      76.390352     -2715.512       85393.042      5413.8588    
   1985000   1102.5183     -2790.3185      71.255834     -2719.0627      87049.302      5413.8588    
   1986000   1221.8709     -2793.718       78.969606     -2714.7484      85337.592      5413.8588    
   1987000   1197.8867     -2794.645       77.419504     -2717.2255      84308.744      5413.8588    
   1988000   1172.0496     -2796.5857      75.74965      -2720.836       81954.758      5413.8588    
   1989000   1177.8617     -2794.1552      76.12529      -2718.03        83622.332      5413.8588    
   1990000   1273.7578     -2796.0689      82.323057     -2713.7459      83574.047      5413.8588    
   1991000   1218.8255     -2792.7261      78.77278      -2713.9533      85584.824      5413.8588    
   1992000   1174.5189     -2793.7592      75.909242     -2717.85        85013.179      5413.8588    
   1993000   1232.3783     -2798.4569      79.6487       -2718.8082      81518.868      5413.8588    
   1994000   1106.2181     -2789.4129      71.494957     -2717.918       87787.366      5413.8588    
   1995000   1186.1463     -2792.3606      76.66072      -2715.6999      85838.684      5413.8588    
   1996000   1199.667      -2785.5649      77.534566     -2708.0304      91914.253      5413.8588    
   1997000   1247.1417     -2793.2894      80.602862     -2712.6865      85333.145      5413.8588    
   1998000   1134.6854     -2791.0934      73.334802     -2717.7586      86435.637      5413.8588    
   1999000   1180.902      -2799.3176      76.321782     -2722.9959      79237.866      5413.8588    
   2000000   1134.1905     -2791.473       73.302816     -2718.1702      86675.246      5413.8588    
Loop time of 47861 on 1 procs for 1500000 steps with 501 atoms

Performance: 1.354 ns/day, 17.726 hours/ns, 31.341 timesteps/s, 15.702 katom-step/s
99.2% CPU use with 1 MPI tasks x 1 OpenMP threads

MPI task timing breakdown:
Section |  min time  |  avg time  |  max time  |%varavg| %total
---------------------------------------------------------------
Pair    | 46372      | 46372      | 46372      |   0.0 | 96.89
Neigh   | 4.4166     | 4.4166     | 4.4166     |   0.0 |  0.01
Comm    | 61.852     | 61.852     | 61.852     |   0.0 |  0.13
Output  | 1.166      | 1.166      | 1.166      |   0.0 |  0.00
Modify  | 1358.8     | 1358.8     | 1358.8     |   0.0 |  2.84
Other   |            | 62.91      |            |       |  0.13

Nlocal:            501 ave         501 max         501 min
Histogram: 1 0 0 0 0 0 0 0 0 0
Nghost:           2390 ave        2390 max        2390 min
Histogram: 1 0 0 0 0 0 0 0 0 0
Neighs:              0 ave           0 max           0 min
Histogram: 1 0 0 0 0 0 0 0 0 0
FullNghs:        68360 ave       68360 max       68360 min
Histogram: 1 0 0 0 0 0 0 0 0 0

Total # of neighbors = 68360
Ave neighs/atom = 136.44711
Neighbor list builds = 7468
Dangerous builds = 0

# ── Save final state ─────────────────────────────────────────
variable  pe_final  equal  pe
variable  temp_fin  equal  temp
variable  press_fin equal  press

print "EQUIL_RESULTS_START"
EQUIL_RESULTS_START
print "  T_K          : 1200"
  T_K          : 1200
print "  pe_final_eV  : ${pe_final}"
  pe_final_eV  : -2791.47296878171
print "  temp_final_K : ${temp_fin}"
  temp_final_K : 1134.1905324142
print "  press_final  : ${press_fin}"
  press_final  : 86675.2457517713
print "EQUIL_RESULTS_END"
EQUIL_RESULTS_END

write_data     structures/notebook10-bulk-equilibration/Pure_Nickel/Pure_Nickel_H_1200K.lammps
System init for write_data ...
Total wall time: 17:32:46
