Task 132: s_132
LAMMPS (11 Feb 2026 - Development - patch_11Feb2026-99-gb75dfcc930-modified)
/home/akinyemi.az/miniforge3/envs/mace-lammps/lib/python3.11/site-packages/e3nn/o3/_wigner.py:10: FutureWarning: You are using `torch.load` with `weights_only=False` (the current default value), which uses the default pickle module implicitly. It is possible to construct malicious pickle data which will execute arbitrary code during unpickling (See https://github.com/pytorch/pytorch/blob/main/SECURITY.md#untrusted-models for more details). In a future release, the default value for `weights_only` will be flipped to `True`. This limits the functions that could be executed during unpickling. Arbitrary objects will no longer be allowed to be loaded via this mode unless they are explicitly allowlisted by the user via `torch.serialization.add_safe_globals`. We recommend you start setting `weights_only=True` for any use case where you don't have full control of the loaded file. Please open an issue on GitHub for any issues related to this experimental feature.
  _Jd, _W3j_flat, _W3j_indices = torch.load(os.path.join(os.path.dirname(__file__), 'constants.pt'))
/home/akinyemi.az/miniforge3/envs/mace-lammps/lib/python3.11/tempfile.py:934: ResourceWarning: Implicitly cleaning up <TemporaryDirectory '/tmp/tmpl9j2l0st'>
  _warnings.warn(warn_message, ResourceWarning)
KOKKOS mode with Kokkos version 5.0.2 is enabled
  using double precision
  using view layout = legacy
  will use up to 1 GPU(s) per node
  using 1 OpenMP thread(s) per MPI task
Reading data file ...
  orthogonal box = (0 0 0) to (12.447908 12.936245 52.360083)
  1 by 1 by 1 MPI processor grid
  reading atoms ...
  361 atoms
  read_data CPU = 0.017 seconds
119 atoms in group frozen_atoms
242 atoms in group free_atoms

CITE-CITE-CITE-CITE-CITE-CITE-CITE-CITE-CITE-CITE-CITE-CITE-CITE

Your simulation uses code contributions which should be cited:
- KOKKOS package: https://doi.org/10.1145/3731599.3767498
The log file lists these citations in BibTeX format.

CITE-CITE-CITE-CITE-CITE-CITE-CITE-CITE-CITE-CITE-CITE-CITE-CITE

Neighbor list info ...
  update: every = 1 steps, delay = 0 steps, check = yes
  max neighbors/atom: 2000, page size: 100000
  master list distance cutoff = 7
  ghost atom cutoff = 7
  binsize = 7, bins = 2 2 8
  1 neighbor lists, perpetual/occasional/extra = 1 0 0
  (1) pair mliap/kk, perpetual
      attributes: full, newton on, kokkos_device
      pair build: full/bin/kk/device
      stencil: full/bin/3d
      bin: kk/device
Setting up cg/kk style minimization ...
  Unit style    : metal
  Current step  : 0
WARNING: Fix MINIMIZE/kk not compatible with sending data in Kokkos communication (src/KOKKOS/comm_kokkos.cpp:842)
WARNING: Fix with atom-based arrays not compatible with sending data in Kokkos communication, switching to legacy exchange/border communication (src/KOKKOS/comm_kokkos.cpp:849)
WARNING: Fix MINIMIZE/kk not (yet) compatible with Kokkos sorting on device (src/KOKKOS/atom_kokkos.cpp:219)
WARNING: Fix with atom-based arrays not (yet) compatible with Kokkos sorting on device, switching to legacy host sorting (src/KOKKOS/atom_kokkos.cpp:225)
Per MPI rank memory allocation (min/avg/max) = 60.33 | 60.33 | 60.33 Mbytes
   Step         PotEng          Fmax     
         0  -2393.9304      0.84526539   
        50  -2394.9692      0.0036710394 
       100  -2394.9693      3.8448625e-05
       150  -2394.9693      4.8963571e-07
       174  -2394.9693      1.453123e-07 
Loop time of 12.6346 on 1 procs for 174 steps with 361 atoms

98.3% CPU use with 1 MPI tasks x 1 OpenMP threads

Minimization stats:
  Stopping criterion = force tolerance
  Energy initial, next-to-last, final = 
     -2393.93036626092  -2394.96930406314  -2394.96930406314
  Force two-norm initial, final = 1.0853675 8.6086867e-07
  Force max component initial, final = 0.84526539 1.453123e-07
  Final line search alpha, max atom move = 1 1.453123e-07
  Iterations, force evaluations = 174 338

MPI task timing breakdown:
Section |  min time  |  avg time  |  max time  |%varavg| %total
---------------------------------------------------------------
Pair    | 12.564     | 12.564     | 12.564     |   0.0 | 99.44
Neigh   | 0.00064796 | 0.00064796 | 0.00064796 |   0.0 |  0.01
Comm    | 0.011379   | 0.011379   | 0.011379   |   0.0 |  0.09
Output  | 0.00013464 | 0.00013464 | 0.00013464 |   0.0 |  0.00
Modify  | 0.0099145  | 0.0099145  | 0.0099145  |   0.0 |  0.08
Other   |            | 0.04898    |            |       |  0.39

Nlocal:            361 ave         361 max         361 min
Histogram: 1 0 0 0 0 0 0 0 0 0
Nghost:           1218 ave        1218 max        1218 min
Histogram: 1 0 0 0 0 0 0 0 0 0
Neighs:              0 ave           0 max           0 min
Histogram: 1 0 0 0 0 0 0 0 0 0
FullNghs:        43014 ave       43014 max       43014 min
Histogram: 1 0 0 0 0 0 0 0 0 0

Total # of neighbors = 43014
Ave neighs/atom = 119.15235
Neighbor list builds = 1
Dangerous builds = 0
ENERGY_RESULTS_START
  job_name         : h_atom_s_132
  pe_final_eV      : -2394.96930406314
  fmax_eV_per_Ang  : 1.45312299592443e-07
ENERGY_RESULTS_END
System init for write_data ...
Total wall time: 0:00:50
Done: s_132 Sat Jun  6 08:13:19 PM EDT 2026
