# Hastelloy N (111) slab — written by Notebook 03
# a0=3.5208 Ang (300K NPT), 5x6x12 slab, 15.0A vacuum

360 atoms
8 atom types

0.0  12.4479077760  xlo xhi
0.0  12.9362452296  ylo yhi
0.0  52.3600831054  zlo zhi

Masses

1  26.9815  # Al
2  10.811  # B
3  12.011  # C
4  51.9961  # Cr
5  55.845  # Fe
6  95.96  # Mo
7  58.6934  # Ni
8  1.008  # H

Atoms # atomic

1  4  1.2447907776  0.7186802905  15.0000000000
2  7  3.7343723328  0.7186802905  15.0000000000
3  5  6.2239538880  0.7186802905  15.0000000000
4  7  8.7135354432  0.7186802905  15.0000000000
5  2  11.2031169984  0.7186802905  15.0000000000
6  4  0.0000000000  2.8747211621  15.0000000000
7  2  2.4895815552  2.8747211621  15.0000000000
8  7  4.9791631104  2.8747211621  15.0000000000
9  7  7.4687446656  2.8747211621  15.0000000000
10  7  9.9583262208  2.8747211621  15.0000000000
11  7  1.2447907776  5.0307620337  15.0000000000
12  4  3.7343723328  5.0307620337  15.0000000000
13  6  6.2239538880  5.0307620337  15.0000000000
14  7  8.7135354432  5.0307620337  15.0000000000
15  7  11.2031169984  5.0307620337  15.0000000000
16  6  0.0000000000  7.1868029053  15.0000000000
17  5  2.4895815552  7.1868029053  15.0000000000
18  7  4.9791631104  7.1868029053  15.0000000000
19  6  7.4687446656  7.1868029053  15.0000000000
20  7  9.9583262208  7.1868029053  15.0000000000
21  7  1.2447907776  9.3428437769  15.0000000000
22  7  3.7343723328  9.3428437769  15.0000000000
23  6  6.2239538880  9.3428437769  15.0000000000
24  7  8.7135354432  9.3428437769  15.0000000000
25  6  11.2031169984  9.3428437769  15.0000000000
26  7  0.0000000000  11.4988846485  15.0000000000
27  6  2.4895815552  11.4988846485  15.0000000000
28  7  4.9791631104  11.4988846485  15.0000000000
29  7  7.4687446656  11.4988846485  15.0000000000
30  1  9.9583262208  11.4988846485  15.0000000000
31  7  0.0000000000  1.4373605811  17.0327348278
32  7  2.4895815552  1.4373605811  17.0327348278
33  7  4.9791631104  1.4373605811  17.0327348278
34  7  7.4687446656  1.4373605811  17.0327348278
35  7  9.9583262208  1.4373605811  17.0327348278
36  7  1.2447907776  3.5934014527  17.0327348278
37  7  3.7343723328  3.5934014527  17.0327348278
38  7  6.2239538880  3.5934014527  17.0327348278
39  3  8.7135354432  3.5934014527  17.0327348278
40  6  11.2031169984  3.5934014527  17.0327348278
41  7  0.0000000000  5.7494423243  17.0327348278
42  7  2.4895815552  5.7494423243  17.0327348278
43  7  4.9791631104  5.7494423243  17.0327348278
44  7  7.4687446656  5.7494423243  17.0327348278
45  7  9.9583262208  5.7494423243  17.0327348278
46  6  1.2447907776  7.9054831959  17.0327348278
47  4  3.7343723328  7.9054831959  17.0327348278
48  1  6.2239538880  7.9054831959  17.0327348278
49  7  8.7135354432  7.9054831959  17.0327348278
50  4  11.2031169984  7.9054831959  17.0327348278
51  7  0.0000000000  10.0615240675  17.0327348278
52  7  2.4895815552  10.0615240675  17.0327348278
53  5  4.9791631104  10.0615240675  17.0327348278
54  6  7.4687446656  10.0615240675  17.0327348278
55  7  9.9583262208  10.0615240675  17.0327348278
56  7  1.2447907776  12.2175649391  17.0327348278
57  2  3.7343723328  12.2175649391  17.0327348278
58  7  6.2239538880  12.2175649391  17.0327348278
59  7  8.7135354432  12.2175649391  17.0327348278
60  7  11.2031169984  12.2175649391  17.0327348278
61  7  0.0000000000  0.0000000000  19.0654696555
62  7  2.4895815552  0.0000000000  19.0654696555
63  7  4.9791631104  0.0000000000  19.0654696555
64  4  7.4687446656  0.0000000000  19.0654696555
65  7  9.9583262208  0.0000000000  19.0654696555
66  4  1.2447907776  2.1560408716  19.0654696555
67  7  3.7343723328  2.1560408716  19.0654696555
68  7  6.2239538880  2.1560408716  19.0654696555
69  7  8.7135354432  2.1560408716  19.0654696555
70  7  11.2031169984  2.1560408716  19.0654696555
71  7  0.0000000000  4.3120817432  19.0654696555
72  4  2.4895815552  4.3120817432  19.0654696555
73  7  4.9791631104  4.3120817432  19.0654696555
74  7  7.4687446656  4.3120817432  19.0654696555
75  7  9.9583262208  4.3120817432  19.0654696555
76  7  1.2447907776  6.4681226148  19.0654696555
77  7  3.7343723328  6.4681226148  19.0654696555
78  5  6.2239538880  6.4681226148  19.0654696555
79  7  8.7135354432  6.4681226148  19.0654696555
80  7  11.2031169984  6.4681226148  19.0654696555
81  7  0.0000000000  8.6241634864  19.0654696555
82  7  2.4895815552  8.6241634864  19.0654696555
83  7  4.9791631104  8.6241634864  19.0654696555
84  7  7.4687446656  8.6241634864  19.0654696555
85  7  9.9583262208  8.6241634864  19.0654696555
86  2  1.2447907776  10.7802043580  19.0654696555
87  7  3.7343723328  10.7802043580  19.0654696555
88  7  6.2239538880  10.7802043580  19.0654696555
89  7  8.7135354432  10.7802043580  19.0654696555
90  7  11.2031169984  10.7802043580  19.0654696555
91  7  1.2447907776  0.7186802905  21.0982044833
92  7  3.7343723328  0.7186802905  21.0982044833
93  7  6.2239538880  0.7186802905  21.0982044833
94  6  8.7135354432  0.7186802905  21.0982044833
95  1  11.2031169984  0.7186802905  21.0982044833
96  7  0.0000000000  2.8747211621  21.0982044833
97  4  2.4895815552  2.8747211621  21.0982044833
98  7  4.9791631104  2.8747211621  21.0982044833
99  7  7.4687446656  2.8747211621  21.0982044833
100  7  9.9583262208  2.8747211621  21.0982044833
101  7  1.2447907776  5.0307620337  21.0982044833
102  1  3.7343723328  5.0307620337  21.0982044833
103  7  6.2239538880  5.0307620337  21.0982044833
104  7  8.7135354432  5.0307620337  21.0982044833
105  7  11.2031169984  5.0307620337  21.0982044833
106  7  0.0000000000  7.1868029053  21.0982044833
107  7  2.4895815552  7.1868029053  21.0982044833
108  1  4.9791631104  7.1868029053  21.0982044833
109  7  7.4687446656  7.1868029053  21.0982044833
110  6  9.9583262208  7.1868029053  21.0982044833
111  7  1.2447907776  9.3428437769  21.0982044833
112  4  3.7343723328  9.3428437769  21.0982044833
113  6  6.2239538880  9.3428437769  21.0982044833
114  7  8.7135354432  9.3428437769  21.0982044833
115  6  11.2031169984  9.3428437769  21.0982044833
116  5  0.0000000000  11.4988846485  21.0982044833
117  7  2.4895815552  11.4988846485  21.0982044833
118  6  4.9791631104  11.4988846485  21.0982044833
119  7  7.4687446656  11.4988846485  21.0982044833
120  7  9.9583262208  11.4988846485  21.0982044833
121  7  0.0000000000  1.4373605811  23.1309393111
122  7  2.4895815552  1.4373605811  23.1309393111
123  7  4.9791631104  1.4373605811  23.1309393111
124  7  7.4687446656  1.4373605811  23.1309393111
125  7  9.9583262208  1.4373605811  23.1309393111
126  7  1.2447907776  3.5934014527  23.1309393111
127  3  3.7343723328  3.5934014527  23.1309393111
128  7  6.2239538880  3.5934014527  23.1309393111
129  7  8.7135354432  3.5934014527  23.1309393111
130  7  11.2031169984  3.5934014527  23.1309393111
131  5  0.0000000000  5.7494423243  23.1309393111
132  7  2.4895815552  5.7494423243  23.1309393111
133  7  4.9791631104  5.7494423243  23.1309393111
134  4  7.4687446656  5.7494423243  23.1309393111
135  7  9.9583262208  5.7494423243  23.1309393111
136  7  1.2447907776  7.9054831959  23.1309393111
137  7  3.7343723328  7.9054831959  23.1309393111
138  7  6.2239538880  7.9054831959  23.1309393111
139  7  8.7135354432  7.9054831959  23.1309393111
140  7  11.2031169984  7.9054831959  23.1309393111
141  4  0.0000000000  10.0615240675  23.1309393111
142  7  2.4895815552  10.0615240675  23.1309393111
143  7  4.9791631104  10.0615240675  23.1309393111
144  4  7.4687446656  10.0615240675  23.1309393111
145  7  9.9583262208  10.0615240675  23.1309393111
146  7  1.2447907776  12.2175649391  23.1309393111
147  2  3.7343723328  12.2175649391  23.1309393111
148  7  6.2239538880  12.2175649391  23.1309393111
149  7  8.7135354432  12.2175649391  23.1309393111
150  4  11.2031169984  12.2175649391  23.1309393111
151  7  0.0000000000  0.0000000000  25.1636741388
152  7  2.4895815552  0.0000000000  25.1636741388
153  7  4.9791631104  0.0000000000  25.1636741388
154  7  7.4687446656  0.0000000000  25.1636741388
155  7  9.9583262208  0.0000000000  25.1636741388
156  7  1.2447907776  2.1560408716  25.1636741388
157  7  3.7343723328  2.1560408716  25.1636741388
158  7  6.2239538880  2.1560408716  25.1636741388
159  6  8.7135354432  2.1560408716  25.1636741388
160  7  11.2031169984  2.1560408716  25.1636741388
161  7  0.0000000000  4.3120817432  25.1636741388
162  4  2.4895815552  4.3120817432  25.1636741388
163  2  4.9791631104  4.3120817432  25.1636741388
164  6  7.4687446656  4.3120817432  25.1636741388
165  7  9.9583262208  4.3120817432  25.1636741388
166  7  1.2447907776  6.4681226148  25.1636741388
167  7  3.7343723328  6.4681226148  25.1636741388
168  6  6.2239538880  6.4681226148  25.1636741388
169  7  8.7135354432  6.4681226148  25.1636741388
170  7  11.2031169984  6.4681226148  25.1636741388
171  7  0.0000000000  8.6241634864  25.1636741388
172  7  2.4895815552  8.6241634864  25.1636741388
173  7  4.9791631104  8.6241634864  25.1636741388
174  7  7.4687446656  8.6241634864  25.1636741388
175  7  9.9583262208  8.6241634864  25.1636741388
176  7  1.2447907776  10.7802043580  25.1636741388
177  7  3.7343723328  10.7802043580  25.1636741388
178  7  6.2239538880  10.7802043580  25.1636741388
179  7  8.7135354432  10.7802043580  25.1636741388
180  7  11.2031169984  10.7802043580  25.1636741388
181  4  1.2447907776  0.7186802905  27.1964089666
182  7  3.7343723328  0.7186802905  27.1964089666
183  7  6.2239538880  0.7186802905  27.1964089666
184  1  8.7135354432  0.7186802905  27.1964089666
185  5  11.2031169984  0.7186802905  27.1964089666
186  4  0.0000000000  2.8747211621  27.1964089666
187  7  2.4895815552  2.8747211621  27.1964089666
188  7  4.9791631104  2.8747211621  27.1964089666
189  7  7.4687446656  2.8747211621  27.1964089666
190  7  9.9583262208  2.8747211621  27.1964089666
191  6  1.2447907776  5.0307620337  27.1964089666
192  7  3.7343723328  5.0307620337  27.1964089666
193  7  6.2239538880  5.0307620337  27.1964089666
194  7  8.7135354432  5.0307620337  27.1964089666
195  5  11.2031169984  5.0307620337  27.1964089666
196  4  0.0000000000  7.1868029053  27.1964089666
197  7  2.4895815552  7.1868029053  27.1964089666
198  7  4.9791631104  7.1868029053  27.1964089666
199  7  7.4687446656  7.1868029053  27.1964089666
200  7  9.9583262208  7.1868029053  27.1964089666
201  7  1.2447907776  9.3428437769  27.1964089666
202  2  3.7343723328  9.3428437769  27.1964089666
203  7  6.2239538880  9.3428437769  27.1964089666
204  7  8.7135354432  9.3428437769  27.1964089666
205  4  11.2031169984  9.3428437769  27.1964089666
206  7  0.0000000000  11.4988846485  27.1964089666
207  7  2.4895815552  11.4988846485  27.1964089666
208  7  4.9791631104  11.4988846485  27.1964089666
209  7  7.4687446656  11.4988846485  27.1964089666
210  3  9.9583262208  11.4988846485  27.1964089666
211  7  0.0000000000  1.4373605811  29.2291437943
212  7  2.4895815552  1.4373605811  29.2291437943
213  7  4.9791631104  1.4373605811  29.2291437943
214  6  7.4687446656  1.4373605811  29.2291437943
215  7  9.9583262208  1.4373605811  29.2291437943
216  3  1.2447907776  3.5934014527  29.2291437943
217  7  3.7343723328  3.5934014527  29.2291437943
218  7  6.2239538880  3.5934014527  29.2291437943
219  7  8.7135354432  3.5934014527  29.2291437943
220  7  11.2031169984  3.5934014527  29.2291437943
221  7  0.0000000000  5.7494423243  29.2291437943
222  7  2.4895815552  5.7494423243  29.2291437943
223  7  4.9791631104  5.7494423243  29.2291437943
224  7  7.4687446656  5.7494423243  29.2291437943
225  7  9.9583262208  5.7494423243  29.2291437943
226  3  1.2447907776  7.9054831959  29.2291437943
227  7  3.7343723328  7.9054831959  29.2291437943
228  7  6.2239538880  7.9054831959  29.2291437943
229  7  8.7135354432  7.9054831959  29.2291437943
230  7  11.2031169984  7.9054831959  29.2291437943
231  7  0.0000000000  10.0615240675  29.2291437943
232  7  2.4895815552  10.0615240675  29.2291437943
233  7  4.9791631104  10.0615240675  29.2291437943
234  6  7.4687446656  10.0615240675  29.2291437943
235  5  9.9583262208  10.0615240675  29.2291437943
236  7  1.2447907776  12.2175649391  29.2291437943
237  7  3.7343723328  12.2175649391  29.2291437943
238  7  6.2239538880  12.2175649391  29.2291437943
239  6  8.7135354432  12.2175649391  29.2291437943
240  7  11.2031169984  12.2175649391  29.2291437943
241  7  0.0000000000  0.0000000000  31.2618786221
242  7  2.4895815552  0.0000000000  31.2618786221
243  7  4.9791631104  0.0000000000  31.2618786221
244  7  7.4687446656  0.0000000000  31.2618786221
245  6  9.9583262208  0.0000000000  31.2618786221
246  7  1.2447907776  2.1560408716  31.2618786221
247  4  3.7343723328  2.1560408716  31.2618786221
248  7  6.2239538880  2.1560408716  31.2618786221
249  7  8.7135354432  2.1560408716  31.2618786221
250  6  11.2031169984  2.1560408716  31.2618786221
251  4  0.0000000000  4.3120817432  31.2618786221
252  7  2.4895815552  4.3120817432  31.2618786221
253  7  4.9791631104  4.3120817432  31.2618786221
254  7  7.4687446656  4.3120817432  31.2618786221
255  7  9.9583262208  4.3120817432  31.2618786221
256  7  1.2447907776  6.4681226148  31.2618786221
257  7  3.7343723328  6.4681226148  31.2618786221
258  7  6.2239538880  6.4681226148  31.2618786221
259  7  8.7135354432  6.4681226148  31.2618786221
260  7  11.2031169984  6.4681226148  31.2618786221
261  7  0.0000000000  8.6241634864  31.2618786221
262  7  2.4895815552  8.6241634864  31.2618786221
263  1  4.9791631104  8.6241634864  31.2618786221
264  7  7.4687446656  8.6241634864  31.2618786221
265  7  9.9583262208  8.6241634864  31.2618786221
266  5  1.2447907776  10.7802043580  31.2618786221
267  7  3.7343723328  10.7802043580  31.2618786221
268  7  6.2239538880  10.7802043580  31.2618786221
269  7  8.7135354432  10.7802043580  31.2618786221
270  7  11.2031169984  10.7802043580  31.2618786221
271  7  1.2447907776  0.7186802905  33.2946134499
272  6  3.7343723328  0.7186802905  33.2946134499
273  7  6.2239538880  0.7186802905  33.2946134499
274  7  8.7135354432  0.7186802905  33.2946134499
275  4  11.2031169984  0.7186802905  33.2946134499
276  7  0.0000000000  2.8747211621  33.2946134499
277  4  2.4895815552  2.8747211621  33.2946134499
278  6  4.9791631104  2.8747211621  33.2946134499
279  4  7.4687446656  2.8747211621  33.2946134499
280  6  9.9583262208  2.8747211621  33.2946134499
281  7  1.2447907776  5.0307620337  33.2946134499
282  7  3.7343723328  5.0307620337  33.2946134499
283  7  6.2239538880  5.0307620337  33.2946134499
284  7  8.7135354432  5.0307620337  33.2946134499
285  7  11.2031169984  5.0307620337  33.2946134499
286  7  0.0000000000  7.1868029053  33.2946134499
287  6  2.4895815552  7.1868029053  33.2946134499
288  7  4.9791631104  7.1868029053  33.2946134499
289  6  7.4687446656  7.1868029053  33.2946134499
290  7  9.9583262208  7.1868029053  33.2946134499
291  6  1.2447907776  9.3428437769  33.2946134499
292  4  3.7343723328  9.3428437769  33.2946134499
293  7  6.2239538880  9.3428437769  33.2946134499
294  7  8.7135354432  9.3428437769  33.2946134499
295  4  11.2031169984  9.3428437769  33.2946134499
296  7  0.0000000000  11.4988846485  33.2946134499
297  7  2.4895815552  11.4988846485  33.2946134499
298  7  4.9791631104  11.4988846485  33.2946134499
299  7  7.4687446656  11.4988846485  33.2946134499
300  5  9.9583262208  11.4988846485  33.2946134499
301  7  0.0000000000  1.4373605811  35.3273482776
302  6  2.4895815552  1.4373605811  35.3273482776
303  7  4.9791631104  1.4373605811  35.3273482776
304  6  7.4687446656  1.4373605811  35.3273482776
305  7  9.9583262208  1.4373605811  35.3273482776
306  4  1.2447907776  3.5934014527  35.3273482776
307  7  3.7343723328  3.5934014527  35.3273482776
308  7  6.2239538880  3.5934014527  35.3273482776
309  7  8.7135354432  3.5934014527  35.3273482776
310  7  11.2031169984  3.5934014527  35.3273482776
311  7  0.0000000000  5.7494423243  35.3273482776
312  7  2.4895815552  5.7494423243  35.3273482776
313  7  4.9791631104  5.7494423243  35.3273482776
314  7  7.4687446656  5.7494423243  35.3273482776
315  7  9.9583262208  5.7494423243  35.3273482776
316  7  1.2447907776  7.9054831959  35.3273482776
317  7  3.7343723328  7.9054831959  35.3273482776
318  7  6.2239538880  7.9054831959  35.3273482776
319  5  8.7135354432  7.9054831959  35.3273482776
320  7  11.2031169984  7.9054831959  35.3273482776
321  7  0.0000000000  10.0615240675  35.3273482776
322  7  2.4895815552  10.0615240675  35.3273482776
323  7  4.9791631104  10.0615240675  35.3273482776
324  6  7.4687446656  10.0615240675  35.3273482776
325  7  9.9583262208  10.0615240675  35.3273482776
326  6  1.2447907776  12.2175649391  35.3273482776
327  7  3.7343723328  12.2175649391  35.3273482776
328  7  6.2239538880  12.2175649391  35.3273482776
329  6  8.7135354432  12.2175649391  35.3273482776
330  6  11.2031169984  12.2175649391  35.3273482776
331  7  0.0000000000  0.0000000000  37.3600831054
332  7  2.4895815552  0.0000000000  37.3600831054
333  4  4.9791631104  0.0000000000  37.3600831054
334  7  7.4687446656  0.0000000000  37.3600831054
335  7  9.9583262208  0.0000000000  37.3600831054
336  7  1.2447907776  2.1560408716  37.3600831054
337  7  3.7343723328  2.1560408716  37.3600831054
338  7  6.2239538880  2.1560408716  37.3600831054
339  7  8.7135354432  2.1560408716  37.3600831054
340  7  11.2031169984  2.1560408716  37.3600831054
341  7  0.0000000000  4.3120817432  37.3600831054
342  7  2.4895815552  4.3120817432  37.3600831054
343  3  4.9791631104  4.3120817432  37.3600831054
344  7  7.4687446656  4.3120817432  37.3600831054
345  7  9.9583262208  4.3120817432  37.3600831054
346  3  1.2447907776  6.4681226148  37.3600831054
347  7  3.7343723328  6.4681226148  37.3600831054
348  5  6.2239538880  6.4681226148  37.3600831054
349  4  8.7135354432  6.4681226148  37.3600831054
350  7  11.2031169984  6.4681226148  37.3600831054
351  7  0.0000000000  8.6241634864  37.3600831054
352  7  2.4895815552  8.6241634864  37.3600831054
353  7  4.9791631104  8.6241634864  37.3600831054
354  6  7.4687446656  8.6241634864  37.3600831054
355  7  9.9583262208  8.6241634864  37.3600831054
356  7  1.2447907776  10.7802043580  37.3600831054
357  7  3.7343723328  10.7802043580  37.3600831054
358  7  6.2239538880  10.7802043580  37.3600831054
359  7  8.7135354432  10.7802043580  37.3600831054
360  4  11.2031169984  10.7802043580  37.3600831054
