Node: d1029  Start: Thu Jun 25 02:54:11 PM EDT 2026
LAMMPS (11 Feb 2026 - Development - patch_11Feb2026-99-gb75dfcc930-modified)
W0625 14:54:47.852000 1865080 site-packages/torch/fx/_symbolic_trace.py:56] is_fx_tracing will return true for both fx.symbolic_trace and torch.export. Please use is_fx_tracing_symbolic_tracing() for specifically fx.symbolic_trace or torch.compiler.is_compiling() for specifically torch.export/compile.
KOKKOS mode with Kokkos version 5.0.2 is enabled
  using double precision
  using view layout = legacy
  will use up to 1 GPU(s) per node
  using 1 OpenMP thread(s) per MPI task
Reading data file ...
  orthogonal box = (0 0 0) to (17.998004 17.998004 17.998004)
  1 by 1 by 1 MPI processor grid
  reading atoms ...
  501 atoms
  read_data CPU = 0.208 seconds
### Minimization ###

CITE-CITE-CITE-CITE-CITE-CITE-CITE-CITE-CITE-CITE-CITE-CITE-CITE

Your simulation uses code contributions which should be cited:
- KOKKOS package: https://doi.org/10.1145/3731599.3767498
The log file lists these citations in BibTeX format.

CITE-CITE-CITE-CITE-CITE-CITE-CITE-CITE-CITE-CITE-CITE-CITE-CITE

Neighbor list info ...
  update: every = 1 steps, delay = 0 steps, check = yes
  max neighbors/atom: 2000, page size: 100000
  master list distance cutoff = 8
  ghost atom cutoff = 8
  binsize = 8, bins = 3 3 3
  1 neighbor lists, perpetual/occasional/extra = 1 0 0
  (1) pair mliap/kk, perpetual
      attributes: full, newton on, kokkos_device
      pair build: full/bin/kk/device
      stencil: full/bin/3d
      bin: kk/device
Setting up cg/kk style minimization ...
  Unit style    : metal
  Current step  : 0
WARNING: Energy due to 1 extra global DOFs will be included in minimizer energies
 (src/KOKKOS/min_kokkos.cpp:94)
WARNING: Fix MINIMIZE/kk not compatible with sending data in Kokkos communication (src/KOKKOS/comm_kokkos.cpp:842)
WARNING: Fix with atom-based arrays not compatible with sending data in Kokkos communication, switching to legacy exchange/border communication (src/KOKKOS/comm_kokkos.cpp:849)
WARNING: Fix MINIMIZE/kk not (yet) compatible with Kokkos sorting on device (src/KOKKOS/atom_kokkos.cpp:219)
WARNING: Fix with atom-based arrays not (yet) compatible with Kokkos sorting on device, switching to legacy host sorting (src/KOKKOS/atom_kokkos.cpp:225)
Per MPI rank memory allocation (min/avg/max) = 113.3 | 113.3 | 113.3 Mbytes
   Step         PotEng          Fmax          Fnorm          Press          Volume           Lx             Ly             Lz      
         0  -3204.2811      3.6144287      31.393635      3874.6765      5830.0606      17.998004      17.998004      17.998004    
        10  -3216.2526      2.6570768      25.635506      2672.1574      5798.8653      17.965846      17.965846      17.965846    
        20  -3242.3528      1.1021959      12.667212     -180.24691      5731.8712      17.896392      17.896392      17.896392    
        30  -3255.0526      0.56301388     5.4474625      86.90591       5696.4546      17.859455      17.859455      17.859455    
        40  -3260.3749      0.67401086     2.0053474     -78.875453      5684.5809      17.847038      17.847038      17.847038    
        50  -3261.009       0.2951151      0.89570472     446.28656      5681.8811      17.844212      17.844212      17.844212    
        60  -3261.144       0.27295675     1.4322593      154.42334      5682.8005      17.845175      17.845175      17.845175    
        70  -3261.2795      0.16591328     0.47511986     11.977209      5683.2192      17.845613      17.845613      17.845613    
        80  -3261.307       0.16605797     0.50543362     77.581057      5683.0919      17.84548       17.84548       17.84548     
        90  -3261.3169      0.35178284     0.68578459     33.63745       5683.2286      17.845623      17.845623      17.845623    
       100  -3261.3236      0.1298586      0.44970193     12.972581      5683.3152      17.845713      17.845713      17.845713    
       110  -3261.3653      0.17885525     0.49801611    -415.96177      5684.7564      17.847222      17.847222      17.847222    
       120  -3261.401       0.16941055     0.78310895    -80.69013       5684.4109      17.84686       17.84686       17.84686     
       130  -3261.4335      0.15422059     0.48446877     93.198319      5684.3217      17.846767      17.846767      17.846767    
       140  -3261.4453      0.22589547     0.66044408     43.950786      5684.5072      17.846961      17.846961      17.846961    
       150  -3261.4545      0.12736755     0.34405032    -188.73671      5685.255       17.847743      17.847743      17.847743    
       160  -3261.4622      0.1109104      0.29861373    -35.114299      5684.9259      17.847399      17.847399      17.847399    
       170  -3261.4623      0.16926806     0.45460133    -104.4825       5685.1622      17.847646      17.847646      17.847646    
       180  -3261.4713      0.086467646    0.20132764    -226.28547      5685.5527      17.848055      17.848055      17.848055    
       190  -3261.4727      0.17027272     0.31103688    -28.987541      5685.1163      17.847598      17.847598      17.847598    
       200  -3261.4766      0.14954602     0.2647137      151.73712      5684.6677      17.847129      17.847129      17.847129    
       210  -3261.4801      0.19477906     0.32148757     61.90811       5684.9836      17.84746       17.84746       17.84746     
       220  -3261.4842      0.15428403     0.26534343     52.290932      5685.0507      17.84753       17.84753       17.84753     
       230  -3261.5061      0.032036278    0.11511681     29.34736       5685.5278      17.848029      17.848029      17.848029    
       240  -3261.5061      0.061628941    0.13688779     10.376134      5685.599       17.848103      17.848103      17.848103    
       250  -3261.5123      0.043538219    0.13637166     79.143788      5685.5285      17.84803       17.84803       17.84803     
       260  -3261.5151      0.055929325    0.12045008    -18.42733       5685.835       17.84835       17.84835       17.84835     
       270  -3261.5157      0.031686268    0.08842726     256.2568       5685.1002      17.847581      17.847581      17.847581    
       280  -3261.5169      0.033892092    0.091144766    99.016407      5685.5651      17.848068      17.848068      17.848068    
       290  -3261.517       0.086250351    0.1759643      5.865583       5685.8548      17.848371      17.848371      17.848371    
       300  -3261.5183      0.042688416    0.09514711     3.2651077      5685.8564      17.848373      17.848373      17.848373    
       310  -3261.524       0.37425556     0.56859795     57.615341      5686.2629      17.848798      17.848798      17.848798    
       320  -3261.5288      0.091769747    0.13964442    -7.4944702      5686.3977      17.848939      17.848939      17.848939    
       330  -3261.5293      0.072644071    0.15990672     2.6950194      5686.4164      17.848959      17.848959      17.848959    
       340  -3261.531       0.040328402    0.094853064   -3.9004649      5686.4723      17.849017      17.849017      17.849017    
       350  -3261.5313      0.068595466    0.11403828     14.522688      5686.4549      17.848999      17.848999      17.848999    
       360  -3261.5317      0.040167768    0.068535377    10.766174      5686.481       17.849026      17.849026      17.849026    
       370  -3261.5323      0.070852798    0.11125376     1.5147849      5686.6023      17.849153      17.849153      17.849153    
       380  -3261.5332      0.0090540353   0.044045202   -229.14378      5687.4312      17.85002       17.85002       17.85002     
       390  -3261.5335      0.026623318    0.048568123    6.484649       5686.8169      17.849378      17.849378      17.849378    
       400  -3261.5337      0.0040666995   0.011806716   -3.7892754      5686.8126      17.849373      17.849373      17.849373    
       410  -3261.5337      0.00063659244  0.0031257911   15.357752      5686.7543      17.849312      17.849312      17.849312    
       420  -3261.5337      0.00086760563  0.0026193362   1.9358131      5686.7904      17.84935       17.84935       17.84935     
       430  -3261.5337      0.0030042633   0.0049105143   0.66628432     5686.7935      17.849353      17.849353      17.849353    
       440  -3261.5337      0.0042408016   0.0066912841   0.26821748     5686.7944      17.849354      17.849354      17.849354    
       450  -3261.5337      0.0014180095   0.002771255    4.7107945      5686.7836      17.849343      17.849343      17.849343    
       460  -3261.5337      0.0025474983   0.0041075782   0.30222442     5686.7958      17.849356      17.849356      17.849356    
       470  -3261.5337      0.0010641845   0.0022592821   0.77667762     5686.7943      17.849354      17.849354      17.849354    
       480  -3261.5337      0.00050068335  0.0011315548  -0.063688223    5686.7982      17.849358      17.849358      17.849358    
       490  -3261.5337      0.0015278904   0.0025592389   2.642529       5686.7909      17.849351      17.849351      17.849351    
       500  -3261.5337      0.00042225061  0.00098604265 -0.33993229     5686.7993      17.849359      17.849359      17.849359    
       510  -3261.5337      0.0018204143   0.0028208786  -0.12718957     5686.7995      17.84936       17.84936       17.84936     
       520  -3261.5337      0.00042631574  0.0010174988  -0.054870587    5686.802       17.849362      17.849362      17.849362    
       530  -3261.5337      0.00024295919  0.000621896   -0.054477176    5686.802       17.849362      17.849362      17.849362    
       540  -3261.5337      0.00012205915  0.00042691896 -0.042273975    5686.802       17.849362      17.849362      17.849362    
       550  -3261.5337      0.0001326318   0.00038808307 -0.041758448    5686.8021      17.849362      17.849362      17.849362    
       560  -3261.5337      0.00015055802  0.00046564199 -0.062770399    5686.8022      17.849362      17.849362      17.849362    
       570  -3261.5337      0.00031846327  0.00068558028 -0.30188322     5686.803       17.849363      17.849363      17.849363    
       580  -3261.5337      0.00047375835  0.00088043566 -0.0016477525   5686.8023      17.849362      17.849362      17.849362    
       590  -3261.5337      0.00013562526  0.00067354112  0.0073500266   5686.8023      17.849362      17.849362      17.849362    
       600  -3261.5337      2.4381185e-05  6.7261401e-05  0.14970935     5686.8019      17.849362      17.849362      17.849362    
       610  -3261.5337      1.9603315e-05  0.00010448748  0.00696359     5686.8022      17.849362      17.849362      17.849362    
       620  -3261.5337      2.8264364e-05  0.00012696324  0.0076196221   5686.8022      17.849362      17.849362      17.849362    
       630  -3261.5337      3.378614e-05   0.00014276762  0.0075123465   5686.8022      17.849362      17.849362      17.849362    
       640  -3261.5337      4.0309584e-05  0.00014389025  0.0065494804   5686.8022      17.849362      17.849362      17.849362    
       650  -3261.5337      3.0632883e-05  0.00012990466  0.0050904649   5686.8021      17.849362      17.849362      17.849362    
       660  -3261.5337      1.8488669e-05  0.00010945627  0.0036613367   5686.8021      17.849362      17.849362      17.849362    
       670  -3261.5337      1.4160947e-05  9.3343036e-05  0.0025889614   5686.8021      17.849362      17.849362      17.849362    
       680  -3261.5337      2.2082042e-05  8.8161047e-05  0.0018606962   5686.8021      17.849362      17.849362      17.849362    
       690  -3261.5337      1.7474062e-05  8.8045298e-05  0.00077310436  5686.802       17.849362      17.849362      17.849362    
       700  -3261.5337      1.3245789e-05  4.6053105e-05 -0.0005959797   5686.802       17.849362      17.849362      17.849362    
       710  -3261.5337      1.1971429e-05  4.2531664e-05 -0.0031244975   5686.802       17.849362      17.849362      17.849362    
       720  -3261.5337      1.9485317e-05  5.0534342e-05 -0.003814966    5686.802       17.849362      17.849362      17.849362    
       730  -3261.5337      2.5074507e-05  5.7660931e-05 -0.004484486    5686.802       17.849362      17.849362      17.849362    
       740  -3261.5337      2.6189643e-05  5.9851488e-05 -0.0048005139   5686.802       17.849362      17.849362      17.849362    
       750  -3261.5337      2.2075971e-05  5.5286078e-05 -0.004571499    5686.802       17.849362      17.849362      17.849362    
       760  -3261.5337      1.4880623e-05  4.6542713e-05 -0.0039602871   5686.802       17.849362      17.849362      17.849362    
       770  -3261.5337      8.7568962e-06  3.7749499e-05 -0.0032936675   5686.802       17.849362      17.849362      17.849362    
       780  -3261.5337      5.9314564e-06  3.143551e-05  -0.0028032785   5686.802       17.849362      17.849362      17.849362    
       790  -3261.5337      3.8449752e-06  2.8286009e-05 -0.0025736588   5686.802       17.849362      17.849362      17.849362    
       800  -3261.5337      7.4117441e-06  2.7961598e-05 -0.0025938506   5686.802       17.849362      17.849362      17.849362    
       810  -3261.5337      9.4825862e-06  2.9515536e-05 -0.0027909548   5686.802       17.849362      17.849362      17.849362    
       820  -3261.5337      9.6227303e-06  3.1519472e-05 -0.0030401478   5686.802       17.849362      17.849362      17.849362    
       830  -3261.5337      8.9715923e-06  3.2620323e-05 -0.0032136052   5686.802       17.849362      17.849362      17.849362    
       840  -3261.5337      7.8298068e-06  3.2569868e-05 -0.0032830478   5686.802       17.849362      17.849362      17.849362    
       850  -3261.5337      5.9842863e-06  3.244012e-05  -0.0033544588   5686.802       17.849362      17.849362      17.849362    
       860  -3261.5337      5.6057902e-06  3.3618613e-05 -0.0035777141   5686.802       17.849362      17.849362      17.849362    
       870  -3261.5337      9.0441319e-06  3.6793959e-05 -0.0040441862   5686.8021      17.849362      17.849362      17.849362    
       880  -3261.5337      1.1263681e-05  4.1424806e-05 -0.0047235413   5686.8021      17.849362      17.849362      17.849362    
       890  -3261.5337      1.2159326e-05  4.5616236e-05 -0.0054245943   5686.8021      17.849362      17.849362      17.849362    
       900  -3261.5337      1.1430074e-05  4.7099485e-05 -0.0058585791   5686.8021      17.849362      17.849362      17.849362    
       910  -3261.5337      9.7456947e-06  4.5224553e-05 -0.0058722866   5686.8021      17.849362      17.849362      17.849362    
       920  -3261.5337      9.9216628e-06  4.133783e-05  -0.0055826394   5686.8021      17.849362      17.849362      17.849362    
       930  -3261.5337      8.2011813e-06  3.6921281e-05 -0.005166318    5686.8021      17.849362      17.849362      17.849362    
       940  -3261.5337      7.9105096e-06  3.2544961e-05 -0.0046821709   5686.8021      17.849362      17.849362      17.849362    
       950  -3261.5337      6.8132465e-06  2.8576631e-05 -0.0041881157   5686.8021      17.849362      17.849362      17.849362    
       960  -3261.5337      4.4878783e-06  2.5867512e-05 -0.0038565837   5686.8021      17.849362      17.849362      17.849362    
       970  -3261.5337      4.6598916e-06  2.5374365e-05 -0.0038766603   5686.8021      17.849362      17.849362      17.849362    
       980  -3261.5337      6.657462e-06   2.7416439e-05 -0.0043314321   5686.8021      17.849362      17.849362      17.849362    
       990  -3261.5337      7.7708514e-06  3.0945214e-05 -0.0050863072   5686.8021      17.849362      17.849362      17.849362    
      1000  -3261.5337      9.634178e-06   3.3307594e-05 -0.005708174    5686.8021      17.849362      17.849362      17.849362    
      1010  -3261.5337      8.3928827e-06  3.2778552e-05 -0.0058908714   5686.8021      17.849362      17.849362      17.849362    
      1020  -3261.5337      5.9811483e-06  3.157008e-05  -0.0060105233   5686.8021      17.849362      17.849362      17.849362    
      1030  -3261.5337      5.7860063e-06  3.3293751e-05 -0.0067343469   5686.8021      17.849362      17.849362      17.849362    
      1040  -3261.5337      9.6667794e-06  3.8423058e-05 -0.0082488479   5686.8021      17.849362      17.849362      17.849362    
      1050  -3261.5337      1.2171346e-05  4.12503e-05   -0.009534658    5686.8021      17.849362      17.849362      17.849362    
      1060  -3261.5337      1.0849802e-05  3.5434974e-05 -0.0089921522   5686.8021      17.849362      17.849362      17.849362    
      1070  -3261.5337      4.9047673e-06  2.6924325e-05 -0.0075054313   5686.8021      17.849362      17.849362      17.849362    
      1080  -3261.5337      4.755629e-06   2.4156398e-05 -0.0074517918   5686.8021      17.849362      17.849362      17.849362    
      1090  -3261.5337      8.1193147e-06  2.6647889e-05 -0.009168166    5686.8021      17.849362      17.849362      17.849362    
      1100  -3261.5337      8.0908133e-06  2.6147174e-05 -0.010550405    5686.8021      17.849362      17.849362      17.849362    
      1110  -3261.5337      4.5609529e-06  2.3552381e-05 -0.012857479    5686.8021      17.849362      17.849362      17.849362    
      1120  -3261.5337      3.9914091e-06  2.3360176e-05 -0.081956868    5686.8023      17.849362      17.849362      17.849362    
      1130  -3261.5337      4.6437995e-06  1.3514991e-05  0.0043908624   5686.802       17.849362      17.849362      17.849362    
      1140  -3261.5337      4.70186e-06    1.6083853e-05  0.0049263399   5686.802       17.849362      17.849362      17.849362    
      1150  -3261.5337      3.487478e-06   1.8015391e-05  0.0052609679   5686.802       17.849362      17.849362      17.849362    
      1160  -3261.5337      4.4499882e-06  1.9820403e-05  0.0055415646   5686.802       17.849362      17.849362      17.849362    
      1170  -3261.5337      5.8452173e-06  2.077777e-05   0.0055665328   5686.802       17.849362      17.849362      17.849362    
      1180  -3261.5337      6.8726192e-06  1.962039e-05   0.0050242202   5686.802       17.849362      17.849362      17.849362    
      1190  -3261.5337      5.2306417e-06  1.6731952e-05  0.0041198625   5686.802       17.849362      17.849362      17.849362    
      1200  -3261.5337      3.4633403e-06  1.3781625e-05  0.0032905839   5686.802       17.849362      17.849362      17.849362    
      1210  -3261.5337      2.3825188e-06  1.1944636e-05  0.0027786634   5686.802       17.849362      17.849362      17.849362    
      1220  -3261.5337      2.4398124e-06  1.1491306e-05  0.0026118144   5686.802       17.849362      17.849362      17.849362    
      1230  -3261.5337      3.7540566e-06  1.2071833e-05  0.0026865744   5686.802       17.849362      17.849362      17.849362    
      1240  -3261.5337      3.9004658e-06  1.2874406e-05  0.0028094472   5686.802       17.849362      17.849362      17.849362    
      1250  -3261.5337      3.1743244e-06  1.3029928e-05  0.002789909    5686.802       17.849362      17.849362      17.849362    
      1260  -3261.5337      3.0258219e-06  1.2432596e-05  0.002616093    5686.802       17.849362      17.849362      17.849362    
      1270  -3261.5337      2.5070967e-06  1.181115e-05   0.0024485825   5686.802       17.849362      17.849362      17.849362    
      1280  -3261.5337      2.6312322e-06  1.1901834e-05  0.0024345027   5686.802       17.849362      17.849362      17.849362    
      1290  -3261.5337      3.4196664e-06  1.2937512e-05  0.0026114366   5686.802       17.849362      17.849362      17.849362    
      1300  -3261.5337      3.3941956e-06  1.4595036e-05  0.0029048353   5686.802       17.849362      17.849362      17.849362    
      1310  -3261.5337      3.8595575e-06  1.614344e-05   0.0031628954   5686.802       17.849362      17.849362      17.849362    
      1320  -3261.5337      4.4200445e-06  1.6889722e-05  0.0032507262   5686.802       17.849362      17.849362      17.849362    
      1330  -3261.5337      4.1683445e-06  1.6616879e-05  0.0031385089   5686.802       17.849362      17.849362      17.849362    
      1340  -3261.5337      3.3266203e-06  1.5498682e-05  0.0028739701   5686.802       17.849362      17.849362      17.849362    
      1350  -3261.5337      3.5855695e-06  1.3832385e-05  0.0025203692   5686.802       17.849362      17.849362      17.849362    
      1360  -3261.5337      3.0941593e-06  1.2020028e-05  0.002154333    5686.802       17.849362      17.849362      17.849362    
      1370  -3261.5337      2.3834788e-06  1.0548758e-05  0.0018625561   5686.802       17.849362      17.849362      17.849362    
      1380  -3261.5337      1.7653822e-06  9.8072488e-06  0.0017083716   5686.802       17.849362      17.849362      17.849362    
      1390  -3261.5337      2.0106794e-06  9.9279612e-06  0.0017080136   5686.802       17.849362      17.849362      17.849362    
      1400  -3261.5337      2.5379347e-06  1.0709142e-05  0.0018209318   5686.802       17.849362      17.849362      17.849362    
      1410  -3261.5337      3.4163981e-06  1.1601563e-05  0.0019498647   5686.802       17.849362      17.849362      17.849362    
      1420  -3261.5337      3.9025769e-06  1.2016344e-05  0.0019957074   5686.802       17.849362      17.849362      17.849362    
      1430  -3261.5337      3.3261163e-06  1.193389e-05   0.001957547    5686.802       17.849362      17.849362      17.849362    
      1440  -3261.5337      1.8774229e-06  1.1961974e-05  0.0019360405   5686.802       17.849362      17.849362      17.849362    
      1450  -3261.5337      2.1210833e-06  1.2706935e-05  0.002027744    5686.802       17.849362      17.849362      17.849362    
      1460  -3261.5337      3.069877e-06   1.423739e-05   0.0022402668   5686.802       17.849362      17.849362      17.849362    
      1470  -3261.5337      4.5429792e-06  1.582202e-05   0.0024558941   5686.802       17.849362      17.849362      17.849362    
      1480  -3261.5337      5.1625756e-06  1.6221953e-05  0.0024841899   5686.802       17.849362      17.849362      17.849362    
      1490  -3261.5337      4.5648731e-06  1.4965627e-05  0.0022610195   5686.802       17.849362      17.849362      17.849362    
      1500  -3261.5337      3.0289234e-06  1.2970279e-05  0.0019333391   5686.802       17.849362      17.849362      17.849362    
      1510  -3261.5337      1.4903624e-06  5.2815129e-06  0.012180862    5686.802       17.849362      17.849362      17.849362    
      1520  -3261.5337      2.4248345e-06  8.4906985e-06  0.0062914385   5686.802       17.849362      17.849362      17.849362    
      1530  -3261.5337      1.8338941e-06  7.4650532e-06  0.0039177574   5686.802       17.849362      17.849362      17.849362    
      1540  -3261.5337      9.3815161e-07  5.7239202e-06  0.002674156    5686.802       17.849362      17.849362      17.849362    
      1550  -3261.5337      1.1791311e-06  5.3808177e-06  0.0023765861   5686.802       17.849362      17.849362      17.849362    
      1560  -3261.5337      1.0620284e-06  4.9521528e-06  0.0020974753   5686.802       17.849362      17.849362      17.849362    
      1570  -3261.5337      8.4231421e-07  4.7150402e-06  0.0019419298   5686.802       17.849362      17.849362      17.849362    
      1580  -3261.5337      1.0658486e-06  5.1138901e-06  0.0020617581   5686.802       17.849362      17.849362      17.849362    
      1590  -3261.5337      1.143789e-06   5.5088877e-06  0.0021704584   5686.802       17.849362      17.849362      17.849362    
      1600  -3261.5337      9.0031386e-07  5.7440184e-06  0.002215262    5686.802       17.849362      17.849362      17.849362    
      1610  -3261.5337      1.2334393e-06  6.1058333e-06  0.0023009599   5686.802       17.849362      17.849362      17.849362    
      1620  -3261.5337      1.3348202e-06  6.1381798e-06  0.0022622495   5686.802       17.849362      17.849362      17.849362    
      1630  -3261.5337      1.0756713e-06  5.6215642e-06  0.0020272298   5686.802       17.849362      17.849362      17.849362    
      1640  -3261.5337      9.4289632e-07  5.016452e-06   0.001775627    5686.802       17.849362      17.849362      17.849362    
      1650  -3261.5337      9.6276916e-07  4.5139279e-06  0.0015681735   5686.802       17.849362      17.849362      17.849362    
      1660  -3261.5337      6.5707972e-07  4.187087e-06   0.0014270179   5686.802       17.849362      17.849362      17.849362    
      1670  -3261.5337      7.4652196e-07  4.191179e-06   0.0014027333   5686.802       17.849362      17.849362      17.849362    
      1680  -3261.5337      8.4338126e-07  4.3619689e-06  0.0014327914   5686.802       17.849362      17.849362      17.849362    
      1690  -3261.5337      8.9352967e-07  4.3140035e-06  0.0013905235   5686.802       17.849362      17.849362      17.849362    
      1700  -3261.5337      6.7022486e-07  4.1521977e-06  0.0013120106   5686.802       17.849362      17.849362      17.849362    
      1710  -3261.5337      7.9145192e-07  4.2360134e-06  0.0013121006   5686.802       17.849362      17.849362      17.849362    
      1720  -3261.5337      1.0042351e-06  4.4214398e-06  0.0013457352   5686.802       17.849362      17.849362      17.849362    
      1730  -3261.5337      9.4541095e-07  4.2761905e-06  0.0012798145   5686.802       17.849362      17.849362      17.849362    
      1740  -3261.5337      5.6426004e-07  3.9142853e-06  0.0011511661   5686.802       17.849362      17.849362      17.849362    
      1750  -3261.5337      8.535464e-07   3.7507846e-06  0.0010834244   5686.802       17.849362      17.849362      17.849362    
      1760  -3261.5337      8.8873234e-07  3.805328e-06   0.0010801403   5686.802       17.849362      17.849362      17.849362    
      1770  -3261.5337      9.0849422e-07  3.8369392e-06  0.001070541    5686.802       17.849362      17.849362      17.849362    
      1780  -3261.5337      6.509205e-07   3.8513424e-06  0.0010547335   5686.802       17.849362      17.849362      17.849362    
      1790  -3261.5337      9.4059211e-07  4.08097e-06    0.0010954861   5686.802       17.849362      17.849362      17.849362    
      1800  -3261.5337      1.1013401e-06  4.5336753e-06  0.0011938577   5686.802       17.849362      17.849362      17.849362    
      1810  -3261.5337      1.3583185e-06  4.8759805e-06  0.0012607909   5686.802       17.849362      17.849362      17.849362    
      1820  -3261.5337      1.2776589e-06  4.8709213e-06  0.0012359269   5686.802       17.849362      17.849362      17.849362    
      1830  -3261.5337      8.4252767e-07  4.7396302e-06  0.0011786062   5686.802       17.849362      17.849362      17.849362    
      1840  -3261.5337      9.688501e-07   4.7993855e-06  0.0011689347   5686.802       17.849362      17.849362      17.849362    
      1850  -3261.5337      1.0683256e-06  5.0726989e-06  0.0012110596   5686.802       17.849362      17.849362      17.849362    
      1860  -3261.5337      1.2823513e-06  5.279367e-06   0.0012369227   5686.802       17.849362      17.849362      17.849362    
      1870  -3261.5337      9.8583012e-07  5.1406901e-06  0.0011823657   5686.802       17.849362      17.849362      17.849362    
      1880  -3261.5337      1.1147402e-06  4.7310684e-06  0.0010674897   5686.802       17.849362      17.849362      17.849362    
      1890  -3261.5337      7.0896038e-07  4.3230802e-06  0.00095625606  5686.802       17.849362      17.849362      17.849362    
      1900  -3261.5337      9.3975215e-07  4.0249828e-06  0.00087309919  5686.802       17.849362      17.849362      17.849362    
      1910  -3261.5337      7.8857971e-07  3.8003221e-06  0.00080876904  5686.802       17.849362      17.849362      17.849362    
      1920  -3261.5337      6.6138048e-07  3.7134884e-06  0.00077449538  5686.802       17.849362      17.849362      17.849362    
      1930  -3261.5337      5.5861997e-07  3.9385636e-06  0.00080444013  5686.802       17.849362      17.849362      17.849362    
      1940  -3261.5337      1.0733678e-06  4.4492989e-06  0.00089220009  5686.802       17.849362      17.849362      17.849362    
      1950  -3261.5337      1.2710601e-06  4.7308561e-06  0.00093478944  5686.802       17.849362      17.849362      17.849362    
      1960  -3261.5337      9.2908655e-07  4.2799133e-06  0.00083400675  5686.802       17.849362      17.849362      17.849362    
      1970  -3261.5337      4.6868655e-07  3.5115306e-06  0.00067245311  5686.802       17.849362      17.849362      17.849362    
      1980  -3261.5337      3.6517109e-07  3.0691035e-06  0.00057468119  5686.802       17.849362      17.849362      17.849362    
      1990  -3261.5337      5.6438764e-07  3.0606484e-06  0.0005605051   5686.802       17.849362      17.849362      17.849362    
      2000  -3261.5337      6.7957382e-07  3.1904376e-06  0.00057385505  5686.802       17.849362      17.849362      17.849362    
      2010  -3261.5337      5.420959e-07   3.1708623e-06  0.00056078271  5686.802       17.849362      17.849362      17.849362    
      2020  -3261.5337      3.3217685e-07  3.0966137e-06  0.00053714958  5686.802       17.849362      17.849362      17.849362    
      2030  -3261.5337      4.9008065e-07  3.1692506e-06  0.00053879139  5686.802       17.849362      17.849362      17.849362    
      2040  -3261.5337      7.0410041e-07  3.3061839e-06  0.00055212135  5686.802       17.849362      17.849362      17.849362    
      2050  -3261.5337      5.9680137e-07  3.2911983e-06  0.00054032837  5686.802       17.849362      17.849362      17.849362    
      2060  -3261.5337      4.222806e-07   3.2020667e-06  0.00051519791  5686.802       17.849362      17.849362      17.849362    
      2070  -3261.5337      4.5360237e-07  3.3165229e-06  0.00052157057  5686.802       17.849362      17.849362      17.849362    
      2080  -3261.5337      7.4433789e-07  3.6839891e-06  0.00056742254  5686.802       17.849362      17.849362      17.849362    
      2090  -3261.5337      9.2813903e-07  4.0155121e-06  0.00060758427  5686.802       17.849362      17.849362      17.849362    
      2100  -3261.5337      7.3699472e-07  4.0424957e-06  0.00060081404  5686.802       17.849362      17.849362      17.849362    
      2110  -3261.5337      5.1998507e-07  3.8967597e-06  0.00056754684  5686.802       17.849362      17.849362      17.849362    
      2120  -3261.5337      7.1556347e-07  3.8020241e-06  0.00054214798  5686.802       17.849362      17.849362      17.849362    
      2130  -3261.5337      6.886984e-07   3.7406924e-06  0.00052281284  5686.802       17.849362      17.849362      17.849362    
      2140  -3261.5337      6.1211201e-07  3.6172751e-06  0.0004956864   5686.802       17.849362      17.849362      17.849362    
      2150  -3261.5337      5.9420693e-07  3.500671e-06   0.00046950189  5686.802       17.849362      17.849362      17.849362    
      2160  -3261.5337      6.3800127e-07  3.530641e-06   0.00046289719  5686.802       17.849362      17.849362      17.849362    
      2170  -3261.5337      7.125833e-07   3.702569e-06   0.00047515823  5686.802       17.849362      17.849362      17.849362    
      2180  -3261.5337      7.9359891e-07  3.8438975e-06  0.00048373826  5686.802       17.849362      17.849362      17.849362    
      2190  -3261.5337      6.0211353e-07  3.8044021e-06  0.00046963155  5686.802       17.849362      17.849362      17.849362    
      2200  -3261.5337      5.5578916e-07  3.641241e-06   0.00044028948  5686.802       17.849362      17.849362      17.849362    
      2210  -3261.5337      5.3705964e-07  3.522043e-06   0.00041649452  5686.802       17.849362      17.849362      17.849362    
      2220  -3261.5337      7.1471536e-07  3.5002445e-06  0.00040495214  5686.802       17.849362      17.849362      17.849362    
      2230  -3261.5337      7.3275165e-07  3.4393696e-06  0.00039013415  5686.802       17.849362      17.849362      17.849362    
      2240  -3261.5337      5.3556424e-07  3.1925585e-06  0.00035546356  5686.802       17.849362      17.849362      17.849362    
      2250  -3261.5337      5.0071203e-07  2.8718417e-06  0.0003131389   5686.802       17.849362      17.849362      17.849362    
      2260  -3261.5337      3.5768667e-07  2.7446439e-06  0.00029199038  5686.802       17.849362      17.849362      17.849362    
      2270  -3261.5337      5.0780725e-07  2.9225553e-06  0.0003035028   5686.802       17.849362      17.849362      17.849362    
      2280  -3261.5337      5.5782307e-07  3.2262954e-06  0.00032854942  5686.802       17.849362      17.849362      17.849362    
      2290  -3261.5337      5.961376e-07   3.3241427e-06  0.00033260428  5686.802       17.849362      17.849362      17.849362    
      2300  -3261.5337      4.6044353e-07  3.1861573e-06  0.00031238043  5686.802       17.849362      17.849362      17.849362    
      2310  -3261.5337      5.1657881e-07  3.0859727e-06  0.00029550953  5686.802       17.849362      17.849362      17.849362    
      2320  -3261.5337      5.5480991e-07  3.1174357e-06  0.00029184319  5686.802       17.849362      17.849362      17.849362    
      2330  -3261.5337      6.2365541e-07  3.1168859e-06  0.00028596396  5686.802       17.849362      17.849362      17.849362    
      2340  -3261.5337      5.2425013e-07  3.0122399e-06  0.00027060523  5686.802       17.849362      17.849362      17.849362    
      2350  -3261.5337      4.1574384e-07  2.9680876e-06  0.00026049043  5686.802       17.849362      17.849362      17.849362    
      2360  -3261.5337      5.6231787e-07  3.0570008e-06  0.00026235688  5686.802       17.849362      17.849362      17.849362    
      2370  -3261.5337      6.9135126e-07  3.0655142e-06  0.00025815175  5686.802       17.849362      17.849362      17.849362    
      2380  -3261.5337      5.2449273e-07  2.8039425e-06  0.00023189123  5686.802       17.849362      17.849362      17.849362    
      2390  -3261.5337      4.9426256e-07  2.4550748e-06  0.00019868882  5686.802       17.849362      17.849362      17.849362    
      2400  -3261.5337      3.4384283e-07  2.2859998e-06  0.00018032761  5686.802       17.849362      17.849362      17.849362    
      2410  -3261.5337      4.6175986e-07  2.3598221e-06  0.00018156536  5686.802       17.849362      17.849362      17.849362    
      2420  -3261.5337      4.3191998e-07  2.5918767e-06  0.00019507081  5686.802       17.849362      17.849362      17.849362    
      2430  -3261.5337      5.9431712e-07  2.8625915e-06  0.00021109253  5686.802       17.849362      17.849362      17.849362    
      2440  -3261.5337      5.6722817e-07  3.0587854e-06  0.00022127001  5686.802       17.849362      17.849362      17.849362    
      2450  -3261.5337      7.4200896e-07  3.0982897e-06  0.00021978304  5686.802       17.849362      17.849362      17.849362    
      2460  -3261.5337      5.503208e-07   3.0297423e-06  0.00021026263  5686.802       17.849362      17.849362      17.849362    
      2470  -3261.5337      5.1662927e-07  3.0070845e-06  0.00020371534  5686.802       17.849362      17.849362      17.849362    
      2480  -3261.5337      6.6322414e-07  3.0817796e-06  0.00020397651  5686.802       17.849362      17.849362      17.849362    
      2490  -3261.5337      6.6691702e-07  3.1360025e-06  0.0002032238   5686.802       17.849362      17.849362      17.849362    
      2500  -3261.5337      5.7996247e-07  3.0894211e-06  0.00019599112  5686.802       17.849362      17.849362      17.849362    
      2510  -3261.5337      4.7869848e-07  3.0341468e-06  0.00018821634  5686.802       17.849362      17.849362      17.849362    
      2520  -3261.5337      5.1098326e-07  3.0243082e-06  0.00018353383  5686.802       17.849362      17.849362      17.849362    
      2530  -3261.5337      5.9352024e-07  2.9490827e-06  0.00017534881  5686.802       17.849362      17.849362      17.849362    
      2540  -3261.5337      4.423862e-07   2.7641448e-06  0.00016085788  5686.802       17.849362      17.849362      17.849362    
      2550  -3261.5337      4.0105548e-07  2.6342439e-06  0.00014955688  5686.802       17.849362      17.849362      17.849362    
      2560  -3261.5337      4.6889067e-07  2.6811924e-06  0.00014841394  5686.802       17.849362      17.849362      17.849362    
      2570  -3261.5337      5.9908218e-07  2.7869391e-06  0.0001508864   5686.802       17.849362      17.849362      17.849362    
      2580  -3261.5337      5.8269996e-07  2.7254346e-06  0.00014461609  5686.802       17.849362      17.849362      17.849362    
      2590  -3261.5337      4.1501846e-07  2.4831292e-06  0.00012902741  5686.802       17.849362      17.849362      17.849362    
      2600  -3261.5337      3.5928027e-07  2.2454213e-06  0.00011403405  5686.802       17.849362      17.849362      17.849362    
      2610  -3261.5337      4.144061e-07   2.132506e-06   0.00010576905  5686.802       17.849362      17.849362      17.849362    
      2620  -3261.5337      4.3607609e-07  2.136258e-06   0.00010353507  5686.802       17.849362      17.849362      17.849362    
      2630  -3261.5337      4.0284777e-07  2.1781034e-06  0.00010329539  5686.802       17.849362      17.849362      17.849362    
      2640  -3261.5337      3.925908e-07   2.1919734e-06  0.00010173095  5686.802       17.849362      17.849362      17.849362    
      2650  -3261.5337      3.7254974e-07  2.2171559e-06  0.00010048653  5686.802       17.849362      17.849362      17.849362    
      2660  -3261.5337      3.6605068e-07  2.3520586e-06  0.00010407627  5686.802       17.849362      17.849362      17.849362    
      2670  -3261.5337      4.3317745e-07  2.5688911e-06  0.00011125772  5686.802       17.849362      17.849362      17.849362    
      2680  -3261.5337      5.3511842e-07  2.6690793e-06  0.00011338278  5686.802       17.849362      17.849362      17.849362    
      2690  -3261.5337      3.6847552e-07  2.5980621e-06  0.00010805134  5686.802       17.849362      17.849362      17.849362    
      2700  -3261.5337      4.1264272e-07  2.5766149e-06  0.00010459546  5686.802       17.849362      17.849362      17.849362    
      2710  -3261.5337      5.2019542e-07  2.6909417e-06  0.00010680074  5686.802       17.849362      17.849362      17.849362    
      2720  -3261.5337      6.3168282e-07  2.7122098e-06  0.00010561697  5686.802       17.849362      17.849362      17.849362    
      2730  -3261.5337      4.4968944e-07  2.5179104e-06  9.6160249e-05  5686.802       17.849362      17.849362      17.849362    
      2740  -3261.5337      3.3064567e-07  2.3501061e-06  8.7732936e-05  5686.802       17.849362      17.849362      17.849362    
      2750  -3261.5337      5.0099123e-07  2.3400285e-06  8.5395409e-05  5686.802       17.849362      17.849362      17.849362    
      2760  -3261.5337      5.8329934e-07  2.3056344e-06  8.2505781e-05  5686.802       17.849362      17.849362      17.849362    
      2770  -3261.5337      3.6763286e-07  2.1382547e-06  7.4987048e-05  5686.802       17.849362      17.849362      17.849362    
      2780  -3261.5337      2.971619e-07   2.0286334e-06  6.9503749e-05  5686.802       17.849362      17.849362      17.849362    
      2790  -3261.5337      3.6642597e-07  2.0925206e-06  7.0158926e-05  5686.802       17.849362      17.849362      17.849362    
      2800  -3261.5337      4.5568962e-07  2.1903033e-06  7.2111802e-05  5686.802       17.849362      17.849362      17.849362    
      2810  -3261.5337      3.5545933e-07  2.1881437e-06  7.0693271e-05  5686.802       17.849362      17.849362      17.849362    
      2820  -3261.5337      3.2081051e-07  2.1616996e-06  6.8368603e-05  5686.802       17.849362      17.849362      17.849362    
      2830  -3261.5337      3.9393161e-07  2.1524299e-06  6.65869e-05    5686.802       17.849362      17.849362      17.849362    
      2840  -3261.5337      4.3393998e-07  2.0640281e-06  6.248514e-05   5686.802       17.849362      17.849362      17.849362    
      2850  -3261.5337      3.6264654e-07  1.913591e-06   5.6649412e-05  5686.802       17.849362      17.849362      17.849362    
      2860  -3261.5337      2.9276525e-07  1.8592035e-06  5.3783129e-05  5686.802       17.849362      17.849362      17.849362    
      2870  -3261.5337      3.071557e-07   1.9670332e-06  5.5691758e-05  5686.802       17.849362      17.849362      17.849362    
      2880  -3261.5337      4.1855917e-07  2.1415927e-06  5.9422516e-05  5686.802       17.849362      17.849362      17.849362    
      2890  -3261.5337      4.1282636e-07  2.224193e-06   6.0391462e-05  5686.802       17.849362      17.849362      17.849362    
      2900  -3261.5337      4.1331299e-07  2.1715755e-06  5.7659997e-05  5686.802       17.849362      17.849362      17.849362    
      2910  -3261.5337      3.2172866e-07  2.0896939e-06  5.4214825e-05  5686.802       17.849362      17.849362      17.849362    
      2920  -3261.5337      4.4244394e-07  2.0309325e-06  5.1501272e-05  5686.802       17.849362      17.849362      17.849362    
      2930  -3261.5337      3.8590749e-07  1.9375953e-06  4.8140487e-05  5686.802       17.849362      17.849362      17.849362    
      2940  -3261.5337      2.615153e-07   1.8685555e-06  4.5516148e-05  5686.802       17.849362      17.849362      17.849362    
      2950  -3261.5337      3.2627985e-07  1.9593089e-06  4.6904775e-05  5686.802       17.849362      17.849362      17.849362    
      2960  -3261.5337      4.7157872e-07  2.065506e-06   4.8667961e-05  5686.802       17.849362      17.849362      17.849362    
      2970  -3261.5337      4.4090731e-07  1.9332019e-06  4.4800261e-05  5686.802       17.849362      17.849362      17.849362    
      2980  -3261.5337      2.340963e-07   1.8093479e-06  4.119726e-05   5686.802       17.849362      17.849362      17.849362    
      2990  -3261.5337      3.1966016e-07  1.9464574e-06  4.3590068e-05  5686.802       17.849362      17.849362      17.849362    
      3000  -3261.5337      4.945121e-07   2.056934e-06   4.5454395e-05  5686.802       17.849362      17.849362      17.849362    
      3010  -3261.5337      4.2665181e-07  1.4090452e-06  0.0017089436   5686.802       17.849362      17.849362      17.849362    
      3020  -3261.5337      8.2233703e-08  3.7839578e-07 -7.7009597e-06  5686.802       17.849362      17.849362      17.849362    
      3030  -3261.5337      9.0130821e-08  1.963554e-07  -6.5598535e-06  5686.802       17.849362      17.849362      17.849362    
      3040  -3261.5337      1.7637375e-08  3.8523953e-08  1.4983385e-06  5686.802       17.849362      17.849362      17.849362    
      3050  -3261.5337      6.8871523e-09  1.5318635e-08  2.6005578e-06  5686.802       17.849362      17.849362      17.849362    
      3055  -3261.5337      4.4354557e-09  9.3073788e-09 -1.0858057e-08  5686.802       17.849362      17.849362      17.849362    
Loop time of 271.842 on 1 procs for 3055 steps with 501 atoms

99.0% CPU use with 1 MPI tasks x 1 OpenMP threads

Minimization stats:
  Stopping criterion = force tolerance
  Energy initial, next-to-last, final = 
     -3204.28111331288   -3261.5337036434   -3261.5337036434
  Force two-norm initial, final = 52.675209 9.3081089e-09
  Force max component initial, final = 42.297959 4.4354557e-09
  Final line search alpha, max atom move = 1 4.4354557e-09
  Iterations, force evaluations = 3055 6088

MPI task timing breakdown:
Section |  min time  |  avg time  |  max time  |%varavg| %total
---------------------------------------------------------------
Pair    | 257.65     | 257.65     | 257.65     |   0.0 | 94.78
Neigh   | 0.00063197 | 0.00063197 | 0.00063197 |   0.0 |  0.00
Comm    | 0.20861    | 0.20861    | 0.20861    |   0.0 |  0.08
Output  | 0.05719    | 0.05719    | 0.05719    |   0.0 |  0.02
Modify  | 0          | 0          | 0          |   0.0 |  0.00
Other   |            | 13.93      |            |       |  5.12

Nlocal:            501 ave         501 max         501 min
Histogram: 1 0 0 0 0 0 0 0 0 0
Nghost:           2923 ave        2923 max        2923 min
Histogram: 1 0 0 0 0 0 0 0 0 0
Neighs:              0 ave           0 max           0 min
Histogram: 1 0 0 0 0 0 0 0 0 0
FullNghs:        95084 ave       95084 max       95084 min
Histogram: 1 0 0 0 0 0 0 0 0 0

Total # of neighbors = 95084
Ave neighs/atom = 189.78842
Neighbor list builds = 1
Dangerous builds = 0
### Minimization complete ###
MINIMIZATION_RESULTS_START
  Total_energy_eV     : -3261.5337036434
  Natoms              : 501
  Ecoh_eV_per_atom    : 6.51004731266148
  a0_Angstrom         : 3.56987244883039
  Fmax_eV_per_Ang     : 4.43545565206871e-09
MINIMIZATION_RESULTS_END
System init for write_restart ...
System init for write_data ...
Minimized structure written to /projects/westgroup/akinyemi.az/mace_lammps/MHI_Nickel/calculation/results/Hastelloy_N_7_supercell_1H/structures/800K/bulk_min_h.lammps
Total wall time: 0:05:18
End: Thu Jun 25 02:59:32 PM EDT 2026
