Job: 7857720  |  Node: d1029  |  Thu Jun 25 02:53:28 AM EDT 2026
No restart file found -- starting fresh.
LAMMPS (11 Feb 2026 - Development - patch_11Feb2026-99-gb75dfcc930-modified)
W0625 02:53:53.685000 1422018 site-packages/torch/fx/_symbolic_trace.py:56] is_fx_tracing will return true for both fx.symbolic_trace and torch.export. Please use is_fx_tracing_symbolic_tracing() for specifically fx.symbolic_trace or torch.compiler.is_compiling() for specifically torch.export/compile.
KOKKOS mode with Kokkos version 5.0.2 is enabled
  using double precision
  using view layout = legacy
  will use up to 1 GPU(s) per node
  using 1 OpenMP thread(s) per MPI task
Reading data file ...
  orthogonal box = (-0.0045823086 -0.0045823086 -0.0045823086) to (17.859582 17.859582 17.859582)
  1 by 1 by 1 MPI processor grid
  reading atoms ...
  500 atoms
  reading velocities ...
  500 velocities
  read_data CPU = 0.019 seconds

CITE-CITE-CITE-CITE-CITE-CITE-CITE-CITE-CITE-CITE-CITE-CITE-CITE

Your simulation uses code contributions which should be cited:
- KOKKOS package: https://doi.org/10.1145/3731599.3767498
The log file lists these citations in BibTeX format.

CITE-CITE-CITE-CITE-CITE-CITE-CITE-CITE-CITE-CITE-CITE-CITE-CITE

Neighbor list info ...
  update: every = 1 steps, delay = 0 steps, check = yes
  max neighbors/atom: 2000, page size: 100000
  master list distance cutoff = 8
  ghost atom cutoff = 8
  binsize = 8, bins = 3 3 3
  1 neighbor lists, perpetual/occasional/extra = 1 0 0
  (1) pair mliap/kk, perpetual
      attributes: full, newton on, kokkos_device
      pair build: full/bin/kk/device
      stencil: full/bin/3d
      bin: kk/device
Setting up Verlet run ...
  Unit style    : metal
  Current step  : 0
  Time step     : 0.0005
Per MPI rank memory allocation (min/avg/max) = 112.8 | 112.8 | 112.8 Mbytes
   Step          Time           Temp          PotEng         KinEng         Press          Volume           Lx             Ly             Lz      
         0   0              10            -3250.6152      0.64500812     120.84708      5700.9619      17.864165      17.864165      17.864165    
      1000   0.5            10.633399     -3249.9079      0.6858629      78.549512      5702.8883      17.866177      17.866177      17.866177    
      2000   1              18.362849     -3249.4514      1.1844187     -15.923849      5704.3558      17.867709      17.867709      17.867709    
      3000   1.5            22.702894     -3249.2652      1.4643551     -440.98425      5706.5817      17.870033      17.870033      17.870033    
      4000   2              26.286445     -3249.0333      1.6954971     -414.1113       5708.1603      17.87168       17.87168       17.87168     
      5000   2.5            30.16905      -3248.7501      1.9459282      233.7291       5706.8664      17.87033       17.87033       17.87033     
      6000   3              33.763746     -3248.4728      2.177789       1027.7669      5705.1197      17.868506      17.868506      17.868506    
      7000   3.5            36.129492     -3248.1152      2.3303816      1774.1268      5703.1944      17.866496      17.866496      17.866496    
      8000   4              39.135166     -3248.0423      2.52425        29.717864      5707.9727      17.871484      17.871484      17.871484    
      9000   4.5            46.455022     -3247.7773      2.9963866     -1966.8845      5715.8797      17.879733      17.879733      17.879733    
     10000   5              50.32612      -3247.2981      3.2460756     -1614.9234      5716.7685      17.88066       17.88066       17.88066     
     11000   5.5            50.585875     -3247.1558      3.26283       -275.5709       5712.5239      17.876233      17.876233      17.876233    
     12000   6              59.986926     -3246.9891      3.8692055     -308.55602      5713.6475      17.877405      17.877405      17.877405    
     13000   6.5            58.146347     -3246.7136      3.7504866      321.17646      5713.2906      17.877033      17.877033      17.877033    
     14000   7              66.692212     -3246.4968      4.3017019      1294.5395      5709.8203      17.873413      17.873413      17.873413    
     15000   7.5            70.190821     -3246.2086      4.527365       1620.9919      5711.2681      17.874923      17.874923      17.874923    
     16000   8              73.216311     -3245.8212      4.7225116      152.01243      5717.2289      17.88114       17.88114       17.88114     
     17000   8.5            78.759975     -3245.6542      5.0800823     -2709.8459      5723.2835      17.887449      17.887449      17.887449    
     18000   9              79.312313     -3245.8147      5.1157086     -1289.3653      5714.8784      17.878689      17.878689      17.878689    
     19000   9.5            83.801311     -3245.3889      5.4052527     -876.19001      5719.7927      17.883812      17.883812      17.883812    
     20000   10             91.665554     -3245.2017      5.9125027      483.12479      5714.6312      17.878431      17.878431      17.878431    
     21000   10.5           94.978187     -3244.8558      6.1261702      2909.2747      5711.5148      17.87518       17.87518       17.87518     
     22000   11             98.319513     -3244.4466      6.3416885      2418.3785      5715.4169      17.87925       17.87925       17.87925     
     23000   11.5           101.87525     -3244.4028      6.5710364      457.00902      5715.6123      17.879454      17.879454      17.879454    
     24000   12             104.16512     -3243.8264      6.7187347      100.10094      5719.8509      17.883873      17.883873      17.883873    
     25000   12.5           110.78259     -3243.8117      7.1455673     -327.59451      5723.2467      17.887411      17.887411      17.887411    
     26000   13             114.52767     -3243.3021      7.387128      -2213.1755      5732.8014      17.89736       17.89736       17.89736     
     27000   13.5           108.58793     -3242.9968      7.0040098     -4473.4238      5733.2494      17.897826      17.897826      17.897826    
     28000   14             116.05856     -3242.667       7.4858713     -1478.988       5728.6333      17.893021      17.893021      17.893021    
     29000   14.5           130.77788     -3242.7433      8.4352796      619.86602      5723.2925      17.887459      17.887459      17.887459    
     30000   15             127.11736     -3241.9363      8.1991727      3097.5524      5718.0839      17.882031      17.882031      17.882031    
     31000   15.5           131.18599     -3241.9021      8.4616032      4916.4488      5715.2089      17.879033      17.879033      17.879033    
     32000   16             141.13422     -3242.101       9.1032717      1676.6898      5718.9883      17.882974      17.882974      17.882974    
     33000   16.5           136.92377     -3242.6408      8.8316943      844.35587      5722.2408      17.886363      17.886363      17.886363    
     34000   17             132.00918     -3242.5593      8.5146993     -1942.9597      5735.3375      17.899998      17.899998      17.899998    
     35000   17.5           150.49165     -3243.0174      9.7068338     -2131.0719      5736.9166      17.901641      17.901641      17.901641    
     36000   18             158.47595     -3242.482       10.221827     -2333.9041      5736.5115      17.90122       17.90122       17.90122     
     37000   18.5           153.09456     -3242.2389      9.8747236     -2177.6206      5738.8983      17.903702      17.903702      17.903702    
     38000   19             148.63199     -3242.0245      9.5868842     -765.92735      5731.5395      17.896046      17.896046      17.896046    
     39000   19.5           159.15344     -3241.418       10.265526      2624.3809      5724.4375      17.888652      17.888652      17.888652    
     40000   20             164.41913     -3240.7388      10.605167      6964.3194      5718.3435      17.882301      17.882301      17.882301    
     41000   20.5           168.46855     -3241.1182      10.866358      2055.8482      5730.7779      17.895254      17.895254      17.895254    
     42000   21             162.74656     -3241.0441      10.497285      1711.2988      5729.4728      17.893895      17.893895      17.893895    
     43000   21.5           174.66075     -3240.2737      11.26576      -1560.2724      5738.1743      17.902949      17.902949      17.902949    
     44000   22             176.10329     -3240.6515      11.358805     -1899.2356      5742.3293      17.907269      17.907269      17.907269    
     45000   22.5           180.88048     -3239.9635      11.666938     -3060.4915      5744.7086      17.909742      17.909742      17.909742    
     46000   23             183.92105     -3239.1552      11.863057     -4766.7511      5752.0259      17.917343      17.917343      17.917343    
     47000   23.5           184.76804     -3239.7475      11.917689     -4847.8849      5748.8234      17.914017      17.914017      17.914017    
     48000   24             195.69614     -3238.0401      12.62256      -1518.2787      5748.3313      17.913506      17.913506      17.913506    
     49000   24.5           206.1629      -3238.7231      13.297675     -2600.689       5748.5473      17.91373       17.91373       17.91373     
     50000   25             193.54664     -3238.5355      12.483915      498.46857      5743.7061      17.9087        17.9087        17.9087      
     51000   25.5           201.04954     -3239.2392      12.967859      1120.0394      5740.5932      17.905464      17.905464      17.905464    
     52000   26             224.48239     -3238.4407      14.479296      2393.4554      5735.759       17.900437      17.900437      17.900437    
     53000   26.5           216.64655     -3238.7254      13.973878      1237.4583      5739.465       17.904291      17.904291      17.904291    
     54000   27             221.7875      -3238.5195      14.305474      1108.6795      5741.5421      17.906451      17.906451      17.906451    
     55000   27.5           213.17063     -3237.0979      13.749679      3579.97        5736.9027      17.901627      17.901627      17.901627    
     56000   28             217.88514     -3236.459       14.053768      12514.666      5714.4205      17.878211      17.878211      17.878211    
     57000   28.5           237.40138     -3236.9147      15.312582      3528.5661      5739.0324      17.903842      17.903842      17.903842    
     58000   29             249.00101     -3236.5519      16.060767      3808.2294      5740.6514      17.905525      17.905525      17.905525    
     59000   29.5           250.0037      -3235.7668      16.125442      2841.5992      5742.9101      17.907873      17.907873      17.907873    
     60000   30             237.1087      -3234.5583      15.293704      558.18872      5757.7807      17.923316      17.923316      17.923316    
     61000   30.5           233.62478     -3235.5306      15.068988     -1037.5939      5753.6852      17.919066      17.919066      17.919066    
     62000   31             252.33646     -3234.1853      16.275907     -1425.5851      5759.1236      17.92471       17.92471       17.92471     
     63000   31.5           244.06785     -3233.8924      15.742575     -6207.3543      5772.0825      17.938144      17.938144      17.938144    
     64000   32             252.87974     -3235.9895      16.310949     -4683.7645      5763.4543      17.929202      17.929202      17.929202    
     65000   32.5           261.68822     -3234.8227      16.879103     -4981.8855      5768.0602      17.933976      17.933976      17.933976    
     66000   33             285.76299     -3235.1636      18.431945     -3562.5564      5764.9473      17.93075       17.93075       17.93075     
     67000   33.5           275.09041     -3234.0023      17.743555     -2498.3438      5764.7628      17.930558      17.930558      17.930558    
     68000   34             269.93157     -3234.277       17.410805     -901.41142      5762.7216      17.928442      17.928442      17.928442    
     69000   34.5           280.93914     -3235.2042      18.120803      35.316015      5752.7358      17.91808       17.91808       17.91808     
     70000   35             289.19998     -3234.1693      18.653634      2340.568       5747.7429      17.912895      17.912895      17.912895    
     71000   35.5           276.6358      -3232.9717      17.843234      1269.3872      5756.8909      17.922393      17.922393      17.922393    
     72000   36             295.14222     -3232.7498      19.036913     -646.84921      5760.2104      17.925837      17.925837      17.925837    
     73000   36.5           292.50817     -3233.3711      18.867015      696.71208      5758.5127      17.924076      17.924076      17.924076    
     74000   37             304.92214     -3233.0555      19.667726      364.24548      5757.3337      17.922853      17.922853      17.922853    
     75000   37.5           317.47039     -3230.2672      20.477098     -112.07586      5768.9337      17.934882      17.934882      17.934882    
     76000   38             295.89583     -3231.4538      19.085522      655.48592      5759.7699      17.92538       17.92538       17.92538     
     77000   38.5           309.34693     -3232.1841      19.953128      9653.4023      5738.2015      17.902977      17.902977      17.902977    
     78000   39             318.82934     -3230.4658      20.564752      3856.7923      5755.0172      17.920449      17.920449      17.920449    
     79000   39.5           323.5177      -3230.2225      20.867155      12509.095      5731.4193      17.895921      17.895921      17.895921    
     80000   40             319.49829     -3231.3755      20.607899      2576.4251      5757.1287      17.92264       17.92264       17.92264     
     81000   40.5           312.25132     -3230.8511      20.140464      6627.9188      5748.941       17.914139      17.914139      17.914139    
     82000   41             343.39188     -3230.9663      22.149055      809.4278       5766.4156      17.932272      17.932272      17.932272    
     83000   41.5           342.21642     -3229.8982      22.073237      585.25327      5768.4137      17.934343      17.934343      17.934343    
     84000   42             336.43702     -3231.2832      21.700461     -3449.516       5776.8286      17.943059      17.943059      17.943059    
     85000   42.5           341.85205     -3228.6668      22.049735     -4235.3541      5784.4926      17.950991      17.950991      17.950991    
     86000   43             353.6504      -3229.1112      22.810738     -2837.8599      5774.4869      17.940635      17.940635      17.940635    
     87000   43.5           374.85437     -3228.9042      24.178411     -4716.0879      5777.8179      17.944084      17.944084      17.944084    
     88000   44             365.1386      -3228.3964      23.551736     -3933.7095      5781.1708      17.947554      17.947554      17.947554    
     89000   44.5           360.20566     -3228.7946      23.233558     -9092.2914      5798.5722      17.965543      17.965543      17.965543    
     90000   45             353.20554     -3230.1309      22.782044     -2221.3457      5778.3597      17.944644      17.944644      17.944644    
     91000   45.5           377.1807      -3228.303       24.328462     -3556.1799      5779.5689      17.945896      17.945896      17.945896    
     92000   46             370.97791     -3228.5187      23.928376     -9085.8685      5804.3614      17.97152       17.97152       17.97152     
     93000   46.5           339.22294     -3227.4834      21.880155     -4986.4924      5789.6157      17.956289      17.956289      17.956289    
     94000   47             369.83016     -3228.3092      23.854346     -10202.184      5792.3295      17.959094      17.959094      17.959094    
     95000   47.5           370.64239     -3227.9565      23.906735     -3423.8613      5781.551       17.947947      17.947947      17.947947    
     96000   48             404.38636     -3227.3628      26.083249     -7380.9577      5798.5808      17.965552      17.965552      17.965552    
     97000   48.5           392.52096     -3227.6322      25.317921     -807.15185      5780.8112      17.947182      17.947182      17.947182    
     98000   49             387.71171     -3227.832       25.007721     -522.40827      5779.568       17.945895      17.945895      17.945895    
     99000   49.5           393.99904     -3226.8444      25.413258      1358.3674      5778.5523      17.944844      17.944844      17.944844    
    100000   50             409.83813     -3224.8498      26.434892      1560.2215      5782.2867      17.948709      17.948709      17.948709    
Loop time of 4281.82 on 1 procs for 100000 steps with 500 atoms

Performance: 1.009 ns/day, 23.788 hours/ns, 23.355 timesteps/s, 11.677 katom-step/s
99.1% CPU use with 1 MPI tasks x 1 OpenMP threads

MPI task timing breakdown:
Section |  min time  |  avg time  |  max time  |%varavg| %total
---------------------------------------------------------------
Pair    | 4263.5     | 4263.5     | 4263.5     |   0.0 | 99.57
Neigh   | 0.025599   | 0.025599   | 0.025599   |   0.0 |  0.00
Comm    | 3.8732     | 3.8732     | 3.8732     |   0.0 |  0.09
Output  | 0.010221   | 0.010221   | 0.010221   |   0.0 |  0.00
Modify  | 10.385     | 10.385     | 10.385     |   0.0 |  0.24
Other   |            | 4.04       |            |       |  0.09

Nlocal:            500 ave         500 max         500 min
Histogram: 1 0 0 0 0 0 0 0 0 0
Nghost:           2922 ave        2922 max        2922 min
Histogram: 1 0 0 0 0 0 0 0 0 0
Neighs:              0 ave           0 max           0 min
Histogram: 1 0 0 0 0 0 0 0 0 0
FullNghs:        92738 ave       92738 max       92738 min
Histogram: 1 0 0 0 0 0 0 0 0 0

Total # of neighbors = 92738
Ave neighs/atom = 185.476
Neighbor list builds = 51
Dangerous builds = 0
### Heating complete ###
System init for write_restart ...
System init for write_data ...
Setting up Verlet run ...
  Unit style    : metal
  Current step  : 100000
  Time step     : 0.0005
Per MPI rank memory allocation (min/avg/max) = 123.9 | 123.9 | 123.9 Mbytes
   Step          Time           Temp          PotEng         KinEng         Press          Volume           Lx             Ly             Lz      
    100000   50             409.83813     -3224.8498      26.434892      1560.2215      5782.2867      17.948709      17.948709      17.948709    
    101000   50.5           407.8325      -3226.1203      26.305528     -4514.0541      5793.7909      17.960604      17.960604      17.960604    
    102000   51             400.36495     -3226.5281      25.823865     -558.94896      5778.7327      17.945031      17.945031      17.945031    
    103000   51.5           384.31823     -3228.2391      24.788838      205.20467      5775.4505      17.941632      17.941632      17.941632    
    104000   52             412.19813     -3228.0152      26.587114      4836.4562      5760.2227      17.92585       17.92585       17.92585     
    105000   52.5           405.20755     -3226.369       26.136216     -1274.7607      5785.5137      17.952047      17.952047      17.952047    
    106000   53             418.67504     -3226.1423      27.00488       7584.3103      5762.8779      17.928604      17.928604      17.928604    
    107000   53.5           399.31176     -3225.6465      25.755933      2022.208       5775.3501      17.941528      17.941528      17.941528    
    108000   54             401.00918     -3226.9865      25.865418     -4748.5654      5789.2388      17.955899      17.955899      17.955899    
    109000   54.5           392.16552     -3226.7535      25.294995     -3621.1381      5793.4177      17.960218      17.960218      17.960218    
    110000   55             411.67157     -3226.4402      26.553151      7940.3216      5757.7103      17.923243      17.923243      17.923243    
    111000   55.5           416.19843     -3226.276       26.845137      4805.8878      5766.1872      17.932035      17.932035      17.932035    
    112000   56             387.93465     -3224.3555      25.0221       -6317.0101      5804.7993      17.971972      17.971972      17.971972    
    113000   56.5           387.06438     -3226.6713      24.965967     -1167.9973      5781.7926      17.948197      17.948197      17.948197    
    114000   57             392.29776     -3227.5154      25.303525      3029.45        5767.2307      17.933117      17.933117      17.933117    
    115000   57.5           382.78834     -3227.7152      24.690159      101.28405      5780.279       17.946631      17.946631      17.946631    
    116000   58             397.70165     -3228.0354      25.652079      2331.4984      5773.1853      17.939287      17.939287      17.939287    
    117000   58.5           415.50017     -3226.9834      26.800099      6270.3919      5762.713       17.928433      17.928433      17.928433    
    118000   59             413.03668     -3227.5246      26.641202      2980.5856      5776.3265      17.94254       17.94254       17.94254     
    119000   59.5           420.05669     -3230.014       27.093998     -5326.1459      5793.2646      17.96006       17.96006       17.96006     
    120000   60             412.32009     -3227.7537      26.594981      2278.8408      5777.2615      17.943508      17.943508      17.943508    
    121000   60.5           395.2449      -3227.2332      25.493617     -1793.3396      5787.9096      17.954525      17.954525      17.954525    
    122000   61             390.30128     -3228.3463      25.17475       3352.3358      5767.5285      17.933425      17.933425      17.933425    
    123000   61.5           423.39821     -3230.0253      27.309529      780.06646      5768.6343      17.934571      17.934571      17.934571    
    124000   62             388.85318     -3228.6758      25.081346      5000.012       5766.8315      17.932703      17.932703      17.932703    
    125000   62.5           402.41403     -3228.5085      25.956032      5762.5051      5760.551       17.926191      17.926191      17.926191    
    126000   63             402.79948     -3227.8814      25.980894     -8672.1967      5799.3264      17.966322      17.966322      17.966322    
    127000   63.5           413.27445     -3227.3143      26.656538      2396.5499      5773.0836      17.939181      17.939181      17.939181    
    128000   64             403.53786     -3228.405       26.02852       354.57452      5776.6783      17.942904      17.942904      17.942904    
    129000   64.5           417.95795     -3229.7092      26.958628     -7579.9577      5794.2136      17.961041      17.961041      17.961041    
    130000   65             410.25895     -3227.6918      26.462036      1099.7455      5778.9917      17.945299      17.945299      17.945299    
    131000   65.5           412.64563     -3228.501       26.615979      4165.1081      5767.1029      17.932984      17.932984      17.932984    
    132000   66             370.62359     -3228.0828      23.905522      1537.4719      5773.1923      17.939294      17.939294      17.939294    
    133000   66.5           410.1608      -3229.127       26.455705     -1132.1572      5780.9641      17.94734       17.94734       17.94734     
    134000   67             416.15814     -3228.1232      26.842538     -940.02492      5775.3231      17.941501      17.941501      17.941501    
    135000   67.5           400.71124     -3225.9256      25.8462       -1608.4223      5792.1183      17.958876      17.958876      17.958876    
    136000   68             418.25256     -3229.3209      26.97763      -3229.4145      5783.151       17.949603      17.949603      17.949603    
    137000   68.5           409.50414     -3228.7471      26.41335       740.79148      5771.0795      17.937105      17.937105      17.937105    
    138000   69             422.96224     -3228.3937      27.281408      641.18275      5777.7133      17.943975      17.943975      17.943975    
    139000   69.5           398.85188     -3227.5229      25.72627      -3547.1197      5793.6899      17.9605        17.9605        17.9605      
    140000   70             404.48756     -3229.8195      26.089776     -4665.079       5784.7294      17.951236      17.951236      17.951236    
    141000   70.5           385.58005     -3228.2875      24.870227     -623.91254      5776.2257      17.942435      17.942435      17.942435    
    142000   71             408.59918     -3226.9554      26.354979      9288.3084      5753.1359      17.918496      17.918496      17.918496    
    143000   71.5           419.30902     -3227.2374      27.045772      5584.2137      5764.3014      17.93008       17.93008       17.93008     
    144000   72             385.13565     -3228.6758      24.841563     -8870.2188      5803.6921      17.970829      17.970829      17.970829    
    145000   72.5           395.53406     -3227.7069      25.512268     -2461.6479      5782.7283      17.949165      17.949165      17.949165    
    146000   73             410.24211     -3227.8688      26.460949      4726.1451      5763.1082      17.928843      17.928843      17.928843    
    147000   73.5           401.27618     -3228.5607      25.882639     -1630.0574      5780.4635      17.946822      17.946822      17.946822    
    148000   74             395.5973      -3228.6869      25.516347      1841.0178      5766.9988      17.932876      17.932876      17.932876    
    149000   74.5           393.43939     -3227.9882      25.37716       3243.9375      5770.6956      17.936707      17.936707      17.936707    
    150000   75             378.08673     -3228.1897      24.386901      3582.4468      5767.8888      17.933799      17.933799      17.933799    
    151000   75.5           397.38272     -3229.1988      25.631508     -4957.1544      5788.5931      17.955231      17.955231      17.955231    
    152000   76             418.37383     -3228.9652      26.985452      120.12014      5784.2988      17.95079       17.95079       17.95079     
    153000   76.5           427.0517      -3228.7127      27.545182      11456.699      5743.8266      17.908826      17.908826      17.908826    
    154000   77             396.58559     -3227.682       25.580093      5726.7525      5761.6979      17.92738       17.92738       17.92738     
    155000   77.5           391.61472     -3229.9519      25.259468     -2107.2509      5774.6727      17.940827      17.940827      17.940827    
    156000   78             422.1842      -3226.816       27.231224     -3425.5838      5791.1871      17.957913      17.957913      17.957913    
    157000   78.5           396.88449     -3227.2571      25.599372     -2953.8752      5787.2699      17.953863      17.953863      17.953863    
    158000   79             407.36223     -3229.8216      26.275195      6106.3926      5752.7758      17.918122      17.918122      17.918122    
    159000   79.5           390.81485     -3229.2507      25.207875      4522.6401      5760.7979      17.926447      17.926447      17.926447    
    160000   80             400.04913     -3228.3664      25.803494      3479.3025      5766.4264      17.932283      17.932283      17.932283    
    161000   80.5           389.31239     -3227.768       25.110966      1089.4692      5777.5778      17.943835      17.943835      17.943835    
    162000   81             375.097       -3229.0685      24.194061     -88.525658      5773.7889      17.939912      17.939912      17.939912    
    163000   81.5           388.55617     -3228.8369      25.062189      8914.7766      5749.4588      17.914677      17.914677      17.914677    
    164000   82             392.52937     -3228.6899      25.318463     -4331.6234      5790.884       17.9576        17.9576        17.9576      
    165000   82.5           411.4559      -3226.1827      26.53924      -4134.1147      5793.5445      17.960349      17.960349      17.960349    
    166000   83             393.11832     -3229.2716      25.356451     -3830.8687      5788.1363      17.954759      17.954759      17.954759    
    167000   83.5           379.40676     -3228.1088      24.472044      4314.3123      5766.9884      17.932866      17.932866      17.932866    
    168000   84             434.42802     -3227.4043      28.02096      -1727.457       5794.9942      17.961847      17.961847      17.961847    
    169000   84.5           420.7701      -3228.601       27.140013      5965.8727      5763.7656      17.929524      17.929524      17.929524    
    170000   85             415.99384     -3230.3981      26.83194      -900.7885       5779.5805      17.945908      17.945908      17.945908    
    171000   85.5           377.94723     -3226.5961      24.377903      4648.5616      5771.7152      17.937764      17.937764      17.937764    
    172000   86             417.07308     -3227.7636      26.901553      6512.1749      5757.8893      17.923429      17.923429      17.923429    
    173000   86.5           397.72148     -3227.9226      25.653359     -4108.2697      5792.8465      17.959628      17.959628      17.959628    
    174000   87             414.72228     -3229.3199      26.749924     -6767.548       5791.7298      17.958474      17.958474      17.958474    
    175000   87.5           415.36475     -3228.8552      26.791364     -1459.021       5782.3017      17.948724      17.948724      17.948724    
    176000   88             406.29914     -3229.756       26.206625      5094.2076      5759.9732      17.925591      17.925591      17.925591    
    177000   88.5           384.03404     -3229.7015      24.770508     -57.698486      5779.8544      17.946192      17.946192      17.946192    
    178000   89             386.63745     -3229.7938      24.938429      1917.2926      5766.6248      17.932489      17.932489      17.932489    
    179000   89.5           406.18541     -3227.6034      26.199289     -5252.6321      5793.9759      17.960795      17.960795      17.960795    
    180000   90             384.67288     -3226.6053      24.811714     -135.54015      5786.451       17.953016      17.953016      17.953016    
    181000   90.5           395.23999     -3229.8083      25.4933        1557.2681      5768.5246      17.934458      17.934458      17.934458    
    182000   91             383.39012     -3227.6236      24.728974      11337.776      5742.1492      17.907082      17.907082      17.907082    
    183000   91.5           422.17417     -3228.3747      27.230577     -1327.1914      5778.6156      17.944909      17.944909      17.944909    
    184000   92             402.54149     -3225.9154      25.964253     -6987.2509      5798.6292      17.965602      17.965602      17.965602    
    185000   92.5           400.65588     -3226.9941      25.84263      -5987.2622      5799.3889      17.966387      17.966387      17.966387    
    186000   93             401.82533     -3228.9862      25.91806       2393.4311      5769.4832      17.935451      17.935451      17.935451    
    187000   93.5           396.38676     -3228.6035      25.567268      4602.3384      5766.15        17.931997      17.931997      17.931997    
    188000   94             401.26137     -3226.6656      25.881684     -2852.6623      5789.0752      17.95573       17.95573       17.95573     
    189000   94.5           414.72209     -3226.6129      26.749911      2917.7803      5779.8802      17.946218      17.946218      17.946218    
    190000   95             409.38333     -3230.0224      26.405557      7093.9731      5752.7713      17.918117      17.918117      17.918117    
    191000   95.5           399.0028      -3228.7114      25.736005      1656.9571      5771.5719      17.937615      17.937615      17.937615    
    192000   96             412.41991     -3226.9908      26.601419     -19053.632      5836.7694      18.004905      18.004905      18.004905    
    193000   96.5           398.12536     -3225.7403      25.679409     -3960.8805      5799.0579      17.966045      17.966045      17.966045    
    194000   97             411.8944      -3229.0221      26.567524      3528.7518      5770.3593      17.936359      17.936359      17.936359    
    195000   97.5           418.11908     -3231.1193      26.96902      -2529.5554      5770.283       17.93628       17.93628       17.93628     
    196000   98             413.74103     -3229.9208      26.686632     -4366.5589      5783.1884      17.949642      17.949642      17.949642    
    197000   98.5           408.85103     -3228.5064      26.371224     -1648.7726      5779.0001      17.945307      17.945307      17.945307    
    198000   99             386.50375     -3229.4395      24.929806      3177.3653      5762.5911      17.928307      17.928307      17.928307    
    199000   99.5           394.51071     -3229.5482      25.446261     -7909.4072      5795.2633      17.962125      17.962125      17.962125    
    200000   100            392.79315     -3226.9165      25.335478     -7249.8127      5798.8025      17.965781      17.965781      17.965781    
    201000   100.5          398.56404     -3228.0797      25.707705     -1329.8876      5779.6139      17.945943      17.945943      17.945943    
    202000   101            389.31596     -3228.862       25.111196     -474.39768      5777.6095      17.943868      17.943868      17.943868    
    203000   101.5          375.6274      -3229.5991      24.228272      2431.7875      5763.0804      17.928814      17.928814      17.928814    
    204000   102            407.41152     -3228.9458      26.278374     -1214.4177      5783.8743      17.950351      17.950351      17.950351    
    205000   102.5          391.49216     -3227.1473      25.251562     -3247.8173      5783.4888      17.949952      17.949952      17.949952    
    206000   103            393.14589     -3228.6858      25.358229      656.88943      5770.8271      17.936844      17.936844      17.936844    
    207000   103.5          400.2413      -3227.7804      25.815889     -5133.7019      5794.9575      17.961809      17.961809      17.961809    
    208000   104            395.57819     -3226.9406      25.515115      2676.1369      5776.3335      17.942547      17.942547      17.942547    
    209000   104.5          399.94731     -3230.4524      25.796927     -5315.2398      5788.0386      17.954658      17.954658      17.954658    
    210000   105            369.74664     -3228.7611      23.848959      4188.5168      5762.5789      17.928294      17.928294      17.928294    
    211000   105.5          414.0677      -3228.2561      26.707703      5515.9181      5763.3043      17.929046      17.929046      17.929046    
    212000   106            406.55952     -3226.9994      26.223419      6054.5716      5769.1073      17.935062      17.935062      17.935062    
    213000   106.5          384.53857     -3227.822       24.80305       5265.6014      5761.8351      17.927522      17.927522      17.927522    
    214000   107            406.98098     -3226.9021      26.250604     -1160.0633      5784.1404      17.950626      17.950626      17.950626    
    215000   107.5          427.22695     -3227.0567      27.556486     -4583.4148      5799.8769      17.966891      17.966891      17.966891    
    216000   108            403.80047     -3228.559       26.045458      1209.845       5773.0833      17.939181      17.939181      17.939181    
    217000   108.5          394.20745     -3229.1343      25.426701      4326.4014      5760.0886      17.925711      17.925711      17.925711    
    218000   109            422.44721     -3226.2224      27.248188      518.11996      5783.9752      17.950456      17.950456      17.950456    
    219000   109.5          404.14768     -3227.7374      26.067854     -9296.7211      5806.6817      17.973915      17.973915      17.973915    
    220000   110            380.83476     -3228.3069      24.564152      8441.6861      5758.3749      17.923933      17.923933      17.923933    
    221000   110.5          422.44829     -3230.5693      27.248258      7445.2569      5756.181       17.921656      17.921656      17.921656    
    222000   111            402.174       -3228.2665      25.94055       1586.6895      5776.8433      17.943075      17.943075      17.943075    
    223000   111.5          389.72472     -3229.2462      25.137561      5453.9399      5763.9637      17.92973       17.92973       17.92973     
    224000   112            416.00243     -3229.5154      26.832495     -1044.3542      5776.1127      17.942318      17.942318      17.942318    
    225000   112.5          404.50367     -3227.7378      26.090815      6406.8161      5760.0661      17.925688      17.925688      17.925688    
    226000   113            376.90191     -3229.2186      24.310479      1883.5785      5772.9868      17.939081      17.939081      17.939081    
    227000   113.5          381.98071     -3228.2792      24.638066     -3246.3396      5788.778       17.955423      17.955423      17.955423    
    228000   114            397.6423      -3227.8492      25.648251     -5948.8935      5799.5584      17.966562      17.966562      17.966562    
    229000   114.5          374.24431     -3228.6584      24.139062     -1942.9721      5783.1352      17.949587      17.949587      17.949587    
    230000   115            395.08057     -3229.8283      25.483018      3238.4477      5764.552       17.93034       17.93034       17.93034     
    231000   115.5          409.64266     -3228.7977      26.422285      1777.4761      5769.0165      17.934967      17.934967      17.934967    
    232000   116            412.78201     -3228.9529      26.624775      2664.3638      5771.0585      17.937083      17.937083      17.937083    
    233000   116.5          384.93809     -3229.9433      24.82882       532.03735      5776.4139      17.94263       17.94263       17.94263     
    234000   117            389.65807     -3229.5355      25.133262      9507.114       5750.0956      17.915339      17.915339      17.915339    
    235000   117.5          400.2399      -3229.0107      25.815798     -463.58563      5774.5266      17.940676      17.940676      17.940676    
    236000   118            418.03415     -3229.2719      26.963542     -1329.4083      5775.974       17.942174      17.942174      17.942174    
    237000   118.5          376.98045     -3229.0307      24.315545     -8254.7534      5793.6493      17.960458      17.960458      17.960458    
    238000   119            399.72058     -3229.4989      25.782302      2636.0122      5765.3656      17.931183      17.931183      17.931183    
    239000   119.5          412.84207     -3228.4916      26.628649      420.0161       5780.8301      17.947201      17.947201      17.947201    
    240000   120            403.67646     -3228.4853      26.03746       924.07682      5775.0047      17.941171      17.941171      17.941171    
    241000   120.5          394.42919     -3228.7287      25.441003     -5463.9608      5795.7761      17.962655      17.962655      17.962655    
    242000   121            395.19553     -3228.149       25.490432      6742.7264      5762.1927      17.927893      17.927893      17.927893    
    243000   121.5          427.21537     -3228.0902      27.555739      8774.331       5753.5554      17.918931      17.918931      17.918931    
    244000   122            406.24309     -3227.7784      26.203009      485.48002      5780.7169      17.947084      17.947084      17.947084    
    245000   122.5          408.19745     -3228.3897      26.329067      1881.8927      5772.605       17.938685      17.938685      17.938685    
    246000   123            401.57015     -3229.3168      25.901601     -2036.4702      5776.4707      17.942689      17.942689      17.942689    
    247000   123.5          394.59916     -3228.3518      25.451966     -5263.0765      5788.6521      17.955292      17.955292      17.955292    
    248000   124            397.21458     -3227.3369      25.620663     -295.39605      5779.2587      17.945575      17.945575      17.945575    
    249000   124.5          432.56195     -3227.6421      27.900597      9537.8216      5753.3765      17.918745      17.918745      17.918745    
    250000   125            380.02262     -3228.8833      24.511768     -524.36486      5772.2583      17.938326      17.938326      17.938326    
    251000   125.5          388.34731     -3229.1481      25.048717     -8748.3482      5799.1799      17.966171      17.966171      17.966171    
    252000   126            428.36234     -3228.1036      27.629719      5708.3273      5758.6521      17.924221      17.924221      17.924221    
    253000   126.5          387.99487     -3228.3989      25.025984      626.56948      5777.0163      17.943254      17.943254      17.943254    
    254000   127            393.27071     -3228.9908      25.36628      -1683.3989      5783.8062      17.950281      17.950281      17.950281    
    255000   127.5          375.14426     -3228.2596      24.197109     -2228.5718      5785.2024      17.951725      17.951725      17.951725    
    256000   128            399.74504     -3228.3286      25.78388       759.62643      5777.3169      17.943565      17.943565      17.943565    
    257000   128.5          397.558       -3226.7042      25.642814      5052.3834      5770.0115      17.935999      17.935999      17.935999    
    258000   129            425.39636     -3228.5731      27.438411      207.59517      5774.2363      17.940375      17.940375      17.940375    
    259000   129.5          411.92531     -3228.175       26.569517      1882.9816      5775.3535      17.941532      17.941532      17.941532    
    260000   130            395.44577     -3228.901       25.506573     -4464.7422      5786.3293      17.95289       17.95289       17.95289     
    261000   130.5          397.92204     -3230.0493      25.666295     -510.6307       5771.07        17.937095      17.937095      17.937095    
    262000   131            400.24994     -3228.6006      25.816446      586.8128       5771.1689      17.937198      17.937198      17.937198    
    263000   131.5          411.32469     -3227.1283      26.530777     -3185.9996      5792.1895      17.958949      17.958949      17.958949    
    264000   132            408.56064     -3229.4486      26.352493      232.48585      5769.6818      17.935657      17.935657      17.935657    
    265000   132.5          401.60114     -3227.53        25.9036       -1973.8724      5784.7564      17.951264      17.951264      17.951264    
    266000   133            437.04423     -3228.034       28.189708      3868.1739      5765.4512      17.931272      17.931272      17.931272    
    267000   133.5          397.46797     -3228.2297      25.637007      2986.8881      5770.9306      17.936951      17.936951      17.936951    
    268000   134            387.64514     -3228.6536      25.003426     -7230.8528      5802.0062      17.969089      17.969089      17.969089    
    269000   134.5          391.4728      -3229.8473      25.250313      2179.9591      5761.984       17.927677      17.927677      17.927677    
    270000   135            403.20058     -3229.0102      26.006765     -1130.8986      5776.7701      17.942999      17.942999      17.942999    
    271000   135.5          393.41625     -3227.4248      25.375668     -5428.4102      5798.6773      17.965652      17.965652      17.965652    
    272000   136            392.58968     -3227.6174      25.322353     -4025.1772      5791.8852      17.958635      17.958635      17.958635    
    273000   136.5          396.92154     -3229.9608      25.601762      875.36476      5775.1303      17.941301      17.941301      17.941301    
    274000   137            372.09273     -3228.0324      24.000284      1636.4379      5777.0605      17.9433        17.9433        17.9433      
    275000   137.5          392.90036     -3228.8312      25.342392      3294.246       5768.5452      17.934479      17.934479      17.934479    
    276000   138            385.48558     -3228.7371      24.864133      4962.6783      5763.6291      17.929383      17.929383      17.929383    
    277000   138.5          422.76019     -3229.3468      27.268376     -3306.1887      5781.1939      17.947578      17.947578      17.947578    
    278000   139            386.07167     -3227.037       24.901937     -7469.726       5803.2492      17.970372      17.970372      17.970372    
    279000   139.5          407.90292     -3228.5982      26.31007      -5737.1949      5793.2978      17.960095      17.960095      17.960095    
    280000   140            402.09296     -3230.5879      25.935322      5622.8553      5753.986       17.919378      17.919378      17.919378    
    281000   140.5          385.33721     -3227.6749      24.854563      2808.7289      5774.0126      17.940143      17.940143      17.940143    
    282000   141            403.03718     -3228.6494      25.996225     -3020.8378      5782.9851      17.949431      17.949431      17.949431    
    283000   141.5          410.32974     -3228.7195      26.466602     -4192.2559      5788.1356      17.954758      17.954758      17.954758    
    284000   142            422.54078     -3228.1695      27.254224      1436.4529      5766.5933      17.932456      17.932456      17.932456    
    285000   142.5          403.00562     -3227.2776      25.99419      -5944.6065      5797.318       17.964248      17.964248      17.964248    
    286000   143            410.72277     -3228.0199      26.491952     -3483.6438      5785.313       17.951839      17.951839      17.951839    
    287000   143.5          378.10175     -3230.262       24.38787       2774.4485      5762.8174      17.928541      17.928541      17.928541    
    288000   144            392.66011     -3229.2697      25.326896     -4430.8267      5786.0491      17.952601      17.952601      17.952601    
    289000   144.5          398.00657     -3228.4268      25.671747     -2781.2957      5784.6509      17.951154      17.951154      17.951154    
    290000   145            432.00238     -3226.9128      27.864505     -1888.6934      5790.3548      17.957053      17.957053      17.957053    
    291000   145.5          417.11041     -3227.972       26.90396      -9744.6077      5810.8456      17.97821       17.97821       17.97821     
    292000   146            407.93106     -3229.3506      26.311885     -256.76645      5773.601       17.939717      17.939717      17.939717    
    293000   146.5          420.67653     -3228.1979      27.133978      9953.6686      5747.1043      17.912231      17.912231      17.912231    
    294000   147            402.41456     -3228.3297      25.956066      3383.6885      5774.5245      17.940674      17.940674      17.940674    
    295000   147.5          376.84991     -3229.6065      24.307126     -1726.8477      5772.3055      17.938375      17.938375      17.938375    
    296000   148            385.34652     -3228.4071      24.855164     -4610.0269      5785.7727      17.952315      17.952315      17.952315    
    297000   148.5          411.38299     -3228.1727      26.534537      848.38265      5774.4159      17.940561      17.940561      17.940561    
    298000   149            409.91399     -3228.1682      26.439786     -23.561481      5779.2923      17.94561       17.94561       17.94561     
    299000   149.5          379.46249     -3228.143       24.475639      2035.1223      5768.8745      17.93482       17.93482       17.93482     
    300000   150            415.85576     -3227.2835      26.823034     -1607.4198      5787.5013      17.954103      17.954103      17.954103    
    301000   150.5          404.42728     -3226.498       26.085888      2377.2148      5776.1921      17.9424        17.9424        17.9424      
    302000   151            396.09905     -3228.2868      25.548711      3133.9138      5768.6488      17.934586      17.934586      17.934586    
    303000   151.5          418.08801     -3227.6509      26.967016      2909.7108      5768.9422      17.93489       17.93489       17.93489     
    304000   152            406.73211     -3227.9959      26.234551     -523.73115      5779.7921      17.946127      17.946127      17.946127    
    305000   152.5          368.66787     -3228.4949      23.779377     -6628.5297      5792.0724      17.958828      17.958828      17.958828    
    306000   153            410.22077     -3229.1084      26.459573      692.59168      5772.9709      17.939064      17.939064      17.939064    
    307000   153.5          404.79878     -3227.1559      26.10985      -1627.6879      5786.7605      17.953336      17.953336      17.953336    
    308000   154            392.98205     -3227.3404      25.347662     -3551.21        5790.9123      17.957629      17.957629      17.957629    
    309000   154.5          386.16931     -3229.5333      24.908234     -1925.2009      5779.3408      17.94566       17.94566       17.94566     
    310000   155            372.29431     -3228.6986      24.013286      3029.4924      5769.8138      17.935794      17.935794      17.935794    
    311000   155.5          393.90651     -3227.4183      25.40729      -7848.2228      5804.0035      17.971151      17.971151      17.971151    
    312000   156            428.22335     -3229.4003      27.620754      3406.4737      5761.4437      17.927116      17.927116      17.927116    
    313000   156.5          415.66611     -3229.6168      26.810802     -485.10216      5774.9335      17.941097      17.941097      17.941097    
    314000   157            382.80885     -3229.684       24.691482      651.47549      5771.3609      17.937397      17.937397      17.937397    
    315000   157.5          395.14409     -3229.2942      25.487115      3004.3291      5763.3449      17.929088      17.929088      17.929088    
    316000   158            385.75936     -3226.8271      24.881792      5136.0856      5767.9847      17.933898      17.933898      17.933898    
    317000   158.5          367.04183     -3226.6872      23.674496     -3584.2587      5792.9742      17.95976       17.95976       17.95976     
    318000   159            401.79099     -3229.1845      25.915845     -2567.7561      5783.5651      17.950031      17.950031      17.950031    
    319000   159.5          370.89502     -3227.4153      23.92303      -2900.8858      5790.6555      17.957364      17.957364      17.957364    
    320000   160            429.93876     -3229.1377      27.7314        9760.6955      5751.753       17.91706       17.91706       17.91706     
    321000   160.5          425.80408     -3227.3197      27.464709      7728.7703      5765.0942      17.930902      17.930902      17.930902    
    322000   161            390.18258     -3226.3764      25.167093      3773.7225      5773.6309      17.939748      17.939748      17.939748    
    323000   161.5          407.22604     -3228.7447      26.26641       1470.5202      5773.9934      17.940123      17.940123      17.940123    
    324000   162            374.6901      -3230.6079      24.167816     -4612.8512      5781.6263      17.948025      17.948025      17.948025    
    325000   162.5          424.00795     -3228.6326      27.348857     -5518.4404      5787.8208      17.954433      17.954433      17.954433    
    326000   163            412.17713     -3229.2431      26.585759     -338.97255      5772.2299      17.938297      17.938297      17.938297    
    327000   163.5          385.20593     -3229.8941      24.846095     -1587.6473      5779.9946      17.946337      17.946337      17.946337    
    328000   164            420.33692     -3229.8457      27.112073      3509.1708      5765.5752      17.931401      17.931401      17.931401    
    329000   164.5          406.44446     -3228.3007      26.215998     -3599.287       5787.6765      17.954284      17.954284      17.954284    
    330000   165            392.69047     -3229.3412      25.328854     -4346.9906      5781.9261      17.948336      17.948336      17.948336    
    331000   165.5          393.76268     -3230.8524      25.398013     -2618.9756      5774.2418      17.940381      17.940381      17.940381    
    332000   166            394.93689     -3228.7669      25.47375       3840.8177      5765.5746      17.9314        17.9314        17.9314      
    333000   166.5          396.32683     -3227.4018      25.563402     -6001.4656      5795.4329      17.962301      17.962301      17.962301    
    334000   167            394.90764     -3228.0158      25.471864     -1596.988       5783.9413      17.95042       17.95042       17.95042     
    335000   167.5          413.87771     -3229.7188      26.695448      9586.8547      5750.549       17.91581       17.91581       17.91581     
    336000   168            410.15964     -3228.6448      26.45563       9083.9397      5750.0103      17.91525       17.91525       17.91525     
    337000   168.5          410.06203     -3227.7662      26.449334      952.75402      5778.1045      17.94438       17.94438       17.94438     
    338000   169            428.56203     -3228.6686      27.642599      767.83115      5775.5988      17.941786      17.941786      17.941786    
    339000   169.5          409.59952     -3228.1247      26.419502     -2520.1641      5781.2409      17.947626      17.947626      17.947626    
    340000   170            401.41112     -3228.9145      25.891344     -2584.8265      5785.6259      17.952163      17.952163      17.952163    
    341000   170.5          382.53452     -3229.146       24.673787      7563.6671      5754.2651      17.919668      17.919668      17.919668    
    342000   171            384.29529     -3227.7455      24.787358      9465.2432      5753.7377      17.91912       17.91912       17.91912     
    343000   171.5          391.31577     -3227.924       25.240185     -4596.8317      5789.4463      17.956114      17.956114      17.956114    
    344000   172            394.44625     -3229.6299      25.442104     -7818.9248      5799.032       17.966018      17.966018      17.966018    
    345000   172.5          392.07727     -3228.4627      25.289302     -6170.4211      5794.2352      17.961063      17.961063      17.961063    
    346000   173            401.69731     -3227.7715      25.909803     -1580.0489      5785.0966      17.951616      17.951616      17.951616    
    347000   173.5          405.80781     -3229.7863      26.174934     -737.40977      5771.6969      17.937745      17.937745      17.937745    
    348000   174            379.96997     -3229.0493      24.508372     -1680.0181      5782.8922      17.949335      17.949335      17.949335    
    349000   174.5          408.42424     -3228.7709      26.343695     -5302.7865      5790.6157      17.957322      17.957322      17.957322    
    350000   175            400.28961     -3230.0562      25.819005      3499.0577      5761.5011      17.927176      17.927176      17.927176    
    351000   175.5          378.42957     -3228.8317      24.409015     -419.40048      5776.1846      17.942393      17.942393      17.942393    
    352000   176            384.49611     -3227.663       24.800311     -4233.6647      5786.2211      17.952779      17.952779      17.952779    
    353000   176.5          409.97867     -3227.5156      26.443957     -1020.2437      5783.1259      17.949577      17.949577      17.949577    
    354000   177            427.17835     -3228.7707      27.55335       5528.3349      5756.3062      17.921786      17.921786      17.921786    
    355000   177.5          382.2108      -3228.743       24.652907      1655.6418      5769.2836      17.935244      17.935244      17.935244    
    356000   178            414.24066     -3229.4334      26.718859     -3113.3171      5783.3909      17.949851      17.949851      17.949851    
    357000   178.5          402.98271     -3227.2879      25.992712     -4740.9664      5790.9241      17.957641      17.957641      17.957641    
    358000   179            393.36953     -3228.0424      25.372654     -6265.8431      5796.527       17.963431      17.963431      17.963431    
    359000   179.5          385.69101     -3228.9451      24.877383      2374.5973      5765.852       17.931688      17.931688      17.931688    
    360000   180            410.66456     -3228.6603      26.488198     -7361.1499      5804.9612      17.972139      17.972139      17.972139    
    361000   180.5          425.59535     -3227.2383      27.451246     -1711.1848      5787.2987      17.953893      17.953893      17.953893    
    362000   181            421.56468     -3228.3575      27.191264      10041.894      5748.0581      17.913222      17.913222      17.913222    
    363000   181.5          399.78035     -3228.6648      25.786158      527.46217      5774.4496      17.940596      17.940596      17.940596    
    364000   182            390.9665      -3231.2647      25.217657     -5001.5683      5783.3963      17.949857      17.949857      17.949857    
    365000   182.5          404.83174     -3228.6935      26.111976      2660.1571      5766.3517      17.932206      17.932206      17.932206    
    366000   183            401.345       -3228.0359      25.887078      1835.7596      5769.0882      17.935042      17.935042      17.935042    
    367000   183.5          401.24888     -3228.7531      25.880879      3245.8038      5770.3553      17.936355      17.936355      17.936355    
    368000   184            385.87863     -3230.1391      24.889485     -985.64451      5773.1512      17.939251      17.939251      17.939251    
    369000   184.5          389.19858     -3228.2328      25.103624     -4225.7071      5792.6041      17.959378      17.959378      17.959378    
    370000   185            405.53439     -3227.739       26.157298      9279.9265      5754.5959      17.920011      17.920011      17.920011    
    371000   185.5          399.52045     -3227.4842      25.769394      9517.3912      5751.5766      17.916877      17.916877      17.916877    
    372000   186            389.77722     -3228.7035      25.140948     -5495.9556      5790.3323      17.957029      17.957029      17.957029    
    373000   186.5          395.12455     -3230.1744      25.485854     -468.42819      5770.7351      17.936748      17.936748      17.936748    
    374000   187            404.07177     -3229.1975      26.062958     -937.3749       5777.1897      17.943433      17.943433      17.943433    
    375000   187.5          396.58877     -3226.8993      25.580298     -7714.2869      5804.2176      17.971372      17.971372      17.971372    
    376000   188            405.2398      -3228.5749      26.138296      1497.9877      5773.5598      17.939674      17.939674      17.939674    
    377000   188.5          377.47857     -3228.5037      24.347674      5080.8357      5757.8842      17.923424      17.923424      17.923424    
    378000   189            363.70827     -3228.7779      23.459479     -4030.2954      5788.4422      17.955075      17.955075      17.955075    
    379000   189.5          403.05747     -3227.2768      25.997534      328.10132      5784.5645      17.951065      17.951065      17.951065    
    380000   190            399.94279     -3227.9133      25.796635      4439.8826      5772.8258      17.938914      17.938914      17.938914    
    381000   190.5          387.95743     -3229.9045      25.023569      1065.4107      5776.1399      17.942346      17.942346      17.942346    
    382000   191            413.72047     -3229.3536      26.685306      1295.9174      5771.829       17.937882      17.937882      17.937882    
    383000   191.5          379.47701     -3226.0282      24.476576     -6759.2334      5798.8629      17.965844      17.965844      17.965844    
    384000   192            402.90208     -3227.005       25.987511     -15287.475      5822.9029      17.990636      17.990636      17.990636    
    385000   192.5          403.64188     -3228.9203      26.035229      1985.4198      5770.6762      17.936687      17.936687      17.936687    
    386000   193            389.33315     -3229.0303      25.112305      2761.2096      5769.4282      17.935394      17.935394      17.935394    
    387000   193.5          384.52772     -3229.2439      24.80235       1652.996       5770.1512      17.936143      17.936143      17.936143    
    388000   194            379.84693     -3228.0907      24.500436     -2536.16        5795.1         17.961957      17.961957      17.961957    
    389000   194.5          415.56083     -3227.6087      26.804011     -574.51489      5780.2422      17.946593      17.946593      17.946593    
    390000   195            391.44071     -3227.0455      25.248244     -1689.8566      5781.8567      17.948264      17.948264      17.948264    
    391000   195.5          399.69684     -3228.8192      25.780771     -3202.6869      5787.0956      17.953683      17.953683      17.953683    
    392000   196            392.99713     -3228.6425      25.348634      396.02639      5771.6064      17.937651      17.937651      17.937651    
    393000   196.5          404.11055     -3227.3674      26.065459      2758.4647      5773.9232      17.940051      17.940051      17.940051    
    394000   197            428.29334     -3227.5382      27.625268      4961.075       5771.3896      17.937426      17.937426      17.937426    
    395000   197.5          399.41632     -3228.1175      25.762677      2106.9865      5769.7905      17.93577       17.93577       17.93577     
    396000   198            395.12674     -3228.5346      25.485996     -2419.3767      5784.1963      17.950684      17.950684      17.950684    
    397000   198.5          386.97015     -3228.189       24.959889     -10161.764      5803.7092      17.970847      17.970847      17.970847    
    398000   199            399.0457      -3230.1554      25.738772     -3974.8116      5782.3095      17.948732      17.948732      17.948732    
    399000   199.5          395.85372     -3228.1523      25.532887     -441.34547      5775.6061      17.941794      17.941794      17.941794    
    400000   200            404.24815     -3228.9239      26.074334     -1799.496       5785.8195      17.952363      17.952363      17.952363    
    401000   200.5          357.59943     -3228.068       23.065454      144.60736      5777.5841      17.943842      17.943842      17.943842    
    402000   201            414.24539     -3230.4944      26.719164      454.86002      5770.0476      17.936036      17.936036      17.936036    
    403000   201.5          414.91732     -3230.1268      26.762504     -1500.3611      5780.4854      17.946845      17.946845      17.946845    
    404000   202            430.48487     -3227           27.766624      669.94023      5777.3687      17.943619      17.943619      17.943619    
    405000   202.5          376.50655     -3227.7011      24.284978     -6569.5105      5796.9812      17.9639        17.9639        17.9639      
    406000   203            401.65125     -3228.8722      25.906832      2148.5324      5767.2288      17.933115      17.933115      17.933115    
    407000   203.5          398.62458     -3227.4519      25.711609      5100.9696      5764.3783      17.93016       17.93016       17.93016     
    408000   204            441.02566     -3227.092       28.446513      4153.7394      5780.628       17.946992      17.946992      17.946992    
    409000   204.5          413.23055     -3230.0479      26.653706     -1575.4226      5781.2084      17.947593      17.947593      17.947593    
    410000   205            393.11096     -3229.5116      25.355976     -3359.3071      5785.2802      17.951805      17.951805      17.951805    
    411000   205.5          385.41073     -3228.0148      24.859305      1152.9866      5780.3168      17.94667       17.94667       17.94667     
    412000   206            413.77241     -3228.4223      26.688657      9535.4418      5751.79        17.917098      17.917098      17.917098    
    413000   206.5          391.26552     -3228.8079      25.236944      5206.0443      5760.2043      17.925831      17.925831      17.925831    
    414000   207            384.73699     -3228.7674      24.815848      1057.746       5770.8224      17.936839      17.936839      17.936839    
    415000   207.5          393.94252     -3226.412       25.409612     -1468.3221      5782.1404      17.948557      17.948557      17.948557    
    416000   208            436.9899      -3228.3547      28.186203     -4058.6252      5796.1191      17.96301       17.96301       17.96301     
    417000   208.5          408.00397     -3228.5112      26.316588      14966.547      5733.1445      17.897717      17.897717      17.897717    
    418000   209            395.91836     -3229.3267      25.537056     -1371.2801      5783.6077      17.950075      17.950075      17.950075    
    419000   209.5          379.56745     -3228.4075      24.482409      5376.1621      5761.2702      17.926937      17.926937      17.926937    
    420000   210            418.80781     -3229.0373      27.013444      2909.8879      5767.5785      17.933477      17.933477      17.933477    
    421000   210.5          400.0424      -3231.0136      25.803059      6064.0738      5752.5232      17.91786       17.91786       17.91786     
    422000   211            399.91821     -3228.3313      25.79505       187.94515      5779.1022      17.945413      17.945413      17.945413    
    423000   211.5          395.25203     -3227.6729      25.494077      1768.6617      5769.9695      17.935955      17.935955      17.935955    
    424000   212            385.89214     -3227.2585      24.890357     -7736.3881      5794.7187      17.961563      17.961563      17.961563    
    425000   212.5          398.35519     -3229.2513      25.694233     -5102.7586      5792.7943      17.959574      17.959574      17.959574    
    426000   213            384.23667     -3230.0598      24.783577     -2519.2917      5777.0335      17.943272      17.943272      17.943272    
    427000   213.5          408.23597     -3228.2593      26.331552      2755.7484      5768.3881      17.934316      17.934316      17.934316    
    428000   214            404.49723     -3227.7922      26.0904        1869.9022      5773.032       17.939128      17.939128      17.939128    
    429000   214.5          395.11144     -3228.8846      25.485009      1343.5095      5765.2563      17.93107       17.93107       17.93107     
    430000   215            384.40129     -3229.8705      24.794195     -6455.096       5787.9452      17.954562      17.954562      17.954562    
    431000   215.5          381.42748     -3227.2229      24.602382     -5289.4303      5789.0832      17.955738      17.955738      17.955738    
    432000   216            396.90241     -3227.9903      25.600528      1210.8672      5769.4938      17.935462      17.935462      17.935462    
    433000   216.5          394.35861     -3230.0943      25.436451      2521.9255      5764.2764      17.930054      17.930054      17.930054    
    434000   217            392.62736     -3229.3171      25.324784      2631.8266      5764.5081      17.930294      17.930294      17.930294    
    435000   217.5          406.11683     -3227.5469      26.194865      2637.7305      5769.2986      17.93526       17.93526       17.93526     
    436000   218            404.71333     -3228.5577      26.104339      578.74732      5771.285       17.937318      17.937318      17.937318    
    437000   218.5          403.08081     -3230.736       25.99904       4112.8097      5761.9643      17.927656      17.927656      17.927656    
    438000   219            406.59389     -3228.4537      26.225636     -1288.1048      5778.056       17.94433       17.94433       17.94433     
    439000   219.5          403.72132     -3227.9286      26.040353     -6302.1091      5799.1967      17.966188      17.966188      17.966188    
    440000   220            420.18983     -3227.6036      27.102586     -1566.9938      5782.8498      17.949291      17.949291      17.949291    
    441000   220.5          401.82658     -3228.4825      25.918141     -3426.4243      5785.7782      17.952321      17.952321      17.952321    
    442000   221            397.66484     -3228.5986      25.649705     -5467.7661      5788.8073      17.955453      17.955453      17.955453    
    443000   221.5          408.73599     -3226.8564      26.363803      2408.7918      5773.1735      17.939274      17.939274      17.939274    
    444000   222            417.65949     -3227.4876      26.939377      5499.5945      5766.6935      17.93256       17.93256       17.93256     
    445000   222.5          388.39521     -3227.388       25.051807      3847.7899      5766.7588      17.932628      17.932628      17.932628    
    446000   223            383.77294     -3227.8934      24.753666      4.5510795      5779.5726      17.9459        17.9459        17.9459      
    447000   223.5          386.80631     -3229.7732      24.949321     -692.45748      5776.2176      17.942427      17.942427      17.942427    
    448000   224            391.41831     -3230.4587      25.246799      2458.3961      5760.5906      17.926232      17.926232      17.926232    
    449000   224.5          419.94976     -3229.1054      27.087101     -1716.663       5777.9792      17.944251      17.944251      17.944251    
    450000   225            386.65714     -3227.5198      24.9397       -8309.4534      5799.2657      17.96626       17.96626       17.96626     
    451000   225.5          387.47334     -3228.6974      24.992345     -5894.738       5789.1401      17.955797      17.955797      17.955797    
    452000   226            397.81776     -3229.7341      25.659568      535.37344      5770.1889      17.936182      17.936182      17.936182    
    453000   226.5          351.45819     -3226.8206      22.669339      2465.0353      5767.1557      17.933039      17.933039      17.933039    
    454000   227            414.23072     -3227.711       26.718218     -248.00103      5777.5293      17.943785      17.943785      17.943785    
    455000   227.5          411.13065     -3229.3297      26.518261     -2177.1497      5779.1885      17.945502      17.945502      17.945502    
    456000   228            399.02923     -3228.9065      25.737709      2735.0885      5769.5588      17.935529      17.935529      17.935529    
    457000   228.5          401.13789     -3228.0808      25.873719      572.43349      5777.9081      17.944177      17.944177      17.944177    
    458000   229            416.27904     -3227.3347      26.850336      2098.5601      5778.0749      17.94435       17.94435       17.94435     
    459000   229.5          387.9765      -3226.9348      25.024799      2050.624       5776.9885      17.943225      17.943225      17.943225    
    460000   230            384.82365     -3228.4011      24.821438     -8513.8784      5806.9675      17.974209      17.974209      17.974209    
    461000   230.5          401.84608     -3228.8861      25.919399     -1117.8793      5779.4649      17.945788      17.945788      17.945788    
    462000   231            417.38356     -3227.6637      26.921578      4914.6004      5763.1252      17.92886       17.92886       17.92886     
    463000   231.5          409.13885     -3227.2889      26.389788     -326.99778      5783.8821      17.950359      17.950359      17.950359    
    464000   232            375.21333     -3227.6081      24.201564     -1437.716       5782.3736      17.948798      17.948798      17.948798    
    465000   232.5          417.18618     -3228.8512      26.908847     -849.17922      5776.9444      17.943179      17.943179      17.943179    
    466000   233            412.40741     -3226.6583      26.600613      5217.9146      5766.2413      17.932091      17.932091      17.932091    
    467000   233.5          400.84475     -3227.8545      25.854812     -2069.5478      5786.1839      17.95274       17.95274       17.95274     
    468000   234            387.91951     -3228.1341      25.021123     -999.37563      5785.1452      17.951666      17.951666      17.951666    
    469000   234.5          375.98939     -3228.6772      24.251621      2856.2253      5763.4007      17.929146      17.929146      17.929146    
    470000   235            404.09791     -3228.657       26.064643     -1796.6795      5780.6571      17.947022      17.947022      17.947022    
    471000   235.5          401.7468      -3227.8552      25.912995     -8697.2623      5802.725       17.969831      17.969831      17.969831    
    472000   236            392.3782      -3228.8826      25.308713     -1964.5125      5777.821       17.944087      17.944087      17.944087    
    473000   236.5          389.72768     -3228.945       25.137752      5117.0176      5758.9684      17.924549      17.924549      17.924549    
    474000   237            393.74268     -3228.8176      25.396723      1603.8249      5765.5691      17.931394      17.931394      17.931394    
    475000   237.5          404.86398     -3228.0438      26.114056     -2690.0036      5786.3079      17.952868      17.952868      17.952868    
    476000   238            416.6137      -3227.4144      26.871922     -7941.9721      5806.0127      17.973224      17.973224      17.973224    
    477000   238.5          405.86523     -3227.7214      26.178637     -190.7958       5780.1676      17.946516      17.946516      17.946516    
    478000   239            392.39722     -3229.7108      25.309939      5780.701       5760.018       17.925638      17.925638      17.925638    
    479000   239.5          381.23764     -3229.171       24.590137      843.15571      5771.8245      17.937877      17.937877      17.937877    
    480000   240            401.72967     -3228.0122      25.91189       3593.4393      5764.8153      17.930613      17.930613      17.930613    
    481000   240.5          399.19068     -3228.5228      25.748123      1751.7286      5767.5453      17.933443      17.933443      17.933443    
    482000   241            426.07032     -3229.0276      27.481882     -2613.6071      5778.2579      17.944539      17.944539      17.944539    
    483000   241.5          436.06504     -3228.3769      28.126549      3647.6925      5769.9717      17.935957      17.935957      17.935957    
    484000   242            400.60899     -3227.9821      25.839605     -1449.3512      5784.6967      17.951202      17.951202      17.951202    
    485000   242.5          395.84507     -3229.2866      25.532329      5304.4726      5760.4502      17.926086      17.926086      17.926086    
    486000   243            405.31841     -3228.6102      26.143367      4885.7023      5764.2522      17.930029      17.930029      17.930029    
    487000   243.5          384.66557     -3227.3533      24.811242      1993.1227      5770.75        17.936764      17.936764      17.936764    
    488000   244            380.79519     -3228.2878      24.561599     -1889.2979      5782.8562      17.949298      17.949298      17.949298    
    489000   244.5          383.92615     -3227.0835      24.763548      2565.8776      5773.4164      17.939526      17.939526      17.939526    
    490000   245            407.05173     -3228.3367      26.255167      3316.1693      5766.0251      17.931867      17.931867      17.931867    
    491000   245.5          402.41075     -3229.682       25.95582       309.40061      5770.6799      17.936691      17.936691      17.936691    
    492000   246            382.27613     -3229.2551      24.657121      5964.3284      5754.5262      17.919939      17.919939      17.919939    
    493000   246.5          399.73216     -3229.6314      25.783049      4804.5566      5761.7652      17.92745       17.92745       17.92745     
    494000   247            411.61317     -3228.2589      26.549384     -5928.2385      5795.2235      17.962084      17.962084      17.962084    
    495000   247.5          409.8895      -3228.2549      26.438205     -8164.0269      5801.5141      17.968581      17.968581      17.968581    
    496000   248            421.34777     -3229.8238      27.177273      2504.8515      5762.3049      17.92801       17.92801       17.92801     
    497000   248.5          385.45277     -3228.7941      24.862016      355.40789      5776.6214      17.942845      17.942845      17.942845    
    498000   249            379.86155     -3229.7601      24.501379      4026.3531      5759.9605      17.925578      17.925578      17.925578    
    499000   249.5          396.65536     -3229.2343      25.584593      8114.1635      5745.8459      17.910924      17.910924      17.910924    
    500000   250            406.38425     -3228.0256      26.212114      53.328093      5778.2533      17.944534      17.944534      17.944534    
    501000   250.5          410.91931     -3228.6738      26.504629      3968.3984      5762.1985      17.927899      17.927899      17.927899    
    502000   251            370.6221      -3228.5242      23.905427     -7193.5808      5794.2518      17.96108       17.96108       17.96108     
    503000   251.5          373.50654     -3228.704       24.091475     -1801.5741      5777.1416      17.943383      17.943383      17.943383    
    504000   252            401.96403     -3229.7634      25.927006      1589.2143      5770.41        17.936411      17.936411      17.936411    
    505000   252.5          378.00395     -3226.5044      24.381562     -618.30705      5784.62        17.951123      17.951123      17.951123    
    506000   253            385.28367     -3228.4948      24.85111      -1551.1393      5785.552       17.952087      17.952087      17.952087    
    507000   253.5          388.50779     -3229.7688      25.059068     -2245.2656      5777.4061      17.943657      17.943657      17.943657    
    508000   254            405.08843     -3228.5604      26.128533      5827.1939      5763.9065      17.92967       17.92967       17.92967     
    509000   254.5          393.02805     -3227.9456      25.350628      4510.8757      5761.5558      17.927233      17.927233      17.927233    
    510000   255            376.02367     -3228.6893      24.253832     -501.29286      5767.9639      17.933877      17.933877      17.933877    
    511000   255.5          383.93466     -3227.6195      24.764098     -1195.1556      5781.2182      17.947603      17.947603      17.947603    
    512000   256            402.95967     -3227.5965      25.991226      908.01534      5782.8379      17.949279      17.949279      17.949279    
    513000   256.5          379.61224     -3229.9837      24.485298      2927.0825      5763.7884      17.929548      17.929548      17.929548    
    514000   257            404.08282     -3229.4364      26.06367       4685.7346      5760.3189      17.92595       17.92595       17.92595     
    515000   257.5          402.20257     -3228.039       25.942393     -3029.5057      5786.6653      17.953238      17.953238      17.953238    
    516000   258            399.42214     -3228.651       25.763053      363.67279      5777.012       17.943249      17.943249      17.943249    
    517000   258.5          384.66972     -3229.3275      24.811509     -4533.9534      5785.6688      17.952207      17.952207      17.952207    
    518000   259            410.56668     -3229.4215      26.481885      2325.1765      5764.412       17.930195      17.930195      17.930195    
    519000   259.5          407.80046     -3228.6422      26.303461     -3442.7506      5780.375       17.94673       17.94673       17.94673     
    520000   260            402.442       -3226.481       25.957836     -1164.6038      5788.2698      17.954897      17.954897      17.954897    
    521000   260.5          403.69916     -3228.7421      26.038924     -7740.267       5799.7501      17.96676       17.96676       17.96676     
    522000   261            359.47026     -3227.8743      23.186124     -303.37143      5779.0465      17.945355      17.945355      17.945355    
    523000   261.5          434.77545     -3229.9625      28.04337       3185.9848      5765.5048      17.931328      17.931328      17.931328    
    524000   262            427.057       -3228.0551      27.545524      1301.375       5773.4271      17.939537      17.939537      17.939537    
    525000   262.5          391.1957      -3228.0206      25.23244       1334.9088      5772.3037      17.938373      17.938373      17.938373    
    526000   263            401.31503     -3229.8557      25.885146     -2612.227       5782.4282      17.948855      17.948855      17.948855    
    527000   263.5          396.25276     -3225.4239      25.558625      120.89737      5786.7552      17.953331      17.953331      17.953331    
    528000   264            416.94179     -3227.7628      26.893084      5956.9425      5761.5355      17.927212      17.927212      17.927212    
    529000   264.5          382.48998     -3227.4999      24.670914     -2903.4142      5791.8759      17.958625      17.958625      17.958625    
    530000   265            439.71348     -3229.1474      28.361876     -857.16209      5772.949       17.939042      17.939042      17.939042    
    531000   265.5          394.72591     -3228.1213      25.460142     -3373.9677      5788.1796      17.954804      17.954804      17.954804    
    532000   266            391.15045     -3228.7534      25.229522      1917.9147      5767.4428      17.933336      17.933336      17.933336    
    533000   266.5          405.70005     -3229.005       26.167983      1434.8192      5769.0093      17.93496       17.93496       17.93496     
    534000   267            401.79777     -3227.7878      25.916283      908.52148      5777.4677      17.943721      17.943721      17.943721    
    535000   267.5          410.13063     -3227.532       26.453759     -9249.9184      5808.3372      17.975623      17.975623      17.975623    
    536000   268            392.80969     -3227.7914      25.336544     -3333.8942      5790.6934      17.957403      17.957403      17.957403    
    537000   268.5          391.48359     -3229.4037      25.25101       7340.3572      5754.0707      17.919466      17.919466      17.919466    
    538000   269            401.72857     -3229.2179      25.911819      2194.8794      5770.3531      17.936353      17.936353      17.936353    
    539000   269.5          414.668       -3228.8651      26.746423      2019.2084      5773.8694      17.939995      17.939995      17.939995    
    540000   270            395.185       -3228.6829      25.489753      2859.327       5773.2432      17.939346      17.939346      17.939346    
    541000   270.5          384.74943     -3229.068       24.816651     -100.2551       5774.8681      17.941029      17.941029      17.941029    
    542000   271            416.93056     -3228.9825      26.89236      -8466.0626      5797.49        17.964426      17.964426      17.964426    
    543000   271.5          423.0547      -3228.9655      27.287372     -818.98105      5779.7494      17.946083      17.946083      17.946083    
    544000   272            402.28602     -3228.3628      25.947775      5202.6128      5765.6623      17.931491      17.931491      17.931491    
    545000   272.5          394.79694     -3228.6898      25.464723      5971.3922      5761.0472      17.926705      17.926705      17.926705    
    546000   273            377.58168     -3228.4933      24.354325     -6055.3534      5800.6577      17.967697      17.967697      17.967697    
    547000   273.5          414.02908     -3228.779       26.705212     -8470.8782      5799.2612      17.966255      17.966255      17.966255    
    548000   274            399.41091     -3227.7562      25.762328      895.62534      5773.0229      17.939118      17.939118      17.939118    
    549000   274.5          383.58845     -3227.7279      24.741766      4839.6333      5770.1099      17.9361        17.9361        17.9361      
    550000   275            407.89548     -3231.0184      26.30959      -81.722962      5773.0671      17.939164      17.939164      17.939164    
    551000   275.5          403.1582      -3228.5565      26.004031     -2634.3794      5782.1299      17.948546      17.948546      17.948546    
    552000   276            408.30747     -3228.1136      26.336164     -5573.1192      5800.6608      17.9677        17.9677        17.9677      
    553000   276.5          437.28751     -3228.6296      28.205399      987.6238       5770.8248      17.936841      17.936841      17.936841    
    554000   277            387.22891     -3227.5728      24.976579      348.89859      5782.1422      17.948559      17.948559      17.948559    
    555000   277.5          403.2675      -3228.8685      26.011081      774.64026      5777.7231      17.943985      17.943985      17.943985    
    556000   278            402.02028     -3227.7296      25.930635      98.76753       5777.5431      17.943799      17.943799      17.943799    
    557000   278.5          407.90871     -3227.1862      26.310443     -2552.533       5786.1141      17.952668      17.952668      17.952668    
    558000   279            398.90246     -3228.578       25.729533      4053.0138      5767.6941      17.933597      17.933597      17.933597    
    559000   279.5          399.21744     -3229.7919      25.749849      3562.9481      5765.4719      17.931294      17.931294      17.931294    
    560000   280            402.26869     -3228.22        25.946658      1146.8457      5778.4648      17.944753      17.944753      17.944753    
    561000   280.5          380.3395      -3227.3092      24.532207     -5145.2788      5790.6222      17.957329      17.957329      17.957329    
    562000   281            386.95717     -3229.9611      24.959052     -2286.4391      5783.5138      17.949978      17.949978      17.949978    
    563000   281.5          394.87479     -3229.8025      25.469745      864.39403      5771.5796      17.937623      17.937623      17.937623    
    564000   282            392.84333     -3228.8635      25.338714      2602.9866      5767.0134      17.932891      17.932891      17.932891    
    565000   282.5          394.30038     -3227.0266      25.432695     -80.703311      5778.995       17.945302      17.945302      17.945302    
    566000   283            399.35714     -3229.26        25.75886      -7388.7007      5801.8986      17.968978      17.968978      17.968978    
    567000   283.5          390.06947     -3228.0036      25.159798      1164.2708      5769.1996      17.935157      17.935157      17.935157    
    568000   284            420.29169     -3227.96        27.109155     -2722.5447      5789.6686      17.956343      17.956343      17.956343    
    569000   284.5          419.69303     -3227.7741      27.070542      7394.459       5759.6653      17.925272      17.925272      17.925272    
    570000   285            415.69419     -3229.5074      26.812613      3901.4042      5762.8516      17.928577      17.928577      17.928577    
    571000   285.5          411.12557     -3229.0541      26.517933      1622.8652      5772.1312      17.938195      17.938195      17.938195    
    572000   286            395.35889     -3228.3145      25.50097      -5223.2554      5787.1818      17.953772      17.953772      17.953772    
    573000   286.5          422.73339     -3228.1604      27.266647     -8087.5348      5801.3039      17.968364      17.968364      17.968364    
    574000   287            384.64347     -3227.2893      24.809816      229.44823      5775.9751      17.942176      17.942176      17.942176    
    575000   287.5          392.50921     -3229.2066      25.317163      6225.4497      5759.4629      17.925062      17.925062      17.925062    
    576000   288            377.68932     -3230.0017      24.361268     -622.10042      5778.8734      17.945176      17.945176      17.945176    
    577000   288.5          409.27964     -3227.7674      26.398869     -2795.2991      5789.9035      17.956586      17.956586      17.956586    
    578000   289            402.27586     -3227.2528      25.947119     -2101.661       5789.1236      17.95578       17.95578       17.95578     
    579000   289.5          411.28324     -3227.0754      26.528103      2247.5347      5771.0915      17.937118      17.937118      17.937118    
    580000   290            383.70825     -3227.3796      24.749494     -2855.0624      5791.7479      17.958493      17.958493      17.958493    
    581000   290.5          410.99105     -3229.4897      26.509257      3410.7647      5765.69        17.93152       17.93152       17.93152     
    582000   291            400.62194     -3229.0951      25.840441      11267.484      5745.9259      17.911007      17.911007      17.911007    
    583000   291.5          421.75054     -3226.1896      27.203252     -387.24078      5789.4486      17.956116      17.956116      17.956116    
    584000   292            383.82315     -3228.0636      24.756905     -1410.0198      5779.3831      17.945704      17.945704      17.945704    
    585000   292.5          403.23856     -3229.8961      26.009215      1600.2575      5766.1494      17.931996      17.931996      17.931996    
    586000   293            376.35725     -3229.1719      24.275349      3295.7643      5761.4199      17.927092      17.927092      17.927092    
    587000   293.5          395.60727     -3227.813       25.516991     -4905.5948      5791.7584      17.958504      17.958504      17.958504    
    588000   294            416.49162     -3228.4351      26.864048      356.02196      5768.1478      17.934067      17.934067      17.934067    
    589000   294.5          407.02116     -3227.4001      26.253196     -4501.7643      5795.244       17.962105      17.962105      17.962105    
    590000   295            418.9254      -3227.5466      27.021028     -1939.2417      5787.6034      17.954208      17.954208      17.954208    
    591000   295.5          401.40138     -3227.9712      25.890715      598.77171      5776.2458      17.942456      17.942456      17.942456    
    592000   296            396.53772     -3229.1596      25.577005      6971.1377      5756.6264      17.922119      17.922119      17.922119    
    593000   296.5          384.82227     -3227.1458      24.821349     -343.29918      5779.1117      17.945423      17.945423      17.945423    
    594000   297            422.00784     -3226.8437      27.219848     -2900.6536      5793.5126      17.960316      17.960316      17.960316    
    595000   297.5          407.92411     -3227.9696      26.311436     -622.08048      5777.9436      17.944214      17.944214      17.944214    
    596000   298            405.072       -3228.5707      26.127473      3596.7976      5766.6212      17.932485      17.932485      17.932485    
    597000   298.5          398.19522     -3227.8085      25.683915      3139.5081      5764.2903      17.930068      17.930068      17.930068    
    598000   299            395.78589     -3229.4635      25.528511      10202.323      5748.1709      17.91334       17.91334       17.91334     
    599000   299.5          355.70252     -3227.8966      22.943101      3569.3343      5772.3361      17.938407      17.938407      17.938407    
    600000   300            404.75462     -3228.597       26.107002     -5222.0605      5796.3219      17.963219      17.963219      17.963219    
Loop time of 21270 on 1 procs for 500000 steps with 500 atoms

Performance: 1.016 ns/day, 23.633 hours/ns, 23.507 timesteps/s, 11.754 katom-step/s
99.1% CPU use with 1 MPI tasks x 1 OpenMP threads

MPI task timing breakdown:
Section |  min time  |  avg time  |  max time  |%varavg| %total
---------------------------------------------------------------
Pair    | 20921      | 20921      | 20921      |   0.0 | 98.36
Neigh   | 0.27479    | 0.27479    | 0.27479    |   0.0 |  0.00
Comm    | 17.922     | 17.922     | 17.922     |   0.0 |  0.08
Output  | 0.12317    | 0.12317    | 0.12317    |   0.0 |  0.00
Modify  | 311.23     | 311.23     | 311.23     |   0.0 |  1.46
Other   |            | 19.14      |            |       |  0.09

Nlocal:            500 ave         500 max         500 min
Histogram: 1 0 0 0 0 0 0 0 0 0
Nghost:           2918 ave        2918 max        2918 min
Histogram: 1 0 0 0 0 0 0 0 0 0
Neighs:              0 ave           0 max           0 min
Histogram: 1 0 0 0 0 0 0 0 0 0
FullNghs:        92624 ave       92624 max       92624 min
Histogram: 1 0 0 0 0 0 0 0 0 0

Total # of neighbors = 92624
Ave neighs/atom = 185.248
Neighbor list builds = 584
Dangerous builds = 0
### NPT complete at 400 K ###
NPT_RESULT: a0_at_400K = 3.59264380308057 Angstrom
System init for write_restart ...
System init for write_data ...
Total wall time: 7:06:26
Command block exited with code 0 at Thu Jun 25 09:59:59 AM EDT 2026
LAMMPS converged (exit 0). Simulation complete. No resubmission.
