Node: d1028  Start: Mon Jun 22 05:07:08 AM EDT 2026
LAMMPS (11 Feb 2026 - Development - patch_11Feb2026-99-gb75dfcc930-modified)
W0622 05:07:43.990000 1102043 site-packages/torch/fx/_symbolic_trace.py:56] is_fx_tracing will return true for both fx.symbolic_trace and torch.export. Please use is_fx_tracing_symbolic_tracing() for specifically fx.symbolic_trace or torch.compiler.is_compiling() for specifically torch.export/compile.
KOKKOS mode with Kokkos version 5.0.2 is enabled
  using double precision
  using view layout = legacy
  will use up to 1 GPU(s) per node
  using 1 OpenMP thread(s) per MPI task
Reading data file ...
  orthogonal box = (-0.0045823087 -0.0045823087 -0.0045823087) to (17.859582 17.859582 17.859582)
  1 by 1 by 1 MPI processor grid
  reading atoms ...
  500 atoms
  reading velocities ...
  500 velocities
  read_data CPU = 0.021 seconds

CITE-CITE-CITE-CITE-CITE-CITE-CITE-CITE-CITE-CITE-CITE-CITE-CITE

Your simulation uses code contributions which should be cited:
- KOKKOS package: https://doi.org/10.1145/3731599.3767498
The log file lists these citations in BibTeX format.

CITE-CITE-CITE-CITE-CITE-CITE-CITE-CITE-CITE-CITE-CITE-CITE-CITE

Neighbor list info ...
  update: every = 1 steps, delay = 0 steps, check = yes
  max neighbors/atom: 2000, page size: 100000
  master list distance cutoff = 8
  ghost atom cutoff = 8
  binsize = 8, bins = 3 3 3
  1 neighbor lists, perpetual/occasional/extra = 1 0 0
  (1) pair mliap/kk, perpetual
      attributes: full, newton on, kokkos_device
      pair build: full/bin/kk/device
      stencil: full/bin/3d
      bin: kk/device
Setting up Verlet run ...
  Unit style    : metal
  Current step  : 0
  Time step     : 0.0005
Per MPI rank memory allocation (min/avg/max) = 112.8 | 112.8 | 112.8 Mbytes
   Step          Time           Temp          PotEng         KinEng         Press          Volume           Lx             Ly             Lz      
         0   0              700           -3250.6152      45.150569      8459.2953      5700.9619      17.864165      17.864165      17.864165    
       100   0.05           225.43584     -3220.0031      14.540795      30928.985      5700.9656      17.864168      17.864168      17.864168    
       200   0.1            334.50477     -3227.0386      21.575829      25692.059      5700.9792      17.864183      17.864183      17.864183    
       300   0.15           335.14858     -3227.0814      21.617356      23539.813      5701.0012      17.864206      17.864206      17.864206    
       400   0.2            362.36352     -3228.8383      23.372742      22464.8        5701.0313      17.864237      17.864237      17.864237    
       500   0.25           365.40399     -3229.0361      23.568854      26879.605      5701.0699      17.864277      17.864277      17.864277    
       600   0.3            359.08046     -3228.6301      23.160981      24168.661      5701.1177      17.864327      17.864327      17.864327    
       700   0.35           364.32007     -3228.9702      23.49894       23664.093      5701.1741      17.864386      17.864386      17.864386    
       800   0.4            363.51269     -3228.9207      23.446864      26422.804      5701.2389      17.864454      17.864454      17.864454    
       900   0.45           361.33861     -3228.7831      23.306634      23272.806      5701.3127      17.864531      17.864531      17.864531    
      1000   0.5            368.86403     -3229.2715      23.792029      23861.808      5701.3951      17.864617      17.864617      17.864617    
      1100   0.55           359.61304     -3228.6777      23.195333      23255.706      5701.4859      17.864712      17.864712      17.864712    
      1200   0.6            351.94279     -3228.1861      22.700596      24228.445      5701.5851      17.864816      17.864816      17.864816    
      1300   0.65           372.247       -3229.4993      24.010234      25860.73       5701.6927      17.864928      17.864928      17.864928    
      1400   0.7            347.48276     -3227.9057      22.41292       26412.425      5701.8092      17.86505       17.86505       17.86505     
      1500   0.75           375.0692      -3229.6893      24.192268      24269.203      5701.9349      17.865181      17.865181      17.865181    
      1600   0.8            348.59847     -3227.986       22.484885      25062.006      5702.0695      17.865321      17.865321      17.865321    
      1700   0.85           369.89856     -3229.3643      23.858758      23794.525      5702.2129      17.865471      17.865471      17.865471    
      1800   0.9            357.03931     -3228.5392      23.029326      25973.696      5702.3648      17.86563       17.86563       17.86563     
      1900   0.95           357.80778     -3228.5935      23.078893      24259.23       5702.5257      17.865798      17.865798      17.865798    
      2000   1              365.5147      -3229.0953      23.575995      21787.22       5702.6951      17.865975      17.865975      17.865975    
      2100   1.05           354.17912     -3228.3687      22.844841      24267.426      5702.8724      17.86616       17.86616       17.86616     
      2200   1.1            351.56429     -3228.2052      22.676182      23238.868      5703.058       17.866354      17.866354      17.866354    
      2300   1.15           365.88933     -3229.1343      23.600159      21090.653      5703.2517      17.866556      17.866556      17.866556    
      2400   1.2            362.19381     -3228.9013      23.361795      22057.061      5703.4531      17.866766      17.866766      17.866766    
      2500   1.25           369.69923     -3229.3906      23.8459        23797.767      5703.6624      17.866985      17.866985      17.866985    
      2600   1.3            349.60549     -3228.1001      22.549838      22804.386      5703.8801      17.867212      17.867212      17.867212    
      2700   1.35           361.36356     -3228.8644      23.308243      24955.226      5704.106       17.867448      17.867448      17.867448    
      2800   1.4            363.23532     -3228.9911      23.428973      24021.911      5704.3404      17.867693      17.867693      17.867693    
      2900   1.45           369.89116     -3229.4267      23.858281      23650.291      5704.5834      17.867947      17.867947      17.867947    
      3000   1.5            379.43735     -3230.0489      24.474017      22817.451      5704.8349      17.868209      17.868209      17.868209    
      3100   1.55           353.79368     -3228.4011      22.81998       23777.616      5705.0947      17.86848       17.86848       17.86848     
      3200   1.6            357.92725     -3228.6743      23.086598      23934.524      5705.3628      17.86876       17.86876       17.86876     
      3300   1.65           359.45555     -3228.7796      23.185175      23125.07       5705.6394      17.869049      17.869049      17.869049    
      3400   1.7            348.36186     -3228.0706      22.469623      23319.12       5705.9242      17.869346      17.869346      17.869346    
      3500   1.75           364.87011     -3229.1421      23.534419      22167.377      5706.217       17.869652      17.869652      17.869652    
      3600   1.8            353.02828     -3228.3854      22.770611      23757.808      5706.5178      17.869966      17.869966      17.869966    
      3700   1.85           369.83812     -3229.477       23.854859      23479.439      5706.827       17.870289      17.870289      17.870289    
      3800   1.9            350.20113     -3228.2175      22.588258      22141.907      5707.1444      17.87062       17.87062       17.87062     
      3900   1.95           357.55393     -3228.6989      23.062519      21906.494      5707.4697      17.87096       17.87096       17.87096     
      4000   2              357.51374     -3228.7039      23.059926      22530.164      5707.8028      17.871307      17.871307      17.871307    
      4100   2.05           370.66195     -3229.5594      23.907997      21640.024      5708.1439      17.871663      17.871663      17.871663    
      4200   2.1            357.26393     -3228.7028      23.043814      22619.866      5708.4928      17.872027      17.872027      17.872027    
      4300   2.15           366.05148     -3229.2772      23.610618      20011.409      5708.8494      17.872399      17.872399      17.872399    
      4400   2.2            367.05318     -3229.3497      23.675229      21501.221      5709.2135      17.872779      17.872779      17.872779    
      4500   2.25           347.26739     -3228.0811      22.399029      22209.263      5709.5854      17.873167      17.873167      17.873167    
      4600   2.3            362.33313     -3229.061       23.370781      22500.107      5709.9652      17.873564      17.873564      17.873564    
      4700   2.35           354.19295     -3228.544       22.845733      20197.43       5710.3527      17.873968      17.873968      17.873968    
      4800   2.4            358.23596     -3228.8129      23.10651       21072.155      5710.7478      17.87438       17.87438       17.87438     
      4900   2.45           362.14385     -3229.0729      23.358573      19865.439      5711.1503      17.8748        17.8748        17.8748      
      5000   2.5            352.23062     -3228.4414      22.719161      18804.457      5711.5599      17.875228      17.875228      17.875228    
      5100   2.55           355.97286     -3228.6909      22.960539      22407.765      5711.9764      17.875662      17.875662      17.875662    
      5200   2.6            366.06397     -3229.3504      23.611423      20320.169      5712.4004      17.876104      17.876104      17.876104    
      5300   2.65           352.08405     -3228.4571      22.709707      20681.842      5712.8318      17.876554      17.876554      17.876554    
      5400   2.7            352.97746     -3228.5234      22.767333      21495.483      5713.2705      17.877012      17.877012      17.877012    
      5500   2.75           360.83659     -3229.039       23.274253      19877.467      5713.7168      17.877477      17.877477      17.877477    
      5600   2.8            359.27273     -3228.9465      23.173383      19382.637      5714.1701      17.87795       17.87795       17.87795     
      5700   2.85           355.53241     -3228.7144      22.93213       22126.207      5714.6305      17.87843       17.87843       17.87843     
      5800   2.9            353.50924     -3228.5931      22.801633      21151.598      5715.0986      17.878918      17.878918      17.878918    
      5900   2.95           358.3046      -3228.9113      23.110938      18826.358      5715.5741      17.879414      17.879414      17.879414    
      6000   3              363.83578     -3229.2763      23.467703      17349.494      5716.0564      17.879917      17.879917      17.879917    
      6100   3.05           352.17562     -3228.5325      22.715614      18111.099      5716.5449      17.880426      17.880426      17.880426    
      6200   3.1            341.33808     -3227.8417      22.016584      17035.63       5717.0396      17.880942      17.880942      17.880942    
      6300   3.15           368.02413     -3229.5718      23.737855      17616.527      5717.5405      17.881464      17.881464      17.881464    
      6400   3.2            351.56399     -3228.5183      22.676163      17003.445      5718.0477      17.881993      17.881993      17.881993    
      6500   3.25           362.35836     -3229.2231      23.372409      16141.193      5718.561       17.882528      17.882528      17.882528    
      6600   3.3            335.84746     -3227.5212      21.662434      17222.998      5719.0802      17.883069      17.883069      17.883069    
      6700   3.35           360.5026      -3229.1198      23.252711      15603.682      5719.6053      17.883617      17.883617      17.883617    
      6800   3.4            341.75969     -3227.9195      22.043778      18479.419      5720.1363      17.88417       17.88417       17.88417     
      6900   3.45           369.99859     -3229.7497      23.865209      14733.999      5720.6735      17.88473       17.88473       17.88473     
      7000   3.5            346.17435     -3228.2212      22.328527      16466.763      5721.2164      17.885296      17.885296      17.885296    
      7100   3.55           354.67928     -3228.7784      22.877102      16400.698      5721.7652      17.885868      17.885868      17.885868    
      7200   3.6            350.64983     -3228.527       22.617199      15188.803      5722.3197      17.886445      17.886445      17.886445    
      7300   3.65           358.32948     -3229.0309      23.112543      16707.921      5722.8798      17.887029      17.887029      17.887029    
      7400   3.7            358.86038     -3229.0738      23.146786      14796.614      5723.4457      17.887618      17.887618      17.887618    
      7500   3.75           352.4273      -3228.6676      22.731847      17335.093      5724.017       17.888214      17.888214      17.888214    
      7600   3.8            366.55914     -3229.5886      23.643363      17624.94       5724.5946      17.888815      17.888815      17.888815    
      7700   3.85           338.53936     -3227.7901      21.836064      15132.247      5725.1782      17.889423      17.889423      17.889423    
      7800   3.9            360.91644     -3229.2423      23.279404      17203.822      5725.7675      17.890037      17.890037      17.890037    
      7900   3.95           336.8575      -3227.7001      21.727582      17985.204      5726.3628      17.890657      17.890657      17.890657    
      8000   4              357.04846     -3229.0115      23.029915      13762.681      5726.9643      17.891283      17.891283      17.891283    
      8100   4.05           345.3392      -3228.2645      22.274659      16133.536      5727.571       17.891915      17.891915      17.891915    
      8200   4.1            348.20327     -3228.4577      22.459394      12603.729      5728.1829      17.892552      17.892552      17.892552    
      8300   4.15           351.92312     -3228.7057      22.699327      14306.554      5728.7995      17.893194      17.893194      17.893194    
      8400   4.2            362.67715     -3229.408       23.392971      13749.358      5729.4211      17.893841      17.893841      17.893841    
      8500   4.25           350.94432     -3228.6599      22.636194      14105.377      5730.0478      17.894494      17.894494      17.894494    
      8600   4.3            353.59198     -3228.8392      22.80697       13413.731      5730.6797      17.895151      17.895151      17.895151    
      8700   4.35           359.93154     -3229.2558      23.215876      11755.235      5731.3161      17.895814      17.895814      17.895814    
      8800   4.4            346.5655      -3228.4022      22.353756      15160.698      5731.957       17.896481      17.896481      17.896481    
      8900   4.45           362.55965     -3229.4432      23.385392      14083.543      5732.6032      17.897153      17.897153      17.897153    
      9000   4.5            346.54948     -3228.4186      22.352723      12305.426      5733.2545      17.897831      17.897831      17.897831    
      9100   4.55           358.9592      -3229.2271      23.15316       12953.29       5733.9103      17.898514      17.898514      17.898514    
      9200   4.6            338.70024     -3227.9285      21.84644       12706.145      5734.5706      17.899201      17.899201      17.899201    
      9300   4.65           361.54093     -3229.4107      23.319684      14360.061      5735.2355      17.899892      17.899892      17.899892    
      9400   4.7            366.62444     -3229.7471      23.647574      10263.768      5735.9053      17.900589      17.900589      17.900589    
      9500   4.75           351.86464     -3228.8031      22.695555      12920.75       5736.5795      17.90129       17.90129       17.90129     
      9600   4.8            347.33765     -3228.5197      22.40356       14448.899      5737.2583      17.901996      17.901996      17.901996    
      9700   4.85           343.66865     -3228.2916      22.166907      12167.666      5737.9419      17.902707      17.902707      17.902707    
      9800   4.9            366.20436     -3229.7533      23.620478      9716.1981      5738.6298      17.903423      17.903423      17.903423    
      9900   4.95           347.88241     -3228.5788      22.438698      11825.146      5739.3215      17.904142      17.904142      17.904142    
     10000   5              352.6825      -3228.8964      22.748308      11157.261      5740.0173      17.904866      17.904866      17.904866    
     10100   5.05           354.52081     -3229.0229      22.86688       11120.114      5740.7171      17.905593      17.905593      17.905593    
     10200   5.1            372.89036     -3230.2159      24.051731      9857.0383      5741.4209      17.906325      17.906325      17.906325    
     10300   5.15           348.83925     -3228.6717      22.500415      10522.551      5742.1284      17.90706       17.90706       17.90706     
     10400   5.2            349.28115     -3228.7083      22.528918      11946.354      5742.8397      17.9078        17.9078        17.9078      
     10500   5.25           359.37901     -3229.3681      23.180238      11146.612      5743.5552      17.908544      17.908544      17.908544    
     10600   5.3            336.17383     -3227.8787      21.683485      11099.65       5744.2747      17.909291      17.909291      17.909291    
     10700   5.35           353.19336     -3228.9846      22.781259      10944.082      5744.9982      17.910043      17.910043      17.910043    
     10800   5.4            352.15774     -3228.9256      22.71446       10447.991      5745.7255      17.910799      17.910799      17.910799    
     10900   5.45           352.97799     -3228.9855      22.767367      7996.2402      5746.4563      17.911558      17.911558      17.911558    
     11000   5.5            346.8496      -3228.5972      22.372081      9808.969       5747.1901      17.912321      17.912321      17.912321    
     11100   5.55           360.50114     -3229.4847      23.252616      8302.6327      5747.9271      17.913086      17.913086      17.913086    
     11200   5.6            348.494       -3228.7175      22.478146      9368.8066      5748.6674      17.913855      17.913855      17.913855    
     11300   5.65           348.98517     -3228.7558      22.509827      8333.9866      5749.4108      17.914627      17.914627      17.914627    
     11400   5.7            347.88477     -3228.6921      22.43885       8423.3167      5750.1571      17.915403      17.915403      17.915403    
     11500   5.75           355.88087     -3229.214       22.954605      4955.5978      5750.9064      17.916181      17.916181      17.916181    
     11600   5.8            366.42062     -3229.8998      23.634428      6940.26        5751.6579      17.916961      17.916961      17.916961    
     11700   5.85           349.07758     -3228.788       22.515787      9478.9132      5752.412       17.917744      17.917744      17.917744    
     11800   5.9            338.62141     -3228.1201      21.841356      6973.9597      5753.1692      17.91853       17.91853       17.91853     
     11900   5.95           356.43962     -3229.2757      22.990645      6238.1344      5753.9288      17.919319      17.919319      17.919319    
     12000   6              361.09913     -3229.5822      23.291187      4648.8172      5754.6909      17.92011       17.92011       17.92011     
     12100   6.05           344.73822     -3228.532       22.235895      5566.6143      5755.4549      17.920903      17.920903      17.920903    
     12200   6.1            349.9654      -3228.8748      22.573053      5290.658       5756.2207      17.921698      17.921698      17.921698    
     12300   6.15           353.47397     -3229.1068      22.799358      4917.7912      5756.9886      17.922495      17.922495      17.922495    
     12400   6.2            362.63636     -3229.7032      23.39034       4677.7592      5757.7583      17.923293      17.923293      17.923293    
     12500   6.25           344.26182     -3228.5229      22.205167      3235.9757      5758.5297      17.924094      17.924094      17.924094    
     12600   6.3            354.14246     -3229.1649      22.842477      4312.3176      5759.3024      17.924895      17.924895      17.924895    
     12700   6.35           347.31622     -3228.7293      22.402178      2590.5721      5760.0766      17.925698      17.925698      17.925698    
     12800   6.4            347.93409     -3228.773       22.442031      2131.0315      5760.8518      17.926503      17.926503      17.926503    
     12900   6.45           359.05902     -3229.4951      23.159598      4228.2517      5761.6279      17.927308      17.927308      17.927308    
     13000   6.5            336.11717     -3228.0202      21.67983       3619.6649      5762.4054      17.928114      17.928114      17.928114    
     13100   6.55           354.14289     -3229.1872      22.842504      2535.8338      5763.1841      17.928921      17.928921      17.928921    
     13200   6.6            347.68254     -3228.7747      22.425806      4116.0762      5763.9637      17.92973       17.92973       17.92973     
     13300   6.65           332.21041     -3227.7814      21.427842      5347.0969      5764.7446      17.930539      17.930539      17.930539    
     13400   6.7            367.06472     -3230.0345      23.675973      1385.9888      5765.5269      17.931351      17.931351      17.931351    
     13500   6.75           346.5278      -3228.7137      22.351325      3287.9007      5766.31        17.932162      17.932162      17.932162    
     13600   6.8            362.95717     -3229.7784      23.411032      2850.8711      5767.0943      17.932975      17.932975      17.932975    
     13700   6.85           351.11976     -3229.0192      22.647509      2965.3791      5767.8798      17.933789      17.933789      17.933789    
     13800   6.9            341.05973     -3228.3743      21.99863       1972.7852      5768.6663      17.934605      17.934605      17.934605    
     13900   6.95           342.8682      -3228.4944      22.115277      717.6778       5769.4534      17.93542       17.93542       17.93542     
     14000   7              350.94605     -3229.0181      22.636305      176.7395       5770.2407      17.936236      17.936236      17.936236    
     14100   7.05           344.06957     -3228.5781      22.192767      1813.6116      5771.0281      17.937052      17.937052      17.937052    
     14200   7.1            349.54185     -3228.9348      22.545733      229.56057      5771.816       17.937868      17.937868      17.937868    
     14300   7.15           338.78444     -3228.2433      21.851871      4.8487804      5772.6041      17.938684      17.938684      17.938684    
     14400   7.2            354.74273     -3229.2756      22.881194     -252.6649       5773.392       17.939501      17.939501      17.939501    
     14500   7.25           357.72598     -3229.4708      23.073616     -1292.2294      5774.1798      17.940317      17.940317      17.940317    
     14600   7.3            331.36482     -3227.7726      21.3733        1011.5987      5774.9674      17.941132      17.941132      17.941132    
     14700   7.35           352.19499     -3229.1193      22.716863      280.51082      5775.7549      17.941948      17.941948      17.941948    
     14800   7.4            343.05435     -3228.5332      22.127284      10.308559      5776.5425      17.942763      17.942763      17.942763    
     14900   7.45           340.72251     -3228.3854      21.976879      1527.0595      5777.3303      17.943579      17.943579      17.943579    
     15000   7.5            369.03152     -3230.2147      23.802833     -1108.9996      5778.1182      17.944394      17.944394      17.944394    
     15100   7.55           339.72604     -3228.3268      21.912605     -1150.2937      5778.906       17.94521       17.94521       17.94521     
     15200   7.6            351.34325     -3229.0785      22.661925     -52.943647      5779.6934      17.946025      17.946025      17.946025    
     15300   7.65           337.62728     -3228.1957      21.777234     -2726.3521      5780.4805      17.94684       17.94684       17.94684     
     15400   7.7            343.97058     -3228.6063      22.186382     -1992.3696      5781.2666      17.947653      17.947653      17.947653    
     15500   7.75           348.9538      -3228.9299      22.507804     -1615.5542      5782.0518      17.948466      17.948466      17.948466    
     15600   7.8            347.69082     -3228.8499      22.42634      -2670.5033      5782.8364      17.949277      17.949277      17.949277    
     15700   7.85           341.37573     -3228.4438      22.019012     -2877.2022      5783.6198      17.950088      17.950088      17.950088    
     15800   7.9            355.07783     -3229.3292      22.902808     -1421.7585      5784.4021      17.950897      17.950897      17.950897    
     15900   7.95           343.19685     -3228.5642      22.136476     -3964.3204      5785.1835      17.951705      17.951705      17.951705    
     16000   8              351.64761     -3229.1105      22.681557     -2034.7596      5785.9636      17.952512      17.952512      17.952512    
     16100   8.05           338.28498     -3228.2499      21.819656     -3005.6274      5786.7427      17.953318      17.953318      17.953318    
     16200   8.1            346.7896      -3228.7994      22.368211     -4504.3763      5787.5204      17.954122      17.954122      17.954122    
     16300   8.15           334.99485     -3228.0389      21.60744      -3933.5345      5788.2965      17.954925      17.954925      17.954925    
     16400   8.2            365.29902     -3229.9943      23.562083     -4496.0866      5789.071       17.955726      17.955726      17.955726    
     16500   8.25           340.19237     -3228.3756      21.942684     -3683.1511      5789.8437      17.956524      17.956524      17.956524    
     16600   8.3            327.42671     -3227.5527      21.119289     -3702.4396      5790.6148      17.957322      17.957322      17.957322    
     16700   8.35           362.47712     -3229.8139      23.380069     -7331.3299      5791.3842      17.958117      17.958117      17.958117    
     16800   8.4            351.61719     -3229.1129      22.679594     -5084.9279      5792.1512      17.95891       17.95891       17.95891     
     16900   8.45           338.76043     -3228.2838      21.850323     -5380.1792      5792.916       17.9597        17.9597        17.9597      
     17000   8.5            349.31526     -3228.9643      22.531118     -7289.3176      5793.6788      17.960488      17.960488      17.960488    
     17100   8.55           358.91721     -3229.5832      23.150452     -5442.5816      5794.439       17.961274      17.961274      17.961274    
     17200   8.6            323.41059     -3227.2931      20.860246     -4680.8279      5795.197       17.962057      17.962057      17.962057    
     17300   8.65           350.14091     -3229.0165      22.584373     -8546.4271      5795.9528      17.962838      17.962838      17.962838    
     17400   8.7            353.80688     -3229.2518      22.820831     -7604.1359      5796.7056      17.963615      17.963615      17.963615    
     17500   8.75           329.12135     -3227.6582      21.228594     -8388.2329      5797.4553      17.96439       17.96439       17.96439     
     17600   8.8            350.87416     -3229.0603      22.631668     -7607.8215      5798.2019      17.965161      17.965161      17.965161    
     17700   8.85           344.15995     -3228.6261      22.198597     -9065.8338      5798.9456      17.965929      17.965929      17.965929    
     17800   8.9            333.41834     -3227.931       21.505754     -8878.7288      5799.6857      17.966693      17.966693      17.966693    
     17900   8.95           347.7384      -3228.8534      22.42941      -8458.8275      5800.4223      17.967454      17.967454      17.967454    
     18000   9              339.40397     -3228.3148      21.891832     -6798.3512      5801.1558      17.968211      17.968211      17.968211    
     18100   9.05           350.12193     -3229.0056      22.583149     -7895.0502      5801.8865      17.968966      17.968966      17.968966    
     18200   9.1            357.78826     -3229.4983      23.077634     -11161.831      5802.6142      17.969717      17.969717      17.969717    
     18300   9.15           328.82972     -3227.6282      21.209784     -8573.7699      5803.3379      17.970464      17.970464      17.970464    
     18400   9.2            345.51457     -3228.7031      22.28597      -7827.4529      5804.0581      17.971207      17.971207      17.971207    
     18500   9.25           350.11246     -3228.9985      22.582538     -9214.1487      5804.7752      17.971947      17.971947      17.971947    
     18600   9.3            351.88989     -3229.1115      22.697184     -10353.595      5805.4888      17.972684      17.972684      17.972684    
     18700   9.35           340.1173      -3228.35        21.937842     -10838.884      5806.1987      17.973416      17.973416      17.973416    
     18800   9.4            342.45685     -3228.4983      22.088745     -11465.334      5806.9044      17.974144      17.974144      17.974144    
     18900   9.45           334.28781     -3227.9689      21.561836     -9700.9086      5807.6058      17.974868      17.974868      17.974868    
     19000   9.5            351.91951     -3229.1041      22.699095     -12238.237      5808.3032      17.975587      17.975587      17.975587    
     19100   9.55           350.52101     -3229.0115      22.60889      -11823.002      5808.9962      17.976302      17.976302      17.976302    
     19200   9.6            350.63816     -3229.0166      22.616446     -11156.66       5809.6849      17.977013      17.977013      17.977013    
     19300   9.65           341.6673      -3228.4355      22.037818     -11870.816      5810.3693      17.977719      17.977719      17.977719    
     19400   9.7            331.40839     -3227.7711      21.37611      -11098.205      5811.0493      17.97842       17.97842       17.97842     
     19500   9.75           368.22485     -3230.1432      23.750802     -15003.849      5811.7248      17.979117      17.979117      17.979117    
     19600   9.8            324.44734     -3227.3161      20.927117     -11837.686      5812.3952      17.979808      17.979808      17.979808    
     19700   9.85           347.36203     -3228.791       22.405133     -13567.581      5813.0607      17.980494      17.980494      17.980494    
     19800   9.9            342.60122     -3228.4812      22.098057     -12094.483      5813.7212      17.981175      17.981175      17.981175    
     19900   9.95           348.02581     -3228.8288      22.447947     -12397.52       5814.3771      17.981851      17.981851      17.981851    
     20000   10             335.6626      -3228.0281      21.65051      -13366.843      5815.0284      17.982523      17.982523      17.982523    
Loop time of 847.387 on 1 procs for 20000 steps with 500 atoms

Performance: 1.020 ns/day, 23.539 hours/ns, 23.602 timesteps/s, 11.801 katom-step/s
99.1% CPU use with 1 MPI tasks x 1 OpenMP threads

MPI task timing breakdown:
Section |  min time  |  avg time  |  max time  |%varavg| %total
---------------------------------------------------------------
Pair    | 843.56     | 843.56     | 843.56     |   0.0 | 99.55
Neigh   | 0.0080757  | 0.0080757  | 0.0080757  |   0.0 |  0.00
Comm    | 0.76857    | 0.76857    | 0.76857    |   0.0 |  0.09
Output  | 0.01796    | 0.01796    | 0.01796    |   0.0 |  0.00
Modify  | 2.0969     | 2.0969     | 2.0969     |   0.0 |  0.25
Other   |            | 0.9399     |            |       |  0.11

Nlocal:            500 ave         500 max         500 min
Histogram: 1 0 0 0 0 0 0 0 0 0
Nghost:           2922 ave        2922 max        2922 min
Histogram: 1 0 0 0 0 0 0 0 0 0
Neighs:              0 ave           0 max           0 min
Histogram: 1 0 0 0 0 0 0 0 0 0
FullNghs:        92498 ave       92498 max       92498 min
Histogram: 1 0 0 0 0 0 0 0 0 0

Total # of neighbors = 92498
Ave neighs/atom = 184.996
Neighbor list builds = 16
Dangerous builds = 0
### Heating complete ###
System init for write_restart ...
System init for write_data ...
Setting up Verlet run ...
  Unit style    : metal
  Current step  : 20000
  Time step     : 0.0005
Per MPI rank memory allocation (min/avg/max) = 124.3 | 124.3 | 124.3 Mbytes
   Step          Time           Temp          PotEng         KinEng         Press          Volume           Lx             Ly             Lz      
     20000   10             335.6626      -3228.0281      21.65051      -13366.843      5815.0284      17.982523      17.982523      17.982523    
     20100   10.05          358.12752     -3229.4771      23.099516     -13433.838      5815.0284      17.982523      17.982523      17.982523    
     20200   10.1           334.72951     -3227.9678      21.590325     -14018.306      5815.0283      17.982522      17.982522      17.982522    
     20300   10.15          340.69879     -3228.3528      21.975349     -13477.764      5815.0281      17.982522      17.982522      17.982522    
     20400   10.2           342.29002     -3228.4556      22.077985     -13062.565      5815.0279      17.982522      17.982522      17.982522    
     20500   10.25          323.3522      -3227.234       20.856479     -12630.125      5815.0275      17.982522      17.982522      17.982522    
     20600   10.3           352.60684     -3229.121       22.743428     -14819.916      5815.0272      17.982521      17.982521      17.982521    
     20700   10.35          334.58665     -3227.9586      21.581111     -13455.65       5815.0267      17.982521      17.982521      17.982521    
     20800   10.4           337.52734     -3228.1482      21.770788     -11765.785      5815.0262      17.98252       17.98252       17.98252     
     20900   10.45          347.7619      -3228.8084      22.430925     -13207.255      5815.0256      17.98252       17.98252       17.98252     
     21000   10.5           329.69356     -3227.6428      21.265503     -14808.429      5815.0249      17.982519      17.982519      17.982519    
     21100   10.55          342.80691     -3228.4887      22.111324     -13297.51       5815.0242      17.982518      17.982518      17.982518    
     21200   10.6           344.52273     -3228.5993      22.221996     -15096.044      5815.0233      17.982517      17.982517      17.982517    
     21300   10.65          353.07249     -3229.1508      22.773463     -14140.988      5815.0225      17.982516      17.982516      17.982516    
     21400   10.7           340.66061     -3228.35        21.972886     -13175.348      5815.0215      17.982515      17.982515      17.982515    
     21500   10.75          338.24439     -3228.1941      21.817038     -12163.86       5815.0205      17.982514      17.982514      17.982514    
     21600   10.8           343.57638     -3228.5379      22.160956     -13908.874      5815.0194      17.982513      17.982513      17.982513    
     21700   10.85          350.1243      -3228.9602      22.583302     -14199.785      5815.0182      17.982512      17.982512      17.982512    
     21800   10.9           343.47203     -3228.5311      22.154225     -11901.7        5815.017       17.982511      17.982511      17.982511    
     21900   10.95          351.19641     -3229.0293      22.652454     -12693.67       5815.0157      17.982509      17.982509      17.982509    
     22000   11             346.24493     -3228.7099      22.333079     -13217.409      5815.0143      17.982508      17.982508      17.982508    
     22100   11.05          354.7059      -3229.2555      22.878819     -13174.918      5815.0129      17.982507      17.982507      17.982507    
     22200   11.1           340.5645      -3228.3431      21.966687     -13393.531      5815.0114      17.982505      17.982505      17.982505    
     22300   11.15          348.657       -3228.8651      22.48866      -14964.418      5815.0098      17.982503      17.982503      17.982503    
     22400   11.2           334.7398      -3227.9671      21.590989     -13070.103      5815.0081      17.982502      17.982502      17.982502    
     22500   11.25          353.10193     -3229.1515      22.775361     -12171.657      5815.0064      17.9825        17.9825        17.9825      
     22600   11.3           340.59769     -3228.3447      21.968827     -13335.375      5815.0046      17.982498      17.982498      17.982498    
     22700   11.35          351.51372     -3229.049       22.67292      -13833.836      5815.0028      17.982496      17.982496      17.982496    
     22800   11.4           342.66573     -3228.4779      22.102218     -14460.353      5815.0009      17.982494      17.982494      17.982494    
     22900   11.45          348.60946     -3228.8612      22.485594     -13596.699      5814.9989      17.982492      17.982492      17.982492    
     23000   11.5           333.55602     -3227.89        21.514634     -13894.04       5814.9968      17.98249       17.98249       17.98249     
     23100   11.55          351.55036     -3229.0506      22.675284     -12666.1        5814.9947      17.982488      17.982488      17.982488    
     23200   11.6           344.29633     -3228.5824      22.207393     -13290.64       5814.9925      17.982485      17.982485      17.982485    
     23300   11.65          329.44725     -3227.6245      21.249616     -13414.122      5814.9902      17.982483      17.982483      17.982483    
     23400   11.7           356.60143     -3229.3758      23.001082     -13419.81       5814.9878      17.982481      17.982481      17.982481    
     23500   11.75          333.73941     -3227.9009      21.526463     -12011.875      5814.9854      17.982478      17.982478      17.982478    
     23600   11.8           335.49589     -3228.0141      21.639758     -13670.581      5814.983       17.982476      17.982476      17.982476    
     23700   11.85          344.14115     -3228.5716      22.197384     -13567.512      5814.9804      17.982473      17.982473      17.982473    
     23800   11.9           357.92114     -3229.4602      23.086204     -13831.553      5814.9778      17.98247       17.98247       17.98247     
     23900   11.95          327.7195      -3227.512       21.138174     -12937.969      5814.9751      17.982468      17.982468      17.982468    
     24000   12             353.56576     -3229.179       22.805278     -15332.288      5814.9723      17.982465      17.982465      17.982465    
     24100   12.05          343.40324     -3228.5233      22.149788     -13404.401      5814.9695      17.982462      17.982462      17.982462    
     24200   12.1           337.66218     -3228.1528      21.779485     -12474.539      5814.9666      17.982459      17.982459      17.982459    
     24300   12.15          343.5546      -3228.5324      22.159551     -13256.727      5814.9636      17.982456      17.982456      17.982456    
     24400   12.2           349.44525     -3228.9123      22.539502     -12837.548      5814.9606      17.982453      17.982453      17.982453    
     24500   12.25          357.79485     -3229.4508      23.078058     -14137.562      5814.9574      17.982449      17.982449      17.982449    
     24600   12.3           319.03483     -3226.9502      20.578006     -13703.023      5814.9543      17.982446      17.982446      17.982446    
     24700   12.35          356.35703     -3229.3575      22.985318     -13566.092      5814.951       17.982443      17.982443      17.982443    
     24800   12.4           333.99576     -3227.9148      21.542998     -14253.664      5814.9477      17.982439      17.982439      17.982439    
     24900   12.45          334.91012     -3227.9735      21.601975     -14078.068      5814.9443      17.982436      17.982436      17.982436    
     25000   12.5           349.55316     -3228.9178      22.546463     -13342.915      5814.9408      17.982432      17.982432      17.982432    
     25100   12.55          341.22995     -3228.3807      22.009609     -15717.207      5814.9373      17.982429      17.982429      17.982429    
     25200   12.6           342.09585     -3228.4363      22.06546      -15001.55       5814.9336      17.982425      17.982425      17.982425    
     25300   12.65          329.09506     -3227.5973      21.226899     -13118.769      5814.9299      17.982421      17.982421      17.982421    
     25400   12.7           339.9963      -3228.3004      21.930038     -15251.592      5814.9262      17.982417      17.982417      17.982417    
     25500   12.75          358.84395     -3229.516       23.145726     -15135.306      5814.9223      17.982413      17.982413      17.982413    
     25600   12.8           341.34332     -3228.3868      22.016921     -13220.037      5814.9184      17.982409      17.982409      17.982409    
     25700   12.85          334.42121     -3227.9399      21.57044      -12867.375      5814.9144      17.982405      17.982405      17.982405    
     25800   12.9           351.92003     -3229.0685      22.699128     -15713.647      5814.9103      17.982401      17.982401      17.982401    
     25900   12.95          340.17184     -3228.3102      21.94136      -12948.881      5814.9062      17.982397      17.982397      17.982397    
     26000   13             342.33086     -3228.4492      22.080618     -11331.189      5814.902       17.982392      17.982392      17.982392    
     26100   13.05          336.01455     -3228.0414      21.673211     -13202.109      5814.8977      17.982388      17.982388      17.982388    
     26200   13.1           341.05319     -3228.3661      21.998208     -12988.248      5814.8934      17.982383      17.982383      17.982383    
     26300   13.15          353.86714     -3229.1924      22.824718     -13803.49       5814.889       17.982379      17.982379      17.982379    
     26400   13.2           331.51772     -3227.7504      21.383162     -12988.178      5814.8845      17.982374      17.982374      17.982374    
     26500   13.25          352.04412     -3229.0742      22.707132     -14090.102      5814.8799      17.98237       17.98237       17.98237     
     26600   13.3           337.44492     -3228.1321      21.765471     -12923.829      5814.8753      17.982365      17.982365      17.982365    
     26700   13.35          343.1416      -3228.4992      22.132912     -13152.559      5814.8706      17.98236       17.98236       17.98236     
     26800   13.4           355.46937     -3229.2941      22.928063     -13954.981      5814.8659      17.982355      17.982355      17.982355    
     26900   13.45          338.19896     -3228.1797      21.814108     -12776.163      5814.8611      17.98235       17.98235       17.98235     
     27000   13.5           329.53889     -3227.6206      21.255526     -14178.526      5814.8562      17.982345      17.982345      17.982345    
     27100   13.55          328.15131     -3227.5308      21.166026     -12765.365      5814.8512      17.98234       17.98234       17.98234     
     27200   13.6           352.18885     -3229.0811      22.716467     -13282.592      5814.8462      17.982335      17.982335      17.982335    
     27300   13.65          342.73415     -3228.471       22.106631     -14606.63       5814.8411      17.982329      17.982329      17.982329    
     27400   13.7           350.55973     -3228.9754      22.611387     -15797.35       5814.8359      17.982324      17.982324      17.982324    
     27500   13.75          350.83902     -3228.9929      22.629402     -13751.387      5814.8307      17.982319      17.982319      17.982319    
     27600   13.8           334.55539     -3227.9421      21.579095     -11394.969      5814.8253      17.982313      17.982313      17.982313    
     27700   13.85          349.66266     -3228.9162      22.553526     -14107.103      5814.8199      17.982308      17.982308      17.982308    
     27800   13.9           324.76431     -3227.3098      20.947562     -11935.171      5814.8145      17.982302      17.982302      17.982302    
     27900   13.95          362.45157     -3229.7405      23.378421     -12788.156      5814.809       17.982296      17.982296      17.982296    
     28000   14             350.94877     -3228.998       22.636481     -13682.481      5814.8034      17.982291      17.982291      17.982291    
     28100   14.05          321.60168     -3227.1044      20.74357      -12340.423      5814.7977      17.982285      17.982285      17.982285    
     28200   14.1           349.55013     -3228.9069      22.546268     -14125.583      5814.792       17.982279      17.982279      17.982279    
     28300   14.15          338.36768     -3228.1852      21.82499      -14372.327      5814.7862      17.982273      17.982273      17.982273    
     28400   14.2           339.34664     -3228.2479      21.888134     -13537.218      5814.7803      17.982267      17.982267      17.982267    
     28500   14.25          346.70763     -3228.7225      22.362924     -13151.672      5814.7744      17.982261      17.982261      17.982261    
     28600   14.3           325.3286      -3227.3429      20.983959     -14976.008      5814.7684      17.982254      17.982254      17.982254    
     28700   14.35          356.45923     -3229.3507      22.99191      -15414.308      5814.7623      17.982248      17.982248      17.982248    
     28800   14.4           335.89738     -3228.0238      21.665654     -13670.657      5814.7561      17.982242      17.982242      17.982242    
     28900   14.45          360.49496     -3229.61        23.252217     -14462.054      5814.7499      17.982235      17.982235      17.982235    
     29000   14.5           335.12761     -3227.9732      21.616003     -10660.472      5814.7436      17.982229      17.982229      17.982229    
     29100   14.55          345.19387     -3228.6221      22.265285     -13724.162      5814.7372      17.982222      17.982222      17.982222    
     29200   14.6           339.91708     -3228.2812      21.924927     -14176.313      5814.7307      17.982216      17.982216      17.982216    
     29300   14.65          344.10965     -3228.5513      22.195352     -11993.084      5814.7242      17.982209      17.982209      17.982209    
     29400   14.7           347.11544     -3228.7448      22.389228     -12835.667      5814.7176      17.982202      17.982202      17.982202    
     29500   14.75          348.73484     -3228.8486      22.493681     -14432.34       5814.711       17.982195      17.982195      17.982195    
     29600   14.8           342.4225      -3228.4409      22.086529     -14710.366      5814.7043      17.982188      17.982188      17.982188    
     29700   14.85          334.02408     -3227.8986      21.544825     -14017.452      5814.6975      17.982181      17.982181      17.982181    
     29800   14.9           355.31597     -3229.2717      22.918168     -13192.627      5814.6906      17.982174      17.982174      17.982174    
     29900   14.95          338.50809     -3228.187       21.834047     -12516.759      5814.6837      17.982167      17.982167      17.982167    
     30000   15             347.71798     -3228.7805      22.428092     -14319.963      5814.6767      17.98216       17.98216       17.98216     
     30100   15.05          333.69735     -3227.8756      21.52375      -12756.278      5814.6696      17.982153      17.982153      17.982153    
     30200   15.1           351.41575     -3229.0181      22.666601     -13965.611      5814.6625      17.982145      17.982145      17.982145    
     30300   15.15          347.61505     -3228.7724      22.421453     -14239.324      5814.6553      17.982138      17.982138      17.982138    
     30400   15.2           339.14913     -3228.2257      21.875394     -15676.366      5814.648       17.98213       17.98213       17.98213     
     30500   15.25          339.34269     -3228.2376      21.887879     -12660.722      5814.6406      17.982123      17.982123      17.982123    
     30600   15.3           338.64995     -3228.1925      21.843197     -9875.9668      5814.6332      17.982115      17.982115      17.982115    
     30700   15.35          350.66891     -3228.9673      22.618429     -13739.24       5814.6257      17.982107      17.982107      17.982107    
     30800   15.4           341.7448      -3228.391       22.042817     -13460.006      5814.6181      17.9821        17.9821        17.9821      
     30900   15.45          330.702       -3227.678       21.330547     -13401.595      5814.6105      17.982092      17.982092      17.982092    
     31000   15.5           353.26769     -3229.1332      22.786053     -12935.168      5814.6028      17.982084      17.982084      17.982084    
     31100   15.55          331.22573     -3227.7106      21.364329     -10402.806      5814.595       17.982076      17.982076      17.982076    
     31200   15.6           340.52527     -3228.31        21.964157     -12333.134      5814.5872      17.982068      17.982068      17.982068    
     31300   15.65          340.21335     -3228.2894      21.944038     -11864.14       5814.5793      17.98206       17.98206       17.98206     
     31400   15.7           341.44277     -3228.368       22.023336     -11334.496      5814.5714      17.982051      17.982051      17.982051    
     31500   15.75          353.50248     -3229.1454      22.801197     -13098.35       5814.5634      17.982043      17.982043      17.982043    
     31600   15.8           334.13546     -3227.8957      21.552008     -12662.673      5814.5553      17.982035      17.982035      17.982035    
     31700   15.85          346.53486     -3228.6948      22.35178      -12943.047      5814.5471      17.982026      17.982026      17.982026    
     31800   15.9           346.48641     -3228.6912      22.348655     -12848.998      5814.5389      17.982018      17.982018      17.982018    
     31900   15.95          343.39467     -3228.4911      22.149235     -13335.341      5814.5306      17.982009      17.982009      17.982009    
     32000   16             343.67192     -3228.5083      22.167118     -13671.881      5814.5223      17.982001      17.982001      17.982001    
     32100   16.05          347.1478      -3228.7319      22.391315     -13963.257      5814.5139      17.981992      17.981992      17.981992    
     32200   16.1           347.10799     -3228.7288      22.388747     -14075.945      5814.5054      17.981983      17.981983      17.981983    
     32300   16.15          337.01406     -3228.077       21.73768      -13507.527      5814.4968      17.981975      17.981975      17.981975    
     32400   16.2           326.72317     -3227.4125      21.07391      -12006.329      5814.4882      17.981966      17.981966      17.981966    
     32500   16.25          328.95233     -3227.5556      21.217692     -11805.138      5814.4795      17.981957      17.981957      17.981957    
     32600   16.3           366.94816     -3230.0059      23.668454     -13585.102      5814.4707      17.981948      17.981948      17.981948    
     32700   16.35          331.45779     -3227.7158      21.379297     -13562.632      5814.4619      17.981939      17.981939      17.981939    
     32800   16.4           328.97247     -3227.5551      21.218992     -13094.082      5814.453       17.981929      17.981929      17.981929    
     32900   16.45          352.1766      -3229.0513      22.715677     -15809.835      5814.444       17.98192       17.98192       17.98192     
     33000   16.5           335.0172      -3227.9438      21.608882     -12438.248      5814.4349      17.981911      17.981911      17.981911    
     33100   16.55          359.01408     -3229.491       23.1567       -13885.483      5814.4258      17.981901      17.981901      17.981901    
     33200   16.6           347.08165     -3228.7205      22.387048     -13413.916      5814.4166      17.981892      17.981892      17.981892    
     33300   16.65          332.37788     -3227.7715      21.438643     -11943.521      5814.4073      17.981882      17.981882      17.981882    
     33400   16.7           349.29478     -3228.8619      22.529797     -12279.954      5814.398       17.981873      17.981873      17.981873    
     33500   16.75          335.62128     -3227.9793      21.647845     -12699.319      5814.3886      17.981863      17.981863      17.981863    
     33600   16.8           359.74265     -3229.5346      23.203693     -15410.691      5814.3791      17.981853      17.981853      17.981853    
     33700   16.85          337.97228     -3228.1296      21.799487     -12502.668      5814.3696      17.981843      17.981843      17.981843    
     33800   16.9           338.12889     -3228.139       21.809588     -13828.295      5814.36        17.981834      17.981834      17.981834    
     33900   16.95          343.38244     -3228.4772      22.148446     -12644.309      5814.3503      17.981824      17.981824      17.981824    
     34000   17             337.65182     -3228.1068      21.778817     -14447.129      5814.3406      17.981813      17.981813      17.981813    
     34100   17.05          339.18617     -3228.205       21.877783     -12810.399      5814.3308      17.981803      17.981803      17.981803    
     34200   17.1           343.21897     -3228.4646      22.137902     -12208.648      5814.3209      17.981793      17.981793      17.981793    
     34300   17.15          352.28824     -3229.0487      22.722878     -12739.963      5814.3109      17.981783      17.981783      17.981783    
     34400   17.2           351.96119     -3229.0269      22.701783     -13616.452      5814.3009      17.981773      17.981773      17.981773    
     34500   17.25          317.05706     -3226.7748      20.450438     -11842.401      5814.2908      17.981762      17.981762      17.981762    
     34600   17.3           354.8775      -3229.2136      22.889887     -13885.998      5814.2807      17.981752      17.981752      17.981752    
     34700   17.35          341.64688     -3228.3594      22.036502     -13309.525      5814.2704      17.981741      17.981741      17.981741    
     34800   17.4           355.75734     -3229.2689      22.946637     -14701.649      5814.2601      17.981731      17.981731      17.981731    
     34900   17.45          336.9317      -3228.0538      21.732368     -13795.976      5814.2498      17.98172       17.98172       17.98172     
     35000   17.5           333.93387     -3227.8596      21.539006     -13222.481      5814.2393      17.981709      17.981709      17.981709    
     35100   17.55          350.99721     -3228.9595      22.639605     -13569.622      5814.2288      17.981698      17.981698      17.981698    
     35200   17.6           329.20649     -3227.5531      21.234086     -12943.89       5814.2182      17.981687      17.981687      17.981687    
     35300   17.65          351.17598     -3228.9696      22.651136     -14010.701      5814.2076      17.981676      17.981676      17.981676    
     35400   17.7           343.3138      -3228.4615      22.144019     -13565.887      5814.1969      17.981665      17.981665      17.981665    
     35500   17.75          325.20886     -3227.293       20.976236     -13601.471      5814.1861      17.981654      17.981654      17.981654    
     35600   17.8           355.40634     -3229.2401      22.923998     -13554.626      5814.1752      17.981643      17.981643      17.981643    
     35700   17.85          347.29115     -3228.7159      22.400561     -13550.748      5814.1643      17.981632      17.981632      17.981632    
     35800   17.9           337.82048     -3228.1041      21.789695     -14228.124      5814.1533      17.98162       17.98162       17.98162     
     35900   17.95          334.5381      -3227.8915      21.577979     -12241.937      5814.1422      17.981609      17.981609      17.981609    
     36000   18             332.1623      -3227.7374      21.424738     -12865.108      5814.131       17.981597      17.981597      17.981597    
     36100   18.05          356.20803     -3229.2878      22.975707     -15768.467      5814.1198      17.981586      17.981586      17.981586    
     36200   18.1           339.50493     -3228.2096      21.898344     -13172.379      5814.1085      17.981574      17.981574      17.981574    
     36300   18.15          347.31076     -3228.7121      22.401826     -13364.345      5814.0972      17.981563      17.981563      17.981563    
     36400   18.2           348.85422     -3228.8109      22.50138      -13297.939      5814.0857      17.981551      17.981551      17.981551    
     36500   18.25          332.68679     -3227.7672      21.458568     -12194.747      5814.0742      17.981539      17.981539      17.981539    
     36600   18.3           342.85802     -3228.4225      22.114621     -14681.238      5814.0627      17.981527      17.981527      17.981527    
     36700   18.35          341.97251     -3228.3645      22.057505     -14224.176      5814.051       17.981515      17.981515      17.981515    
     36800   18.4           337.59215     -3228.0811      21.774968     -14212.751      5814.0393      17.981503      17.981503      17.981503    
     36900   18.45          335.38902     -3227.9382      21.632864     -13226.494      5814.0275      17.981491      17.981491      17.981491    
     37000   18.5           347.11248     -3228.6934      22.389037     -13828.084      5814.0156      17.981479      17.981479      17.981479    
     37100   18.55          331.6493      -3227.6952      21.391649     -14045.546      5814.0037      17.981466      17.981466      17.981466    
     37200   18.6           348.99093     -3228.813       22.510198     -11770.289      5813.9917      17.981454      17.981454      17.981454    
     37300   18.65          347.37798     -3228.7081      22.406162     -13447.179      5813.9796      17.981441      17.981441      17.981441    
     37400   18.7           361.25136     -3229.6022      23.301007     -12567.949      5813.9675      17.981429      17.981429      17.981429    
     37500   18.75          332.3455      -3227.7366      21.436555     -10687.198      5813.9553      17.981416      17.981416      17.981416    
     37600   18.8           340.55722     -3228.2652      21.966218     -10529.929      5813.943       17.981404      17.981404      17.981404    
     37700   18.85          331.94495     -3227.7088      21.410719     -13453.442      5813.9307      17.981391      17.981391      17.981391    
     37800   18.9           343.79352     -3228.4723      22.174961     -13010.952      5813.9183      17.981378      17.981378      17.981378    
     37900   18.95          345.10028     -3228.5557      22.259248     -11889.974      5813.9059      17.981365      17.981365      17.981365    
     38000   19             359.37178     -3229.4754      23.179772     -14288.011      5813.8933      17.981352      17.981352      17.981352    
     38100   19.05          338.94241     -3228.1566      21.862061     -12169.39       5813.8808      17.981339      17.981339      17.981339    
     38200   19.1           345.08855     -3228.5523      22.258492     -11991.306      5813.8681      17.981326      17.981326      17.981326    
     38300   19.15          339.24316     -3228.1742      21.88146      -15008.698      5813.8554      17.981313      17.981313      17.981313    
     38400   19.2           348.75214     -3228.7867      22.494796     -12582.238      5813.8426      17.9813        17.9813        17.9813      
     38500   19.25          356.44882     -3229.2822      22.991238     -13184.102      5813.8297      17.981287      17.981287      17.981287    
     38600   19.3           331.7131      -3227.6856      21.395764     -11838.917      5813.8168      17.981274      17.981274      17.981274    
     38700   19.35          341.38354     -3228.3085      22.019515     -12163.219      5813.8038      17.98126       17.98126       17.98126     
     38800   19.4           341.53241     -3228.317       22.029118     -12865.489      5813.7908      17.981247      17.981247      17.981247    
     38900   19.45          344.3203      -3228.4959      22.208939     -14031.037      5813.7777      17.981233      17.981233      17.981233    
     39000   19.5           331.23438     -3227.6509      21.364887     -12923.766      5813.7645      17.98122       17.98122       17.98122     
     39100   19.55          333.58143     -3227.8013      21.516273     -11783.999      5813.7512      17.981206      17.981206      17.981206    
     39200   19.6           355.57078     -3229.2188      22.934604     -13782.038      5813.7379      17.981192      17.981192      17.981192    
     39300   19.65          336.16235     -3227.9659      21.682745     -14699.945      5813.7245      17.981178      17.981178      17.981178    
     39400   19.7           340.58435     -3228.2503      21.967967     -12323.334      5813.711       17.981164      17.981164      17.981164    
     39500   19.75          354.43676     -3229.1427      22.861459     -13554.775      5813.6975      17.98115       17.98115       17.98115     
     39600   19.8           333.39414     -3227.7844      21.504193     -12388.172      5813.6838      17.981136      17.981136      17.981136    
     39700   19.85          342.63903     -3228.3798      22.100496     -12847.427      5813.6702      17.981122      17.981122      17.981122    
     39800   19.9           344.65018     -3228.5085      22.230217     -14460.799      5813.6564      17.981108      17.981108      17.981108    
     39900   19.95          351.03883     -3228.9195      22.64229      -15088.439      5813.6426      17.981094      17.981094      17.981094    
     40000   20             330.89711     -3227.6191      21.343132     -11724.234      5813.6287      17.98108       17.98108       17.98108     
     40100   20.05          346.86226     -3228.6481      22.372898     -11529.586      5813.6148      17.981065      17.981065      17.981065    
     40200   20.1           351.75733     -3228.9628      22.688633     -14384.081      5813.6007      17.981051      17.981051      17.981051    
     40300   20.15          335.30152     -3227.9003      21.62722      -12617.643      5813.5866      17.981036      17.981036      17.981036    
     40400   20.2           351.74066     -3228.9597      22.687558     -14125.615      5813.5725      17.981022      17.981022      17.981022    
     40500   20.25          349.68708     -3228.8261      22.555101     -14594.069      5813.5583      17.981007      17.981007      17.981007    
     40600   20.3           348.62015     -3228.7563      22.486283     -12585.284      5813.544       17.980992      17.980992      17.980992    
     40700   20.35          338.85936     -3228.1256      21.856704     -12129.569      5813.5296      17.980977      17.980977      17.980977    
     40800   20.4           340.535       -3228.2326      21.964784     -12842.45       5813.5152      17.980963      17.980963      17.980963    
     40900   20.45          347.64607     -3228.6902      22.423454     -12887.132      5813.5007      17.980948      17.980948      17.980948    
     41000   20.5           335.74671     -3227.9216      21.655936     -13568.436      5813.4861      17.980933      17.980933      17.980933    
     41100   20.55          354.80185     -3229.1497      22.885007     -14096.102      5813.4714      17.980917      17.980917      17.980917    
     41200   20.6           337.63351     -3228.041       21.777635     -11007.881      5813.4567      17.980902      17.980902      17.980902    
     41300   20.65          346.58752     -3228.6177      22.355177     -14330.057      5813.442       17.980887      17.980887      17.980887    
     41400   20.7           335.70232     -3227.9144      21.653073     -11575.427      5813.4271      17.980872      17.980872      17.980872    
     41500   20.75          348.49615     -3228.7387      22.478285     -11440.24       5813.4122      17.980856      17.980856      17.980856    
     41600   20.8           345.3443      -3228.5342      22.274988     -13982.838      5813.3973      17.980841      17.980841      17.980841    
     41700   20.85          352.3284      -3228.9838      22.725468     -13653.477      5813.3822      17.980825      17.980825      17.980825    
     41800   20.9           345.93722     -3228.5703      22.313232     -13104.088      5813.3671      17.98081       17.98081       17.98081     
     41900   20.95          336.67388     -3227.9715      21.715739     -11765.43       5813.352       17.980794      17.980794      17.980794    
     42000   21             356.81232     -3229.2694      23.014685     -13383.954      5813.3367      17.980779      17.980779      17.980779    
     42100   21.05          327.15967     -3227.3555      21.102064     -11863.931      5813.3214      17.980763      17.980763      17.980763    
     42200   21.1           351.3399      -3228.9143      22.661709     -12860.47       5813.3061      17.980747      17.980747      17.980747    
     42300   21.15          339.23934     -3228.1326      21.881213     -11539.02       5813.2906      17.980731      17.980731      17.980731    
     42400   21.2           332.98405     -3227.7278      21.477742     -14554.514      5813.2751      17.980715      17.980715      17.980715    
     42500   21.25          348.97225     -3228.7581      22.508993     -14784.972      5813.2596      17.980699      17.980699      17.980699    
     42600   21.3           352.3836      -3228.977       22.729028     -15298.439      5813.2439      17.980683      17.980683      17.980683    
     42700   21.35          348.00841     -3228.6936      22.446825     -12623.113      5813.2282      17.980667      17.980667      17.980667    
     42800   21.4           329.22832     -3227.4811      21.235494     -14131.721      5813.2124      17.98065       17.98065       17.98065     
     42900   21.45          341.66175     -3228.2821      22.03746      -12063.533      5813.1965      17.980634      17.980634      17.980634    
     43000   21.5           355.16447     -3229.1518      22.908397     -12129.852      5813.1806      17.980618      17.980618      17.980618    
     43100   21.55          338.77613     -3228.0934      21.851336     -14984.284      5813.1646      17.980601      17.980601      17.980601    
     43200   21.6           352.12711     -3228.9534      22.712485     -14337.298      5813.1486      17.980585      17.980585      17.980585    
     43300   21.65          343.03873     -3228.366       22.126277     -11872.351      5813.1324      17.980568      17.980568      17.980568    
     43400   21.7           328.3828      -3227.4195      21.180957     -12921.907      5813.1162      17.980551      17.980551      17.980551    
     43500   21.75          353.27595     -3229.0241      22.786586     -13762.389      5813.0999      17.980534      17.980534      17.980534    
     43600   21.8           356.5029      -3229.2312      22.994727     -15017.591      5813.0836      17.980518      17.980518      17.980518    
     43700   21.85          352.55594     -3228.9752      22.740144     -13336.693      5813.0672      17.980501      17.980501      17.980501    
     43800   21.9           324.72578     -3227.1787      20.945076     -8920.6995      5813.0507      17.980484      17.980484      17.980484    
     43900   21.95          345.33304     -3228.5067      22.274262     -12333.532      5813.0342      17.980467      17.980467      17.980467    
     44000   22             354.701       -3229.1097      22.878503     -13961.817      5813.0176      17.98045       17.98045       17.98045     
     44100   22.05          323.11084     -3227.0709      20.840911     -9881.0565      5813.0009      17.980432      17.980432      17.980432    
     44200   22.1           346.20903     -3228.5596      22.330764     -10571.969      5812.9842      17.980415      17.980415      17.980415    
     44300   22.15          347.19263     -3228.6219      22.394207     -12012.163      5812.9674      17.980398      17.980398      17.980398    
     44400   22.2           344.13815     -3228.4235      22.19719      -12080.993      5812.9505      17.98038       17.98038       17.98038     
     44500   22.25          346.46647     -3228.5724      22.347369     -14940.52       5812.9336      17.980363      17.980363      17.980363    
     44600   22.3           350.41        -3228.8257      22.60173      -12929.232      5812.9166      17.980345      17.980345      17.980345    
     44700   22.35          349.59197     -3228.7715      22.548966     -12727.941      5812.8996      17.980328      17.980328      17.980328    
     44800   22.4           330.03389     -3227.5086      21.287454     -13086.835      5812.8825      17.98031       17.98031       17.98031     
     44900   22.45          347.98936     -3228.6656      22.445597     -13006.001      5812.8653      17.980292      17.980292      17.980292    
     45000   22.5           338.78893     -3228.0709      21.852161     -12648.935      5812.848       17.980275      17.980275      17.980275    
     45100   22.55          352.24744     -3228.9378      22.720246     -15112.502      5812.8307      17.980257      17.980257      17.980257    
     45200   22.6           339.53361     -3228.1165      21.900194     -11353.916      5812.8133      17.980239      17.980239      17.980239    
     45300   22.65          351.94446     -3228.9158      22.700704     -12540.419      5812.7958      17.980221      17.980221      17.980221    
     45400   22.7           344.0673      -3228.4063      22.19262      -14222.58       5812.7783      17.980203      17.980203      17.980203    
     45500   22.75          344.83075     -3228.4542      22.241864     -11813.446      5812.7607      17.980185      17.980185      17.980185    
     45600   22.8           346.93844     -3228.5889      22.377811     -13155.259      5812.743       17.980166      17.980166      17.980166    
     45700   22.85          329.98253     -3227.4938      21.284141     -10255.848      5812.7253      17.980148      17.980148      17.980148    
     45800   22.9           338.59566     -3228.048       21.839695     -12944.349      5812.7075      17.98013       17.98013       17.98013     
     45900   22.95          340.47998     -3228.1684      21.961235     -10105.641      5812.6897      17.980111      17.980111      17.980111    
     46000   23             339.6156      -3228.1112      21.905482     -11334.182      5812.6717      17.980093      17.980093      17.980093    
     46100   23.05          343.25083     -3228.3443      22.139957     -12644.476      5812.6538      17.980074      17.980074      17.980074    
     46200   23.1           337.20244     -3227.9528      21.749831     -11383.274      5812.6357      17.980056      17.980056      17.980056    
     46300   23.15          342.00987     -3228.2617      22.059915     -11699.155      5812.6176      17.980037      17.980037      17.980037    
     46400   23.2           337.87379     -3227.9936      21.793134     -11560.991      5812.5995      17.980018      17.980018      17.980018    
     46500   23.25          359.60368     -3229.3939      23.19473      -13297.158      5812.5812      17.98          17.98          17.98        
     46600   23.3           341.3291      -3228.2137      22.016004     -15007.921      5812.5629      17.979981      17.979981      17.979981    
     46700   23.35          338.76919     -3228.0472      21.850888     -12656.786      5812.5446      17.979962      17.979962      17.979962    
     46800   23.4           341.18752     -3228.2017      22.006872     -12877.887      5812.5261      17.979943      17.979943      17.979943    
     46900   23.45          335.22885     -3227.8163      21.622533     -11766.953      5812.5076      17.979924      17.979924      17.979924    
     47000   23.5           355.72324     -3229.1367      22.944438     -13825.257      5812.4891      17.979905      17.979905      17.979905    
     47100   23.55          334.20609     -3227.7474      21.556564     -14091.746      5812.4704      17.979885      17.979885      17.979885    
     47200   23.6           356.39925     -3229.1775      22.988041     -14090.897      5812.4517      17.979866      17.979866      17.979866    
     47300   23.65          340.24821     -3228.1346      21.946286     -11869.707      5812.433       17.979847      17.979847      17.979847    
     47400   23.7           342.49031     -3228.2777      22.090903     -13793.651      5812.4141      17.979827      17.979827      17.979827    
     47500   23.75          336.08601     -3227.8631      21.677821     -13179.412      5812.3952      17.979808      17.979808      17.979808    
     47600   23.8           338.5233      -3228.0189      21.835028     -11155.916      5812.3762      17.979788      17.979788      17.979788    
     47700   23.85          347.83055     -3228.6179      22.435353     -13374.57       5812.3572      17.979769      17.979769      17.979769    
     47800   23.9           352.28206     -3228.9036      22.722479     -13166.629      5812.3381      17.979749      17.979749      17.979749    
     47900   23.95          330.06793     -3227.4692      21.289649     -9911.7678      5812.3189      17.979729      17.979729      17.979729    
     48000   24             333.24303     -3227.6727      21.494446     -12414.307      5812.2996      17.979709      17.979709      17.979709    
     48100   24.05          359.29258     -3229.3516      23.174664     -13938.378      5812.2803      17.979689      17.979689      17.979689    
     48200   24.1           344.77489     -3228.4136      22.238261     -12106.362      5812.261       17.979669      17.979669      17.979669    
     48300   24.15          336.44149     -3227.8745      21.70075      -13164.815      5812.2415      17.979649      17.979649      17.979649    
     48400   24.2           348.03658     -3228.6213      22.448642     -10749.364      5812.222       17.979629      17.979629      17.979629    
     48500   24.25          346.55629     -3228.5244      22.353162     -14009.411      5812.2025      17.979609      17.979609      17.979609    
     48600   24.3           346.88695     -3228.5441      22.37449      -13111.282      5812.1828      17.979589      17.979589      17.979589    
     48700   24.35          346.11623     -3228.4929      22.324778     -12631.431      5812.1631      17.979569      17.979569      17.979569    
     48800   24.4           337.3169      -3227.9238      21.757214     -14153.953      5812.1434      17.979548      17.979548      17.979548    
     48900   24.45          343.36096     -3228.3124      22.147061     -13113.041      5812.1235      17.979528      17.979528      17.979528    
     49000   24.5           357.34379     -3229.2128      23.048965     -12533.772      5812.1036      17.979507      17.979507      17.979507    
     49100   24.55          327.84783     -3227.3087      21.146451     -12262.969      5812.0836      17.979487      17.979487      17.979487    
     49200   24.6           354.0399      -3228.9967      22.835861     -13101.534      5812.0636      17.979466      17.979466      17.979466    
     49300   24.65          343.85539     -3228.3382      22.178952     -15327.838      5812.0435      17.979445      17.979445      17.979445    
     49400   24.7           328.09695     -3227.3204      21.16252      -12152.605      5812.0233      17.979424      17.979424      17.979424    
     49500   24.75          356.99458     -3229.1828      23.026441     -13147.394      5812.0031      17.979403      17.979403      17.979403    
     49600   24.8           342.42841     -3228.2418      22.08691      -13149.905      5811.9827      17.979383      17.979383      17.979383    
     49700   24.85          344.45731     -3228.3711      22.217777     -13691.293      5811.9623      17.979361      17.979361      17.979361    
     49800   24.9           339.7441      -3228.0656      21.913771     -11183.871      5811.9419      17.97934       17.97934       17.97934     
     49900   24.95          347.4966      -3228.5642      22.413813     -12813.376      5811.9214      17.979319      17.979319      17.979319    
     50000   25             342.21218     -3228.2218      22.072964     -11568.689      5811.9008      17.979298      17.979298      17.979298    
     50100   25.05          348.42595     -3228.621       22.473757     -11474.777      5811.8801      17.979277      17.979277      17.979277    
     50200   25.1           339.79818     -3228.0627      21.917259     -12015.433      5811.8594      17.979255      17.979255      17.979255    
     50300   25.15          331.91491     -3227.5528      21.408781     -10372.009      5811.8386      17.979234      17.979234      17.979234    
     50400   25.2           352.6504      -3228.8889      22.746237     -11758.158      5811.8178      17.979212      17.979212      17.979212    
     50500   25.25          352.56961     -3228.8821      22.741026     -13400.143      5811.7969      17.979191      17.979191      17.979191    
     50600   25.3           345.04014     -3228.3948      22.255369     -10528.049      5811.7759      17.979169      17.979169      17.979169    
     50700   25.35          350.6339      -3228.754       22.616172     -10421.942      5811.7549      17.979148      17.979148      17.979148    
     50800   25.4           345.53944     -3228.4238      22.287575     -11283.093      5811.7338      17.979126      17.979126      17.979126    
     50900   25.45          339.23347     -3228.0155      21.880834     -12253.356      5811.7127      17.979104      17.979104      17.979104    
     51000   25.5           337.75161     -3227.9183      21.785253     -10587.134      5811.6915      17.979082      17.979082      17.979082    
     51100   25.55          353.28901     -3228.9188      22.787428     -11638.921      5811.6703      17.97906       17.97906       17.97906     
     51200   25.6           352.34479     -3228.8565      22.726525     -15371.491      5811.6489      17.979038      17.979038      17.979038    
     51300   25.65          327.80632     -3227.272       21.143774     -12418.19       5811.6276      17.979016      17.979016      17.979016    
     51400   25.7           354.1297      -3228.9683      22.841654     -12106.972      5811.6061      17.978994      17.978994      17.978994    
     51500   25.75          340.59575     -3228.0938      21.968703     -11937.895      5811.5846      17.978972      17.978972      17.978972    
     51600   25.8           345.32603     -3228.3973      22.273809     -10777.987      5811.563       17.97895       17.97895       17.97895     
     51700   25.85          355.30326     -3229.0392      22.917349     -14056.216      5811.5413      17.978927      17.978927      17.978927    
     51800   25.9           341.96501     -3228.1772      22.057021     -11839.026      5811.5196      17.978905      17.978905      17.978905    
     51900   25.95          340.18098     -3228.0604      21.941949     -9905.248       5811.4979      17.978882      17.978882      17.978882    
     52000   26             344.81487     -3228.3577      22.240839     -11690.318      5811.476       17.97886       17.97886       17.97886     
     52100   26.05          351.68968     -3228.7996      22.68427      -12016.808      5811.4541      17.978837      17.978837      17.978837    
     52200   26.1           336.48066     -3227.817       21.703276     -10295.686      5811.4322      17.978815      17.978815      17.978815    
     52300   26.15          365.20741     -3229.6681      23.556174     -13274.247      5811.4102      17.978792      17.978792      17.978792    
     52400   26.2           342.44641     -3228.1983      22.088072     -12025.373      5811.3881      17.978769      17.978769      17.978769    
     52500   26.25          349.1683      -3228.6304      22.521639     -12141.67       5811.366       17.978746      17.978746      17.978746    
     52600   26.3           334.83201     -3227.7039      21.596937     -12058.517      5811.3438      17.978724      17.978724      17.978724    
     52700   26.35          350.32013     -3228.7014      22.595933     -12039.079      5811.3215      17.978701      17.978701      17.978701    
     52800   26.4           359.10237     -3229.2662      23.162395     -13351.491      5811.2992      17.978678      17.978678      17.978678    
     52900   26.45          333.36447     -3227.6043      21.502279     -12382.991      5811.2768      17.978655      17.978655      17.978655    
     53000   26.5           361.76623     -3229.4346      23.334216     -12766.94       5811.2543      17.978631      17.978631      17.978631    
     53100   26.55          341.4901      -3228.125       22.026389     -12855.833      5811.2318      17.978608      17.978608      17.978608    
     53200   26.6           330.69814     -3227.427       21.330299     -10889.622      5811.2092      17.978585      17.978585      17.978585    
     53300   26.65          343.6652      -3228.2618      22.166684     -12081.893      5811.1865      17.978561      17.978561      17.978561    
     53400   26.7           340.34963     -3228.0463      21.952828     -10983.298      5811.1638      17.978538      17.978538      17.978538    
     53500   26.75          345.46944     -3228.3748      22.28306      -9420.5976      5811.141       17.978515      17.978515      17.978515    
     53600   26.8           345.08509     -3228.3484      22.258269     -11228.347      5811.1182      17.978491      17.978491      17.978491    
     53700   26.85          340.00237     -3228.0187      21.930429     -11514.815      5811.0953      17.978467      17.978467      17.978467    
     53800   26.9           357.42261     -3229.1409      23.054049     -12518.085      5811.0724      17.978444      17.978444      17.978444    
     53900   26.95          350.11453     -3228.6676      22.582672     -11461.824      5811.0494      17.97842       17.97842       17.97842     
     54000   27             330.01099     -3227.369       21.285977     -8845.7959      5811.0263      17.978396      17.978396      17.978396    
     54100   27.05          346.73003     -3228.4458      22.364368     -10495.903      5811.0032      17.978372      17.978372      17.978372    
     54200   27.1           358.5794      -3229.2085      23.128662     -12504.539      5810.98        17.978348      17.978348      17.978348    
     54300   27.15          354.65019     -3228.9532      22.875225     -12304.789      5810.9568      17.978325      17.978325      17.978325    
     54400   27.2           347.86642     -3228.5137      22.437666     -10604.181      5810.9335      17.978301      17.978301      17.978301    
     54500   27.25          336.87165     -3227.8028      21.728495     -12209.51       5810.9102      17.978276      17.978276      17.978276    
     54600   27.3           346.61937     -3228.4298      22.357231     -11662.338      5810.8867      17.978252      17.978252      17.978252    
     54700   27.35          356.34018     -3229.0551      22.984231     -12061.98       5810.8633      17.978228      17.978228      17.978228    
     54800   27.4           328.50372     -3227.2576      21.188757     -11056.892      5810.8397      17.978204      17.978204      17.978204    
     54900   27.45          346.99038     -3228.4483      22.381161     -11182.082      5810.8161      17.978179      17.978179      17.978179    
     55000   27.5           340.79488     -3228.0472      21.981547     -11050.602      5810.7925      17.978155      17.978155      17.978155    
     55100   27.55          355.67275     -3229.005       22.941181     -10692.321      5810.7688      17.978131      17.978131      17.978131    
     55200   27.6           350.73875     -3228.685       22.622934     -10138.689      5810.745       17.978106      17.978106      17.978106    
     55300   27.65          350.13001     -3228.6437      22.58367      -12196.404      5810.7212      17.978082      17.978082      17.978082    
     55400   27.7           338.23298     -3227.8745      21.816302     -9143.4428      5810.6973      17.978057      17.978057      17.978057    
     55500   27.75          356.50078     -3229.0511      22.99459      -13154.234      5810.6734      17.978032      17.978032      17.978032    
     55600   27.8           335.48128     -3227.6936      21.638815     -12312.678      5810.6494      17.978008      17.978008      17.978008    
     55700   27.85          343.92968     -3228.2366      22.183743     -11375.136      5810.6254      17.977983      17.977983      17.977983    
     55800   27.9           350.39298     -3228.6517      22.600632     -13260.611      5810.6012      17.977958      17.977958      17.977958    
     55900   27.95          357.20778     -3229.0896      23.040192     -13208.993      5810.5771      17.977933      17.977933      17.977933    
     56000   28             336.07347     -3227.7242      21.677012     -10778.835      5810.5528      17.977908      17.977908      17.977908    
     56100   28.05          332.67568     -3227.5034      21.457852     -10575.818      5810.5285      17.977883      17.977883      17.977883    
     56200   28.1           356.49068     -3229.0376      22.993938     -13960.779      5810.5041      17.977858      17.977858      17.977858    
     56300   28.15          328.28836     -3227.2167      21.174866     -11829.477      5810.4797      17.977832      17.977832      17.977832    
     56400   28.2           344.70278     -3228.2738      22.233609     -12538.574      5810.4552      17.977807      17.977807      17.977807    
     56500   28.25          364.3562      -3229.5397      23.501271     -15360.109      5810.4306      17.977782      17.977782      17.977782    
     56600   28.3           326.36188     -3227.087       21.050606     -13288.798      5810.406       17.977756      17.977756      17.977756    
     56700   28.35          360.74464     -3229.3031      23.268322     -15099.73       5810.3813      17.977731      17.977731      17.977731    
     56800   28.4           343.52064     -3228.1903      22.15736      -12551.198      5810.3565      17.977705      17.977705      17.977705    
     56900   28.45          332.26661     -3227.4623      21.431466     -10507.586      5810.3316      17.97768       17.97768       17.97768     
     57000   28.5           337.66188     -3227.8084      21.779466     -10635.195      5810.3067      17.977654      17.977654      17.977654    
     57100   28.55          357.15026     -3229.0637      23.036482     -13031.726      5810.2817      17.977628      17.977628      17.977628    
     57200   28.6           341.79723     -3228.0715      22.046199     -12989.585      5810.2567      17.977602      17.977602      17.977602    
     57300   28.65          335.77121     -3227.6809      21.657516     -12959.366      5810.2316      17.977577      17.977577      17.977577    
     57400   28.7           333.94976     -3227.5615      21.540031     -9670.9999      5810.2064      17.977551      17.977551      17.977551    
     57500   28.75          345.2237      -3228.2868      22.267209     -11108.646      5810.1812      17.977525      17.977525      17.977525    
     57600   28.8           340.20133     -3227.9609      21.943262     -12672.881      5810.1559      17.977499      17.977499      17.977499    
     57700   28.85          343.88224     -3228.1965      22.180684     -12922.287      5810.1305      17.977472      17.977472      17.977472    
     57800   28.9           348.2289      -3228.4751      22.461047     -10731.518      5810.1051      17.977446      17.977446      17.977446    
     57900   28.95          356.68824     -3229.0189      23.006681     -13163.941      5810.0796      17.97742       17.97742       17.97742     
     58000   29             344.36597     -3228.2221      22.211885     -13531.984      5810.0541      17.977393      17.977393      17.977393    
     58100   29.05          334.18295     -3227.5632      21.555072     -11627.56       5810.0284      17.977367      17.977367      17.977367    
     58200   29.1           347.81402     -3228.4406      22.434287     -11384.407      5810.0028      17.977341      17.977341      17.977341    
     58300   29.15          347.27789     -3228.4041      22.399706     -10998.907      5809.977       17.977314      17.977314      17.977314    
     58400   29.2           346.20482     -3228.3328      22.330492     -10239.17       5809.9512      17.977287      17.977287      17.977287    
     58500   29.25          336.79334     -3227.7239      21.723444     -11348.476      5809.9254      17.977261      17.977261      17.977261    
     58600   29.3           357.37193     -3229.0493      23.05078      -10814.79       5809.8995      17.977234      17.977234      17.977234    
     58700   29.35          340.97653     -3227.9897      21.993263     -11307.094      5809.8735      17.977207      17.977207      17.977207    
     58800   29.4           349.69384     -3228.5499      22.555537     -13274.956      5809.8475      17.97718       17.97718       17.97718     
     58900   29.45          338.26687     -3227.8111      21.818488     -13639.478      5809.8214      17.977154      17.977154      17.977154    
     59000   29.5           348.43119     -3228.4647      22.474095     -11115.802      5809.7952      17.977127      17.977127      17.977127    
     59100   29.55          350.55622     -3228.5998      22.611161     -12712.705      5809.769       17.977099      17.977099      17.977099    
     59200   29.6           314.68728     -3226.284       20.297585     -10403.312      5809.7427      17.977072      17.977072      17.977072    
     59300   29.65          348.37942     -3228.4554      22.470756     -11420.871      5809.7164      17.977045      17.977045      17.977045    
     59400   29.7           335.6532      -3227.6326      21.649904     -11489.294      5809.69        17.977018      17.977018      17.977018    
     59500   29.75          354.67311     -3228.8576      22.876704     -10925.996      5809.6635      17.976991      17.976991      17.976991    
     59600   29.8           335.7352      -3227.6338      21.655193     -9034.4877      5809.637       17.976963      17.976963      17.976963    
     59700   29.85          342.66394     -3228.0787      22.102103     -12223.923      5809.6104      17.976936      17.976936      17.976936    
     59800   29.9           342.20394     -3228.0472      22.072432     -10498.21       5809.5838      17.976908      17.976908      17.976908    
     59900   29.95          349.2417      -3228.4991      22.526373     -10854.501      5809.5571      17.976881      17.976881      17.976881    
     60000   30             357.78021     -3229.0478      23.077114     -12554.348      5809.5303      17.976853      17.976853      17.976853    
     60100   30.05          344.47372     -3228.1874      22.218835     -10929.347      5809.5035      17.976826      17.976826      17.976826    
     60200   30.1           332.28049     -3227.3989      21.432362     -10494.449      5809.4767      17.976798      17.976798      17.976798    
     60300   30.15          344.56165     -3228.1892      22.224506     -13221.405      5809.4497      17.97677       17.97677       17.97677     
     60400   30.2           355.53954     -3228.8952      22.932589     -12149.236      5809.4227      17.976742      17.976742      17.976742    
     60500   30.25          349.26942     -3228.4887      22.528161     -12241.146      5809.3957      17.976714      17.976714      17.976714    
     60600   30.3           336.97557     -3227.6937      21.735198     -12659.05       5809.3686      17.976686      17.976686      17.976686    
     60700   30.35          350.2274      -3228.5465      22.589952     -12084.229      5809.3414      17.976658      17.976658      17.976658    
     60800   30.4           337.72928     -3227.7382      21.783813     -12239.598      5809.3141      17.97663       17.97663       17.97663     
     60900   30.45          337.192       -3227.7013      21.749158     -11802.49       5809.2868      17.976602      17.976602      17.976602    
     61000   30.5           347.95106     -3228.3934      22.443126     -12415.147      5809.2595      17.976574      17.976574      17.976574    
     61100   30.55          347.33496     -3228.3517      22.403387     -10066.359      5809.232       17.976546      17.976546      17.976546    
     61200   30.6           330.6025      -3227.2702      21.32413      -10709.072      5809.2045      17.976517      17.976517      17.976517    
     61300   30.65          358.97574     -3229.0983      23.154227     -13077.873      5809.177       17.976489      17.976489      17.976489    
     61400   30.7           323.7462      -3226.8237      20.881893     -9456.0596      5809.1494      17.97646       17.97646       17.97646     
     61500   30.75          351.73694     -3228.6273      22.687319     -12048.817      5809.1217      17.976432      17.976432      17.976432    
     61600   30.8           342.01191     -3227.9979      22.060046     -12366.838      5809.094       17.976403      17.976403      17.976403    
     61700   30.85          342.37193     -3228.0191      22.083267     -11870.717      5809.0662      17.976375      17.976375      17.976375    
     61800   30.9           333.56506     -3227.449       21.515218     -9878.6592      5809.0383      17.976346      17.976346      17.976346    
     61900   30.95          369.66498     -3229.7755      23.843691     -12629.148      5809.0104      17.976317      17.976317      17.976317    
     62000   31             343.54283     -3228.0884      22.158792     -10584.294      5808.9824      17.976288      17.976288      17.976288    
     62100   31.05          356.65443     -3228.932       23.004501     -11323.746      5808.9544      17.976259      17.976259      17.976259    
     62200   31.1           339.32588     -3227.8121      21.886795     -12386.965      5808.9263      17.97623       17.97623       17.97623     
     62300   31.15          348.3644      -3228.3931      22.469787     -11497.39       5808.8981      17.976201      17.976201      17.976201    
     62400   31.2           354.31546     -3228.7747      22.853635     -13257.715      5808.8699      17.976172      17.976172      17.976172    
     62500   31.25          344.51304     -3228.1403      22.221371     -14212.4        5808.8417      17.976143      17.976143      17.976143    
     62600   31.3           334.88917     -3227.5175      21.600623     -10313.732      5808.8133      17.976114      17.976114      17.976114    
     62700   31.35          350.77694     -3228.5401      22.625397     -12669.97       5808.7849      17.976084      17.976084      17.976084    
     62800   31.4           343.11068     -3228.0436      22.130918     -11515.873      5808.7564      17.976055      17.976055      17.976055    
     62900   31.45          342.70284     -3228.0151      22.104612     -10197.994      5808.7279      17.976026      17.976026      17.976026    
     63000   31.5           350.61441     -3228.5233      22.614914     -11050.162      5808.6993      17.975996      17.975996      17.975996    
     63100   31.55          361.66096     -3229.2336      23.327426     -11799.842      5808.6707      17.975967      17.975967      17.975967    
     63200   31.6           319.79842     -3226.5312      20.627258     -11786.361      5808.642       17.975937      17.975937      17.975937    
     63300   31.65          353.40892     -3228.6971      22.795162     -11685.163      5808.6132      17.975907      17.975907      17.975907    
     63400   31.7           351.30018     -3228.559       22.659147     -10859.111      5808.5844      17.975878      17.975878      17.975878    
     63500   31.75          341.16488     -3227.903       22.005412     -10559.997      5808.5555      17.975848      17.975848      17.975848    
     63600   31.8           374.78526     -3230.0696      24.173954     -13254.133      5808.5266      17.975818      17.975818      17.975818    
     63700   31.85          321.18979     -3226.61        20.717002     -9128.403       5808.4976      17.975788      17.975788      17.975788    
     63800   31.9           359.69148     -3229.0915      23.200393     -10561.821      5808.4685      17.975758      17.975758      17.975758    
     63900   31.95          332.1008      -3227.3095      21.420771     -8534.8067      5808.4394      17.975728      17.975728      17.975728    
     64000   32             354.46316     -3228.7497      22.863162     -11504.546      5808.4102      17.975698      17.975698      17.975698    
     64100   32.05          347.96351     -3228.3284      22.443929     -10820.915      5808.381       17.975668      17.975668      17.975668    
     64200   32.1           341.67104     -3227.9202      22.038059     -10785.132      5808.3518      17.975638      17.975638      17.975638    
     64300   32.15          346.26657     -3228.2145      22.334475     -10238.321      5808.3225      17.975607      17.975607      17.975607    
     64400   32.2           344.99956     -3228.1305      22.252752     -10138.754      5808.2931      17.975577      17.975577      17.975577    
     64500   32.25          347.11725     -3228.2649      22.389345     -11750.914      5808.2636      17.975547      17.975547      17.975547    
     64600   32.3           338.18676     -3227.6865      21.813321     -10671.495      5808.2342      17.975516      17.975516      17.975516    
     64700   32.35          346.06059     -3228.1922      22.321189     -11043.847      5808.2046      17.975486      17.975486      17.975486    
     64800   32.4           337.32003     -3227.6263      21.757416     -11427.788      5808.175       17.975455      17.975455      17.975455    
     64900   32.45          355.47657     -3228.7951      22.928527     -13398.057      5808.1453      17.975425      17.975425      17.975425    
     65000   32.5           324.52107     -3226.7962      20.931873     -10190.76       5808.1156      17.975394      17.975394      17.975394    
     65100   32.55          353.6626      -3228.6737      22.811525     -10589.573      5808.0858      17.975363      17.975363      17.975363    
     65200   32.6           351.74251     -3228.5476      22.687678     -11559.805      5808.056       17.975332      17.975332      17.975332    
     65300   32.65          351.20717     -3228.5109      22.653148     -11104.702      5808.0261      17.975302      17.975302      17.975302    
     65400   32.7           329.44526     -3227.1048      21.249487     -9958.1842      5807.9961      17.975271      17.975271      17.975271    
     65500   32.75          354.76514     -3228.7359      22.88264      -12484.711      5807.9661      17.97524       17.97524       17.97524     
     65600   32.8           344.74169     -3228.0871      22.236119     -10436.342      5807.936       17.975209      17.975209      17.975209    
     65700   32.85          335.92716     -3227.5161      21.667575     -9893.5004      5807.9059      17.975178      17.975178      17.975178    
     65800   32.9           356.97219     -3228.8715      23.024996     -11960.492      5807.8757      17.975146      17.975146      17.975146    
     65900   32.95          343.46477     -3227.998       22.153757     -11502.72       5807.8454      17.975115      17.975115      17.975115    
     66000   33             354.89882     -3228.7331      22.891262     -11929.525      5807.8151      17.975084      17.975084      17.975084    
     66100   33.05          338.73676     -3227.6883      21.848796     -11563.718      5807.7848      17.975053      17.975053      17.975053    
     66200   33.1           360.40623     -3229.084       23.246494     -11280.569      5807.7543      17.975021      17.975021      17.975021    
     66300   33.15          348.38298     -3228.3061      22.470985     -11014.612      5807.7238      17.97499       17.97499       17.97499     
     66400   33.2           348.20679     -3228.2925      22.459621     -11960.388      5807.6933      17.974958      17.974958      17.974958    
     66500   33.25          344.16269     -3228.0292      22.198773     -10240.116      5807.6627      17.974927      17.974927      17.974927    
     66600   33.3           345.11349     -3228.0884      22.2601       -10872.973      5807.632       17.974895      17.974895      17.974895    
     66700   33.35          345.84261     -3228.133       22.307129     -11530.817      5807.6013      17.974863      17.974863      17.974863    
     66800   33.4           351.28341     -3228.4816      22.658065     -11127.501      5807.5705      17.974832      17.974832      17.974832    
     66900   33.45          338.34668     -3227.6448      21.823636     -10451.683      5807.5397      17.9748        17.9748        17.9748      
     67000   33.5           359.02962     -3228.9767      23.157702     -11272.667      5807.5088      17.974768      17.974768      17.974768    
     67100   33.55          326.13421     -3226.8525      21.035921     -6853.0901      5807.4779      17.974736      17.974736      17.974736    
     67200   33.6           350.1412      -3228.3986      22.584392     -10249.452      5807.4469      17.974704      17.974704      17.974704    
     67300   33.65          357.60169     -3228.8777      23.065599     -11529.144      5807.4158      17.974672      17.974672      17.974672    
     67400   33.7           340.70298     -3227.7851      21.975619     -8667.3958      5807.3848      17.97464       17.97464       17.97464     
     67500   33.75          338.94242     -3227.6692      21.862062     -10622.819      5807.3536      17.974608      17.974608      17.974608    
     67600   33.8           354.32172     -3228.6591      22.854039     -13304.6        5807.3224      17.974576      17.974576      17.974576    
     67700   33.85          336.11169     -3227.4821      21.679477     -9988.6768      5807.2911      17.974543      17.974543      17.974543    
     67800   33.9           350.63066     -3228.4163      22.615962     -11524.22       5807.2598      17.974511      17.974511      17.974511    
     67900   33.95          352.60534     -3228.5413      22.743331     -8872.423       5807.2284      17.974479      17.974479      17.974479    
     68000   34             329.33785     -3227.0381      21.242559     -9932.9847      5807.197       17.974446      17.974446      17.974446    
     68100   34.05          358.12873     -3228.8929      23.099594     -11087.225      5807.1655      17.974414      17.974414      17.974414    
     68200   34.1           351.62849     -3228.4712      22.680323     -10970.575      5807.134       17.974381      17.974381      17.974381    
     68300   34.15          346.08963     -3228.1116      22.323062     -13382.256      5807.1023      17.974349      17.974349      17.974349    
     68400   34.2           341.63722     -3227.8221      22.035878     -10347.607      5807.0707      17.974316      17.974316      17.974316    
     68500   34.25          355.54177     -3228.7167      22.932733     -9576.7136      5807.039       17.974283      17.974283      17.974283    
     68600   34.3           355.10639     -3228.6862      22.904651     -11570.046      5807.0072      17.97425       17.97425       17.97425     
     68700   34.35          350.59839     -3228.3931      22.613881     -11645.338      5806.9753      17.974218      17.974218      17.974218    
     68800   34.4           347.37888     -3228.1831      22.40622      -10635.449      5806.9435      17.974185      17.974185      17.974185    
     68900   34.45          345.24102     -3228.0428      22.268326     -11567.32       5806.9115      17.974152      17.974152      17.974152    
     69000   34.5           356.87388     -3228.7908      23.018655     -9319.7639      5806.8795      17.974119      17.974119      17.974119    
     69100   34.55          349.41701     -3228.3072      22.537681     -11326.083      5806.8474      17.974086      17.974086      17.974086    
     69200   34.6           351.2728      -3228.4247      22.657381     -11517.311      5806.8153      17.974052      17.974052      17.974052    
     69300   34.65          342.11518     -3227.8315      22.066707     -10916.062      5806.7832      17.974019      17.974019      17.974019    
     69400   34.7           347.26307     -3228.1611      22.39875      -10704.092      5806.7509      17.973986      17.973986      17.973986    
     69500   34.75          353.41912     -3228.556       22.795821     -10633.196      5806.7187      17.973953      17.973953      17.973953    
     69600   34.8           338.02745     -3227.5605      21.803045     -9781.1152      5806.6863      17.973919      17.973919      17.973919    
     69700   34.85          352.91412     -3228.5185      22.763248     -9867.2279      5806.6539      17.973886      17.973886      17.973886    
     69800   34.9           340.62033     -3227.7231      21.970288     -10037.994      5806.6215      17.973852      17.973852      17.973852    
     69900   34.95          356.95711     -3228.7745      23.024024     -11412.742      5806.589       17.973819      17.973819      17.973819    
     70000   35             345.61412     -3228.0403      22.292391     -9310.9923      5806.5565      17.973785      17.973785      17.973785    
     70100   35.05          345.17035     -3228.0092      22.263768     -11080.45       5806.5239      17.973752      17.973752      17.973752    
     70200   35.1           351.13453     -3228.3915      22.648462     -9695.3014      5806.4912      17.973718      17.973718      17.973718    
     70300   35.15          360.42192     -3228.9882      23.247507     -10955.309      5806.4585      17.973684      17.973684      17.973684    
     70400   35.2           350.61824     -3228.3534      22.615161     -9825.9318      5806.4257      17.97365       17.97365       17.97365     
     70500   35.25          356.29839     -3228.7174      22.981536     -10303.618      5806.3929      17.973617      17.973617      17.973617    
     70600   35.3           351.33545     -3228.3947      22.661422     -9449.2099      5806.3601      17.973583      17.973583      17.973583    
     70700   35.35          346.94104     -3228.1089      22.377979     -11149.222      5806.3272      17.973549      17.973549      17.973549    
     70800   35.4           359.52437     -3228.9181      23.189614     -11263.482      5806.2942      17.973515      17.973515      17.973515    
     70900   35.45          338.91557     -3227.5864      21.86033      -10357.163      5806.2611      17.973481      17.973481      17.973481    
     71000   35.5           359.15204     -3228.8892      23.165599     -11148.118      5806.2281      17.973447      17.973447      17.973447    
     71100   35.55          345.61315     -3228.0133      22.292329     -9383.7766      5806.1949      17.973412      17.973412      17.973412    
     71200   35.6           339.48816     -3227.6158      21.897262     -12221.818      5806.1617      17.973378      17.973378      17.973378    
     71300   35.65          349.46226     -3228.2568      22.540599     -13416.097      5806.1285      17.973344      17.973344      17.973344    
     71400   35.7           359.02853     -3228.8715      23.157632     -12277.548      5806.0951      17.973309      17.973309      17.973309    
     71500   35.75          337.53687     -3227.4827      21.771403     -10986.988      5806.0618      17.973275      17.973275      17.973275    
     71600   35.8           344.94445     -3227.958       22.249197     -12233.193      5806.0283      17.97324       17.97324       17.97324     
     71700   35.85          363.1384      -3229.1293      23.422722     -10981.608      5805.9948      17.973206      17.973206      17.973206    
     71800   35.9           337.58251     -3227.4783      21.774346     -11456.635      5805.9612      17.973171      17.973171      17.973171    
     71900   35.95          359.83297     -3228.9112      23.209519     -12264.312      5805.9276      17.973136      17.973136      17.973136    
     72000   36             336.50746     -3227.4038      21.705005     -10407.918      5805.8939      17.973102      17.973102      17.973102    
     72100   36.05          343.79938     -3227.8719      22.175339     -10970.464      5805.8602      17.973067      17.973067      17.973067    
     72200   36.1           352.77554     -3228.4484      22.754309     -10108.895      5805.8264      17.973032      17.973032      17.973032    
     72300   36.15          362.60869     -3229.0802      23.388555     -11224.065      5805.7925      17.972997      17.972997      17.972997    
     72400   36.2           342.6249      -3227.7888      22.099585     -9772.5704      5805.7586      17.972962      17.972962      17.972962    
     72500   36.25          349.46378     -3228.2272      22.540698     -10409.359      5805.7246      17.972927      17.972927      17.972927    
     72600   36.3           359.25494     -3228.8563      23.172235     -8558.3862      5805.6906      17.972892      17.972892      17.972892    
     72700   36.35          333.86725     -3227.2162      21.534709     -10891.106      5805.6566      17.972857      17.972857      17.972857    
     72800   36.4           353.38408     -3228.4725      22.79356      -10495.322      5805.6225      17.972822      17.972822      17.972822    
     72900   36.45          335.03873     -3227.2868      21.61027      -8949.5302      5805.5883      17.972786      17.972786      17.972786    
     73000   36.5           350.77139     -3228.2989      22.62504      -10090.506      5805.5541      17.972751      17.972751      17.972751    
     73100   36.55          343.97213     -3227.8579      22.186482     -10611.919      5805.5198      17.972716      17.972716      17.972716    
     73200   36.6           346.39055     -3228.0115      22.342472     -9111.2497      5805.4855      17.97268       17.97268       17.97268     
     73300   36.65          353.07418     -3228.44        22.773571     -12487.333      5805.4511      17.972645      17.972645      17.972645    
     73400   36.7           326.60549     -3226.7301      21.066319     -8739.962       5805.4166      17.972609      17.972609      17.972609    
     73500   36.75          364.92655     -3229.1996      23.538059     -11339.436      5805.3822      17.972574      17.972574      17.972574    
     73600   36.8           352.01341     -3228.3642      22.705151     -10206.54       5805.3476      17.972538      17.972538      17.972538    
     73700   36.85          359.69418     -3228.857       23.200567     -10846.612      5805.313       17.972502      17.972502      17.972502    
     73800   36.9           347.88892     -3228.0929      22.439118     -12157.776      5805.2784      17.972467      17.972467      17.972467    
     73900   36.95          349.65067     -3228.2041      22.552752     -11642.751      5805.2436      17.972431      17.972431      17.972431    
     74000   37             354.71409     -3228.5283      22.879347     -11929.908      5805.2089      17.972395      17.972395      17.972395    
     74100   37.05          352.33752     -3228.3724      22.726056     -11585.553      5805.174       17.972359      17.972359      17.972359    
     74200   37.1           350.69303     -3228.2638      22.619985     -10279.231      5805.1392      17.972323      17.972323      17.972323    
     74300   37.15          353.8644      -3228.4656      22.824541     -9841.4017      5805.1042      17.972287      17.972287      17.972287    
     74400   37.2           354.13176     -3228.4805      22.841786     -10909.551      5805.0692      17.972251      17.972251      17.972251    
     74500   37.25          353.45215     -3228.4341      22.797951     -11049.331      5805.0342      17.972214      17.972214      17.972214    
     74600   37.3           355.89584     -3228.5892      22.955571     -10936.123      5804.9991      17.972178      17.972178      17.972178    
     74700   37.35          347.51138     -3228.0458      22.414766     -9504.6446      5804.9639      17.972142      17.972142      17.972142    
     74800   37.4           343.98168     -3227.8154      22.187098     -10198.188      5804.9287      17.972106      17.972106      17.972106    
     74900   37.45          349.09721     -3228.1428      22.517054     -8404.8708      5804.8934      17.972069      17.972069      17.972069    
     75000   37.5           353.39468     -3228.4174      22.794244     -10331.771      5804.8581      17.972033      17.972033      17.972033    
     75100   37.55          338.54983     -3227.4573      21.836739     -10296.531      5804.8227      17.971996      17.971996      17.971996    
     75200   37.6           353.79366     -3228.4381      22.819979     -9903.175       5804.7873      17.97196       17.97196       17.97196     
     75300   37.65          350.95416     -3228.2524      22.636829     -10265.473      5804.7518      17.971923      17.971923      17.971923    
     75400   37.7           351.91893     -3228.312       22.699057     -10278.071      5804.7163      17.971886      17.971886      17.971886    
     75500   37.75          345.49016     -3227.8948      22.284396     -11624.55       5804.6807      17.97185       17.97185       17.97185     
     75600   37.8           352.83419     -3228.366       22.758092     -11475.384      5804.6451      17.971813      17.971813      17.971813    
     75700   37.85          346.03271     -3227.9246      22.319391     -10332.03       5804.6094      17.971776      17.971776      17.971776    
     75800   37.9           353.53883     -3228.4062      22.803542     -9694.1552      5804.5736      17.971739      17.971739      17.971739    
     75900   37.95          335.7624      -3227.257       21.656947     -8392.0296      5804.5378      17.971702      17.971702      17.971702    
     76000   38             351.87167     -3228.2934      22.696008     -10868.698      5804.502       17.971665      17.971665      17.971665    
     76100   38.05          342.48678     -3227.6854      22.090675     -9979.5961      5804.4661      17.971628      17.971628      17.971628    
     76200   38.1           335.46466     -3227.23        21.637743     -10214.666      5804.4301      17.971591      17.971591      17.971591    
     76300   38.15          337.90592     -3227.3848      21.795206     -10971.768      5804.3941      17.971554      17.971554      17.971554    
     76400   38.2           362.62384     -3228.9766      23.389532     -10000.064      5804.358       17.971517      17.971517      17.971517    
     76500   38.25          349.99842     -3228.1598      22.575183     -9322.9073      5804.3219      17.971479      17.971479      17.971479    
     76600   38.3           352.29886     -3228.3053      22.723563     -11297.983      5804.2857      17.971442      17.971442      17.971442    
     76700   38.35          341.44494     -3227.6028      22.023476     -9636.3411      5804.2495      17.971405      17.971405      17.971405    
     76800   38.4           346.12433     -3227.9019      22.325301     -9385.8559      5804.2132      17.971367      17.971367      17.971367    
     76900   38.45          345.06379     -3227.8311      22.256894     -11386.397      5804.1769      17.97133       17.97133       17.97133     
     77000   38.5           359.14259     -3228.7367      23.164989     -10316.209      5804.1405      17.971292      17.971292      17.971292    
     77100   38.55          352.30104     -3228.2925      22.723703     -9948.1775      5804.104       17.971255      17.971255      17.971255    
     77200   38.6           350.80696     -3228.1936      22.627334     -9866.213       5804.0676      17.971217      17.971217      17.971217    
     77300   38.65          354.5424      -3228.4319      22.868273     -9390.8478      5804.031       17.971179      17.971179      17.971179    
     77400   38.7           339.1671      -3227.4373      21.876553     -9188.0922      5803.9944      17.971141      17.971141      17.971141    
     77500   38.75          346.89626     -3227.9334      22.37509      -11883.948      5803.9578      17.971104      17.971104      17.971104    
     77600   38.8           352.78951     -3228.311       22.75521      -9871.6597      5803.9211      17.971066      17.971066      17.971066    
     77700   38.85          342.02429     -3227.6138      22.060845     -10400.359      5803.8843      17.971028      17.971028      17.971028    
     77800   38.9           359.28992     -3228.7248      23.174492     -10863.373      5803.8475      17.97099       17.97099       17.97099     
     77900   38.95          354.97796     -3228.4444      22.896367     -9555.519       5803.8106      17.970952      17.970952      17.970952    
     78000   39             353.44295     -3228.3427      22.797357     -9508.3099      5803.7737      17.970914      17.970914      17.970914    
     78100   39.05          352.00601     -3228.2472      22.704674     -9757.7335      5803.7368      17.970876      17.970876      17.970876    
     78200   39.1           365.33972     -3229.1046      23.564709     -10371.195      5803.6998      17.970837      17.970837      17.970837    
     78300   39.15          347.5307      -3227.9533      22.416012     -10068.931      5803.6627      17.970799      17.970799      17.970799    
     78400   39.2           339.46494     -3227.4302      21.895764     -10889.146      5803.6256      17.970761      17.970761      17.970761    
     78500   39.25          356.01146     -3228.4952      22.963028     -11417.274      5803.5884      17.970722      17.970722      17.970722    
     78600   39.3           364.4533      -3229.037       23.507534     -12333.096      5803.5512      17.970684      17.970684      17.970684    
     78700   39.35          338.17069     -3227.3389      21.812284     -8109.811       5803.5139      17.970645      17.970645      17.970645    
     78800   39.4           349.99867     -3228.0992      22.575198     -10912.769      5803.4765      17.970607      17.970607      17.970607    
     78900   39.45          354.15411     -3228.3646      22.843228     -10021.707      5803.4392      17.970568      17.970568      17.970568    
     79000   39.5           346.81072     -3227.8882      22.369573     -10074.054      5803.4017      17.97053       17.97053       17.97053     
     79100   39.55          346.15408     -3227.8431      22.327219     -9408.618       5803.3642      17.970491      17.970491      17.970491    
     79200   39.6           352.91014     -3228.2763      22.762991     -10255.827      5803.3267      17.970452      17.970452      17.970452    
     79300   39.65          355.5442      -3228.4435      22.93289      -10086.616      5803.2891      17.970413      17.970413      17.970413    
     79400   39.7           346.37699     -3227.8495      22.341597     -10239.917      5803.2514      17.970375      17.970375      17.970375    
     79500   39.75          344.98919     -3227.7574      22.252083     -10543.495      5803.2137      17.970336      17.970336      17.970336    
     79600   39.8           361.5468      -3228.823       23.320063     -13742.662      5803.1759      17.970297      17.970297      17.970297    
     79700   39.85          343.59608     -3227.6624      22.162226     -10154.487      5803.1381      17.970258      17.970258      17.970258    
     79800   39.9           363.10101     -3228.9178      23.42031      -9549.3556      5803.1002      17.970218      17.970218      17.970218    
     79900   39.95          346.27978     -3227.8301      22.335327     -9005.5836      5803.0623      17.970179      17.970179      17.970179    
     80000   40             347.61047     -3227.9132      22.421158     -9401.9104      5803.0243      17.97014       17.97014       17.97014     
     80100   40.05          355.88697     -3228.4445      22.954999     -8464.8163      5802.9863      17.970101      17.970101      17.970101    
     80200   40.1           342.46729     -3227.5761      22.089419     -9588.2869      5802.9482      17.970062      17.970062      17.970062    
     80300   40.15          365.94568     -3229.0879      23.603793     -11264.552      5802.9101      17.970022      17.970022      17.970022    
     80400   40.2           353.47538     -3228.2809      22.799449     -10922.058      5802.8719      17.969983      17.969983      17.969983    
     80500   40.25          332.24659     -3226.9088      21.430175     -10986.641      5802.8336      17.969943      17.969943      17.969943    
     80600   40.3           355.37276     -3228.3978      22.921832     -9840.9359      5802.7954      17.969904      17.969904      17.969904    
     80700   40.35          356.76112     -3228.4848      23.011382     -9176.1779      5802.757       17.969864      17.969864      17.969864    
     80800   40.4           348.88786     -3227.9741      22.50355      -8879.1966      5802.7186      17.969825      17.969825      17.969825    
     80900   40.45          343.50353     -3227.6241      22.156257     -10388.74       5802.6802      17.969785      17.969785      17.969785    
     81000   40.5           360.91564     -3228.7448      23.279352     -8289.9562      5802.6417      17.969745      17.969745      17.969745    
     81100   40.55          359.00941     -3228.619       23.156398     -9901.1034      5802.6031      17.969705      17.969705      17.969705    
     81200   40.6           352.43593     -3228.1922      22.732404     -7755.4615      5802.5645      17.969666      17.969666      17.969666    
     81300   40.65          335.66085     -3227.1073      21.650398     -9749.0155      5802.5259      17.969626      17.969626      17.969626    
     81400   40.7           350.61412     -3228.0694      22.614895     -9731.6602      5802.4872      17.969586      17.969586      17.969586    
     81500   40.75          372.41367     -3229.4728      24.020984     -11498.143      5802.4485      17.969546      17.969546      17.969546    
     81600   40.8           342.31179     -3227.5282      22.079388     -7788.3818      5802.4097      17.969506      17.969506      17.969506    
     81700   40.85          344.18801     -3227.6467      22.200406     -8553.9939      5802.3709      17.969466      17.969466      17.969466    
     81800   40.9           352.45355     -3228.1771      22.73354      -9730.3786      5802.332       17.969425      17.969425      17.969425    
     81900   40.95          363.6691      -3228.8978      23.456952     -9601.2889      5802.2931      17.969385      17.969385      17.969385    
     82000   41             357.2267      -3228.4794      23.041413     -8743.2528      5802.2541      17.969345      17.969345      17.969345    
     82100   41.05          336.41783     -3227.1344      21.699223     -6882.3337      5802.2151      17.969305      17.969305      17.969305    
     82200   41.1           356.22592     -3228.4093      22.976861     -9490.7715      5802.176       17.969264      17.969264      17.969264    
     82300   41.15          362.98286     -3228.8425      23.412689     -10884.779      5802.1369      17.969224      17.969224      17.969224    
     82400   41.2           350.157       -3228.0124      22.585411     -10710.88       5802.0977      17.969184      17.969184      17.969184    
     82500   41.25          349.61007     -3227.9742      22.550134     -10093.849      5802.0585      17.969143      17.969143      17.969143    
     82600   41.3           375.99827     -3229.674       24.252194     -11153.102      5802.0192      17.969103      17.969103      17.969103    
     82700   41.35          361.11276     -3228.7108      23.292067     -10421.29       5801.9799      17.969062      17.969062      17.969062    
     82800   41.4           366.37238     -3229.0473      23.631316     -12415.93       5801.9405      17.969021      17.969021      17.969021    
     82900   41.45          359.51056     -3228.602       23.188723     -7976.4849      5801.9011      17.968981      17.968981      17.968981    
     83000   41.5           363.7051      -3228.8696      23.459274     -6243.4027      5801.8616      17.96894       17.96894       17.96894     
     83100   41.55          359.83563     -3228.617       23.20969      -10500.587      5801.8221      17.968899      17.968899      17.968899    
     83200   41.6           358.10573     -3228.5027      23.09811      -9404.0786      5801.7825      17.968858      17.968858      17.968858    
     83300   41.65          358.23649     -3228.5085      23.106545     -8058.6074      5801.7429      17.968817      17.968817      17.968817    
     83400   41.7           364.52474     -3228.9113      23.512142     -8774.0195      5801.7032      17.968776      17.968776      17.968776    
     83500   41.75          372.04102     -3229.3932      23.996948     -9423.4178      5801.6635      17.968735      17.968735      17.968735    
     83600   41.8           359.98872     -3228.6131      23.219565     -10027.234      5801.6237      17.968694      17.968694      17.968694    
     83700   41.85          364.34517     -3228.8912      23.500559     -11057.945      5801.5839      17.968653      17.968653      17.968653    
     83800   41.9           357.42062     -3228.4417      23.05392      -10058.337      5801.544       17.968612      17.968612      17.968612    
     83900   41.95          350.67607     -3228.0038      22.618892     -9540.5389      5801.5041      17.968571      17.968571      17.968571    
     84000   42             363.65619     -3228.8384      23.45612      -8980.6765      5801.4641      17.96853       17.96853       17.96853     
     84100   42.05          367.25376     -3229.0678      23.688166     -10632.155      5801.4241      17.968488      17.968488      17.968488    
     84200   42.1           365.25294     -3228.9359      23.559111     -9826.3377      5801.3841      17.968447      17.968447      17.968447    
     84300   42.15          359.33026     -3228.5509      23.177094     -9812.2581      5801.3439      17.968405      17.968405      17.968405    
     84400   42.2           365.76419     -3228.9633      23.592087     -10433.344      5801.3038      17.968364      17.968364      17.968364    
     84500   42.25          361.80817     -3228.7052      23.336921     -8779.4601      5801.2635      17.968322      17.968322      17.968322    
     84600   42.3           356.07868     -3228.3327      22.967364     -8717.0108      5801.2233      17.968281      17.968281      17.968281    
     84700   42.35          376.28999     -3229.6338      24.27101      -10483.613      5801.183       17.968239      17.968239      17.968239    
     84800   42.4           365.06034     -3228.9065      23.546689     -10824.829      5801.1426      17.968198      17.968198      17.968198    
     84900   42.45          350.54813     -3227.9675      22.610639     -8651.2316      5801.1022      17.968156      17.968156      17.968156    
     85000   42.5           358.47586     -3228.476       23.121984     -9036.3774      5801.0617      17.968114      17.968114      17.968114    
     85100   42.55          366.44484     -3228.9873      23.63599      -8311.7221      5801.0212      17.968072      17.968072      17.968072    
     85200   42.6           349.76109     -3227.9084      22.559874     -7862.9758      5800.9806      17.96803       17.96803       17.96803     
     85300   42.65          372.94995     -3229.4011      24.055575     -8605.8359      5800.94        17.967988      17.967988      17.967988    
     85400   42.7           360.38318     -3228.5878      23.245008     -9529.7396      5800.8994      17.967946      17.967946      17.967946    
     85500   42.75          355.78819     -3228.2884      22.948627     -8791.7199      5800.8587      17.967904      17.967904      17.967904    
     85600   42.8           369.38095     -3229.1624      23.825371     -9238.2913      5800.818       17.967862      17.967862      17.967862    
     85700   42.85          353.06004     -3228.1069      22.772659     -8848.5403      5800.7772      17.96782       17.96782       17.96782     
     85800   42.9           371.50204     -3229.2936      23.962184     -9278.8273      5800.7364      17.967778      17.967778      17.967778    
     85900   42.95          363.32069     -3228.7631      23.43448      -9182.0643      5800.6955      17.967736      17.967736      17.967736    
     86000   43             356.41868     -3228.315       22.989295     -8873.6096      5800.6546      17.967694      17.967694      17.967694    
     86100   43.05          361.02658     -3228.6093      23.286508     -7877.3776      5800.6136      17.967651      17.967651      17.967651    
     86200   43.1           367.20305     -3229.005       23.684895     -10197.809      5800.5726      17.967609      17.967609      17.967609    
     86300   43.15          364.80721     -3228.8476      23.530361     -10514.391      5800.5315      17.967567      17.967567      17.967567    
     86400   43.2           367.1021      -3228.9927      23.678383     -8984.6614      5800.4904      17.967524      17.967524      17.967524    
     86500   43.25          355.3974      -3228.235       22.923421     -9639.3602      5800.4492      17.967482      17.967482      17.967482    
     86600   43.3           357.63928     -3228.3767      23.068024     -7195.5557      5800.408       17.967439      17.967439      17.967439    
     86700   43.35          376.72894     -3229.6053      24.299323     -9158.6349      5800.3668      17.967397      17.967397      17.967397    
     86800   43.4           347.30162     -3227.7042      22.401237     -7084.9516      5800.3255      17.967354      17.967354      17.967354    
     86900   43.45          366.34684     -3228.9299      23.629669     -9409.7775      5800.2842      17.967311      17.967311      17.967311    
     87000   43.5           359.63564     -3228.4941      23.196791     -8627.9442      5800.2428      17.967268      17.967268      17.967268    
     87100   43.55          369.00284     -3229.0954      23.800983     -9652.8656      5800.2013      17.967226      17.967226      17.967226    
     87200   43.6           351.81368     -3227.9837      22.692268     -8623.368       5800.1599      17.967183      17.967183      17.967183    
     87300   43.65          347.93948     -3227.731       22.442379     -8498.6752      5800.1183      17.96714       17.96714       17.96714     
     87400   43.7           361.9996      -3228.6352      23.349268     -6109.5132      5800.0768      17.967097      17.967097      17.967097    
     87500   43.75          368.44163     -3229.0478      23.764785     -8902.7174      5800.0352      17.967054      17.967054      17.967054    
     87600   43.8           360.94746     -3228.5617      23.281404     -9088.1446      5799.9935      17.967011      17.967011      17.967011    
     87700   43.85          359.2113      -3228.4468      23.169421     -8164.9608      5799.9518      17.966968      17.966968      17.966968    
     87800   43.9           359.65285     -3228.4724      23.197901     -8559.2684      5799.9101      17.966925      17.966925      17.966925    
     87900   43.95          375.03677     -3229.462       24.190177     -8554.5953      5799.8683      17.966882      17.966882      17.966882    
     88000   44             360.46858     -3228.5193      23.250516     -7418.8322      5799.8265      17.966839      17.966839      17.966839    
     88100   44.05          361.68845     -3228.5952      23.329199     -9673.1902      5799.7846      17.966795      17.966795      17.966795    
     88200   44.1           370.7123      -3229.1745      23.911245     -10711.783      5799.7427      17.966752      17.966752      17.966752    
     88300   44.15          362.07036     -3228.6142      23.353832     -7910.9324      5799.7007      17.966709      17.966709      17.966709    
     88400   44.2           379.61891     -3229.7434      24.485728     -9051.5192      5799.6587      17.966665      17.966665      17.966665    
     88500   44.25          361.91446     -3228.5984      23.343777     -7823.7325      5799.6166      17.966622      17.966622      17.966622    
     88600   44.3           349.7154      -3227.8086      22.556927     -7650.502       5799.5745      17.966578      17.966578      17.966578    
     88700   44.35          374.6859      -3229.4165      24.167545     -11106.419      5799.5324      17.966535      17.966535      17.966535    
     88800   44.4           368.2058      -3228.9957      23.749573     -7258.4897      5799.4902      17.966491      17.966491      17.966491    
     88900   44.45          359.39391     -3228.4244      23.181199     -7656.0911      5799.448       17.966448      17.966448      17.966448    
     89000   44.5           369.25606     -3229.0577      23.817316     -9244.8566      5799.4057      17.966404      17.966404      17.966404    
     89100   44.55          357.43676     -3228.2923      23.054961     -7608.5337      5799.3634      17.96636       17.96636       17.96636     
     89200   44.6           369.1554      -3229.0454      23.810823     -9004.7998      5799.321       17.966317      17.966317      17.966317    
     89300   44.65          346.6106      -3227.5883      22.356665     -7577.3851      5799.2786      17.966273      17.966273      17.966273    
     89400   44.7           387.54939     -3230.2263      24.99725      -8936.9811      5799.2362      17.966229      17.966229      17.966229    
     89500   44.75          350.90724     -3227.8596      22.633802     -5105.2025      5799.1937      17.966185      17.966185      17.966185    
     89600   44.8           357.97228     -3228.3125      23.089503     -8150.1463      5799.1512      17.966141      17.966141      17.966141    
     89700   44.85          370.33098     -3229.107       23.886649     -8431.2163      5799.1086      17.966097      17.966097      17.966097    
     89800   44.9           371.18042     -3229.159       23.941439     -8961.282       5799.066       17.966053      17.966053      17.966053    
     89900   44.95          358.91927     -3228.3652      23.150584     -9330.8928      5799.0234      17.966009      17.966009      17.966009    
     90000   45             372.13612     -3229.2149      24.003082     -8582.7033      5798.9807      17.965965      17.965965      17.965965    
     90100   45.05          372.21449     -3229.217       24.008137     -7647.6639      5798.9379      17.965921      17.965921      17.965921    
     90200   45.1           366.97921     -3228.8763      23.670457     -9290.5065      5798.8952      17.965877      17.965877      17.965877    
     90300   45.15          368.8592      -3228.9949      23.791718     -9481.0458      5798.8523      17.965833      17.965833      17.965833    
     90400   45.2           361.01141     -3228.4857      23.285529     -6999.4693      5798.8095      17.965788      17.965788      17.965788    
     90500   45.25          332.91606     -3226.6704      21.473356     -7118.4958      5798.7665      17.965744      17.965744      17.965744    
     90600   45.3           374.56073     -3229.354       24.159471     -10283.048      5798.7236      17.9657        17.9657        17.9657      
     90700   45.35          358.26788     -3228.3003      23.108569     -8743.9893      5798.6806      17.965655      17.965655      17.965655    
     90800   45.4           357.56027     -3228.2516      23.062928     -6329.2001      5798.6375      17.965611      17.965611      17.965611    
     90900   45.45          367.58137     -3228.8953      23.709297     -6470.0027      5798.5945      17.965566      17.965566      17.965566    
     91000   45.5           375.5424      -3229.4061      24.22279      -9045.1997      5798.5513      17.965522      17.965522      17.965522    
     91100   45.55          355.33606     -3228.0996      22.919464     -7587.4863      5798.5082      17.965477      17.965477      17.965477    
     91200   45.6           372.652       -3229.2138      24.036357     -9195.8604      5798.465       17.965433      17.965433      17.965433    
     91300   45.65          369.59728     -3229.014       23.839325     -7309.015       5798.4217      17.965388      17.965388      17.965388    
     91400   45.7           367.99247     -3228.9076      23.735813     -7335.2622      5798.3784      17.965343      17.965343      17.965343    
     91500   45.75          359.15685     -3228.3347      23.165909     -7868.8619      5798.3351      17.965298      17.965298      17.965298    
     91600   45.8           367.1952      -3228.8503      23.684389     -7382.5249      5798.2918      17.965254      17.965254      17.965254    
     91700   45.85          368.26435     -3228.9164      23.75335      -5972.3919      5798.2484      17.965209      17.965209      17.965209    
     91800   45.9           370.31903     -3229.0461      23.885878     -7581.8991      5798.2049      17.965164      17.965164      17.965164    
     91900   45.95          363.93814     -3228.6316      23.474305     -9300.7903      5798.1615      17.965119      17.965119      17.965119    
     92000   46             351.57998     -3227.8316      22.677194     -6738.4232      5798.1179      17.965074      17.965074      17.965074    
     92100   46.05          369.02323     -3228.954       23.802298     -7834.2721      5798.0744      17.965029      17.965029      17.965029    
     92200   46.1           352.82395     -3227.9063      22.757431     -8243.6417      5798.0308      17.964984      17.964984      17.964984    
     92300   46.15          361.58038     -3228.4682      23.322229     -8437.866       5797.9871      17.964939      17.964939      17.964939    
     92400   46.2           365.90617     -3228.7443      23.601245     -7956.1714      5797.9435      17.964894      17.964894      17.964894    
     92500   46.25          340.92499     -3227.1301      21.989939     -6874.5772      5797.8997      17.964849      17.964849      17.964849    
     92600   46.3           382.38093     -3229.8014      24.663881     -7584.4386      5797.856       17.964804      17.964804      17.964804    
     92700   46.35          369.90222     -3228.9936      23.858994     -7496.3745      5797.8122      17.964758      17.964758      17.964758    
     92800   46.4           352.78469     -3227.8865      22.754899     -6818.0356      5797.7683      17.964713      17.964713      17.964713    
     92900   46.45          358.38502     -3228.2449      23.116125     -6666.5516      5797.7245      17.964668      17.964668      17.964668    
     93000   46.5           368.86056     -3228.9178      23.791806     -7364.0013      5797.6806      17.964622      17.964622      17.964622    
     93100   46.55          371.6412      -3229.0941      23.971159     -8490.4203      5797.6366      17.964577      17.964577      17.964577    
     93200   46.6           356.63434     -3228.1234      23.003205     -8680.1592      5797.5926      17.964532      17.964532      17.964532    
     93300   46.65          361.87642     -3228.4588      23.341323     -5745.7598      5797.5486      17.964486      17.964486      17.964486    
     93400   46.7           362.78396     -3228.5144      23.39986      -6305.0711      5797.5045      17.964441      17.964441      17.964441    
     93500   46.75          373.57716     -3229.2078      24.09603      -6316.2922      5797.4604      17.964395      17.964395      17.964395    
     93600   46.8           375.47202     -3229.3272      24.21825      -7259.7509      5797.4163      17.96435       17.96435       17.96435     
     93700   46.85          358.33103     -3228.2185      23.112643     -8774.3625      5797.3721      17.964304      17.964304      17.964304    
     93800   46.9           374.99884     -3229.291       24.18773      -8017.5113      5797.3279      17.964258      17.964258      17.964258    
     93900   46.95          359.78575     -3228.3067      23.206473     -6554.8484      5797.2837      17.964213      17.964213      17.964213    
     94000   47             365.20737     -3228.6536      23.556172     -8080.5897      5797.2394      17.964167      17.964167      17.964167    
     94100   47.05          369.20674     -3228.9087      23.814135     -7721.9533      5797.1951      17.964121      17.964121      17.964121    
     94200   47.1           362.20889     -3228.4544      23.362768     -8625.1109      5797.1507      17.964075      17.964075      17.964075    
     94300   47.15          368.35461     -3228.8481      23.759172     -7460.528       5797.1063      17.964029      17.964029      17.964029    
     94400   47.2           370.22064     -3228.9658      23.879532     -7345.1235      5797.0618      17.963983      17.963983      17.963983    
     94500   47.25          377.81922     -3229.4529      24.369647     -6828.976       5797.0174      17.963937      17.963937      17.963937    
     94600   47.3           347.86459     -3227.5176      22.437549     -7453.636       5796.9728      17.963891      17.963891      17.963891    
     94700   47.35          365.24058     -3228.6358      23.558314     -6848.9268      5796.9283      17.963845      17.963845      17.963845    
     94800   47.4           368.39991     -3228.8368      23.762093     -6249.2966      5796.8837      17.963799      17.963799      17.963799    
     94900   47.45          367.03343     -3228.7457      23.673954     -6975.7263      5796.8391      17.963753      17.963753      17.963753    
     95000   47.5           349.14889     -3227.5891      22.520387     -7129.8114      5796.7944      17.963707      17.963707      17.963707    
     95100   47.55          365.32143     -3228.6295      23.563529     -6923.5764      5796.7497      17.963661      17.963661      17.963661    
     95200   47.6           375.6254      -3229.2914      24.228144     -6711.2362      5796.705       17.963615      17.963615      17.963615    
     95300   47.65          371.99066     -3229.054       23.993699     -7466.0284      5796.6602      17.963568      17.963568      17.963568    
     95400   47.7           362.79319     -3228.4579      23.400455     -9440.8865      5796.6154      17.963522      17.963522      17.963522    
     95500   47.75          357.12812     -3228.0896      23.035054     -6792.354       5796.5705      17.963476      17.963476      17.963476    
     95600   47.8           371.08166     -3228.9869      23.935069     -8734.14        5796.5256      17.96343       17.96343       17.96343     
     95700   47.85          359.81105     -3228.257       23.208105     -7992.9969      5796.4807      17.963383      17.963383      17.963383    
     95800   47.9           351.42643     -3227.7134      22.66729      -6125.5008      5796.4357      17.963337      17.963337      17.963337    
     95900   47.95          368.61834     -3228.8196      23.776183     -9677.8726      5796.3907      17.96329       17.96329       17.96329     
     96000   48             376.39101     -3229.3182      24.277526     -9993.6595      5796.3457      17.963244      17.963244      17.963244    
     96100   48.05          363.71048     -3228.4974      23.459621     -6698.363       5796.3005      17.963197      17.963197      17.963197    
     96200   48.1           358.49831     -3228.1584      23.123432     -6681.5524      5796.2554      17.96315       17.96315       17.96315     
     96300   48.15          356.76904     -3228.0441      23.011893     -7997.6896      5796.2102      17.963104      17.963104      17.963104    
     96400   48.2           380.39797     -3229.5655      24.535978     -6675.6391      5796.165       17.963057      17.963057      17.963057    
     96500   48.25          361.26433     -3228.3285      23.301843     -7035.1061      5796.1197      17.96301       17.96301       17.96301     
     96600   48.3           364.28524     -3228.5205      23.496694     -6382.6973      5796.0744      17.962963      17.962963      17.962963    
     96700   48.35          359.16023     -3228.1869      23.166126     -9204.7562      5796.0291      17.962917      17.962917      17.962917    
     96800   48.4           370.78398     -3228.9341      23.915868     -7303.4226      5795.9837      17.96287       17.96287       17.96287     
     96900   48.45          356.31572     -3227.9978      22.982653     -5221.103       5795.9383      17.962823      17.962823      17.962823    
     97000   48.5           356.17603     -3227.986       22.973643     -7222.6374      5795.8929      17.962776      17.962776      17.962776    
     97100   48.55          369.41481     -3228.8371      23.827555     -7800.5023      5795.8474      17.962729      17.962729      17.962729    
     97200   48.6           360.41436     -3228.254       23.247019     -4922.9112      5795.8019      17.962682      17.962682      17.962682    
     97300   48.65          371.9372      -3228.9943      23.990251     -6715.1067      5795.7563      17.962635      17.962635      17.962635    
     97400   48.7           347.83355     -3227.4366      22.435547     -5725.4926      5795.7108      17.962588      17.962588      17.962588    
     97500   48.75          378.30192     -3229.3992      24.400781     -7383.1487      5795.6651      17.962541      17.962541      17.962541    
     97600   48.8           385.00187     -3229.8286      24.832933     -5808.7966      5795.6195      17.962493      17.962493      17.962493    
     97700   48.85          346.21689     -3227.3238      22.331271     -5042.3949      5795.5738      17.962446      17.962446      17.962446    
     97800   48.9           370.27518     -3228.8727      23.88305      -5643.688       5795.5281      17.962399      17.962399      17.962399    
     97900   48.95          365.97478     -3228.5926      23.605671     -8245.598       5795.4824      17.962352      17.962352      17.962352    
     98000   49             361.82414     -3228.322       23.337951     -8105.1763      5795.4366      17.962304      17.962304      17.962304    
     98100   49.05          361.51805     -3228.2995      23.318208     -7781.6942      5795.3908      17.962257      17.962257      17.962257    
     98200   49.1           360.89041     -3228.2563      23.277725     -6039.1876      5795.3449      17.96221       17.96221       17.96221     
     98300   49.15          382.67879     -3229.6588      24.683093     -6208.6171      5795.299       17.962162      17.962162      17.962162    
     98400   49.2           353.8075      -3227.7937      22.820871     -4628.1254      5795.2531      17.962115      17.962115      17.962115    
     98500   49.25          383.3341      -3229.6956      24.725361     -9292.0941      5795.2072      17.962067      17.962067      17.962067    
     98600   49.3           352.48884     -3227.703       22.735817     -7630.8489      5795.1612      17.96202       17.96202       17.96202     
     98700   49.35          365.02012     -3228.5087      23.544094     -8815.208       5795.1152      17.961972      17.961972      17.961972    
     98800   49.4           368.77765     -3228.7483      23.786458     -8475.8575      5795.0691      17.961925      17.961925      17.961925    
     98900   49.45          360.07562     -3228.1841      23.22517      -6742.2329      5795.023       17.961877      17.961877      17.961877    
     99000   49.5           366.4633      -3228.5934      23.637181     -8108.5209      5794.9768      17.961829      17.961829      17.961829    
     99100   49.55          368.0559      -3228.6934      23.739905     -6156.4854      5794.9306      17.961782      17.961782      17.961782    
     99200   49.6           367.59101     -3228.6605      23.709919     -6376.4577      5794.8844      17.961734      17.961734      17.961734    
     99300   49.65          361.49029     -3228.2643      23.316417     -5953.8128      5794.8381      17.961686      17.961686      17.961686    
     99400   49.7           370.11277     -3228.8177      23.872574     -5807.1756      5794.7918      17.961638      17.961638      17.961638    
     99500   49.75          371.60217     -3228.9109      23.968642     -6980.4436      5794.7455      17.96159       17.96159       17.96159     
     99600   49.8           362.73314     -3228.3361      23.396582     -5906.0832      5794.6991      17.961543      17.961543      17.961543    
     99700   49.85          373.56565     -3229.0319      24.095288     -9358.9087      5794.6527      17.961495      17.961495      17.961495    
     99800   49.9           383.96744     -3229.7001      24.766212     -6605.5608      5794.6063      17.961447      17.961447      17.961447    
     99900   49.95          352.07282     -3227.6399      22.708983     -7129.5518      5794.5598      17.961399      17.961399      17.961399    
    100000   50             356.07293     -3227.8952      22.966993     -8856.997       5794.5133      17.961351      17.961351      17.961351    
ERROR on proc 0: Cannot open restart file /projects/westgroup/akinyemi.az/mace_lammps/MHI_Nickel/calculation/results/Hastelloy_N_7_supercell_1H/structures/npt_700K_checkpoints/npt_700K.100000.restart: No such file or directory (src/write_restart.cpp:219)
--------------------------------------------------------------------------
MPI_ABORT was invoked on rank 0 in communicator MPI_COMM_WORLD
with errorcode 1.

NOTE: invoking MPI_ABORT causes Open MPI to kill all MPI processes.
You may or may not see output from other processes, depending on
exactly when Open MPI kills them.
--------------------------------------------------------------------------
[warn] Epoll MOD(1) on fd 8 failed.  Old events were 6; read change was 0 (none); write change was 2 (del): Bad file descriptor
[warn] Epoll MOD(4) on fd 8 failed.  Old events were 6; read change was 2 (del); write change was 0 (none): Bad file descriptor
End: Mon Jun 22 06:19:16 AM EDT 2026
