LAMMPS data file via write_data, version 11 Feb 2026, timestep = 293, units = metal

362 atoms
8 atom types

0 12.447907776 xlo xhi
0 12.9362452296 ylo yhi
0 52.3600831054 zlo zhi

Masses

1 26.9815
2 10.811
3 12.011
4 51.9961
5 55.845
6 95.95999999999999
7 58.6934
8 1.008

Atoms # atomic/kk

1 4 1.2351092245301931 0.809207181006933 15.254788420533572 0 0 0
2 7 3.571315951627108 0.974458737017741 14.778242039336993 0 0 0
6 4 0.3138573577908491 2.6099101874630155 15.002336990483123 0 0 0
7 2 2.553686449917696 2.6450309785617008 15.478953823899472 0 0 0
31 7 0.040359654976029447 1.3430117524217169 17.198560116374537 0 0 0
32 7 2.6905733845450377 1.1794338691702742 17.11167280955541 0 0 0
36 7 1.3260952713001775 3.422396152124755 17.028839043092432 0 0 0
37 7 3.7179712063660553 3.4855664936011497 17.03365323756268 0 0 0
3 5 6.068402396309032 0.7761378309984178 14.908449182461403 0 0 0
8 7 4.794872701242733 2.995745658188951 14.915714030630447 0 0 0
9 7 7.258364672126344 2.7950733739495077 14.778730219637552 0 0 0
33 7 5.098221649654458 1.5286449351290676 17.033032212825248 0 0 0
34 7 7.550994592834914 1.5185125717195371 16.96460111097753 0 0 0
38 7 6.304607757117251 3.6207860891541963 17.020151580275073 0 0 0
4 7 8.529211765540309 0.7707496974609052 14.880033615079828 0 0 0
5 2 11.541740213182294 0.6925743098094543 15.457784885045346 0 0 0
10 7 10.412852684172675 2.266536159816552 14.675712362399802 0 0 0
35 7 9.975418785010795 1.3057706893901135 16.86858975053967 0 0 0
39 3 8.85650384831457 2.488718060619145 15.801804748988983 0 0 0
40 6 11.087964496744483 3.498173281635424 16.950466488604587 0 0 0
11 7 1.5309182392693181 4.718499602672333 14.938937747110872 0 0 0
12 4 3.8078936959458014 5.190122938808561 15.197654756204885 0 0 0
16 6 0.12047921440037893 6.965355223733801 14.86292946723438 0 0 0
17 5 2.599412952957098 7.129966578327874 14.897845868450293 0 0 0
41 7 0.09170527008210802 5.576520533201632 16.92971650881434 0 0 0
42 7 2.556521270162349 5.642183423546798 17.07610556444492 0 0 0
46 6 1.2583578179393768 7.81585744852127 17.048844668522953 0 0 0
47 4 3.761080851854003 7.8992748645450055 16.72737185261374 0 0 0
13 6 6.387091355692629 5.068796958678742 15.04318412165552 0 0 0
18 7 5.065259470912114 7.175670702469577 14.574422443441415 0 0 0
19 6 7.625474873659562 7.280482796288109 14.816293235474271 0 0 0
43 7 5.022664392340893 5.676791927412494 17.15561674294036 0 0 0
44 7 7.664084894090457 5.693758078794372 17.022200133357625 0 0 0
48 1 6.270239297253613 7.714460243865837 17.050451128893776 0 0 0
14 7 8.99365142911249 4.317328060263351 15.359125592164839 0 0 0
15 7 11.341186042544463 4.788051301956482 14.80336901773917 0 0 0
20 7 10.074252103820855 7.049116233215094 14.873639687846119 0 0 0
45 7 10.083202717126785 5.745294176276792 16.964228926345722 0 0 0
49 7 8.805011294764668 7.8774140471969565 16.917496688040877 0 0 0
50 4 11.223573695157281 7.861667884048479 17.035782166662155 0 0 0
21 7 1.3218108550474343 9.378471652204203 14.92004275864332 0 0 0
22 7 3.7089659504360166 9.342240096177548 14.772061916889443 0 0 0
26 7 0.00776031099378649 11.629430554840784 15.045929356414566 0 0 0
27 6 2.5670229030890064 11.560152019084091 15.413528707155605 0 0 0
51 7 12.394307658330172 10.082044015853526 16.997716252035854 -1 0 0
52 7 2.3547197700783133 10.025090729629186 17.316695679874616 0 0 0
56 7 1.2028283863928813 12.129470498756602 17.2996126721777 0 0 0
57 2 4.291184275033151 12.805510186988716 16.282823548956245 0 0 0
23 6 6.194412424051922 9.370767921973632 14.876263576325336 0 0 0
28 7 4.945740407361711 11.56581767029943 14.781190012969322 0 0 0
29 7 7.488915367544432 11.55724486754959 14.82617793106093 0 0 0
53 5 4.782177470243647 10.026215143598314 16.89178056285593 0 0 0
54 6 7.499380679914482 10.067966030195375 16.934491203240082 0 0 0
58 7 6.168349228862471 12.270679659476642 16.912239236539218 0 0 0
24 7 8.881972813712872 9.43914462719353 14.767257749240802 0 0 0
25 6 11.325261148289409 9.230085122535924 14.963591093822133 0 0 0
30 1 9.968930981560126 11.802428018396652 14.951015186104668 0 0 0
55 7 9.994694668910677 10.085461703798417 16.979515408058084 0 0 0
59 7 8.6508388025578 12.214908395077833 17.038235558977423 0 0 0
60 7 11.202835257124894 12.235277123581792 17.01152495790532 0 0 0
61 7 12.443180285960565 12.90274902521626 19.21377486763603 -1 -1 0
62 7 2.449885095476292 12.841072578037366 19.19850188039576 0 -1 0
66 4 1.354652968890513 2.0746022256919123 19.19900166172791 0 0 0
67 7 3.7481837016276756 2.138311566142137 19.174272366794938 0 0 0
91 7 1.2687254167841615 0.6698255065258721 21.214135228840565 0 0 0
92 7 3.6939483792750987 0.6916504443789345 21.122569821660413 0 0 0
96 7 0.10572869903097572 2.8252052360565103 21.151040369962825 0 0 0
97 4 2.5970657586483026 2.751510825778604 21.420432750191946 0 0 0
63 7 4.933250089424754 12.923824411015236 18.95539096948842 0 -1 0
64 4 7.4408618392394 12.921389040997575 19.034301895680034 0 -1 0
68 7 6.293594383411504 2.0936957262290337 19.08590356950285 0 0 0
93 7 6.1762186293214105 0.752109326510876 21.119419845437502 0 0 0
98 7 4.991964192670192 2.8217299991422142 21.222864520548256 0 0 0
99 7 7.455325344167255 2.915371939174064 21.0900292116523 0 0 0
65 7 9.939402181675431 0.029376742778337833 19.050914034143727 0 0 0
69 7 8.75105092439301 2.175465619430195 19.02315139023383 0 0 0
70 7 11.212903991518855 2.1545605793920894 19.076842237701907 0 0 0
94 6 8.629899398825929 0.783739633658819 21.120941725456426 0 0 0
95 1 11.308606120434467 0.7501535862433075 21.147154342508475 0 0 0
100 7 10.015169558282489 2.86931963737306 21.075141701248153 0 0 0
71 7 0.06521025828083983 4.204076563605108 19.053023891884845 0 0 0
72 4 2.4955524968618845 4.18947901846791 19.112484788495845 0 0 0
76 7 1.302545279215196 6.345731525709481 19.112935352987698 0 0 0
77 7 3.8149529318162783 6.304168194274101 19.127707512145644 0 0 0
101 7 1.3572678930078306 4.896983649510517 21.158491106620712 0 0 0
102 1 3.805820103975676 4.909064613283204 21.247448561114904 0 0 0
106 7 0.10416105241640616 7.137253355887801 21.145904186079118 0 0 0
107 7 2.579803235748197 7.070899120795878 21.154804489481684 0 0 0
73 7 5.038517846500059 4.20890914850625 19.15007001367857 0 0 0
74 7 7.524225336363112 4.292774304907762 19.066296589889866 0 0 0
78 5 6.37052347332345 6.367271470141457 19.142985085354024 0 0 0
103 7 6.265152936433386 4.987178148152102 21.217626831950646 0 0 0
108 1 5.021519025070738 7.0935702791571 21.177872588945867 0 0 0
109 7 7.547014644132184 7.151318079723711 21.094314663132067 0 0 0
75 7 10.014555441229897 4.3526834566193555 19.02565218873757 0 0 0
79 7 8.82168443086617 6.486885996813767 19.011958805732277 0 0 0
80 7 11.340624417145523 6.483600552517406 19.025405870519577 0 0 0
104 7 8.756792121381267 4.985631756078525 21.070627342865695 0 0 0
105 7 11.325296444223355 4.9724855870796105 21.108597274610773 0 0 0
110 6 10.026515159188332 7.121063515917399 21.11620960084346 0 0 0
81 7 0.25422824018334655 8.937705488816913 19.112305267382155 0 0 0
82 7 2.6483856742973013 8.406592837101245 19.125156223157642 0 0 0
86 2 1.9125310293774431 10.192551761070881 19.565123982220186 0 0 0
87 7 3.776082046225451 10.719534585619304 19.09323044248423 0 0 0
111 7 1.3317024294390367 9.25405836166286 21.263877366811354 0 0 0
112 4 3.72602361084431 9.336601688871212 21.13319977219862 0 0 0
116 5 0.09045241951863488 11.428389756845991 21.190702629645276 0 0 0
117 7 2.4589834708350993 11.431735283606391 21.157651366624364 0 0 0
83 7 5.0285103278715955 8.521870954941285 19.038755890867694 0 0 0
84 7 7.56917231190574 8.592226846982884 19.003547447530476 0 0 0
88 7 6.230310928048698 10.792605644703363 18.948443500955154 0 0 0
113 6 6.281165381976647 9.327737804056603 21.016804523184252 0 0 0
118 6 5.011956547293088 11.560016547871449 21.136510947613314 0 0 0
119 7 7.500300672318923 11.523004720803735 21.204937602520964 0 0 0
85 7 10.059830157331165 8.649589879187277 19.02035627646212 0 0 0
89 7 8.735178045358461 10.828164335187036 19.140376715439015 0 0 0
90 7 11.193556759257152 10.852342177801047 19.087221362033407 0 0 0
114 7 8.75672599633399 9.391857514322178 21.196789661935245 0 0 0
115 6 11.251114617343072 9.397256574577899 21.172093350878065 0 0 0
120 7 10.017196038955355 11.610319450386864 21.21943497693327 0 0 0
122 7 2.4427895810176192 1.2228833915980526 23.260833127458387 0 0 0
126 7 1.2746632398273652 3.5234800033350724 23.256658237467157 0 0 0
127 3 3.1103998529928507 2.929425616993408 23.511438484789768 0 0 0
156 7 1.259071967458546 2.0539600293879468 25.314453558518256 0 0 0
157 7 3.7266526361861647 1.860285458127392 25.151626331556614 0 0 0
161 7 0.006148980677830989 4.177859016071574 25.256294264423378 0 0 0
162 4 2.877760032863047 4.128754999616437 25.04506012906564 0 0 0
124 7 7.306684386683303 1.5324988585170223 23.167621450681942 0 0 0
128 7 4.991123343180805 3.3084327401394344 23.668330677493262 0 0 0
158 7 6.189680433639919 1.8546240291796041 25.26024286813129 0 0 0
164 6 7.152058401055553 4.150209036014095 24.969944488926956 0 0 0
121 7 0.00047518405616209236 1.318950428485502 23.279299160369142 0 0 0
125 7 10.008799683112585 1.3644675248850733 23.144908016755224 0 0 0
129 7 8.71379932072873 3.556766969514824 23.074154191952232 0 0 0
130 7 11.228699344793379 3.5190509484282817 23.182166802215768 0 0 0
159 6 8.735066592503124 2.0558621384124813 25.1445435500367 0 0 0
160 7 11.241584744221356 2.030968637323007 25.299411424669625 0 0 0
165 7 9.943254169118605 4.2267883066858225 25.20692084891855 0 0 0
131 5 0.06455056767246613 5.66615179060599 23.161909107393225 0 0 0
132 7 2.561242626294334 5.671174500528592 23.182613349261853 0 0 0
136 7 1.3171632329096004 7.811224640721466 23.224491225298564 0 0 0
137 7 3.8084838878220877 7.850177264752162 23.14923634301404 0 0 0
166 7 1.302146400425394 6.286484969099838 25.217503333610495 0 0 0
167 7 3.7683901451655824 6.378219267154194 25.215175085955174 0 0 0
171 7 0.07867618771577914 8.531249465557627 25.32625644147687 0 0 0
172 7 2.513901703022121 8.493570069790547 25.22951785231126 0 0 0
133 7 5.1409460215035985 5.652831903284569 23.3041708307134 0 0 0
134 4 7.633298363538169 5.771767442271818 23.067905889891694 0 0 0
138 7 6.3522448999299925 7.90631784606642 23.15402726622784 0 0 0
163 2 4.9408012631871845 4.624575993327617 25.509218069021774 0 0 0
168 6 6.292150955552224 6.564569418376381 25.305218481305726 0 0 0
135 7 10.040007043256649 5.660859713890428 23.15896661071994 0 0 0
139 7 8.779554292391813 7.911006581380966 23.19312784974101 0 0 0
140 7 11.288424638654375 7.8636713143615 23.241331295408756 0 0 0
169 7 8.778461304169413 6.407576440749111 25.159002875159857 0 0 0
170 7 11.293509081332164 6.358810883426009 25.245495446178126 0 0 0
123 7 3.697723573541244 12.202467938179673 23.203750504251552 0 -1 0
141 4 0.14035578864360518 9.99661790787083 23.334939176111938 0 0 0
142 7 2.56848424274936 9.997220502504755 23.291286433049375 0 0 0
146 7 1.227099738757404 12.08222747876687 23.300730588027267 0 0 0
151 7 0.05602512750986527 12.842110762789712 25.38063234715233 0 -1 0
152 7 2.551597097557836 12.713242681377274 25.477222410013795 0 -1 0
176 7 1.3160199651878743 10.670117597209444 25.397524531687402 0 0 0
177 7 3.732582904881703 10.467059166878956 25.91602781213596 0 0 0
143 7 5.057043687069891 9.988372058762259 23.17151533774284 0 0 0
144 4 7.55647902088906 10.117512153312811 23.34875647513278 0 0 0
147 2 4.793995803247817 11.366666973168165 24.491260640948372 0 0 0
148 7 6.208841435501065 12.252421657266796 23.314949884202697 0 0 0
153 7 5.008205992682355 12.808259379616299 25.706710708589355 0 -1 0
154 7 7.519148284069195 12.81980006485111 25.35723275516914 0 -1 0
173 7 4.976182052360797 8.588419070192375 25.180212090218294 0 0 0
174 7 7.574797213018251 8.65940363081168 25.28958123845726 0 0 0
178 7 6.298733736185238 10.671199537993637 25.444881158152686 0 0 0
145 7 10.009884350911827 10.08733956536534 23.27402714286367 0 0 0
149 7 8.719715402635675 12.24469434180397 23.264625782144307 0 0 0
150 4 11.272046048365482 12.107444000145353 23.241337179343773 0 0 0
155 7 10.05458503429823 12.838281068320363 25.311404428280056 0 -1 0
175 7 10.040048528309496 8.574896955084956 25.27019750673117 0 0 0
179 7 8.812054857520168 10.761115326810245 25.378974176293813 0 0 0
180 7 11.316921281553688 10.699382342508121 25.27184990891568 0 0 0
181 4 1.3474520247503878 0.627675988209487 27.445759089261568 0 0 0
182 7 3.834534181199386 0.767799389592937 27.721775920758624 0 0 0
186 4 12.396382317920095 2.690339201285405 27.34919840394324 -1 0 0
187 7 2.586354474589311 2.7635863661283864 27.15405098800308 0 0 0
211 7 0.048780735315486656 1.4266460861063959 29.6700950716799 0 0 0
216 3 1.434756662144994 2.2014229681885515 28.54918482151273 0 0 0
217 7 3.6848595489857705 3.507960617720904 29.17025323593305 0 0 0
251 4 1.1024789851698273 3.654775653791716 29.712532248813968 0 0 0
183 7 6.286083621371155 0.7705776023306483 27.69253081830378 0 0 0
188 7 5.013032200465172 2.9322938396611247 26.956839661663025 0 0 0
189 7 7.479877680472431 2.7954129726657455 27.228409253709863 0 0 0
218 7 6.140393447026478 3.4780535667026165 29.12147614761504 0 0 0
184 1 8.720868467795478 0.6604133503649731 27.406790334734847 0 0 0
185 5 11.306217900469909 0.6472135188724308 27.504553736099357 0 0 0
190 7 9.972600640394392 2.7703661661932917 27.26551284655096 0 0 0
215 7 10.031004593105036 1.5107263190326872 29.705671165351433 0 0 0
219 7 8.719109560120872 3.5450340818385873 29.155432751794333 0 0 0
220 7 11.23305436082495 3.564685618891537 29.289878596928805 0 0 0
191 6 1.2838092226786155 4.858409037878226 27.299903093576912 0 0 0
192 7 3.773135207340934 4.9833223470190875 27.208840783019532 0 0 0
196 4 0.0296811906285487 7.112371882166809 27.252979907746735 0 0 0
197 7 2.500876081613484 7.050374212344207 27.239172733591886 0 0 0
222 7 2.4945901167229123 5.7295117860083264 29.312896373425026 0 0 0
227 7 3.6605393985351182 7.9973227110040215 29.184369488422917 0 0 0
193 7 6.209199665749283 4.998021117063415 27.219698300796388 0 0 0
198 7 4.942127116575543 7.155706335015765 27.312762359196256 0 0 0
199 7 7.474539894790211 7.218552794427469 27.367510987391093 0 0 0
223 7 4.935899548721341 5.667398771068357 29.26836245361072 0 0 0
224 7 7.459256618816817 5.642505387890573 29.260073718109325 0 0 0
228 7 6.1855581142051745 7.775631118278705 29.38380475105916 0 0 0
194 7 8.633647239201117 4.973435662219948 27.120640971917048 0 0 0
195 5 11.154166447496939 4.954065136729444 27.23998190267021 0 0 0
200 7 9.977507096431157 7.139108919616457 27.25974146932156 0 0 0
221 7 12.405314228186649 5.697351137111374 29.246409015851814 -1 0 0
225 7 9.967459098509622 5.6616527702041495 29.209802189731935 0 0 0
229 7 8.751803700745956 7.7795180885891915 29.402898505511732 0 0 0
230 7 11.258689390250929 7.802474796955121 29.37858380829898 0 0 0
201 7 1.7146259013842884 9.288768556373906 27.46130786419568 0 0 0
202 2 3.787211646867325 9.816990611169205 27.972788135115348 0 0 0
206 7 0.027254495825587595 11.457089401762673 27.411412500911105 0 0 0
207 7 2.560722911754745 11.555238506354808 27.67001692000928 0 0 0
226 3 0.22919642189216174 8.57554303165256 28.38140561721215 0 0 0
231 7 0.06030857909436457 10.017784297858915 29.51750271299555 0 0 0
232 7 2.517702697662637 10.094502460887368 29.64464634866025 0 0 0
236 7 1.3257178433966617 12.224286965139552 29.64622592635336 0 0 0
237 7 3.78235649821302 12.250617879623608 29.76057128278255 0 0 0
203 7 5.882652557563958 9.31295073834787 27.419603758535523 0 0 0
208 7 5.007570265464389 11.536689155204233 27.725577286247432 0 0 0
209 7 7.455936521230919 11.475145363985652 27.44908405223974 0 0 0
233 7 4.944752175166959 10.037679910422264 29.62692815656152 0 0 0
234 6 7.424281515014547 9.927632171395642 29.423175528512843 0 0 0
238 7 6.302417260182203 12.193983371977577 29.686828678715592 0 0 0
204 7 8.688343014350801 9.322087150862881 27.35835317866919 0 0 0
205 4 11.138999905927719 9.315002823112927 27.354982436524125 0 0 0
210 3 11.037564258965912 10.900203284156794 28.47195177908092 0 0 0
235 5 9.912196331200908 9.887661439069303 29.530650842027004 0 0 0
239 6 8.852903838491581 12.149344541040145 29.55903989960772 0 0 0
240 7 11.344899248047465 12.251003540424884 29.672296489382873 0 0 0
212 7 2.528060488185634 1.470378575187564 29.896967154515824 0 0 0
241 7 0.10218182811906734 12.904835611736933 31.830173476902697 0 -1 0
246 7 1.3856685082486513 2.137870933558145 32.05894725989079 0 0 0
247 4 3.8229760684809837 2.1209747631495652 31.95441409573986 0 0 0
252 7 2.620389321616855 4.123296897456625 31.261339648142172 0 0 0
213 7 4.99576320452395 1.4785173498208095 29.891306449277405 0 0 0
214 6 7.483001238088169 1.5354215250666432 29.90245430134612 0 0 0
248 7 6.2402697815470285 2.0722154075515533 32.15054814952205 0 0 0
253 7 5.026812332424481 4.041268211482939 31.175308522314488 0 0 0
254 7 7.439422737861295 4.018657752789442 31.15003794938756 0 0 0
245 6 10.046983564109476 0.0027142489676581505 31.862058626148617 0 0 0
249 7 8.745552550172164 2.150888369825982 32.064035271127985 0 0 0
250 6 11.417072670824195 2.385276054643135 31.7815314117282 0 0 0
255 7 9.882585911984432 4.1507108125813374 31.176278149687434 0 0 0
256 7 1.2378371892808273 6.253063500750863 31.29328469145692 0 0 0
257 7 3.7731595980732577 6.288979405355971 31.317095133224296 0 0 0
261 7 0.034664041219567295 8.482921252300061 31.477922485820567 0 0 0
262 7 2.566274997632545 8.444721201271987 31.472611930713896 0 0 0
281 7 1.1990753354893404 4.52259730241619 33.09950311099504 0 0 0
282 7 3.8155441096609963 4.589029479202879 33.23222393932652 0 0 0
287 6 2.463234052601403 6.687488411754771 33.442054153479084 0 0 0
258 7 6.243988643174957 6.244005239404026 31.330680025808256 0 0 0
263 1 5.007619741082001 8.40471984338225 31.413178307610213 0 0 0
264 7 7.499804188147443 8.414423608234175 31.497130851368052 0 0 0
283 7 6.25373382677513 4.603878567085232 33.19584189687001 0 0 0
288 7 4.9821839006341495 6.850988622462788 33.414249623694324 0 0 0
289 6 7.507146562441776 6.7993390827455595 33.48560114754434 0 0 0
259 7 8.723578086401224 6.268856792135574 31.329514420043548 0 0 0
260 7 11.216660944862843 6.2338517891748015 31.32405325819335 0 0 0
265 7 10.03549450877281 8.4170991850584 31.526781484565284 0 0 0
284 7 8.709841737263677 4.601855869473996 33.20296088322291 0 0 0
285 7 11.225146643443589 4.616112322157972 33.161877691807646 0 0 0
286 7 12.427146092480081 6.838932050148021 33.35897754292786 -1 0 0
290 7 10.001326982410628 6.8299625283132395 33.4240242236862 0 0 0
242 7 2.554227787309027 12.833437989871655 31.820868379876973 0 -1 0
266 5 1.290709632461024 10.66682603148145 31.640878599370097 0 0 0
267 7 3.762032982112583 10.613745477931856 31.738425819261913 0 0 0
291 6 1.2730577133978112 9.034137763906529 33.59098929508628 0 0 0
296 7 0.013082842469902196 11.25684544624562 33.72401759395278 0 0 0
243 7 5.053254412210445 12.803075833839614 31.778930586497367 0 -1 0
244 7 7.526852511965222 12.84398522870242 31.831130686469365 0 -1 0
268 7 6.269004671962952 10.608725843806656 31.66331694619738 0 0 0
293 7 6.216505535523643 8.993078731726104 33.58130845516549 0 0 0
269 7 8.759786781233508 10.599903655766107 31.616314743279762 0 0 0
270 7 11.273000389270388 10.642708518412741 31.65109703815552 0 0 0
294 7 8.76434248441992 9.015531076943338 33.596613222810056 0 0 0
295 4 11.1593137370385 9.058737576380075 33.55446069480084 0 0 0
271 7 1.2941881724788271 0.5077003590565619 33.98708870472843 0 0 0
272 6 3.8574001894942715 0.46778074400760955 33.89420628484424 0 0 0
276 7 0.048696732163727885 2.668670959039771 34.213637900068534 0 0 0
277 4 2.459379946673883 2.7734516998236445 34.23663842621496 0 0 0
301 7 0.03865475624587392 1.0441936057908279 36.140161743557044 0 0 0
302 6 2.542118648862939 1.0259149430994845 36.19449001122682 0 0 0
306 4 1.2337479010825236 3.2651660098393007 36.33297373782455 0 0 0
307 7 3.6764112333653247 3.2474727749911225 36.61232231344834 0 0 0
273 7 6.341963141100169 0.4477101313703557 34.0385823000998 0 0 0
278 6 5.034666265520605 2.7494955539571375 34.40944024820843 0 0 0
279 4 7.484186019830703 2.712707976978605 34.224657364622225 0 0 0
303 7 5.017366627779891 1.0264785461202117 36.20977469261451 0 0 0
304 6 7.466042526758257 1.0873131453656957 36.2438449670719 0 0 0
308 7 6.204840220229499 3.2716025282278594 36.598357225648144 0 0 0
274 7 8.774475262456914 0.48668602434718694 34.020278634651376 0 0 0
275 4 11.279294401762353 0.5210257769045551 33.94982168621378 0 0 0
280 6 9.983728208353906 2.7188407312100673 34.268832763598596 0 0 0
305 7 10.028878005898362 1.0491882178022216 36.16962097281247 0 0 0
309 7 8.727901865108791 3.2379144806322833 36.42894961076327 0 0 0
310 7 11.204785902291865 3.229639156516022 36.41958910124732 0 0 0
311 7 0.053553823151801856 5.185398927132897 35.177181615556634 0 0 0
312 7 2.537956462099528 5.07299532687344 35.349681240617265 0 0 0
316 7 1.2756979868233391 7.34091869175917 35.56956397287609 0 0 0
317 7 3.752465706137659 7.3800176193084495 35.5383108779275 0 0 0
342 7 1.346314144272215 5.721897461634228 37.44557263726306 0 0 0
313 7 4.9849433464855455 5.175483650259826 35.31200581246711 0 0 0
314 7 7.48028587321729 5.047222787818905 35.358972200258876 0 0 0
318 7 6.223904295987757 7.268603909201834 35.577375309248 0 0 0
315 7 9.984799605612606 5.1326854285443915 35.29770260215122 0 0 0
319 5 8.807017081499735 7.215476983481643 35.56860502475099 0 0 0
320 7 11.239246408272923 7.368025690707586 35.48523598138231 0 0 0
346 3 12.417481139509752 4.596873694827973 36.96283844594856 -1 0 0
349 4 8.763434387765372 5.551279972725019 37.3724145918205 0 0 0
292 4 3.786137183342613 9.030701565244916 33.671718655652995 0 0 0
297 7 2.541520972844562 11.218764895508292 33.778072017980854 0 0 0
321 7 0.02466281968730572 9.48314810321958 35.68445313834475 0 0 0
322 7 2.536268380220626 9.513390746292826 35.74840108659922 0 0 0
326 6 1.334030034734881 11.68203733487954 35.944872740516985 0 0 0
327 7 3.8407602342759963 11.71376832741082 35.91329719512986 0 0 0
298 7 5.046239591014214 11.169970962535944 33.79000212332958 0 0 0
299 7 7.551121048421047 11.168840443672233 33.732548927753506 0 0 0
323 7 4.9736526915373 9.512285262929161 35.73010219806674 0 0 0
324 6 7.4436173973850135 9.475683600169047 35.71417520670041 0 0 0
328 7 6.233362078133335 11.731679832858774 35.92440512404369 0 0 0
300 5 10.009128184298117 11.159564749421563 33.69484897156064 0 0 0
325 7 10.007286453634649 9.481079875925866 35.71261158173721 0 0 0
329 6 8.74399276358789 11.769976316778331 35.969018414808495 0 0 0
330 6 11.264808200575729 11.731577776631385 35.96807993488129 0 0 0
336 7 1.3030760421658756 1.6300660745471724 38.232700655045306 0 0 0
337 7 3.8055964249517773 1.3927855558642557 38.32033084363214 0 0 0
341 7 0.04877258021045953 3.659156903706496 38.54058685997343 0 0 0
338 7 6.2268784932891625 1.4299385167078646 38.37659495264049 0 0 0
344 7 7.576128645961632 3.809511467084659 38.478293260787815 0 0 0
339 7 8.791233586861445 1.5755883428344792 38.30105812612655 0 0 0
340 7 11.258548819015889 1.5251011411406263 38.27770225132975 0 0 0
345 7 10.001211809380587 3.7782467763566205 38.488384000596916 0 0 0
347 7 3.7339283977102364 5.863658989995776 37.444729474986744 0 0 0
351 7 0.011158551507854197 7.994393915597808 37.63958269052755 0 0 0
352 7 2.483196149331826 7.973755197803454 37.64448404282831 0 0 0
343 3 4.884939495428677 4.4942419905946585 37.12301325732357 0 0 0
348 5 6.236379591043421 5.674175242058263 37.512468543308884 0 0 0
353 7 5.005492536527613 7.954085699201236 37.62661772716003 0 0 0
354 6 7.508118387206605 7.88644237148987 37.725041240014015 0 0 0
350 7 11.171025884049 5.820156436043419 37.448591435046886 0 0 0
355 7 9.995519972948587 7.9309203509546835 37.65931010574939 0 0 0
331 7 0.061020045375177544 12.342385605600345 38.08957931997622 0 -1 0
332 7 2.6052604795704886 12.217709396241098 38.10633637055268 0 -1 0
356 7 1.2218814407367893 10.100685104696366 37.864872616273004 0 0 0
357 7 3.8033032354422227 10.13693354452537 37.84470532063592 0 0 0
333 4 5.015094619176155 12.293690065115301 37.96563866060254 0 -1 0
334 7 7.441184557928417 12.226722253765315 38.12299540168852 0 -1 0
358 7 6.209885879003982 10.154063939510397 37.92073303460789 0 0 0
335 7 10.026104684822082 12.335866665920662 38.149011009452 0 -1 0
359 7 8.82309213918435 10.106385751340765 37.915735764872 0 0 0
360 4 11.229738349751903 10.07471123744403 37.88917918357344 0 0 0
361 8 4.243266553908238 7.8593636887078695 41.451898182710494 0 0 0
362 8 4.962480668008875 7.693815830702531 41.2725817478751 0 0 0

Velocities

1 0 0 0
2 0 0 0
6 0 0 0
7 0 0 0
31 0 0 0
32 0 0 0
36 0 0 0
37 0 0 0
3 0 0 0
8 0 0 0
9 0 0 0
33 0 0 0
34 0 0 0
38 0 0 0
4 0 0 0
5 0 0 0
10 0 0 0
35 0 0 0
39 0 0 0
40 0 0 0
11 0 0 0
12 0 0 0
16 0 0 0
17 0 0 0
41 0 0 0
42 0 0 0
46 0 0 0
47 0 0 0
13 0 0 0
18 0 0 0
19 0 0 0
43 0 0 0
44 0 0 0
48 0 0 0
14 0 0 0
15 0 0 0
20 0 0 0
45 0 0 0
49 0 0 0
50 0 0 0
21 0 0 0
22 0 0 0
26 0 0 0
27 0 0 0
51 0 0 0
52 0 0 0
56 0 0 0
57 0 0 0
23 0 0 0
28 0 0 0
29 0 0 0
53 0 0 0
54 0 0 0
58 0 0 0
24 0 0 0
25 0 0 0
30 0 0 0
55 0 0 0
59 0 0 0
60 0 0 0
61 0 0 0
62 0 0 0
66 0 0 0
67 0 0 0
91 0 0 0
92 0 0 0
96 0 0 0
97 0 0 0
63 0 0 0
64 0 0 0
68 0 0 0
93 0 0 0
98 0 0 0
99 0 0 0
65 0 0 0
69 0 0 0
70 0 0 0
94 0 0 0
95 0 0 0
100 0 0 0
71 0 0 0
72 0 0 0
76 0 0 0
77 0 0 0
101 0 0 0
102 0 0 0
106 0 0 0
107 0 0 0
73 0 0 0
74 0 0 0
78 0 0 0
103 0 0 0
108 0 0 0
109 0 0 0
75 0 0 0
79 0 0 0
80 0 0 0
104 0 0 0
105 0 0 0
110 0 0 0
81 0 0 0
82 0 0 0
86 0 0 0
87 0 0 0
111 0 0 0
112 0 0 0
116 0 0 0
117 0 0 0
83 0 0 0
84 0 0 0
88 0 0 0
113 0 0 0
118 0 0 0
119 0 0 0
85 0 0 0
89 0 0 0
90 0 0 0
114 0 0 0
115 0 0 0
120 0 0 0
122 0 0 0
126 0 0 0
127 0 0 0
156 0 0 0
157 0 0 0
161 0 0 0
162 0 0 0
124 0 0 0
128 0 0 0
158 0 0 0
164 0 0 0
121 0 0 0
125 0 0 0
129 0 0 0
130 0 0 0
159 0 0 0
160 0 0 0
165 0 0 0
131 0 0 0
132 0 0 0
136 0 0 0
137 0 0 0
166 0 0 0
167 0 0 0
171 0 0 0
172 0 0 0
133 0 0 0
134 0 0 0
138 0 0 0
163 0 0 0
168 0 0 0
135 0 0 0
139 0 0 0
140 0 0 0
169 0 0 0
170 0 0 0
123 0 0 0
141 0 0 0
142 0 0 0
146 0 0 0
151 0 0 0
152 0 0 0
176 0 0 0
177 0 0 0
143 0 0 0
144 0 0 0
147 0 0 0
148 0 0 0
153 0 0 0
154 0 0 0
173 0 0 0
174 0 0 0
178 0 0 0
145 0 0 0
149 0 0 0
150 0 0 0
155 0 0 0
175 0 0 0
179 0 0 0
180 0 0 0
181 0 0 0
182 0 0 0
186 0 0 0
187 0 0 0
211 0 0 0
216 0 0 0
217 0 0 0
251 0 0 0
183 0 0 0
188 0 0 0
189 0 0 0
218 0 0 0
184 0 0 0
185 0 0 0
190 0 0 0
215 0 0 0
219 0 0 0
220 0 0 0
191 0 0 0
192 0 0 0
196 0 0 0
197 0 0 0
222 0 0 0
227 0 0 0
193 0 0 0
198 0 0 0
199 0 0 0
223 0 0 0
224 0 0 0
228 0 0 0
194 0 0 0
195 0 0 0
200 0 0 0
221 0 0 0
225 0 0 0
229 0 0 0
230 0 0 0
201 0 0 0
202 0 0 0
206 0 0 0
207 0 0 0
226 0 0 0
231 0 0 0
232 0 0 0
236 0 0 0
237 0 0 0
203 0 0 0
208 0 0 0
209 0 0 0
233 0 0 0
234 0 0 0
238 0 0 0
204 0 0 0
205 0 0 0
210 0 0 0
235 0 0 0
239 0 0 0
240 0 0 0
212 0 0 0
241 0 0 0
246 0 0 0
247 0 0 0
252 0 0 0
213 0 0 0
214 0 0 0
248 0 0 0
253 0 0 0
254 0 0 0
245 0 0 0
249 0 0 0
250 0 0 0
255 0 0 0
256 0 0 0
257 0 0 0
261 0 0 0
262 0 0 0
281 0 0 0
282 0 0 0
287 0 0 0
258 0 0 0
263 0 0 0
264 0 0 0
283 0 0 0
288 0 0 0
289 0 0 0
259 0 0 0
260 0 0 0
265 0 0 0
284 0 0 0
285 0 0 0
286 0 0 0
290 0 0 0
242 0 0 0
266 0 0 0
267 0 0 0
291 0 0 0
296 0 0 0
243 0 0 0
244 0 0 0
268 0 0 0
293 0 0 0
269 0 0 0
270 0 0 0
294 0 0 0
295 0 0 0
271 0 0 0
272 0 0 0
276 0 0 0
277 0 0 0
301 0 0 0
302 0 0 0
306 0 0 0
307 0 0 0
273 0 0 0
278 0 0 0
279 0 0 0
303 0 0 0
304 0 0 0
308 0 0 0
274 0 0 0
275 0 0 0
280 0 0 0
305 0 0 0
309 0 0 0
310 0 0 0
311 0 0 0
312 0 0 0
316 0 0 0
317 0 0 0
342 0 0 0
313 0 0 0
314 0 0 0
318 0 0 0
315 0 0 0
319 0 0 0
320 0 0 0
346 0 0 0
349 0 0 0
292 0 0 0
297 0 0 0
321 0 0 0
322 0 0 0
326 0 0 0
327 0 0 0
298 0 0 0
299 0 0 0
323 0 0 0
324 0 0 0
328 0 0 0
300 0 0 0
325 0 0 0
329 0 0 0
330 0 0 0
336 0 0 0
337 0 0 0
341 0 0 0
338 0 0 0
344 0 0 0
339 0 0 0
340 0 0 0
345 0 0 0
347 0 0 0
351 0 0 0
352 0 0 0
343 0 0 0
348 0 0 0
353 0 0 0
354 0 0 0
350 0 0 0
355 0 0 0
331 0 0 0
332 0 0 0
356 0 0 0
357 0 0 0
333 0 0 0
334 0 0 0
358 0 0 0
335 0 0 0
359 0 0 0
360 0 0 0
361 0 0 0
362 0 0 0
