LAMMPS data file via write_data, version 11 Feb 2026, timestep = 252, units = metal

362 atoms
8 atom types

0 12.447907776 xlo xhi
0 12.9362452296 ylo yhi
0 52.3600831054 zlo zhi

Masses

1 26.9815
2 10.811
3 12.011
4 51.9961
5 55.845
6 95.95999999999999
7 58.6934
8 1.008

Atoms # atomic/kk

1 4 1.2342190540195823 0.8102537697442161 15.2534034789864 0 0 0
2 7 3.57039560748279 0.9755575375531738 14.776749383667276 0 0 0
6 4 0.31295877248365306 2.6109792918121952 15.00095126620269 0 0 0
7 2 2.552802310519862 2.646134674912724 15.477513195960544 0 0 0
31 7 0.03946861262055634 1.3440625111392785 17.197158298947336 0 0 0
32 7 2.6896961550200986 1.180565033699407 17.110227551448475 0 0 0
36 7 1.3252134245266816 3.4234572232250753 17.027440566588783 0 0 0
37 7 3.7170930267660167 3.486646917351953 17.03227828749799 0 0 0
3 5 6.06748074540032 0.7772187843115238 14.906912854643164 0 0 0
8 7 4.7939405888955315 2.9968535073685643 14.914281655289706 0 0 0
9 7 7.257435253979899 2.796158432627496 14.777329182670833 0 0 0
33 7 5.097335473220937 1.529718705439816 17.03150874045933 0 0 0
34 7 7.550094163013142 1.5195553606102454 16.963120780269666 0 0 0
38 7 6.30372676272289 3.6218490176497804 17.01878040865498 0 0 0
4 7 8.528292541749307 0.7718244709022266 14.878529262877112 0 0 0
5 2 11.540857315604073 0.6936557512659333 15.456340825006272 0 0 0
10 7 10.411956367119714 2.2675863370554086 14.674242143738187 0 0 0
35 7 9.974511666853424 1.306791917928965 16.86710176884465 0 0 0
39 3 8.855617980184334 2.489780915975445 15.8003425774173 0 0 0
40 6 11.08702244625125 3.499201047056934 16.949029704302397 0 0 0
11 7 1.5300444796183177 4.719530048093043 14.937494441304768 0 0 0
12 4 3.807014164177724 5.191238322064755 15.196245970876351 0 0 0
16 6 0.11957017016161346 6.966346419186565 14.861358582120804 0 0 0
17 5 2.5985107553919664 7.13098185955919 14.896162586205502 0 0 0
41 7 0.090782705476447 5.577527289585281 16.928210549882074 0 0 0
42 7 2.5556232509710637 5.643236239610939 17.0746764879903 0 0 0
46 6 1.257431623695979 7.81683756749102 17.047177661525108 0 0 0
47 4 3.760198358461555 7.900260892673889 16.725666966235732 0 0 0
13 6 6.386176239238903 5.069880427041329 15.041795940187923 0 0 0
18 7 5.064385884800962 7.176708685511121 14.572775488428958 0 0 0
19 6 7.6245997519754996 7.281499966573373 14.814720086025991 0 0 0
43 7 5.0217498267899 5.677812860935012 17.15426907251399 0 0 0
44 7 7.66318932107272 5.694783698768141 17.020784205923654 0 0 0
48 1 6.26933345227427 7.715443722367202 17.048832978098233 0 0 0
14 7 8.992753341238556 4.318389767149527 15.357649540812558 0 0 0
15 7 11.340288484513474 4.789049612532132 14.801888422899413 0 0 0
20 7 10.073363363942885 7.050116753293116 14.872142271224151 0 0 0
45 7 10.082292696286869 5.746315948391618 16.96278249327484 0 0 0
49 7 8.804120583875882 7.8784162938033715 16.915939504578706 0 0 0
50 4 11.222672367581678 7.862690341189443 17.034261434069002 0 0 0
21 7 1.3209032872752295 9.379502569096147 14.918407674923662 0 0 0
22 7 3.708061348926487 9.343283217436909 14.770384208171071 0 0 0
26 7 0.006870800219722639 11.630479719331063 15.044387038536732 0 0 0
27 6 2.5661085502031216 11.561204475513396 15.411889831408995 0 0 0
51 7 12.393431940095459 10.083078280870279 16.99614115149975 -1 0 0
52 7 2.3538560836522477 10.026024382395184 17.314883382102977 0 0 0
56 7 1.202031169572444 12.130485314152795 17.29813350890344 0 0 0
57 2 4.290269670816273 12.806588173084256 16.281270109735875 0 0 0
23 6 6.1935210890516394 9.371794651729369 14.874596333483781 0 0 0
28 7 4.944828067896043 11.566884277288818 14.779602587879511 0 0 0
29 7 7.488020831281868 11.55830047345455 14.82457002514137 0 0 0
53 5 4.781313429756464 10.027163885847271 16.890095143599822 0 0 0
54 6 7.498478932011839 10.068963426649425 16.93283046658276 0 0 0
58 7 6.167437250866165 12.27171228062521 16.910621977288045 0 0 0
24 7 8.88109222672688 9.440182708210294 14.765663172927395 0 0 0
25 6 11.324367296285844 9.231101033696039 14.96203785824271 0 0 0
30 1 9.96804963450415 11.80349978431473 14.949469964695313 0 0 0
55 7 9.993804987660011 10.086474427106438 16.977945095467447 0 0 0
59 7 8.649928124276414 12.215924610601943 17.03664545740769 0 0 0
60 7 11.201976259026651 12.236311862398896 17.009987879937487 0 0 0
61 7 12.442298291765603 12.903798089955837 19.21229500207233 -1 -1 0
62 7 2.44899543060198 12.842331760848136 19.197024048038497 0 -1 0
66 4 1.3537071745903575 2.0757550601748336 19.19763085076331 0 0 0
67 7 3.7472723318803225 2.1394294239080485 19.172901719767008 0 0 0
91 7 1.2678244880592733 0.6709626596710594 21.212722151869716 0 0 0
92 7 3.6930373881719323 0.6927786760283557 21.1211636915485 0 0 0
96 7 0.10473718540096463 2.826332602331358 21.149673646006573 0 0 0
97 4 2.5960654704576918 2.7526762789995525 21.419124687253213 0 0 0
63 7 4.932288577470539 12.924902623850398 18.953736730179063 0 -1 0
64 4 7.439923693911249 12.922395775046018 19.032680479524622 0 -1 0
68 7 6.292678957986714 2.0947497247068743 19.08444585311126 0 0 0
93 7 6.175268432882165 0.7531190547821371 21.117829219114693 0 0 0
98 7 4.991030533795655 2.8227763549322256 21.221566773533368 0 0 0
99 7 7.454363672573619 2.916365584621128 21.088665990600703 0 0 0
65 7 9.938493812620571 0.030403211453571125 19.049334877268628 0 0 0
69 7 8.750124984184122 2.1765297794373897 19.021667122760228 0 0 0
70 7 11.211958925615422 2.1556380945596914 19.075418549645516 0 0 0
94 6 8.628946854306635 0.7847343644227293 21.119340355824963 0 0 0
95 1 11.307655223242941 0.751262130864993 21.14562646574919 0 0 0
100 7 10.014153677460548 2.8703806868841912 21.07378099668972 0 0 0
71 7 0.06426893131454925 4.20515768301942 19.051598116668174 0 0 0
72 4 2.4946470697709504 4.190576126439291 19.111125282088263 0 0 0
76 7 1.30159084505839 6.346779236622627 19.11140769094404 0 0 0
77 7 3.814042673880622 6.305149684163147 19.12634896676833 0 0 0
101 7 1.3563244716615943 4.898111207016825 21.157079986251446 0 0 0
102 1 3.8049407719259953 4.910139699344057 21.246184163751394 0 0 0
106 7 0.10321672389596083 7.138296459298706 21.144384118549723 0 0 0
107 7 2.578855839305916 7.071945587301894 21.15326106720942 0 0 0
73 7 5.03763494935906 4.209957119898712 19.148761300983253 0 0 0
74 7 7.523305842844371 4.293836349960493 19.064955573992023 0 0 0
78 5 6.369601529014223 6.368346831812582 19.14154341078207 0 0 0
103 7 6.26423361256262 4.988244361819123 21.216315630719887 0 0 0
108 1 5.0206183302665455 7.0946503276176 21.176446470219865 0 0 0
109 7 7.54611598447943 7.152329573935031 21.092877989231773 0 0 0
75 7 10.013624193358085 4.3537316062733815 19.024262095588348 0 0 0
79 7 8.820773168538793 6.487902525483408 19.010520718085687 0 0 0
80 7 11.339687936713906 6.484637556511703 19.02392809465741 0 0 0
104 7 8.75584345311741 4.9866716189891696 21.069297599314876 0 0 0
105 7 11.324329486760217 4.973531800044291 21.10722438367436 0 0 0
110 6 10.025609252656702 7.122060924189486 21.114768189954766 0 0 0
81 7 0.2532653654420078 8.938596406099144 19.110683739834155 0 0 0
82 7 2.64745610157658 8.407528184438993 19.123423585166144 0 0 0
86 2 1.9116144576761236 10.193420766698475 19.56345734980805 0 0 0
87 7 3.775040563401477 10.720620114195661 19.091411376651333 0 0 0
111 7 1.3307592999703457 9.255094036306161 21.262245182631982 0 0 0
112 4 3.7250036603297216 9.337601780968846 21.13131990972619 0 0 0
116 5 0.08948263711308356 11.429462465679084 21.189117902611986 0 0 0
117 7 2.4580065347221756 11.432768067950628 21.155925442339125 0 0 0
83 7 5.02756625821372 8.522878550613397 19.037115975933222 0 0 0
84 7 7.568279867162898 8.593203390357571 19.001909409899067 0 0 0
88 7 6.229358600570512 10.793592866756315 18.94672586548016 0 0 0
113 6 6.280323257838941 9.328708725715165 21.015087204039194 0 0 0
118 6 5.010964531666003 11.561000325803555 21.134591207975806 0 0 0
119 7 7.4993807275434925 11.523945165424108 21.20312267425283 0 0 0
85 7 10.058912389655449 8.650590639079061 19.018811960085312 0 0 0
89 7 8.73427303006755 10.829143407849246 19.138705825731662 0 0 0
90 7 11.192690495313986 10.853349570032666 19.085612216186842 0 0 0
114 7 8.75584229215185 9.392820135294807 21.195180875813804 0 0 0
115 6 11.250215639847188 9.39826615198512 21.170480991931914 0 0 0
120 7 10.016282779951654 11.611318601935547 21.217701563125207 0 0 0
122 7 2.441970975886451 1.22411018809584 23.25954879741979 0 0 0
126 7 1.2735260952329024 3.524761929727772 23.255288250414182 0 0 0
127 3 3.1091529878516306 2.9307957830010944 23.510320440647806 0 0 0
156 7 1.2579845188568803 2.0555435911750086 25.312990357253362 0 0 0
157 7 3.7255435141009965 1.8619135347976643 25.1507392653106 0 0 0
161 7 0.004918702937693568 4.17929380704079 25.25498696498103 0 0 0
162 4 2.876522040684552 4.130201124836782 25.04394321015286 0 0 0
124 7 7.305823857816164 1.5331509343389933 23.166209380382902 0 0 0
128 7 4.989799597778608 3.309972787039768 23.667083708489255 0 0 0
158 7 6.188633901129645 1.8563789525986951 25.258887158401308 0 0 0
164 6 7.151047086698087 4.1517216815294935 24.968956701740595 0 0 0
121 7 12.447379825189612 1.3201500092107779 23.277779136085815 -1 0 0
125 7 10.007695902110965 1.365544207217715 23.14341085720916 0 0 0
129 7 8.712636205091295 3.557880160221457 23.072880974000086 0 0 0
130 7 11.227552123194052 3.5201904158753647 23.180890886318135 0 0 0
159 6 8.733933491621041 2.0572894717209573 25.143092771757157 0 0 0
160 7 11.240368842337883 2.032147023464982 25.297874909860955 0 0 0
165 7 9.942166437978559 4.228135382939253 25.205930498776663 0 0 0
131 5 0.06350635213698541 5.667356628631811 23.16050652685156 0 0 0
132 7 2.5603091834919685 5.672283681870247 23.181257102578222 0 0 0
136 7 1.316168170310995 7.8123424451879036 23.222890506447083 0 0 0
137 7 3.807467945369348 7.851154201533408 23.14767585787815 0 0 0
166 7 1.3011108780411527 6.287838244510962 25.216055382678757 0 0 0
167 7 3.767470212462181 6.37943874133091 25.213875120119706 0 0 0
171 7 0.07764882891554091 8.53245487493641 25.324755082240706 0 0 0
172 7 2.51284219754495 8.494644569710406 25.22787148842528 0 0 0
133 7 5.140148588378034 5.65417722314694 23.302919269842974 0 0 0
134 4 7.632347989694017 5.772840471385312 23.066630433374787 0 0 0
138 7 6.351437963616043 7.907271308903121 23.15262768609426 0 0 0
163 2 4.939753584959297 4.625696109183187 25.508218256985703 0 0 0
168 6 6.291149378600593 6.565852439326562 25.304260810424115 0 0 0
135 7 10.03900528767955 5.661960926532217 23.15769767380513 0 0 0
139 7 8.778686377855575 7.912034367118194 23.191678749098788 0 0 0
140 7 11.287480930137674 7.864744573967809 23.23986682722923 0 0 0
169 7 8.777429418369003 6.408853568178769 25.15779040754248 0 0 0
170 7 11.292422943473987 6.360101677348021 25.244315645899185 0 0 0
123 7 3.6968334794686206 12.203502969185434 23.201867549084238 0 -1 0
141 4 0.1394181165665528 9.997696192185684 23.33329767177964 0 0 0
142 7 2.567572554407738 9.99831275574315 23.289655780447546 0 0 0
146 7 1.2261345562999448 12.083379417899982 23.298939678385743 0 0 0
151 7 0.054898475503463155 12.843380443953166 25.37885356162824 0 -1 0
152 7 2.55046060761362 12.714459110312788 25.474734912870325 0 -1 0
176 7 1.3148562500290648 10.671323148487273 25.395753074650557 0 0 0
177 7 3.73140462436256 10.468204193859934 25.913502283788937 0 0 0
143 7 5.056096913164475 9.988927928430371 23.169357180286113 0 0 0
144 4 7.555621273949799 10.11836764355566 23.34711524061873 0 0 0
147 2 4.793235214464805 11.366999324413369 24.48879944204279 0 0 0
148 7 6.208047140609223 12.252989615683695 23.312824646017418 0 0 0
153 7 5.007251271346291 12.80931813172057 25.703094226611494 0 -1 0
154 7 7.517990869823678 12.821031308440459 25.355134933501557 0 -1 0
173 7 4.975219033422604 8.589568300045112 25.178601835314876 0 0 0
174 7 7.573933886845949 8.66048493311179 25.288249437866845 0 0 0
178 7 6.297827171565792 10.672179988758533 25.443042547024568 0 0 0
145 7 10.008987736166528 10.088341618400957 23.272366900005363 0 0 0
149 7 8.718834314244349 12.245550191783984 23.262822704757628 0 0 0
150 4 11.271072427001721 12.108533083662872 23.239588526559103 0 0 0
155 7 10.053471167121453 12.839452749206686 25.309528558829474 0 -1 0
175 7 10.039115379496524 8.576053178773448 25.268754001025677 0 0 0
179 7 8.811091037537036 10.762219596591452 25.37725521087226 0 0 0
180 7 11.315860340175128 10.700579379108392 25.270121948272845 0 0 0
181 4 1.3461828390304504 0.6288575482326728 27.44302773830343 0 0 0
182 7 3.8334225919738474 0.7681617825541589 27.716890362913155 0 0 0
186 4 12.39442034354502 2.691919636285193 27.34720750806308 -1 0 0
187 7 2.5852376978849088 2.7652830871791774 27.153223713459454 0 0 0
211 7 0.04735613205099705 1.427820625638712 29.66815197824925 0 0 0
216 3 1.432150025290497 2.20233471728495 28.546534926729663 0 0 0
217 7 3.6844237310994403 3.5099834492781965 29.169459044240558 0 0 0
251 4 1.1016968003937024 3.6557339131063142 29.709951135218937 0 0 0
183 7 6.285391492429482 0.7710054988925784 27.688671248458625 0 0 0
188 7 5.012205078099424 2.933639615152271 26.95626149828547 0 0 0
189 7 7.478904554083206 2.7967874215919366 27.227577563537707 0 0 0
218 7 6.1398614157397455 3.4805554234934544 29.12100387233639 0 0 0
184 1 8.719961326146507 0.6613296644229791 27.404525259610907 0 0 0
185 5 11.304820098836009 0.6480599419323027 27.50322177785012 0 0 0
190 7 9.971367089282252 2.7716425280951196 27.264320364350393 0 0 0
215 7 10.029859075137924 1.5119293192799141 29.704248169273104 0 0 0
219 7 8.718468982507622 3.5470718802225534 29.154338003970615 0 0 0
220 7 11.231908845011358 3.566319951347843 29.288869159408264 0 0 0
191 6 1.2826111154071314 4.860066222883364 27.298535252349247 0 0 0
192 7 3.772106124403053 4.984760617087346 27.207703892330244 0 0 0
196 4 0.02857845984738875 7.113713140630006 27.251682004800337 0 0 0
197 7 2.49994735353835 7.051795699050124 27.23780939893679 0 0 0
222 7 2.4934532852660123 5.731420083221857 29.311652844700053 0 0 0
227 7 3.659455394265921 7.999020160532669 29.183531980013658 0 0 0
193 7 6.208170504863142 4.999538882810116 27.218810375518096 0 0 0
198 7 4.940969276417528 7.157313377132087 27.311666177573713 0 0 0
199 7 7.473202956337829 7.220184599607353 27.36683229884051 0 0 0
223 7 4.934871976974596 5.669581917013391 29.267256343719115 0 0 0
224 7 7.458249703673033 5.644789671710679 29.2595388582208 0 0 0
228 7 6.184025611001768 7.7778030453348395 29.383508490358086 0 0 0
194 7 8.632543225292473 4.9750739434469144 27.119752228132004 0 0 0
195 5 11.15296435501736 4.9556304109367355 27.239219827503064 0 0 0
200 7 9.9762993206838 7.140478930675127 27.258687777682617 0 0 0
221 7 12.404829001021312 5.698937068105711 29.245917667922043 -1 0 0
225 7 9.966481791544824 5.663545168291074 29.20943119362025 0 0 0
229 7 8.750635383332494 7.7809027079571536 29.40254093687969 0 0 0
230 7 11.257692655781113 7.8038491580926825 29.376989724355667 0 0 0
201 7 1.7133712014277258 9.289918194558107 27.459445496245817 0 0 0
202 2 3.7862600710201666 9.818371847054587 27.97101505937237 0 0 0
206 7 0.025941834407332297 11.458304124278996 27.40970428867886 0 0 0
207 7 2.5594380410233444 11.556151886570857 27.667152444854068 0 0 0
226 3 0.22810464896742857 8.577045415449714 28.379931924294592 0 0 0
231 7 0.058863114070644915 10.019272312067395 29.515989263435017 0 0 0
232 7 2.5163702341751244 10.096111111055855 29.64235985305961 0 0 0
236 7 1.324061755471957 12.225576856324968 29.64282878018299 0 0 0
237 7 3.7812489960130273 12.251717992174255 29.756580205656572 0 0 0
203 7 5.882115969654344 9.314081353529732 27.418132855763076 0 0 0
208 7 5.006726157598857 11.537448827024257 27.72246510379942 0 0 0
209 7 7.455337226834229 11.475901513628349 27.44698973061123 0 0 0
233 7 4.943789556636097 10.039364704979992 29.625367718268 0 0 0
234 6 7.423617545219442 9.928902449491446 29.421744785279426 0 0 0
238 7 6.301936259971818 12.195226833299813 29.683406117418322 0 0 0
204 7 8.687670257365255 9.323196448160655 27.35697741623689 0 0 0
205 4 11.137990440605355 9.31644066674528 27.3534084141281 0 0 0
210 3 11.03607936385461 10.902037748520133 28.470283140512034 0 0 0
235 5 9.911498389027395 9.88882499475602 29.52921636486537 0 0 0
239 6 8.852444788748869 12.150436816156342 29.55668641701396 0 0 0
240 7 11.343706808480224 12.252024988102077 29.67169234934753 0 0 0
212 7 2.5270362660869066 1.4711765138372652 29.8922613103423 0 0 0
241 7 0.10058353091882026 12.906431226742097 31.828639587511468 0 -1 0
246 7 1.3845496596492115 2.1397678144633336 32.055836489222116 0 0 0
247 4 3.8217593837956656 2.1225022143085406 31.946404894643713 0 0 0
252 7 2.618622931525247 4.1260218499224806 31.25879613635091 0 0 0
213 7 4.995130941289876 1.4791845763521811 29.885216499385713 0 0 0
214 6 7.4825199802569395 1.5368712198050325 29.899111289617593 0 0 0
248 7 6.239527262469215 2.074410558475232 32.145035882186136 0 0 0
253 7 5.025922006083576 4.044646594286861 31.17435600059053 0 0 0
254 7 7.439010892601257 4.021422358320558 31.148739379458203 0 0 0
245 6 10.045659201028101 0.004294819555653362 31.86144165241971 0 0 0
249 7 8.744192526719903 2.1524893413328714 32.062687387053664 0 0 0
250 6 11.415899676701294 2.3870368828191757 31.779273771871743 0 0 0
255 7 9.88132672690277 4.15298426880397 31.175769352382904 0 0 0
256 7 1.2382782440339686 6.2566803946048095 31.293178391807558 0 0 0
257 7 3.772476699474499 6.292593134463293 31.315726935877024 0 0 0
261 7 0.03391251750117926 8.484908698724617 31.476036568003927 0 0 0
262 7 2.566087468323108 8.448339560894457 31.472073719904945 0 0 0
281 7 1.1985890992317332 4.52593700114203 33.09781758018325 0 0 0
282 7 3.8129772807385875 4.593952037523876 33.22827073989544 0 0 0
287 6 2.4644165820497235 6.693113534798589 33.442602742729306 0 0 0
258 7 6.2428476225215634 6.24727287486992 31.330076942691807 0 0 0
263 1 5.006754836206972 8.408332767864435 31.414231080545854 0 0 0
264 7 7.49896827441932 8.416727000565444 31.497125472812876 0 0 0
283 7 6.253858152847707 4.608069970192341 33.19359921148755 0 0 0
288 7 4.981643955575685 6.8545682799742895 33.41533451929408 0 0 0
289 6 7.504548519204721 6.802639466596145 33.4873824223004 0 0 0
259 7 8.721928919438975 6.271231356551953 31.33037419328937 0 0 0
260 7 11.216082946593202 6.235701141535527 31.323016868868336 0 0 0
265 7 10.035329564238193 8.41863395241879 31.525120318785365 0 0 0
284 7 8.708583727437833 4.604133423434373 33.202956271474406 0 0 0
285 7 11.224085116337951 4.618168858487808 33.16059427507074 0 0 0
286 7 12.426762744693827 6.841032940844253 33.35740458051489 -1 0 0
290 7 10.000815618945246 6.831986566406798 33.422711923013495 0 0 0
242 7 2.551741881209132 12.834979038646955 31.815732523349777 0 -1 0
266 5 1.28885487192969 10.668991715596041 31.63863673710058 0 0 0
267 7 3.760368112416124 10.61631489720674 31.73590750826336 0 0 0
291 6 1.2719641789747218 9.037067810427692 33.58864753240202 0 0 0
296 7 0.012260583618530997 11.259424618534917 33.72392478158229 0 0 0
243 7 5.052545964689414 12.804616394606773 31.77414769001016 0 -1 0
244 7 7.526323401617513 12.846121096077805 31.82768859568295 0 -1 0
268 7 6.269169528414138 10.610848770624713 31.6614721058678 0 0 0
293 7 6.2154751057068225 8.995931284272386 33.58183427917311 0 0 0
269 7 8.760073611937136 10.601812681941437 31.61419430725556 0 0 0
270 7 11.272199361539794 10.644413299545333 31.651263729362803 0 0 0
294 7 8.765255243234705 9.017691706336413 33.59368536558381 0 0 0
295 4 11.159275034097393 9.060280240282772 33.55378888884318 0 0 0
271 7 1.2930937498366455 0.509525076238082 33.984372973658026 0 0 0
272 6 3.8548040481803185 0.47173422933850484 33.88557929704901 0 0 0
276 7 0.04808830139364915 2.6704737539326016 34.21037954079062 0 0 0
277 4 2.457955979315122 2.773660451381078 34.23297930565149 0 0 0
301 7 0.04044736873545816 1.0464202460537453 36.13816545466795 0 0 0
302 6 2.544992580790896 1.0280606151611493 36.19039198097417 0 0 0
306 4 1.2327597049775856 3.2654935328080534 36.329000501576736 0 0 0
307 7 3.674799119121886 3.248818858793075 36.60831556187827 0 0 0
273 7 6.340810246464694 0.451738614093121 34.031994185894014 0 0 0
278 6 5.032236338931427 2.7550500425333295 34.39860524182848 0 0 0
279 4 7.482653238917357 2.7141992604855045 34.22366603964179 0 0 0
303 7 5.017981400419266 1.0344133581482315 36.195730378497785 0 0 0
304 6 7.465883182073915 1.0899075820508202 36.24011830212761 0 0 0
308 7 6.206068266086925 3.274230202323002 36.588881531507226 0 0 0
274 7 8.77387897406679 0.4879200581424848 34.01981806660245 0 0 0
275 4 11.278385141322167 0.5236189160629874 33.94809852754062 0 0 0
280 6 9.982710864622897 2.720450696698288 34.26630591149478 0 0 0
305 7 10.02977029515619 1.051232006608644 36.16848927215652 0 0 0
309 7 8.728554656485837 3.239758381645734 36.4254517793792 0 0 0
310 7 11.204392125729203 3.230930059065711 36.41686059520614 0 0 0
311 7 0.05124071576382772 5.186708002996322 35.17560154823724 0 0 0
312 7 2.534639624420404 5.073547851576109 35.34473789525244 0 0 0
316 7 1.2750350362257064 7.341769410959829 35.56705139550744 0 0 0
317 7 3.7539701604383193 7.383952410177804 35.5437872165076 0 0 0
342 7 1.3440529829581525 5.723902039102347 37.443455891576676 0 0 0
313 7 4.983699332710895 5.175383140197187 35.30742640311071 0 0 0
314 7 7.479634223470684 5.052155800643884 35.35912561689801 0 0 0
318 7 6.217668937855714 7.2716157250882 35.58610596290324 0 0 0
315 7 9.983594465612466 5.1350142664356415 35.297023845456614 0 0 0
319 5 8.80582775537488 7.218864713221967 35.565776136980276 0 0 0
320 7 11.239085536749622 7.3703405586213595 35.4838851445049 0 0 0
346 3 12.417208203208594 4.596976685336166 36.961117539918995 -1 0 0
349 4 8.764451200291825 5.551652259581479 37.372696144940136 0 0 0
292 4 3.7860519261036374 9.034102039918317 33.67515660247142 0 0 0
297 7 2.5389825595547584 11.22172292120012 33.774994151146096 0 0 0
321 7 0.0256508949346708 9.486524911504471 35.6829912569055 0 0 0
322 7 2.5356466963071065 9.517544857564207 35.74503095801997 0 0 0
326 6 1.3349142770211166 11.68757584811612 35.946407150437736 0 0 0
327 7 3.8390559003316214 11.71016605024719 35.89992846201903 0 0 0
298 7 5.045391435836028 11.17093871328837 33.78510096073768 0 0 0
299 7 7.553072249019258 11.172536855180496 33.729557899781106 0 0 0
323 7 4.976148635498882 9.506610080768645 35.74193276774379 0 0 0
324 6 7.448416052560066 9.47946697966247 35.70849968200683 0 0 0
328 7 6.235761706242698 11.732831349537369 35.90954639396306 0 0 0
300 5 10.008140118561476 11.161434656580168 33.695765434147134 0 0 0
325 7 10.008916695608175 9.483204859622706 35.712117360196785 0 0 0
329 6 8.743146529808117 11.774811289220073 35.97504811125964 0 0 0
330 6 11.26490525330226 11.734310374271146 35.96724798160897 0 0 0
336 7 1.3094096687616514 1.6319970177010548 38.22988655951567 0 0 0
337 7 3.8133843716494713 1.3872878901420205 38.31659920128555 0 0 0
341 7 0.04989645261433747 3.6590266652904644 38.53824534555048 0 0 0
338 7 6.22491719864749 1.4275815649044985 38.37056144472755 0 0 0
344 7 7.57373539011512 3.8083465372360386 38.4713881878824 0 0 0
339 7 8.78990354352211 1.5752609935748694 38.29857543124681 0 0 0
340 7 11.260862719456531 1.526427501540666 38.27541667756989 0 0 0
345 7 10.001091283124062 3.777540058557638 38.48608077316129 0 0 0
347 7 3.7299086075626415 5.85877971981785 37.43125388394242 0 0 0
351 7 0.01097304696022026 7.997094730049759 37.63761309062775 0 0 0
352 7 2.479702519933758 7.976155371351936 37.635803697562444 0 0 0
343 3 4.886300095652713 4.492431185177667 37.119330968059906 0 0 0
348 5 6.234449048267221 5.674620953905775 37.508114238399656 0 0 0
353 7 5.00590851703855 7.947224504463742 37.67571395870612 0 0 0
354 6 7.515111343313498 7.888940226433544 37.715082633721316 0 0 0
350 7 11.17184679037832 5.821105672420179 37.44749747668172 0 0 0
355 7 9.999443322100491 7.932768262294167 37.658350022794565 0 0 0
331 7 0.0638840926160283 12.345086886208179 38.08847622086663 0 -1 0
332 7 2.611426930585595 12.220793296640517 38.111868729151 0 -1 0
356 7 1.2238382203281242 10.105968564720209 37.86364697178145 0 0 0
357 7 3.8052347680023453 10.144532981138788 37.846260232184115 0 0 0
333 4 5.016359947430846 12.30017152291642 37.92638116875324 0 -1 0
334 7 7.437801769062402 12.230419127245005 38.13177844051503 0 -1 0
358 7 6.214826711199809 10.161384754923724 37.90912749064419 0 0 0
335 7 10.027676649529935 12.3381013959102 38.149738475891205 0 -1 0
359 7 8.825927927374272 10.10944914859943 37.917484822667554 0 0 0
360 4 11.23159624557116 10.076872318249007 37.88977547007869 0 0 0
361 8 4.556798635223776 11.938871349425975 41.67636668795702 0 0 0
362 8 5.301894566381253 11.78200481421319 41.68363682638184 0 0 0

Velocities

1 0 0 0
2 0 0 0
6 0 0 0
7 0 0 0
31 0 0 0
32 0 0 0
36 0 0 0
37 0 0 0
3 0 0 0
8 0 0 0
9 0 0 0
33 0 0 0
34 0 0 0
38 0 0 0
4 0 0 0
5 0 0 0
10 0 0 0
35 0 0 0
39 0 0 0
40 0 0 0
11 0 0 0
12 0 0 0
16 0 0 0
17 0 0 0
41 0 0 0
42 0 0 0
46 0 0 0
47 0 0 0
13 0 0 0
18 0 0 0
19 0 0 0
43 0 0 0
44 0 0 0
48 0 0 0
14 0 0 0
15 0 0 0
20 0 0 0
45 0 0 0
49 0 0 0
50 0 0 0
21 0 0 0
22 0 0 0
26 0 0 0
27 0 0 0
51 0 0 0
52 0 0 0
56 0 0 0
57 0 0 0
23 0 0 0
28 0 0 0
29 0 0 0
53 0 0 0
54 0 0 0
58 0 0 0
24 0 0 0
25 0 0 0
30 0 0 0
55 0 0 0
59 0 0 0
60 0 0 0
61 0 0 0
62 0 0 0
66 0 0 0
67 0 0 0
91 0 0 0
92 0 0 0
96 0 0 0
97 0 0 0
63 0 0 0
64 0 0 0
68 0 0 0
93 0 0 0
98 0 0 0
99 0 0 0
65 0 0 0
69 0 0 0
70 0 0 0
94 0 0 0
95 0 0 0
100 0 0 0
71 0 0 0
72 0 0 0
76 0 0 0
77 0 0 0
101 0 0 0
102 0 0 0
106 0 0 0
107 0 0 0
73 0 0 0
74 0 0 0
78 0 0 0
103 0 0 0
108 0 0 0
109 0 0 0
75 0 0 0
79 0 0 0
80 0 0 0
104 0 0 0
105 0 0 0
110 0 0 0
81 0 0 0
82 0 0 0
86 0 0 0
87 0 0 0
111 0 0 0
112 0 0 0
116 0 0 0
117 0 0 0
83 0 0 0
84 0 0 0
88 0 0 0
113 0 0 0
118 0 0 0
119 0 0 0
85 0 0 0
89 0 0 0
90 0 0 0
114 0 0 0
115 0 0 0
120 0 0 0
122 0 0 0
126 0 0 0
127 0 0 0
156 0 0 0
157 0 0 0
161 0 0 0
162 0 0 0
124 0 0 0
128 0 0 0
158 0 0 0
164 0 0 0
121 0 0 0
125 0 0 0
129 0 0 0
130 0 0 0
159 0 0 0
160 0 0 0
165 0 0 0
131 0 0 0
132 0 0 0
136 0 0 0
137 0 0 0
166 0 0 0
167 0 0 0
171 0 0 0
172 0 0 0
133 0 0 0
134 0 0 0
138 0 0 0
163 0 0 0
168 0 0 0
135 0 0 0
139 0 0 0
140 0 0 0
169 0 0 0
170 0 0 0
123 0 0 0
141 0 0 0
142 0 0 0
146 0 0 0
151 0 0 0
152 0 0 0
176 0 0 0
177 0 0 0
143 0 0 0
144 0 0 0
147 0 0 0
148 0 0 0
153 0 0 0
154 0 0 0
173 0 0 0
174 0 0 0
178 0 0 0
145 0 0 0
149 0 0 0
150 0 0 0
155 0 0 0
175 0 0 0
179 0 0 0
180 0 0 0
181 0 0 0
182 0 0 0
186 0 0 0
187 0 0 0
211 0 0 0
216 0 0 0
217 0 0 0
251 0 0 0
183 0 0 0
188 0 0 0
189 0 0 0
218 0 0 0
184 0 0 0
185 0 0 0
190 0 0 0
215 0 0 0
219 0 0 0
220 0 0 0
191 0 0 0
192 0 0 0
196 0 0 0
197 0 0 0
222 0 0 0
227 0 0 0
193 0 0 0
198 0 0 0
199 0 0 0
223 0 0 0
224 0 0 0
228 0 0 0
194 0 0 0
195 0 0 0
200 0 0 0
221 0 0 0
225 0 0 0
229 0 0 0
230 0 0 0
201 0 0 0
202 0 0 0
206 0 0 0
207 0 0 0
226 0 0 0
231 0 0 0
232 0 0 0
236 0 0 0
237 0 0 0
203 0 0 0
208 0 0 0
209 0 0 0
233 0 0 0
234 0 0 0
238 0 0 0
204 0 0 0
205 0 0 0
210 0 0 0
235 0 0 0
239 0 0 0
240 0 0 0
212 0 0 0
241 0 0 0
246 0 0 0
247 0 0 0
252 0 0 0
213 0 0 0
214 0 0 0
248 0 0 0
253 0 0 0
254 0 0 0
245 0 0 0
249 0 0 0
250 0 0 0
255 0 0 0
256 0 0 0
257 0 0 0
261 0 0 0
262 0 0 0
281 0 0 0
282 0 0 0
287 0 0 0
258 0 0 0
263 0 0 0
264 0 0 0
283 0 0 0
288 0 0 0
289 0 0 0
259 0 0 0
260 0 0 0
265 0 0 0
284 0 0 0
285 0 0 0
286 0 0 0
290 0 0 0
242 0 0 0
266 0 0 0
267 0 0 0
291 0 0 0
296 0 0 0
243 0 0 0
244 0 0 0
268 0 0 0
293 0 0 0
269 0 0 0
270 0 0 0
294 0 0 0
295 0 0 0
271 0 0 0
272 0 0 0
276 0 0 0
277 0 0 0
301 0 0 0
302 0 0 0
306 0 0 0
307 0 0 0
273 0 0 0
278 0 0 0
279 0 0 0
303 0 0 0
304 0 0 0
308 0 0 0
274 0 0 0
275 0 0 0
280 0 0 0
305 0 0 0
309 0 0 0
310 0 0 0
311 0 0 0
312 0 0 0
316 0 0 0
317 0 0 0
342 0 0 0
313 0 0 0
314 0 0 0
318 0 0 0
315 0 0 0
319 0 0 0
320 0 0 0
346 0 0 0
349 0 0 0
292 0 0 0
297 0 0 0
321 0 0 0
322 0 0 0
326 0 0 0
327 0 0 0
298 0 0 0
299 0 0 0
323 0 0 0
324 0 0 0
328 0 0 0
300 0 0 0
325 0 0 0
329 0 0 0
330 0 0 0
336 0 0 0
337 0 0 0
341 0 0 0
338 0 0 0
344 0 0 0
339 0 0 0
340 0 0 0
345 0 0 0
347 0 0 0
351 0 0 0
352 0 0 0
343 0 0 0
348 0 0 0
353 0 0 0
354 0 0 0
350 0 0 0
355 0 0 0
331 0 0 0
332 0 0 0
356 0 0 0
357 0 0 0
333 0 0 0
334 0 0 0
358 0 0 0
335 0 0 0
359 0 0 0
360 0 0 0
361 0 0 0
362 0 0 0
