# Cr2O3 corundum bulk (R-3c, spacegroup 167) -- rebuilt with correct hexagonal cell, replacing a corrupted orthogonal-box version

3750 atoms
9 atom types

0.0  25.0000000000  xlo xhi
0.0  21.6506350946  ylo yhi
0.0  67.5500000000  zlo zhi
-12.5000000000  0.0000000000  0.0000000000  xy xz yz

Masses

1  26.9815  # Al
2  10.811  # B
3  12.011  # C
4  51.9961  # Cr
5  55.845  # Fe
6  95.96  # Mo
7  58.6934  # Ni
8  15.999  # O
9  1.008  # H

Atoms # atomic

1  4  0.0000000000  2.8867513459  0.2232257300
2  4  2.5000000000  1.4433756730  6.5317742700
3  4  0.0000000000  0.0000000000  4.7265590633
4  4  0.0000000000  2.8867513459  11.0351076033
5  4  2.5000000000  1.4433756730  9.2298923967
6  4  0.0000000000  0.0000000000  2.0284409367
7  4  2.5000000000  1.4433756730  13.2867742700
8  4  0.0000000000  2.8867513459  6.9782257300
9  4  0.0000000000  2.8867513459  4.2801076033
10  4  0.0000000000  0.0000000000  11.4815590633
11  4  0.0000000000  0.0000000000  8.7834409367
12  4  2.5000000000  1.4433756730  2.4748923967
13  8  0.7542275000  4.1931174699  12.3841711700
14  8  -1.5084600000  2.8867484592  12.3841711700
15  8  0.7542325000  1.5803881087  12.3841711700
16  8  3.2542325000  2.7497389102  7.8808288300
17  8  3.2542275000  0.1370095490  7.8808288300
18  8  0.9915400000  1.4433785597  7.8808288300
19  8  0.7542275000  1.3063661240  3.3775045033
20  8  0.9915400000  4.3301241322  3.3775045033
21  8  -1.7457675000  3.0237637817  3.3775045033
22  8  1.7457725000  0.1370095490  1.1258288300
23  8  4.0084600000  1.4433785597  1.1258288300
24  8  1.7457675000  2.7497389102  1.1258288300
25  8  -0.7542325000  1.5803881087  5.6291711700
26  8  -0.7542275000  4.1931174699  5.6291711700
27  8  1.5084600000  2.8867484592  5.6291711700
28  8  1.7457675000  3.0237637817  10.1325045033
29  8  -0.7542275000  1.3063661240  10.1325045033
30  8  -0.9915400000  4.3301241322  10.1325045033
31  4  0.0000000000  2.8867513459  13.7332257300
32  4  2.5000000000  1.4433756730  20.0417742700
33  4  0.0000000000  0.0000000000  18.2365590633
34  4  0.0000000000  2.8867513459  24.5451076033
35  4  2.5000000000  1.4433756730  22.7398923967
36  4  0.0000000000  0.0000000000  15.5384409367
37  4  2.5000000000  1.4433756730  26.7967742700
38  4  0.0000000000  2.8867513459  20.4882257300
39  4  0.0000000000  2.8867513459  17.7901076033
40  4  0.0000000000  0.0000000000  24.9915590633
41  4  0.0000000000  0.0000000000  22.2934409367
42  4  2.5000000000  1.4433756730  15.9848923967
43  8  0.7542275000  4.1931174699  25.8941711700
44  8  -1.5084600000  2.8867484592  25.8941711700
45  8  0.7542325000  1.5803881087  25.8941711700
46  8  3.2542325000  2.7497389102  21.3908288300
47  8  3.2542275000  0.1370095490  21.3908288300
48  8  0.9915400000  1.4433785597  21.3908288300
49  8  0.7542275000  1.3063661240  16.8875045033
50  8  0.9915400000  4.3301241322  16.8875045033
51  8  -1.7457675000  3.0237637817  16.8875045033
52  8  1.7457725000  0.1370095490  14.6358288300
53  8  4.0084600000  1.4433785597  14.6358288300
54  8  1.7457675000  2.7497389102  14.6358288300
55  8  -0.7542325000  1.5803881087  19.1391711700
56  8  -0.7542275000  4.1931174699  19.1391711700
57  8  1.5084600000  2.8867484592  19.1391711700
58  8  1.7457675000  3.0237637817  23.6425045033
59  8  -0.7542275000  1.3063661240  23.6425045033
60  8  -0.9915400000  4.3301241322  23.6425045033
61  4  0.0000000000  2.8867513459  27.2432257300
62  4  2.5000000000  1.4433756730  33.5517742700
63  4  0.0000000000  0.0000000000  31.7465590633
64  4  0.0000000000  2.8867513459  38.0551076033
65  4  2.5000000000  1.4433756730  36.2498923967
66  4  0.0000000000  0.0000000000  29.0484409367
67  4  2.5000000000  1.4433756730  40.3067742700
68  4  0.0000000000  2.8867513459  33.9982257300
69  4  0.0000000000  2.8867513459  31.3001076033
70  4  0.0000000000  0.0000000000  38.5015590633
71  4  0.0000000000  0.0000000000  35.8034409367
72  4  2.5000000000  1.4433756730  29.4948923967
73  8  0.7542275000  4.1931174699  39.4041711700
74  8  -1.5084600000  2.8867484592  39.4041711700
75  8  0.7542325000  1.5803881087  39.4041711700
76  8  3.2542325000  2.7497389102  34.9008288300
77  8  3.2542275000  0.1370095490  34.9008288300
78  8  0.9915400000  1.4433785597  34.9008288300
79  8  0.7542275000  1.3063661240  30.3975045033
80  8  0.9915400000  4.3301241322  30.3975045033
81  8  -1.7457675000  3.0237637817  30.3975045033
82  8  1.7457725000  0.1370095490  28.1458288300
83  8  4.0084600000  1.4433785597  28.1458288300
84  8  1.7457675000  2.7497389102  28.1458288300
85  8  -0.7542325000  1.5803881087  32.6491711700
86  8  -0.7542275000  4.1931174699  32.6491711700
87  8  1.5084600000  2.8867484592  32.6491711700
88  8  1.7457675000  3.0237637817  37.1525045033
89  8  -0.7542275000  1.3063661240  37.1525045033
90  8  -0.9915400000  4.3301241322  37.1525045033
91  4  0.0000000000  2.8867513459  40.7532257300
92  4  2.5000000000  1.4433756730  47.0617742700
93  4  0.0000000000  0.0000000000  45.2565590633
94  4  0.0000000000  2.8867513459  51.5651076033
95  4  2.5000000000  1.4433756730  49.7598923967
96  4  0.0000000000  0.0000000000  42.5584409367
97  4  2.5000000000  1.4433756730  53.8167742700
98  4  0.0000000000  2.8867513459  47.5082257300
99  4  0.0000000000  2.8867513459  44.8101076033
100  4  0.0000000000  0.0000000000  52.0115590633
101  4  0.0000000000  0.0000000000  49.3134409367
102  4  2.5000000000  1.4433756730  43.0048923967
103  8  0.7542275000  4.1931174699  52.9141711700
104  8  -1.5084600000  2.8867484592  52.9141711700
105  8  0.7542325000  1.5803881087  52.9141711700
106  8  3.2542325000  2.7497389102  48.4108288300
107  8  3.2542275000  0.1370095490  48.4108288300
108  8  0.9915400000  1.4433785597  48.4108288300
109  8  0.7542275000  1.3063661240  43.9075045033
110  8  0.9915400000  4.3301241322  43.9075045033
111  8  -1.7457675000  3.0237637817  43.9075045033
112  8  1.7457725000  0.1370095490  41.6558288300
113  8  4.0084600000  1.4433785597  41.6558288300
114  8  1.7457675000  2.7497389102  41.6558288300
115  8  -0.7542325000  1.5803881087  46.1591711700
116  8  -0.7542275000  4.1931174699  46.1591711700
117  8  1.5084600000  2.8867484592  46.1591711700
118  8  1.7457675000  3.0237637817  50.6625045033
119  8  -0.7542275000  1.3063661240  50.6625045033
120  8  -0.9915400000  4.3301241322  50.6625045033
121  4  0.0000000000  2.8867513459  54.2632257300
122  4  2.5000000000  1.4433756730  60.5717742700
123  4  0.0000000000  0.0000000000  58.7665590633
124  4  0.0000000000  2.8867513459  65.0751076033
125  4  2.5000000000  1.4433756730  63.2698923967
126  4  0.0000000000  0.0000000000  56.0684409367
127  4  2.5000000000  1.4433756730  67.3267742700
128  4  0.0000000000  2.8867513459  61.0182257300
129  4  0.0000000000  2.8867513459  58.3201076033
130  4  0.0000000000  0.0000000000  65.5215590633
131  4  0.0000000000  0.0000000000  62.8234409367
132  4  2.5000000000  1.4433756730  56.5148923967
133  8  0.7542275000  4.1931174699  66.4241711700
134  8  -1.5084600000  2.8867484592  66.4241711700
135  8  0.7542325000  1.5803881087  66.4241711700
136  8  3.2542325000  2.7497389102  61.9208288300
137  8  3.2542275000  0.1370095490  61.9208288300
138  8  0.9915400000  1.4433785597  61.9208288300
139  8  0.7542275000  1.3063661240  57.4175045033
140  8  0.9915400000  4.3301241322  57.4175045033
141  8  -1.7457675000  3.0237637817  57.4175045033
142  8  1.7457725000  0.1370095490  55.1658288300
143  8  4.0084600000  1.4433785597  55.1658288300
144  8  1.7457675000  2.7497389102  55.1658288300
145  8  -0.7542325000  1.5803881087  59.6691711700
146  8  -0.7542275000  4.1931174699  59.6691711700
147  8  1.5084600000  2.8867484592  59.6691711700
148  8  1.7457675000  3.0237637817  64.1725045033
149  8  -0.7542275000  1.3063661240  64.1725045033
150  8  -0.9915400000  4.3301241322  64.1725045033
151  4  -2.5000000000  7.2168783649  0.2232257300
152  4  0.0000000000  5.7735026919  6.5317742700
153  4  -2.5000000000  4.3301270189  4.7265590633
154  4  -2.5000000000  7.2168783649  11.0351076033
155  4  0.0000000000  5.7735026919  9.2298923967
156  4  -2.5000000000  4.3301270189  2.0284409367
157  4  0.0000000000  5.7735026919  13.2867742700
158  4  -2.5000000000  7.2168783649  6.9782257300
159  4  -2.5000000000  7.2168783649  4.2801076033
160  4  -2.5000000000  4.3301270189  11.4815590633
161  4  -2.5000000000  4.3301270189  8.7834409367
162  4  0.0000000000  5.7735026919  2.4748923967
163  8  -1.7457725000  8.5232444888  12.3841711700
164  8  -4.0084600000  7.2168754781  12.3841711700
165  8  -1.7457675000  5.9105151277  12.3841711700
166  8  0.7542325000  7.0798659291  7.8808288300
167  8  0.7542275000  4.4671365679  7.8808288300
168  8  -1.5084600000  5.7735055786  7.8808288300
169  8  -1.7457725000  5.6364931429  3.3775045033
170  8  -1.5084600000  8.6602511511  3.3775045033
171  8  -4.2457675000  7.3538908006  3.3775045033
172  8  -0.7542275000  4.4671365679  1.1258288300
173  8  1.5084600000  5.7735055786  1.1258288300
174  8  -0.7542325000  7.0798659291  1.1258288300
175  8  -3.2542325000  5.9105151277  5.6291711700
176  8  -3.2542275000  8.5232444888  5.6291711700
177  8  -0.9915400000  7.2168754781  5.6291711700
178  8  -0.7542325000  7.3538908006  10.1325045033
179  8  -3.2542275000  5.6364931429  10.1325045033
180  8  -3.4915400000  8.6602511511  10.1325045033
181  4  -2.5000000000  7.2168783649  13.7332257300
182  4  0.0000000000  5.7735026919  20.0417742700
183  4  -2.5000000000  4.3301270189  18.2365590633
184  4  -2.5000000000  7.2168783649  24.5451076033
185  4  0.0000000000  5.7735026919  22.7398923967
186  4  -2.5000000000  4.3301270189  15.5384409367
187  4  0.0000000000  5.7735026919  26.7967742700
188  4  -2.5000000000  7.2168783649  20.4882257300
189  4  -2.5000000000  7.2168783649  17.7901076033
190  4  -2.5000000000  4.3301270189  24.9915590633
191  4  -2.5000000000  4.3301270189  22.2934409367
192  4  0.0000000000  5.7735026919  15.9848923967
193  8  -1.7457725000  8.5232444888  25.8941711700
194  8  -4.0084600000  7.2168754781  25.8941711700
195  8  -1.7457675000  5.9105151277  25.8941711700
196  8  0.7542325000  7.0798659291  21.3908288300
197  8  0.7542275000  4.4671365679  21.3908288300
198  8  -1.5084600000  5.7735055786  21.3908288300
199  8  -1.7457725000  5.6364931429  16.8875045033
200  8  -1.5084600000  8.6602511511  16.8875045033
201  8  -4.2457675000  7.3538908006  16.8875045033
202  8  -0.7542275000  4.4671365679  14.6358288300
203  8  1.5084600000  5.7735055786  14.6358288300
204  8  -0.7542325000  7.0798659291  14.6358288300
205  8  -3.2542325000  5.9105151277  19.1391711700
206  8  -3.2542275000  8.5232444888  19.1391711700
207  8  -0.9915400000  7.2168754781  19.1391711700
208  8  -0.7542325000  7.3538908006  23.6425045033
209  8  -3.2542275000  5.6364931429  23.6425045033
210  8  -3.4915400000  8.6602511511  23.6425045033
211  4  -2.5000000000  7.2168783649  27.2432257300
212  4  0.0000000000  5.7735026919  33.5517742700
213  4  -2.5000000000  4.3301270189  31.7465590633
214  4  -2.5000000000  7.2168783649  38.0551076033
215  4  0.0000000000  5.7735026919  36.2498923967
216  4  -2.5000000000  4.3301270189  29.0484409367
217  4  0.0000000000  5.7735026919  40.3067742700
218  4  -2.5000000000  7.2168783649  33.9982257300
219  4  -2.5000000000  7.2168783649  31.3001076033
220  4  -2.5000000000  4.3301270189  38.5015590633
221  4  -2.5000000000  4.3301270189  35.8034409367
222  4  0.0000000000  5.7735026919  29.4948923967
223  8  -1.7457725000  8.5232444888  39.4041711700
224  8  -4.0084600000  7.2168754781  39.4041711700
225  8  -1.7457675000  5.9105151277  39.4041711700
226  8  0.7542325000  7.0798659291  34.9008288300
227  8  0.7542275000  4.4671365679  34.9008288300
228  8  -1.5084600000  5.7735055786  34.9008288300
229  8  -1.7457725000  5.6364931429  30.3975045033
230  8  -1.5084600000  8.6602511511  30.3975045033
231  8  -4.2457675000  7.3538908006  30.3975045033
232  8  -0.7542275000  4.4671365679  28.1458288300
233  8  1.5084600000  5.7735055786  28.1458288300
234  8  -0.7542325000  7.0798659291  28.1458288300
235  8  -3.2542325000  5.9105151277  32.6491711700
236  8  -3.2542275000  8.5232444888  32.6491711700
237  8  -0.9915400000  7.2168754781  32.6491711700
238  8  -0.7542325000  7.3538908006  37.1525045033
239  8  -3.2542275000  5.6364931429  37.1525045033
240  8  -3.4915400000  8.6602511511  37.1525045033
241  4  -2.5000000000  7.2168783649  40.7532257300
242  4  0.0000000000  5.7735026919  47.0617742700
243  4  -2.5000000000  4.3301270189  45.2565590633
244  4  -2.5000000000  7.2168783649  51.5651076033
245  4  0.0000000000  5.7735026919  49.7598923967
246  4  -2.5000000000  4.3301270189  42.5584409367
247  4  0.0000000000  5.7735026919  53.8167742700
248  4  -2.5000000000  7.2168783649  47.5082257300
249  4  -2.5000000000  7.2168783649  44.8101076033
250  4  -2.5000000000  4.3301270189  52.0115590633
251  4  -2.5000000000  4.3301270189  49.3134409367
252  4  0.0000000000  5.7735026919  43.0048923967
253  8  -1.7457725000  8.5232444888  52.9141711700
254  8  -4.0084600000  7.2168754781  52.9141711700
255  8  -1.7457675000  5.9105151277  52.9141711700
256  8  0.7542325000  7.0798659291  48.4108288300
257  8  0.7542275000  4.4671365679  48.4108288300
258  8  -1.5084600000  5.7735055786  48.4108288300
259  8  -1.7457725000  5.6364931429  43.9075045033
260  8  -1.5084600000  8.6602511511  43.9075045033
261  8  -4.2457675000  7.3538908006  43.9075045033
262  8  -0.7542275000  4.4671365679  41.6558288300
263  8  1.5084600000  5.7735055786  41.6558288300
264  8  -0.7542325000  7.0798659291  41.6558288300
265  8  -3.2542325000  5.9105151277  46.1591711700
266  8  -3.2542275000  8.5232444888  46.1591711700
267  8  -0.9915400000  7.2168754781  46.1591711700
268  8  -0.7542325000  7.3538908006  50.6625045033
269  8  -3.2542275000  5.6364931429  50.6625045033
270  8  -3.4915400000  8.6602511511  50.6625045033
271  4  -2.5000000000  7.2168783649  54.2632257300
272  4  0.0000000000  5.7735026919  60.5717742700
273  4  -2.5000000000  4.3301270189  58.7665590633
274  4  -2.5000000000  7.2168783649  65.0751076033
275  4  0.0000000000  5.7735026919  63.2698923967
276  4  -2.5000000000  4.3301270189  56.0684409367
277  4  0.0000000000  5.7735026919  67.3267742700
278  4  -2.5000000000  7.2168783649  61.0182257300
279  4  -2.5000000000  7.2168783649  58.3201076033
280  4  -2.5000000000  4.3301270189  65.5215590633
281  4  -2.5000000000  4.3301270189  62.8234409367
282  4  0.0000000000  5.7735026919  56.5148923967
283  8  -1.7457725000  8.5232444888  66.4241711700
284  8  -4.0084600000  7.2168754781  66.4241711700
285  8  -1.7457675000  5.9105151277  66.4241711700
286  8  0.7542325000  7.0798659291  61.9208288300
287  8  0.7542275000  4.4671365679  61.9208288300
288  8  -1.5084600000  5.7735055786  61.9208288300
289  8  -1.7457725000  5.6364931429  57.4175045033
290  8  -1.5084600000  8.6602511511  57.4175045033
291  8  -4.2457675000  7.3538908006  57.4175045033
292  8  -0.7542275000  4.4671365679  55.1658288300
293  8  1.5084600000  5.7735055786  55.1658288300
294  8  -0.7542325000  7.0798659291  55.1658288300
295  8  -3.2542325000  5.9105151277  59.6691711700
296  8  -3.2542275000  8.5232444888  59.6691711700
297  8  -0.9915400000  7.2168754781  59.6691711700
298  8  -0.7542325000  7.3538908006  64.1725045033
299  8  -3.2542275000  5.6364931429  64.1725045033
300  8  -3.4915400000  8.6602511511  64.1725045033
301  4  -5.0000000000  11.5470053838  0.2232257300
302  4  -2.5000000000  10.1036297108  6.5317742700
303  4  -5.0000000000  8.6602540378  4.7265590633
304  4  -5.0000000000  11.5470053838  11.0351076033
305  4  -2.5000000000  10.1036297108  9.2298923967
306  4  -5.0000000000  8.6602540378  2.0284409367
307  4  -2.5000000000  10.1036297108  13.2867742700
308  4  -5.0000000000  11.5470053838  6.9782257300
309  4  -5.0000000000  11.5470053838  4.2801076033
310  4  -5.0000000000  8.6602540378  11.4815590633
311  4  -5.0000000000  8.6602540378  8.7834409367
312  4  -2.5000000000  10.1036297108  2.4748923967
313  8  -4.2457725000  12.8533715078  12.3841711700
314  8  -6.5084600000  11.5470024970  12.3841711700
315  8  -4.2457675000  10.2406421466  12.3841711700
316  8  -1.7457675000  11.4099929480  7.8808288300
317  8  -1.7457725000  8.7972635869  7.8808288300
318  8  -4.0084600000  10.1036325976  7.8808288300
319  8  -4.2457725000  9.9666201618  3.3775045033
320  8  -4.0084600000  12.9903781700  3.3775045033
321  8  -6.7457675000  11.6840178195  3.3775045033
322  8  -3.2542275000  8.7972635869  1.1258288300
323  8  -0.9915400000  10.1036325976  1.1258288300
324  8  -3.2542325000  11.4099929480  1.1258288300
325  8  -5.7542325000  10.2406421466  5.6291711700
326  8  -5.7542275000  12.8533715078  5.6291711700
327  8  -3.4915400000  11.5470024970  5.6291711700
328  8  -3.2542325000  11.6840178195  10.1325045033
329  8  -5.7542275000  9.9666201618  10.1325045033
330  8  -5.9915400000  12.9903781700  10.1325045033
331  4  -5.0000000000  11.5470053838  13.7332257300
332  4  -2.5000000000  10.1036297108  20.0417742700
333  4  -5.0000000000  8.6602540378  18.2365590633
334  4  -5.0000000000  11.5470053838  24.5451076033
335  4  -2.5000000000  10.1036297108  22.7398923967
336  4  -5.0000000000  8.6602540378  15.5384409367
337  4  -2.5000000000  10.1036297108  26.7967742700
338  4  -5.0000000000  11.5470053838  20.4882257300
339  4  -5.0000000000  11.5470053838  17.7901076033
340  4  -5.0000000000  8.6602540378  24.9915590633
341  4  -5.0000000000  8.6602540378  22.2934409367
342  4  -2.5000000000  10.1036297108  15.9848923967
343  8  -4.2457725000  12.8533715078  25.8941711700
344  8  -6.5084600000  11.5470024970  25.8941711700
345  8  -4.2457675000  10.2406421466  25.8941711700
346  8  -1.7457675000  11.4099929480  21.3908288300
347  8  -1.7457725000  8.7972635869  21.3908288300
348  8  -4.0084600000  10.1036325976  21.3908288300
349  8  -4.2457725000  9.9666201618  16.8875045033
350  8  -4.0084600000  12.9903781700  16.8875045033
351  8  -6.7457675000  11.6840178195  16.8875045033
352  8  -3.2542275000  8.7972635869  14.6358288300
353  8  -0.9915400000  10.1036325976  14.6358288300
354  8  -3.2542325000  11.4099929480  14.6358288300
355  8  -5.7542325000  10.2406421466  19.1391711700
356  8  -5.7542275000  12.8533715078  19.1391711700
357  8  -3.4915400000  11.5470024970  19.1391711700
358  8  -3.2542325000  11.6840178195  23.6425045033
359  8  -5.7542275000  9.9666201618  23.6425045033
360  8  -5.9915400000  12.9903781700  23.6425045033
361  4  -5.0000000000  11.5470053838  27.2432257300
362  4  -2.5000000000  10.1036297108  33.5517742700
363  4  -5.0000000000  8.6602540378  31.7465590633
364  4  -5.0000000000  11.5470053838  38.0551076033
365  4  -2.5000000000  10.1036297108  36.2498923967
366  4  -5.0000000000  8.6602540378  29.0484409367
367  4  -2.5000000000  10.1036297108  40.3067742700
368  4  -5.0000000000  11.5470053838  33.9982257300
369  4  -5.0000000000  11.5470053838  31.3001076033
370  4  -5.0000000000  8.6602540378  38.5015590633
371  4  -5.0000000000  8.6602540378  35.8034409367
372  4  -2.5000000000  10.1036297108  29.4948923967
373  8  -4.2457725000  12.8533715078  39.4041711700
374  8  -6.5084600000  11.5470024970  39.4041711700
375  8  -4.2457675000  10.2406421466  39.4041711700
376  8  -1.7457675000  11.4099929480  34.9008288300
377  8  -1.7457725000  8.7972635869  34.9008288300
378  8  -4.0084600000  10.1036325976  34.9008288300
379  8  -4.2457725000  9.9666201618  30.3975045033
380  8  -4.0084600000  12.9903781700  30.3975045033
381  8  -6.7457675000  11.6840178195  30.3975045033
382  8  -3.2542275000  8.7972635869  28.1458288300
383  8  -0.9915400000  10.1036325976  28.1458288300
384  8  -3.2542325000  11.4099929480  28.1458288300
385  8  -5.7542325000  10.2406421466  32.6491711700
386  8  -5.7542275000  12.8533715078  32.6491711700
387  8  -3.4915400000  11.5470024970  32.6491711700
388  8  -3.2542325000  11.6840178195  37.1525045033
389  8  -5.7542275000  9.9666201618  37.1525045033
390  8  -5.9915400000  12.9903781700  37.1525045033
391  4  -5.0000000000  11.5470053838  40.7532257300
392  4  -2.5000000000  10.1036297108  47.0617742700
393  4  -5.0000000000  8.6602540378  45.2565590633
394  4  -5.0000000000  11.5470053838  51.5651076033
395  4  -2.5000000000  10.1036297108  49.7598923967
396  4  -5.0000000000  8.6602540378  42.5584409367
397  4  -2.5000000000  10.1036297108  53.8167742700
398  4  -5.0000000000  11.5470053838  47.5082257300
399  4  -5.0000000000  11.5470053838  44.8101076033
400  4  -5.0000000000  8.6602540378  52.0115590633
401  4  -5.0000000000  8.6602540378  49.3134409367
402  4  -2.5000000000  10.1036297108  43.0048923967
403  8  -4.2457725000  12.8533715078  52.9141711700
404  8  -6.5084600000  11.5470024970  52.9141711700
405  8  -4.2457675000  10.2406421466  52.9141711700
406  8  -1.7457675000  11.4099929480  48.4108288300
407  8  -1.7457725000  8.7972635869  48.4108288300
408  8  -4.0084600000  10.1036325976  48.4108288300
409  8  -4.2457725000  9.9666201618  43.9075045033
410  8  -4.0084600000  12.9903781700  43.9075045033
411  8  -6.7457675000  11.6840178195  43.9075045033
412  8  -3.2542275000  8.7972635869  41.6558288300
413  8  -0.9915400000  10.1036325976  41.6558288300
414  8  -3.2542325000  11.4099929480  41.6558288300
415  8  -5.7542325000  10.2406421466  46.1591711700
416  8  -5.7542275000  12.8533715078  46.1591711700
417  8  -3.4915400000  11.5470024970  46.1591711700
418  8  -3.2542325000  11.6840178195  50.6625045033
419  8  -5.7542275000  9.9666201618  50.6625045033
420  8  -5.9915400000  12.9903781700  50.6625045033
421  4  -5.0000000000  11.5470053838  54.2632257300
422  4  -2.5000000000  10.1036297108  60.5717742700
423  4  -5.0000000000  8.6602540378  58.7665590633
424  4  -5.0000000000  11.5470053838  65.0751076033
425  4  -2.5000000000  10.1036297108  63.2698923967
426  4  -5.0000000000  8.6602540378  56.0684409367
427  4  -2.5000000000  10.1036297108  67.3267742700
428  4  -5.0000000000  11.5470053838  61.0182257300
429  4  -5.0000000000  11.5470053838  58.3201076033
430  4  -5.0000000000  8.6602540378  65.5215590633
431  4  -5.0000000000  8.6602540378  62.8234409367
432  4  -2.5000000000  10.1036297108  56.5148923967
433  8  -4.2457725000  12.8533715078  66.4241711700
434  8  -6.5084600000  11.5470024970  66.4241711700
435  8  -4.2457675000  10.2406421466  66.4241711700
436  8  -1.7457675000  11.4099929480  61.9208288300
437  8  -1.7457725000  8.7972635869  61.9208288300
438  8  -4.0084600000  10.1036325976  61.9208288300
439  8  -4.2457725000  9.9666201618  57.4175045033
440  8  -4.0084600000  12.9903781700  57.4175045033
441  8  -6.7457675000  11.6840178195  57.4175045033
442  8  -3.2542275000  8.7972635869  55.1658288300
443  8  -0.9915400000  10.1036325976  55.1658288300
444  8  -3.2542325000  11.4099929480  55.1658288300
445  8  -5.7542325000  10.2406421466  59.6691711700
446  8  -5.7542275000  12.8533715078  59.6691711700
447  8  -3.4915400000  11.5470024970  59.6691711700
448  8  -3.2542325000  11.6840178195  64.1725045033
449  8  -5.7542275000  9.9666201618  64.1725045033
450  8  -5.9915400000  12.9903781700  64.1725045033
451  4  -7.5000000000  15.8771324027  0.2232257300
452  4  -5.0000000000  14.4337567297  6.5317742700
453  4  -7.5000000000  12.9903810568  4.7265590633
454  4  -7.5000000000  15.8771324027  11.0351076033
455  4  -5.0000000000  14.4337567297  9.2298923967
456  4  -7.5000000000  12.9903810568  2.0284409367
457  4  -5.0000000000  14.4337567297  13.2867742700
458  4  -7.5000000000  15.8771324027  6.9782257300
459  4  -7.5000000000  15.8771324027  4.2801076033
460  4  -7.5000000000  12.9903810568  11.4815590633
461  4  -7.5000000000  12.9903810568  8.7834409367
462  4  -5.0000000000  14.4337567297  2.4748923967
463  8  -6.7457725000  17.1834985267  12.3841711700
464  8  -9.0084600000  15.8771295160  12.3841711700
465  8  -6.7457675000  14.5707691655  12.3841711700
466  8  -4.2457675000  15.7401199670  7.8808288300
467  8  -4.2457725000  13.1273906058  7.8808288300
468  8  -6.5084600000  14.4337596165  7.8808288300
469  8  -6.7457725000  14.2967471807  3.3775045033
470  8  -6.5084600000  17.3205051889  3.3775045033
471  8  -9.2457675000  16.0141448385  3.3775045033
472  8  -5.7542275000  13.1273906058  1.1258288300
473  8  -3.4915400000  14.4337596165  1.1258288300
474  8  -5.7542325000  15.7401199670  1.1258288300
475  8  -8.2542325000  14.5707691655  5.6291711700
476  8  -8.2542275000  17.1834985267  5.6291711700
477  8  -5.9915400000  15.8771295160  5.6291711700
478  8  -5.7542325000  16.0141448385  10.1325045033
479  8  -8.2542275000  14.2967471807  10.1325045033
480  8  -8.4915400000  17.3205051889  10.1325045033
481  4  -7.5000000000  15.8771324027  13.7332257300
482  4  -5.0000000000  14.4337567297  20.0417742700
483  4  -7.5000000000  12.9903810568  18.2365590633
484  4  -7.5000000000  15.8771324027  24.5451076033
485  4  -5.0000000000  14.4337567297  22.7398923967
486  4  -7.5000000000  12.9903810568  15.5384409367
487  4  -5.0000000000  14.4337567297  26.7967742700
488  4  -7.5000000000  15.8771324027  20.4882257300
489  4  -7.5000000000  15.8771324027  17.7901076033
490  4  -7.5000000000  12.9903810568  24.9915590633
491  4  -7.5000000000  12.9903810568  22.2934409367
492  4  -5.0000000000  14.4337567297  15.9848923967
493  8  -6.7457725000  17.1834985267  25.8941711700
494  8  -9.0084600000  15.8771295160  25.8941711700
495  8  -6.7457675000  14.5707691655  25.8941711700
496  8  -4.2457675000  15.7401199670  21.3908288300
497  8  -4.2457725000  13.1273906058  21.3908288300
498  8  -6.5084600000  14.4337596165  21.3908288300
499  8  -6.7457725000  14.2967471807  16.8875045033
500  8  -6.5084600000  17.3205051889  16.8875045033
501  8  -9.2457675000  16.0141448385  16.8875045033
502  8  -5.7542275000  13.1273906058  14.6358288300
503  8  -3.4915400000  14.4337596165  14.6358288300
504  8  -5.7542325000  15.7401199670  14.6358288300
505  8  -8.2542325000  14.5707691655  19.1391711700
506  8  -8.2542275000  17.1834985267  19.1391711700
507  8  -5.9915400000  15.8771295160  19.1391711700
508  8  -5.7542325000  16.0141448385  23.6425045033
509  8  -8.2542275000  14.2967471807  23.6425045033
510  8  -8.4915400000  17.3205051889  23.6425045033
511  4  -7.5000000000  15.8771324027  27.2432257300
512  4  -5.0000000000  14.4337567297  33.5517742700
513  4  -7.5000000000  12.9903810568  31.7465590633
514  4  -7.5000000000  15.8771324027  38.0551076033
515  4  -5.0000000000  14.4337567297  36.2498923967
516  4  -7.5000000000  12.9903810568  29.0484409367
517  4  -5.0000000000  14.4337567297  40.3067742700
518  4  -7.5000000000  15.8771324027  33.9982257300
519  4  -7.5000000000  15.8771324027  31.3001076033
520  4  -7.5000000000  12.9903810568  38.5015590633
521  4  -7.5000000000  12.9903810568  35.8034409367
522  4  -5.0000000000  14.4337567297  29.4948923967
523  8  -6.7457725000  17.1834985267  39.4041711700
524  8  -9.0084600000  15.8771295160  39.4041711700
525  8  -6.7457675000  14.5707691655  39.4041711700
526  8  -4.2457675000  15.7401199670  34.9008288300
527  8  -4.2457725000  13.1273906058  34.9008288300
528  8  -6.5084600000  14.4337596165  34.9008288300
529  8  -6.7457725000  14.2967471807  30.3975045033
530  8  -6.5084600000  17.3205051889  30.3975045033
531  8  -9.2457675000  16.0141448385  30.3975045033
532  8  -5.7542275000  13.1273906058  28.1458288300
533  8  -3.4915400000  14.4337596165  28.1458288300
534  8  -5.7542325000  15.7401199670  28.1458288300
535  8  -8.2542325000  14.5707691655  32.6491711700
536  8  -8.2542275000  17.1834985267  32.6491711700
537  8  -5.9915400000  15.8771295160  32.6491711700
538  8  -5.7542325000  16.0141448385  37.1525045033
539  8  -8.2542275000  14.2967471807  37.1525045033
540  8  -8.4915400000  17.3205051889  37.1525045033
541  4  -7.5000000000  15.8771324027  40.7532257300
542  4  -5.0000000000  14.4337567297  47.0617742700
543  4  -7.5000000000  12.9903810568  45.2565590633
544  4  -7.5000000000  15.8771324027  51.5651076033
545  4  -5.0000000000  14.4337567297  49.7598923967
546  4  -7.5000000000  12.9903810568  42.5584409367
547  4  -5.0000000000  14.4337567297  53.8167742700
548  4  -7.5000000000  15.8771324027  47.5082257300
549  4  -7.5000000000  15.8771324027  44.8101076033
550  4  -7.5000000000  12.9903810568  52.0115590633
551  4  -7.5000000000  12.9903810568  49.3134409367
552  4  -5.0000000000  14.4337567297  43.0048923967
553  8  -6.7457725000  17.1834985267  52.9141711700
554  8  -9.0084600000  15.8771295160  52.9141711700
555  8  -6.7457675000  14.5707691655  52.9141711700
556  8  -4.2457675000  15.7401199670  48.4108288300
557  8  -4.2457725000  13.1273906058  48.4108288300
558  8  -6.5084600000  14.4337596165  48.4108288300
559  8  -6.7457725000  14.2967471807  43.9075045033
560  8  -6.5084600000  17.3205051889  43.9075045033
561  8  -9.2457675000  16.0141448385  43.9075045033
562  8  -5.7542275000  13.1273906058  41.6558288300
563  8  -3.4915400000  14.4337596165  41.6558288300
564  8  -5.7542325000  15.7401199670  41.6558288300
565  8  -8.2542325000  14.5707691655  46.1591711700
566  8  -8.2542275000  17.1834985267  46.1591711700
567  8  -5.9915400000  15.8771295160  46.1591711700
568  8  -5.7542325000  16.0141448385  50.6625045033
569  8  -8.2542275000  14.2967471807  50.6625045033
570  8  -8.4915400000  17.3205051889  50.6625045033
571  4  -7.5000000000  15.8771324027  54.2632257300
572  4  -5.0000000000  14.4337567297  60.5717742700
573  4  -7.5000000000  12.9903810568  58.7665590633
574  4  -7.5000000000  15.8771324027  65.0751076033
575  4  -5.0000000000  14.4337567297  63.2698923967
576  4  -7.5000000000  12.9903810568  56.0684409367
577  4  -5.0000000000  14.4337567297  67.3267742700
578  4  -7.5000000000  15.8771324027  61.0182257300
579  4  -7.5000000000  15.8771324027  58.3201076033
580  4  -7.5000000000  12.9903810568  65.5215590633
581  4  -7.5000000000  12.9903810568  62.8234409367
582  4  -5.0000000000  14.4337567297  56.5148923967
583  8  -6.7457725000  17.1834985267  66.4241711700
584  8  -9.0084600000  15.8771295160  66.4241711700
585  8  -6.7457675000  14.5707691655  66.4241711700
586  8  -4.2457675000  15.7401199670  61.9208288300
587  8  -4.2457725000  13.1273906058  61.9208288300
588  8  -6.5084600000  14.4337596165  61.9208288300
589  8  -6.7457725000  14.2967471807  57.4175045033
590  8  -6.5084600000  17.3205051889  57.4175045033
591  8  -9.2457675000  16.0141448385  57.4175045033
592  8  -5.7542275000  13.1273906058  55.1658288300
593  8  -3.4915400000  14.4337596165  55.1658288300
594  8  -5.7542325000  15.7401199670  55.1658288300
595  8  -8.2542325000  14.5707691655  59.6691711700
596  8  -8.2542275000  17.1834985267  59.6691711700
597  8  -5.9915400000  15.8771295160  59.6691711700
598  8  -5.7542325000  16.0141448385  64.1725045033
599  8  -8.2542275000  14.2967471807  64.1725045033
600  8  -8.4915400000  17.3205051889  64.1725045033
601  4  -10.0000000000  20.2072594216  0.2232257300
602  4  -7.5000000000  18.7638837487  6.5317742700
603  4  -10.0000000000  17.3205080757  4.7265590633
604  4  -10.0000000000  20.2072594216  11.0351076033
605  4  -7.5000000000  18.7638837487  9.2298923967
606  4  -10.0000000000  17.3205080757  2.0284409367
607  4  -7.5000000000  18.7638837487  13.2867742700
608  4  -10.0000000000  20.2072594216  6.9782257300
609  4  -10.0000000000  20.2072594216  4.2801076033
610  4  -10.0000000000  17.3205080757  11.4815590633
611  4  -10.0000000000  17.3205080757  8.7834409367
612  4  -7.5000000000  18.7638837487  2.4748923967
613  8  -9.2457725000  21.5136255456  12.3841711700
614  8  -11.5084600000  20.2072565349  12.3841711700
615  8  -9.2457675000  18.9008961844  12.3841711700
616  8  -6.7457675000  20.0702469859  7.8808288300
617  8  -6.7457725000  17.4575176247  7.8808288300
618  8  -9.0084600000  18.7638866354  7.8808288300
619  8  -9.2457725000  18.6268741997  3.3775045033
620  8  -9.0084600000  21.6506322079  3.3775045033
621  8  -11.7457675000  20.3442718574  3.3775045033
622  8  -8.2542275000  17.4575176247  1.1258288300
623  8  -5.9915400000  18.7638866354  1.1258288300
624  8  -8.2542325000  20.0702469859  1.1258288300
625  8  -10.7542325000  18.9008961844  5.6291711700
626  8  -10.7542275000  21.5136255456  5.6291711700
627  8  -8.4915400000  20.2072565349  5.6291711700
628  8  -8.2542325000  20.3442718574  10.1325045033
629  8  -10.7542275000  18.6268741997  10.1325045033
630  8  -10.9915400000  21.6506322079  10.1325045033
631  4  -10.0000000000  20.2072594216  13.7332257300
632  4  -7.5000000000  18.7638837487  20.0417742700
633  4  -10.0000000000  17.3205080757  18.2365590633
634  4  -10.0000000000  20.2072594216  24.5451076033
635  4  -7.5000000000  18.7638837487  22.7398923967
636  4  -10.0000000000  17.3205080757  15.5384409367
637  4  -7.5000000000  18.7638837487  26.7967742700
638  4  -10.0000000000  20.2072594216  20.4882257300
639  4  -10.0000000000  20.2072594216  17.7901076033
640  4  -10.0000000000  17.3205080757  24.9915590633
641  4  -10.0000000000  17.3205080757  22.2934409367
642  4  -7.5000000000  18.7638837487  15.9848923967
643  8  -9.2457725000  21.5136255456  25.8941711700
644  8  -11.5084600000  20.2072565349  25.8941711700
645  8  -9.2457675000  18.9008961844  25.8941711700
646  8  -6.7457675000  20.0702469859  21.3908288300
647  8  -6.7457725000  17.4575176247  21.3908288300
648  8  -9.0084600000  18.7638866354  21.3908288300
649  8  -9.2457725000  18.6268741997  16.8875045033
650  8  -9.0084600000  21.6506322079  16.8875045033
651  8  -11.7457675000  20.3442718574  16.8875045033
652  8  -8.2542275000  17.4575176247  14.6358288300
653  8  -5.9915400000  18.7638866354  14.6358288300
654  8  -8.2542325000  20.0702469859  14.6358288300
655  8  -10.7542325000  18.9008961844  19.1391711700
656  8  -10.7542275000  21.5136255456  19.1391711700
657  8  -8.4915400000  20.2072565349  19.1391711700
658  8  -8.2542325000  20.3442718574  23.6425045033
659  8  -10.7542275000  18.6268741997  23.6425045033
660  8  -10.9915400000  21.6506322079  23.6425045033
661  4  -10.0000000000  20.2072594216  27.2432257300
662  4  -7.5000000000  18.7638837487  33.5517742700
663  4  -10.0000000000  17.3205080757  31.7465590633
664  4  -10.0000000000  20.2072594216  38.0551076033
665  4  -7.5000000000  18.7638837487  36.2498923967
666  4  -10.0000000000  17.3205080757  29.0484409367
667  4  -7.5000000000  18.7638837487  40.3067742700
668  4  -10.0000000000  20.2072594216  33.9982257300
669  4  -10.0000000000  20.2072594216  31.3001076033
670  4  -10.0000000000  17.3205080757  38.5015590633
671  4  -10.0000000000  17.3205080757  35.8034409367
672  4  -7.5000000000  18.7638837487  29.4948923967
673  8  -9.2457725000  21.5136255456  39.4041711700
674  8  -11.5084600000  20.2072565349  39.4041711700
675  8  -9.2457675000  18.9008961844  39.4041711700
676  8  -6.7457675000  20.0702469859  34.9008288300
677  8  -6.7457725000  17.4575176247  34.9008288300
678  8  -9.0084600000  18.7638866354  34.9008288300
679  8  -9.2457725000  18.6268741997  30.3975045033
680  8  -9.0084600000  21.6506322079  30.3975045033
681  8  -11.7457675000  20.3442718574  30.3975045033
682  8  -8.2542275000  17.4575176247  28.1458288300
683  8  -5.9915400000  18.7638866354  28.1458288300
684  8  -8.2542325000  20.0702469859  28.1458288300
685  8  -10.7542325000  18.9008961844  32.6491711700
686  8  -10.7542275000  21.5136255456  32.6491711700
687  8  -8.4915400000  20.2072565349  32.6491711700
688  8  -8.2542325000  20.3442718574  37.1525045033
689  8  -10.7542275000  18.6268741997  37.1525045033
690  8  -10.9915400000  21.6506322079  37.1525045033
691  4  -10.0000000000  20.2072594216  40.7532257300
692  4  -7.5000000000  18.7638837487  47.0617742700
693  4  -10.0000000000  17.3205080757  45.2565590633
694  4  -10.0000000000  20.2072594216  51.5651076033
695  4  -7.5000000000  18.7638837487  49.7598923967
696  4  -10.0000000000  17.3205080757  42.5584409367
697  4  -7.5000000000  18.7638837487  53.8167742700
698  4  -10.0000000000  20.2072594216  47.5082257300
699  4  -10.0000000000  20.2072594216  44.8101076033
700  4  -10.0000000000  17.3205080757  52.0115590633
701  4  -10.0000000000  17.3205080757  49.3134409367
702  4  -7.5000000000  18.7638837487  43.0048923967
703  8  -9.2457725000  21.5136255456  52.9141711700
704  8  -11.5084600000  20.2072565349  52.9141711700
705  8  -9.2457675000  18.9008961844  52.9141711700
706  8  -6.7457675000  20.0702469859  48.4108288300
707  8  -6.7457725000  17.4575176247  48.4108288300
708  8  -9.0084600000  18.7638866354  48.4108288300
709  8  -9.2457725000  18.6268741997  43.9075045033
710  8  -9.0084600000  21.6506322079  43.9075045033
711  8  -11.7457675000  20.3442718574  43.9075045033
712  8  -8.2542275000  17.4575176247  41.6558288300
713  8  -5.9915400000  18.7638866354  41.6558288300
714  8  -8.2542325000  20.0702469859  41.6558288300
715  8  -10.7542325000  18.9008961844  46.1591711700
716  8  -10.7542275000  21.5136255456  46.1591711700
717  8  -8.4915400000  20.2072565349  46.1591711700
718  8  -8.2542325000  20.3442718574  50.6625045033
719  8  -10.7542275000  18.6268741997  50.6625045033
720  8  -10.9915400000  21.6506322079  50.6625045033
721  4  -10.0000000000  20.2072594216  54.2632257300
722  4  -7.5000000000  18.7638837487  60.5717742700
723  4  -10.0000000000  17.3205080757  58.7665590633
724  4  -10.0000000000  20.2072594216  65.0751076033
725  4  -7.5000000000  18.7638837487  63.2698923967
726  4  -10.0000000000  17.3205080757  56.0684409367
727  4  -7.5000000000  18.7638837487  67.3267742700
728  4  -10.0000000000  20.2072594216  61.0182257300
729  4  -10.0000000000  20.2072594216  58.3201076033
730  4  -10.0000000000  17.3205080757  65.5215590633
731  4  -10.0000000000  17.3205080757  62.8234409367
732  4  -7.5000000000  18.7638837487  56.5148923967
733  8  -9.2457725000  21.5136255456  66.4241711700
734  8  -11.5084600000  20.2072565349  66.4241711700
735  8  -9.2457675000  18.9008961844  66.4241711700
736  8  -6.7457675000  20.0702469859  61.9208288300
737  8  -6.7457725000  17.4575176247  61.9208288300
738  8  -9.0084600000  18.7638866354  61.9208288300
739  8  -9.2457725000  18.6268741997  57.4175045033
740  8  -9.0084600000  21.6506322079  57.4175045033
741  8  -11.7457675000  20.3442718574  57.4175045033
742  8  -8.2542275000  17.4575176247  55.1658288300
743  8  -5.9915400000  18.7638866354  55.1658288300
744  8  -8.2542325000  20.0702469859  55.1658288300
745  8  -10.7542325000  18.9008961844  59.6691711700
746  8  -10.7542275000  21.5136255456  59.6691711700
747  8  -8.4915400000  20.2072565349  59.6691711700
748  8  -8.2542325000  20.3442718574  64.1725045033
749  8  -10.7542275000  18.6268741997  64.1725045033
750  8  -10.9915400000  21.6506322079  64.1725045033
751  4  5.0000000000  2.8867513459  0.2232257300
752  4  7.5000000000  1.4433756730  6.5317742700
753  4  5.0000000000  -0.0000000000  4.7265590633
754  4  5.0000000000  2.8867513459  11.0351076033
755  4  7.5000000000  1.4433756730  9.2298923967
756  4  5.0000000000  -0.0000000000  2.0284409367
757  4  7.5000000000  1.4433756730  13.2867742700
758  4  5.0000000000  2.8867513459  6.9782257300
759  4  5.0000000000  2.8867513459  4.2801076033
760  4  5.0000000000  -0.0000000000  11.4815590633
761  4  5.0000000000  -0.0000000000  8.7834409367
762  4  7.5000000000  1.4433756730  2.4748923967
763  8  5.7542275000  4.1931174699  12.3841711700
764  8  3.4915400000  2.8867484592  12.3841711700
765  8  5.7542325000  1.5803881087  12.3841711700
766  8  8.2542325000  2.7497389102  7.8808288300
767  8  8.2542275000  0.1370095490  7.8808288300
768  8  5.9915400000  1.4433785597  7.8808288300
769  8  5.7542275000  1.3063661240  3.3775045033
770  8  5.9915400000  4.3301241322  3.3775045033
771  8  3.2542325000  3.0237637817  3.3775045033
772  8  6.7457725000  0.1370095490  1.1258288300
773  8  9.0084600000  1.4433785597  1.1258288300
774  8  6.7457675000  2.7497389102  1.1258288300
775  8  4.2457675000  1.5803881087  5.6291711700
776  8  4.2457725000  4.1931174699  5.6291711700
777  8  6.5084600000  2.8867484592  5.6291711700
778  8  6.7457675000  3.0237637817  10.1325045033
779  8  4.2457725000  1.3063661240  10.1325045033
780  8  4.0084600000  4.3301241322  10.1325045033
781  4  5.0000000000  2.8867513459  13.7332257300
782  4  7.5000000000  1.4433756730  20.0417742700
783  4  5.0000000000  -0.0000000000  18.2365590633
784  4  5.0000000000  2.8867513459  24.5451076033
785  4  7.5000000000  1.4433756730  22.7398923967
786  4  5.0000000000  -0.0000000000  15.5384409367
787  4  7.5000000000  1.4433756730  26.7967742700
788  4  5.0000000000  2.8867513459  20.4882257300
789  4  5.0000000000  2.8867513459  17.7901076033
790  4  5.0000000000  -0.0000000000  24.9915590633
791  4  5.0000000000  -0.0000000000  22.2934409367
792  4  7.5000000000  1.4433756730  15.9848923967
793  8  5.7542275000  4.1931174699  25.8941711700
794  8  3.4915400000  2.8867484592  25.8941711700
795  8  5.7542325000  1.5803881087  25.8941711700
796  8  8.2542325000  2.7497389102  21.3908288300
797  8  8.2542275000  0.1370095490  21.3908288300
798  8  5.9915400000  1.4433785597  21.3908288300
799  8  5.7542275000  1.3063661240  16.8875045033
800  8  5.9915400000  4.3301241322  16.8875045033
801  8  3.2542325000  3.0237637817  16.8875045033
802  8  6.7457725000  0.1370095490  14.6358288300
803  8  9.0084600000  1.4433785597  14.6358288300
804  8  6.7457675000  2.7497389102  14.6358288300
805  8  4.2457675000  1.5803881087  19.1391711700
806  8  4.2457725000  4.1931174699  19.1391711700
807  8  6.5084600000  2.8867484592  19.1391711700
808  8  6.7457675000  3.0237637817  23.6425045033
809  8  4.2457725000  1.3063661240  23.6425045033
810  8  4.0084600000  4.3301241322  23.6425045033
811  4  5.0000000000  2.8867513459  27.2432257300
812  4  7.5000000000  1.4433756730  33.5517742700
813  4  5.0000000000  -0.0000000000  31.7465590633
814  4  5.0000000000  2.8867513459  38.0551076033
815  4  7.5000000000  1.4433756730  36.2498923967
816  4  5.0000000000  -0.0000000000  29.0484409367
817  4  7.5000000000  1.4433756730  40.3067742700
818  4  5.0000000000  2.8867513459  33.9982257300
819  4  5.0000000000  2.8867513459  31.3001076033
820  4  5.0000000000  -0.0000000000  38.5015590633
821  4  5.0000000000  -0.0000000000  35.8034409367
822  4  7.5000000000  1.4433756730  29.4948923967
823  8  5.7542275000  4.1931174699  39.4041711700
824  8  3.4915400000  2.8867484592  39.4041711700
825  8  5.7542325000  1.5803881087  39.4041711700
826  8  8.2542325000  2.7497389102  34.9008288300
827  8  8.2542275000  0.1370095490  34.9008288300
828  8  5.9915400000  1.4433785597  34.9008288300
829  8  5.7542275000  1.3063661240  30.3975045033
830  8  5.9915400000  4.3301241322  30.3975045033
831  8  3.2542325000  3.0237637817  30.3975045033
832  8  6.7457725000  0.1370095490  28.1458288300
833  8  9.0084600000  1.4433785597  28.1458288300
834  8  6.7457675000  2.7497389102  28.1458288300
835  8  4.2457675000  1.5803881087  32.6491711700
836  8  4.2457725000  4.1931174699  32.6491711700
837  8  6.5084600000  2.8867484592  32.6491711700
838  8  6.7457675000  3.0237637817  37.1525045033
839  8  4.2457725000  1.3063661240  37.1525045033
840  8  4.0084600000  4.3301241322  37.1525045033
841  4  5.0000000000  2.8867513459  40.7532257300
842  4  7.5000000000  1.4433756730  47.0617742700
843  4  5.0000000000  -0.0000000000  45.2565590633
844  4  5.0000000000  2.8867513459  51.5651076033
845  4  7.5000000000  1.4433756730  49.7598923967
846  4  5.0000000000  -0.0000000000  42.5584409367
847  4  7.5000000000  1.4433756730  53.8167742700
848  4  5.0000000000  2.8867513459  47.5082257300
849  4  5.0000000000  2.8867513459  44.8101076033
850  4  5.0000000000  -0.0000000000  52.0115590633
851  4  5.0000000000  -0.0000000000  49.3134409367
852  4  7.5000000000  1.4433756730  43.0048923967
853  8  5.7542275000  4.1931174699  52.9141711700
854  8  3.4915400000  2.8867484592  52.9141711700
855  8  5.7542325000  1.5803881087  52.9141711700
856  8  8.2542325000  2.7497389102  48.4108288300
857  8  8.2542275000  0.1370095490  48.4108288300
858  8  5.9915400000  1.4433785597  48.4108288300
859  8  5.7542275000  1.3063661240  43.9075045033
860  8  5.9915400000  4.3301241322  43.9075045033
861  8  3.2542325000  3.0237637817  43.9075045033
862  8  6.7457725000  0.1370095490  41.6558288300
863  8  9.0084600000  1.4433785597  41.6558288300
864  8  6.7457675000  2.7497389102  41.6558288300
865  8  4.2457675000  1.5803881087  46.1591711700
866  8  4.2457725000  4.1931174699  46.1591711700
867  8  6.5084600000  2.8867484592  46.1591711700
868  8  6.7457675000  3.0237637817  50.6625045033
869  8  4.2457725000  1.3063661240  50.6625045033
870  8  4.0084600000  4.3301241322  50.6625045033
871  4  5.0000000000  2.8867513459  54.2632257300
872  4  7.5000000000  1.4433756730  60.5717742700
873  4  5.0000000000  -0.0000000000  58.7665590633
874  4  5.0000000000  2.8867513459  65.0751076033
875  4  7.5000000000  1.4433756730  63.2698923967
876  4  5.0000000000  -0.0000000000  56.0684409367
877  4  7.5000000000  1.4433756730  67.3267742700
878  4  5.0000000000  2.8867513459  61.0182257300
879  4  5.0000000000  2.8867513459  58.3201076033
880  4  5.0000000000  -0.0000000000  65.5215590633
881  4  5.0000000000  -0.0000000000  62.8234409367
882  4  7.5000000000  1.4433756730  56.5148923967
883  8  5.7542275000  4.1931174699  66.4241711700
884  8  3.4915400000  2.8867484592  66.4241711700
885  8  5.7542325000  1.5803881087  66.4241711700
886  8  8.2542325000  2.7497389102  61.9208288300
887  8  8.2542275000  0.1370095490  61.9208288300
888  8  5.9915400000  1.4433785597  61.9208288300
889  8  5.7542275000  1.3063661240  57.4175045033
890  8  5.9915400000  4.3301241322  57.4175045033
891  8  3.2542325000  3.0237637817  57.4175045033
892  8  6.7457725000  0.1370095490  55.1658288300
893  8  9.0084600000  1.4433785597  55.1658288300
894  8  6.7457675000  2.7497389102  55.1658288300
895  8  4.2457675000  1.5803881087  59.6691711700
896  8  4.2457725000  4.1931174699  59.6691711700
897  8  6.5084600000  2.8867484592  59.6691711700
898  8  6.7457675000  3.0237637817  64.1725045033
899  8  4.2457725000  1.3063661240  64.1725045033
900  8  4.0084600000  4.3301241322  64.1725045033
901  4  2.5000000000  7.2168783649  0.2232257300
902  4  5.0000000000  5.7735026919  6.5317742700
903  4  2.5000000000  4.3301270189  4.7265590633
904  4  2.5000000000  7.2168783649  11.0351076033
905  4  5.0000000000  5.7735026919  9.2298923967
906  4  2.5000000000  4.3301270189  2.0284409367
907  4  5.0000000000  5.7735026919  13.2867742700
908  4  2.5000000000  7.2168783649  6.9782257300
909  4  2.5000000000  7.2168783649  4.2801076033
910  4  2.5000000000  4.3301270189  11.4815590633
911  4  2.5000000000  4.3301270189  8.7834409367
912  4  5.0000000000  5.7735026919  2.4748923967
913  8  3.2542275000  8.5232444888  12.3841711700
914  8  0.9915400000  7.2168754781  12.3841711700
915  8  3.2542325000  5.9105151277  12.3841711700
916  8  5.7542325000  7.0798659291  7.8808288300
917  8  5.7542275000  4.4671365679  7.8808288300
918  8  3.4915400000  5.7735055786  7.8808288300
919  8  3.2542275000  5.6364931429  3.3775045033
920  8  3.4915400000  8.6602511511  3.3775045033
921  8  0.7542325000  7.3538908006  3.3775045033
922  8  4.2457725000  4.4671365679  1.1258288300
923  8  6.5084600000  5.7735055786  1.1258288300
924  8  4.2457675000  7.0798659291  1.1258288300
925  8  1.7457675000  5.9105151277  5.6291711700
926  8  1.7457725000  8.5232444888  5.6291711700
927  8  4.0084600000  7.2168754781  5.6291711700
928  8  4.2457675000  7.3538908006  10.1325045033
929  8  1.7457725000  5.6364931429  10.1325045033
930  8  1.5084600000  8.6602511511  10.1325045033
931  4  2.5000000000  7.2168783649  13.7332257300
932  4  5.0000000000  5.7735026919  20.0417742700
933  4  2.5000000000  4.3301270189  18.2365590633
934  4  2.5000000000  7.2168783649  24.5451076033
935  4  5.0000000000  5.7735026919  22.7398923967
936  4  2.5000000000  4.3301270189  15.5384409367
937  4  5.0000000000  5.7735026919  26.7967742700
938  4  2.5000000000  7.2168783649  20.4882257300
939  4  2.5000000000  7.2168783649  17.7901076033
940  4  2.5000000000  4.3301270189  24.9915590633
941  4  2.5000000000  4.3301270189  22.2934409367
942  4  5.0000000000  5.7735026919  15.9848923967
943  8  3.2542275000  8.5232444888  25.8941711700
944  8  0.9915400000  7.2168754781  25.8941711700
945  8  3.2542325000  5.9105151277  25.8941711700
946  8  5.7542325000  7.0798659291  21.3908288300
947  8  5.7542275000  4.4671365679  21.3908288300
948  8  3.4915400000  5.7735055786  21.3908288300
949  8  3.2542275000  5.6364931429  16.8875045033
950  8  3.4915400000  8.6602511511  16.8875045033
951  8  0.7542325000  7.3538908006  16.8875045033
952  8  4.2457725000  4.4671365679  14.6358288300
953  8  6.5084600000  5.7735055786  14.6358288300
954  8  4.2457675000  7.0798659291  14.6358288300
955  8  1.7457675000  5.9105151277  19.1391711700
956  8  1.7457725000  8.5232444888  19.1391711700
957  8  4.0084600000  7.2168754781  19.1391711700
958  8  4.2457675000  7.3538908006  23.6425045033
959  8  1.7457725000  5.6364931429  23.6425045033
960  8  1.5084600000  8.6602511511  23.6425045033
961  4  2.5000000000  7.2168783649  27.2432257300
962  4  5.0000000000  5.7735026919  33.5517742700
963  4  2.5000000000  4.3301270189  31.7465590633
964  4  2.5000000000  7.2168783649  38.0551076033
965  4  5.0000000000  5.7735026919  36.2498923967
966  4  2.5000000000  4.3301270189  29.0484409367
967  4  5.0000000000  5.7735026919  40.3067742700
968  4  2.5000000000  7.2168783649  33.9982257300
969  4  2.5000000000  7.2168783649  31.3001076033
970  4  2.5000000000  4.3301270189  38.5015590633
971  4  2.5000000000  4.3301270189  35.8034409367
972  4  5.0000000000  5.7735026919  29.4948923967
973  8  3.2542275000  8.5232444888  39.4041711700
974  8  0.9915400000  7.2168754781  39.4041711700
975  8  3.2542325000  5.9105151277  39.4041711700
976  8  5.7542325000  7.0798659291  34.9008288300
977  8  5.7542275000  4.4671365679  34.9008288300
978  8  3.4915400000  5.7735055786  34.9008288300
979  8  3.2542275000  5.6364931429  30.3975045033
980  8  3.4915400000  8.6602511511  30.3975045033
981  8  0.7542325000  7.3538908006  30.3975045033
982  8  4.2457725000  4.4671365679  28.1458288300
983  8  6.5084600000  5.7735055786  28.1458288300
984  8  4.2457675000  7.0798659291  28.1458288300
985  8  1.7457675000  5.9105151277  32.6491711700
986  8  1.7457725000  8.5232444888  32.6491711700
987  8  4.0084600000  7.2168754781  32.6491711700
988  8  4.2457675000  7.3538908006  37.1525045033
989  8  1.7457725000  5.6364931429  37.1525045033
990  8  1.5084600000  8.6602511511  37.1525045033
991  4  2.5000000000  7.2168783649  40.7532257300
992  4  5.0000000000  5.7735026919  47.0617742700
993  4  2.5000000000  4.3301270189  45.2565590633
994  4  2.5000000000  7.2168783649  51.5651076033
995  4  5.0000000000  5.7735026919  49.7598923967
996  4  2.5000000000  4.3301270189  42.5584409367
997  4  5.0000000000  5.7735026919  53.8167742700
998  4  2.5000000000  7.2168783649  47.5082257300
999  4  2.5000000000  7.2168783649  44.8101076033
1000  4  2.5000000000  4.3301270189  52.0115590633
1001  4  2.5000000000  4.3301270189  49.3134409367
1002  4  5.0000000000  5.7735026919  43.0048923967
1003  8  3.2542275000  8.5232444888  52.9141711700
1004  8  0.9915400000  7.2168754781  52.9141711700
1005  8  3.2542325000  5.9105151277  52.9141711700
1006  8  5.7542325000  7.0798659291  48.4108288300
1007  8  5.7542275000  4.4671365679  48.4108288300
1008  8  3.4915400000  5.7735055786  48.4108288300
1009  8  3.2542275000  5.6364931429  43.9075045033
1010  8  3.4915400000  8.6602511511  43.9075045033
1011  8  0.7542325000  7.3538908006  43.9075045033
1012  8  4.2457725000  4.4671365679  41.6558288300
1013  8  6.5084600000  5.7735055786  41.6558288300
1014  8  4.2457675000  7.0798659291  41.6558288300
1015  8  1.7457675000  5.9105151277  46.1591711700
1016  8  1.7457725000  8.5232444888  46.1591711700
1017  8  4.0084600000  7.2168754781  46.1591711700
1018  8  4.2457675000  7.3538908006  50.6625045033
1019  8  1.7457725000  5.6364931429  50.6625045033
1020  8  1.5084600000  8.6602511511  50.6625045033
1021  4  2.5000000000  7.2168783649  54.2632257300
1022  4  5.0000000000  5.7735026919  60.5717742700
1023  4  2.5000000000  4.3301270189  58.7665590633
1024  4  2.5000000000  7.2168783649  65.0751076033
1025  4  5.0000000000  5.7735026919  63.2698923967
1026  4  2.5000000000  4.3301270189  56.0684409367
1027  4  5.0000000000  5.7735026919  67.3267742700
1028  4  2.5000000000  7.2168783649  61.0182257300
1029  4  2.5000000000  7.2168783649  58.3201076033
1030  4  2.5000000000  4.3301270189  65.5215590633
1031  4  2.5000000000  4.3301270189  62.8234409367
1032  4  5.0000000000  5.7735026919  56.5148923967
1033  8  3.2542275000  8.5232444888  66.4241711700
1034  8  0.9915400000  7.2168754781  66.4241711700
1035  8  3.2542325000  5.9105151277  66.4241711700
1036  8  5.7542325000  7.0798659291  61.9208288300
1037  8  5.7542275000  4.4671365679  61.9208288300
1038  8  3.4915400000  5.7735055786  61.9208288300
1039  8  3.2542275000  5.6364931429  57.4175045033
1040  8  3.4915400000  8.6602511511  57.4175045033
1041  8  0.7542325000  7.3538908006  57.4175045033
1042  8  4.2457725000  4.4671365679  55.1658288300
1043  8  6.5084600000  5.7735055786  55.1658288300
1044  8  4.2457675000  7.0798659291  55.1658288300
1045  8  1.7457675000  5.9105151277  59.6691711700
1046  8  1.7457725000  8.5232444888  59.6691711700
1047  8  4.0084600000  7.2168754781  59.6691711700
1048  8  4.2457675000  7.3538908006  64.1725045033
1049  8  1.7457725000  5.6364931429  64.1725045033
1050  8  1.5084600000  8.6602511511  64.1725045033
1051  4  0.0000000000  11.5470053838  0.2232257300
1052  4  2.5000000000  10.1036297108  6.5317742700
1053  4  0.0000000000  8.6602540378  4.7265590633
1054  4  0.0000000000  11.5470053838  11.0351076033
1055  4  2.5000000000  10.1036297108  9.2298923967
1056  4  0.0000000000  8.6602540378  2.0284409367
1057  4  2.5000000000  10.1036297108  13.2867742700
1058  4  0.0000000000  11.5470053838  6.9782257300
1059  4  0.0000000000  11.5470053838  4.2801076033
1060  4  0.0000000000  8.6602540378  11.4815590633
1061  4  0.0000000000  8.6602540378  8.7834409367
1062  4  2.5000000000  10.1036297108  2.4748923967
1063  8  0.7542275000  12.8533715078  12.3841711700
1064  8  -1.5084600000  11.5470024970  12.3841711700
1065  8  0.7542325000  10.2406421466  12.3841711700
1066  8  3.2542325000  11.4099929480  7.8808288300
1067  8  3.2542275000  8.7972635869  7.8808288300
1068  8  0.9915400000  10.1036325976  7.8808288300
1069  8  0.7542275000  9.9666201618  3.3775045033
1070  8  0.9915400000  12.9903781700  3.3775045033
1071  8  -1.7457675000  11.6840178195  3.3775045033
1072  8  1.7457725000  8.7972635869  1.1258288300
1073  8  4.0084600000  10.1036325976  1.1258288300
1074  8  1.7457675000  11.4099929480  1.1258288300
1075  8  -0.7542325000  10.2406421466  5.6291711700
1076  8  -0.7542275000  12.8533715078  5.6291711700
1077  8  1.5084600000  11.5470024970  5.6291711700
1078  8  1.7457675000  11.6840178195  10.1325045033
1079  8  -0.7542275000  9.9666201618  10.1325045033
1080  8  -0.9915400000  12.9903781700  10.1325045033
1081  4  0.0000000000  11.5470053838  13.7332257300
1082  4  2.5000000000  10.1036297108  20.0417742700
1083  4  0.0000000000  8.6602540378  18.2365590633
1084  4  0.0000000000  11.5470053838  24.5451076033
1085  4  2.5000000000  10.1036297108  22.7398923967
1086  4  0.0000000000  8.6602540378  15.5384409367
1087  4  2.5000000000  10.1036297108  26.7967742700
1088  4  0.0000000000  11.5470053838  20.4882257300
1089  4  0.0000000000  11.5470053838  17.7901076033
1090  4  0.0000000000  8.6602540378  24.9915590633
1091  4  0.0000000000  8.6602540378  22.2934409367
1092  4  2.5000000000  10.1036297108  15.9848923967
1093  8  0.7542275000  12.8533715078  25.8941711700
1094  8  -1.5084600000  11.5470024970  25.8941711700
1095  8  0.7542325000  10.2406421466  25.8941711700
1096  8  3.2542325000  11.4099929480  21.3908288300
1097  8  3.2542275000  8.7972635869  21.3908288300
1098  8  0.9915400000  10.1036325976  21.3908288300
1099  8  0.7542275000  9.9666201618  16.8875045033
1100  8  0.9915400000  12.9903781700  16.8875045033
1101  8  -1.7457675000  11.6840178195  16.8875045033
1102  8  1.7457725000  8.7972635869  14.6358288300
1103  8  4.0084600000  10.1036325976  14.6358288300
1104  8  1.7457675000  11.4099929480  14.6358288300
1105  8  -0.7542325000  10.2406421466  19.1391711700
1106  8  -0.7542275000  12.8533715078  19.1391711700
1107  8  1.5084600000  11.5470024970  19.1391711700
1108  8  1.7457675000  11.6840178195  23.6425045033
1109  8  -0.7542275000  9.9666201618  23.6425045033
1110  8  -0.9915400000  12.9903781700  23.6425045033
1111  4  0.0000000000  11.5470053838  27.2432257300
1112  4  2.5000000000  10.1036297108  33.5517742700
1113  4  0.0000000000  8.6602540378  31.7465590633
1114  4  0.0000000000  11.5470053838  38.0551076033
1115  4  2.5000000000  10.1036297108  36.2498923967
1116  4  0.0000000000  8.6602540378  29.0484409367
1117  4  2.5000000000  10.1036297108  40.3067742700
1118  4  0.0000000000  11.5470053838  33.9982257300
1119  4  0.0000000000  11.5470053838  31.3001076033
1120  4  0.0000000000  8.6602540378  38.5015590633
1121  4  0.0000000000  8.6602540378  35.8034409367
1122  4  2.5000000000  10.1036297108  29.4948923967
1123  8  0.7542275000  12.8533715078  39.4041711700
1124  8  -1.5084600000  11.5470024970  39.4041711700
1125  8  0.7542325000  10.2406421466  39.4041711700
1126  8  3.2542325000  11.4099929480  34.9008288300
1127  8  3.2542275000  8.7972635869  34.9008288300
1128  8  0.9915400000  10.1036325976  34.9008288300
1129  8  0.7542275000  9.9666201618  30.3975045033
1130  8  0.9915400000  12.9903781700  30.3975045033
1131  8  -1.7457675000  11.6840178195  30.3975045033
1132  8  1.7457725000  8.7972635869  28.1458288300
1133  8  4.0084600000  10.1036325976  28.1458288300
1134  8  1.7457675000  11.4099929480  28.1458288300
1135  8  -0.7542325000  10.2406421466  32.6491711700
1136  8  -0.7542275000  12.8533715078  32.6491711700
1137  8  1.5084600000  11.5470024970  32.6491711700
1138  8  1.7457675000  11.6840178195  37.1525045033
1139  8  -0.7542275000  9.9666201618  37.1525045033
1140  8  -0.9915400000  12.9903781700  37.1525045033
1141  4  0.0000000000  11.5470053838  40.7532257300
1142  4  2.5000000000  10.1036297108  47.0617742700
1143  4  0.0000000000  8.6602540378  45.2565590633
1144  4  0.0000000000  11.5470053838  51.5651076033
1145  4  2.5000000000  10.1036297108  49.7598923967
1146  4  0.0000000000  8.6602540378  42.5584409367
1147  4  2.5000000000  10.1036297108  53.8167742700
1148  4  0.0000000000  11.5470053838  47.5082257300
1149  4  0.0000000000  11.5470053838  44.8101076033
1150  4  0.0000000000  8.6602540378  52.0115590633
1151  4  0.0000000000  8.6602540378  49.3134409367
1152  4  2.5000000000  10.1036297108  43.0048923967
1153  8  0.7542275000  12.8533715078  52.9141711700
1154  8  -1.5084600000  11.5470024970  52.9141711700
1155  8  0.7542325000  10.2406421466  52.9141711700
1156  8  3.2542325000  11.4099929480  48.4108288300
1157  8  3.2542275000  8.7972635869  48.4108288300
1158  8  0.9915400000  10.1036325976  48.4108288300
1159  8  0.7542275000  9.9666201618  43.9075045033
1160  8  0.9915400000  12.9903781700  43.9075045033
1161  8  -1.7457675000  11.6840178195  43.9075045033
1162  8  1.7457725000  8.7972635869  41.6558288300
1163  8  4.0084600000  10.1036325976  41.6558288300
1164  8  1.7457675000  11.4099929480  41.6558288300
1165  8  -0.7542325000  10.2406421466  46.1591711700
1166  8  -0.7542275000  12.8533715078  46.1591711700
1167  8  1.5084600000  11.5470024970  46.1591711700
1168  8  1.7457675000  11.6840178195  50.6625045033
1169  8  -0.7542275000  9.9666201618  50.6625045033
1170  8  -0.9915400000  12.9903781700  50.6625045033
1171  4  0.0000000000  11.5470053838  54.2632257300
1172  4  2.5000000000  10.1036297108  60.5717742700
1173  4  0.0000000000  8.6602540378  58.7665590633
1174  4  0.0000000000  11.5470053838  65.0751076033
1175  4  2.5000000000  10.1036297108  63.2698923967
1176  4  0.0000000000  8.6602540378  56.0684409367
1177  4  2.5000000000  10.1036297108  67.3267742700
1178  4  0.0000000000  11.5470053838  61.0182257300
1179  4  0.0000000000  11.5470053838  58.3201076033
1180  4  0.0000000000  8.6602540378  65.5215590633
1181  4  0.0000000000  8.6602540378  62.8234409367
1182  4  2.5000000000  10.1036297108  56.5148923967
1183  8  0.7542275000  12.8533715078  66.4241711700
1184  8  -1.5084600000  11.5470024970  66.4241711700
1185  8  0.7542325000  10.2406421466  66.4241711700
1186  8  3.2542325000  11.4099929480  61.9208288300
1187  8  3.2542275000  8.7972635869  61.9208288300
1188  8  0.9915400000  10.1036325976  61.9208288300
1189  8  0.7542275000  9.9666201618  57.4175045033
1190  8  0.9915400000  12.9903781700  57.4175045033
1191  8  -1.7457675000  11.6840178195  57.4175045033
1192  8  1.7457725000  8.7972635869  55.1658288300
1193  8  4.0084600000  10.1036325976  55.1658288300
1194  8  1.7457675000  11.4099929480  55.1658288300
1195  8  -0.7542325000  10.2406421466  59.6691711700
1196  8  -0.7542275000  12.8533715078  59.6691711700
1197  8  1.5084600000  11.5470024970  59.6691711700
1198  8  1.7457675000  11.6840178195  64.1725045033
1199  8  -0.7542275000  9.9666201618  64.1725045033
1200  8  -0.9915400000  12.9903781700  64.1725045033
1201  4  -2.5000000000  15.8771324027  0.2232257300
1202  4  0.0000000000  14.4337567297  6.5317742700
1203  4  -2.5000000000  12.9903810568  4.7265590633
1204  4  -2.5000000000  15.8771324027  11.0351076033
1205  4  0.0000000000  14.4337567297  9.2298923967
1206  4  -2.5000000000  12.9903810568  2.0284409367
1207  4  0.0000000000  14.4337567297  13.2867742700
1208  4  -2.5000000000  15.8771324027  6.9782257300
1209  4  -2.5000000000  15.8771324027  4.2801076033
1210  4  -2.5000000000  12.9903810568  11.4815590633
1211  4  -2.5000000000  12.9903810568  8.7834409367
1212  4  0.0000000000  14.4337567297  2.4748923967
1213  8  -1.7457725000  17.1834985267  12.3841711700
1214  8  -4.0084600000  15.8771295160  12.3841711700
1215  8  -1.7457675000  14.5707691655  12.3841711700
1216  8  0.7542325000  15.7401199670  7.8808288300
1217  8  0.7542275000  13.1273906058  7.8808288300
1218  8  -1.5084600000  14.4337596165  7.8808288300
1219  8  -1.7457725000  14.2967471807  3.3775045033
1220  8  -1.5084600000  17.3205051889  3.3775045033
1221  8  -4.2457675000  16.0141448385  3.3775045033
1222  8  -0.7542275000  13.1273906058  1.1258288300
1223  8  1.5084600000  14.4337596165  1.1258288300
1224  8  -0.7542325000  15.7401199670  1.1258288300
1225  8  -3.2542325000  14.5707691655  5.6291711700
1226  8  -3.2542275000  17.1834985267  5.6291711700
1227  8  -0.9915400000  15.8771295160  5.6291711700
1228  8  -0.7542325000  16.0141448385  10.1325045033
1229  8  -3.2542275000  14.2967471807  10.1325045033
1230  8  -3.4915400000  17.3205051889  10.1325045033
1231  4  -2.5000000000  15.8771324027  13.7332257300
1232  4  0.0000000000  14.4337567297  20.0417742700
1233  4  -2.5000000000  12.9903810568  18.2365590633
1234  4  -2.5000000000  15.8771324027  24.5451076033
1235  4  0.0000000000  14.4337567297  22.7398923967
1236  4  -2.5000000000  12.9903810568  15.5384409367
1237  4  0.0000000000  14.4337567297  26.7967742700
1238  4  -2.5000000000  15.8771324027  20.4882257300
1239  4  -2.5000000000  15.8771324027  17.7901076033
1240  4  -2.5000000000  12.9903810568  24.9915590633
1241  4  -2.5000000000  12.9903810568  22.2934409367
1242  4  0.0000000000  14.4337567297  15.9848923967
1243  8  -1.7457725000  17.1834985267  25.8941711700
1244  8  -4.0084600000  15.8771295160  25.8941711700
1245  8  -1.7457675000  14.5707691655  25.8941711700
1246  8  0.7542325000  15.7401199670  21.3908288300
1247  8  0.7542275000  13.1273906058  21.3908288300
1248  8  -1.5084600000  14.4337596165  21.3908288300
1249  8  -1.7457725000  14.2967471807  16.8875045033
1250  8  -1.5084600000  17.3205051889  16.8875045033
1251  8  -4.2457675000  16.0141448385  16.8875045033
1252  8  -0.7542275000  13.1273906058  14.6358288300
1253  8  1.5084600000  14.4337596165  14.6358288300
1254  8  -0.7542325000  15.7401199670  14.6358288300
1255  8  -3.2542325000  14.5707691655  19.1391711700
1256  8  -3.2542275000  17.1834985267  19.1391711700
1257  8  -0.9915400000  15.8771295160  19.1391711700
1258  8  -0.7542325000  16.0141448385  23.6425045033
1259  8  -3.2542275000  14.2967471807  23.6425045033
1260  8  -3.4915400000  17.3205051889  23.6425045033
1261  4  -2.5000000000  15.8771324027  27.2432257300
1262  4  0.0000000000  14.4337567297  33.5517742700
1263  4  -2.5000000000  12.9903810568  31.7465590633
1264  4  -2.5000000000  15.8771324027  38.0551076033
1265  4  0.0000000000  14.4337567297  36.2498923967
1266  4  -2.5000000000  12.9903810568  29.0484409367
1267  4  0.0000000000  14.4337567297  40.3067742700
1268  4  -2.5000000000  15.8771324027  33.9982257300
1269  4  -2.5000000000  15.8771324027  31.3001076033
1270  4  -2.5000000000  12.9903810568  38.5015590633
1271  4  -2.5000000000  12.9903810568  35.8034409367
1272  4  0.0000000000  14.4337567297  29.4948923967
1273  8  -1.7457725000  17.1834985267  39.4041711700
1274  8  -4.0084600000  15.8771295160  39.4041711700
1275  8  -1.7457675000  14.5707691655  39.4041711700
1276  8  0.7542325000  15.7401199670  34.9008288300
1277  8  0.7542275000  13.1273906058  34.9008288300
1278  8  -1.5084600000  14.4337596165  34.9008288300
1279  8  -1.7457725000  14.2967471807  30.3975045033
1280  8  -1.5084600000  17.3205051889  30.3975045033
1281  8  -4.2457675000  16.0141448385  30.3975045033
1282  8  -0.7542275000  13.1273906058  28.1458288300
1283  8  1.5084600000  14.4337596165  28.1458288300
1284  8  -0.7542325000  15.7401199670  28.1458288300
1285  8  -3.2542325000  14.5707691655  32.6491711700
1286  8  -3.2542275000  17.1834985267  32.6491711700
1287  8  -0.9915400000  15.8771295160  32.6491711700
1288  8  -0.7542325000  16.0141448385  37.1525045033
1289  8  -3.2542275000  14.2967471807  37.1525045033
1290  8  -3.4915400000  17.3205051889  37.1525045033
1291  4  -2.5000000000  15.8771324027  40.7532257300
1292  4  0.0000000000  14.4337567297  47.0617742700
1293  4  -2.5000000000  12.9903810568  45.2565590633
1294  4  -2.5000000000  15.8771324027  51.5651076033
1295  4  0.0000000000  14.4337567297  49.7598923967
1296  4  -2.5000000000  12.9903810568  42.5584409367
1297  4  0.0000000000  14.4337567297  53.8167742700
1298  4  -2.5000000000  15.8771324027  47.5082257300
1299  4  -2.5000000000  15.8771324027  44.8101076033
1300  4  -2.5000000000  12.9903810568  52.0115590633
1301  4  -2.5000000000  12.9903810568  49.3134409367
1302  4  0.0000000000  14.4337567297  43.0048923967
1303  8  -1.7457725000  17.1834985267  52.9141711700
1304  8  -4.0084600000  15.8771295160  52.9141711700
1305  8  -1.7457675000  14.5707691655  52.9141711700
1306  8  0.7542325000  15.7401199670  48.4108288300
1307  8  0.7542275000  13.1273906058  48.4108288300
1308  8  -1.5084600000  14.4337596165  48.4108288300
1309  8  -1.7457725000  14.2967471807  43.9075045033
1310  8  -1.5084600000  17.3205051889  43.9075045033
1311  8  -4.2457675000  16.0141448385  43.9075045033
1312  8  -0.7542275000  13.1273906058  41.6558288300
1313  8  1.5084600000  14.4337596165  41.6558288300
1314  8  -0.7542325000  15.7401199670  41.6558288300
1315  8  -3.2542325000  14.5707691655  46.1591711700
1316  8  -3.2542275000  17.1834985267  46.1591711700
1317  8  -0.9915400000  15.8771295160  46.1591711700
1318  8  -0.7542325000  16.0141448385  50.6625045033
1319  8  -3.2542275000  14.2967471807  50.6625045033
1320  8  -3.4915400000  17.3205051889  50.6625045033
1321  4  -2.5000000000  15.8771324027  54.2632257300
1322  4  0.0000000000  14.4337567297  60.5717742700
1323  4  -2.5000000000  12.9903810568  58.7665590633
1324  4  -2.5000000000  15.8771324027  65.0751076033
1325  4  0.0000000000  14.4337567297  63.2698923967
1326  4  -2.5000000000  12.9903810568  56.0684409367
1327  4  0.0000000000  14.4337567297  67.3267742700
1328  4  -2.5000000000  15.8771324027  61.0182257300
1329  4  -2.5000000000  15.8771324027  58.3201076033
1330  4  -2.5000000000  12.9903810568  65.5215590633
1331  4  -2.5000000000  12.9903810568  62.8234409367
1332  4  0.0000000000  14.4337567297  56.5148923967
1333  8  -1.7457725000  17.1834985267  66.4241711700
1334  8  -4.0084600000  15.8771295160  66.4241711700
1335  8  -1.7457675000  14.5707691655  66.4241711700
1336  8  0.7542325000  15.7401199670  61.9208288300
1337  8  0.7542275000  13.1273906058  61.9208288300
1338  8  -1.5084600000  14.4337596165  61.9208288300
1339  8  -1.7457725000  14.2967471807  57.4175045033
1340  8  -1.5084600000  17.3205051889  57.4175045033
1341  8  -4.2457675000  16.0141448385  57.4175045033
1342  8  -0.7542275000  13.1273906058  55.1658288300
1343  8  1.5084600000  14.4337596165  55.1658288300
1344  8  -0.7542325000  15.7401199670  55.1658288300
1345  8  -3.2542325000  14.5707691655  59.6691711700
1346  8  -3.2542275000  17.1834985267  59.6691711700
1347  8  -0.9915400000  15.8771295160  59.6691711700
1348  8  -0.7542325000  16.0141448385  64.1725045033
1349  8  -3.2542275000  14.2967471807  64.1725045033
1350  8  -3.4915400000  17.3205051889  64.1725045033
1351  4  -5.0000000000  20.2072594216  0.2232257300
1352  4  -2.5000000000  18.7638837487  6.5317742700
1353  4  -5.0000000000  17.3205080757  4.7265590633
1354  4  -5.0000000000  20.2072594216  11.0351076033
1355  4  -2.5000000000  18.7638837487  9.2298923967
1356  4  -5.0000000000  17.3205080757  2.0284409367
1357  4  -2.5000000000  18.7638837487  13.2867742700
1358  4  -5.0000000000  20.2072594216  6.9782257300
1359  4  -5.0000000000  20.2072594216  4.2801076033
1360  4  -5.0000000000  17.3205080757  11.4815590633
1361  4  -5.0000000000  17.3205080757  8.7834409367
1362  4  -2.5000000000  18.7638837487  2.4748923967
1363  8  -4.2457725000  21.5136255456  12.3841711700
1364  8  -6.5084600000  20.2072565349  12.3841711700
1365  8  -4.2457675000  18.9008961844  12.3841711700
1366  8  -1.7457675000  20.0702469859  7.8808288300
1367  8  -1.7457725000  17.4575176247  7.8808288300
1368  8  -4.0084600000  18.7638866354  7.8808288300
1369  8  -4.2457725000  18.6268741997  3.3775045033
1370  8  -4.0084600000  21.6506322079  3.3775045033
1371  8  -6.7457675000  20.3442718574  3.3775045033
1372  8  -3.2542275000  17.4575176247  1.1258288300
1373  8  -0.9915400000  18.7638866354  1.1258288300
1374  8  -3.2542325000  20.0702469859  1.1258288300
1375  8  -5.7542325000  18.9008961844  5.6291711700
1376  8  -5.7542275000  21.5136255456  5.6291711700
1377  8  -3.4915400000  20.2072565349  5.6291711700
1378  8  -3.2542325000  20.3442718574  10.1325045033
1379  8  -5.7542275000  18.6268741997  10.1325045033
1380  8  -5.9915400000  21.6506322079  10.1325045033
1381  4  -5.0000000000  20.2072594216  13.7332257300
1382  4  -2.5000000000  18.7638837487  20.0417742700
1383  4  -5.0000000000  17.3205080757  18.2365590633
1384  4  -5.0000000000  20.2072594216  24.5451076033
1385  4  -2.5000000000  18.7638837487  22.7398923967
1386  4  -5.0000000000  17.3205080757  15.5384409367
1387  4  -2.5000000000  18.7638837487  26.7967742700
1388  4  -5.0000000000  20.2072594216  20.4882257300
1389  4  -5.0000000000  20.2072594216  17.7901076033
1390  4  -5.0000000000  17.3205080757  24.9915590633
1391  4  -5.0000000000  17.3205080757  22.2934409367
1392  4  -2.5000000000  18.7638837487  15.9848923967
1393  8  -4.2457725000  21.5136255456  25.8941711700
1394  8  -6.5084600000  20.2072565349  25.8941711700
1395  8  -4.2457675000  18.9008961844  25.8941711700
1396  8  -1.7457675000  20.0702469859  21.3908288300
1397  8  -1.7457725000  17.4575176247  21.3908288300
1398  8  -4.0084600000  18.7638866354  21.3908288300
1399  8  -4.2457725000  18.6268741997  16.8875045033
1400  8  -4.0084600000  21.6506322079  16.8875045033
1401  8  -6.7457675000  20.3442718574  16.8875045033
1402  8  -3.2542275000  17.4575176247  14.6358288300
1403  8  -0.9915400000  18.7638866354  14.6358288300
1404  8  -3.2542325000  20.0702469859  14.6358288300
1405  8  -5.7542325000  18.9008961844  19.1391711700
1406  8  -5.7542275000  21.5136255456  19.1391711700
1407  8  -3.4915400000  20.2072565349  19.1391711700
1408  8  -3.2542325000  20.3442718574  23.6425045033
1409  8  -5.7542275000  18.6268741997  23.6425045033
1410  8  -5.9915400000  21.6506322079  23.6425045033
1411  4  -5.0000000000  20.2072594216  27.2432257300
1412  4  -2.5000000000  18.7638837487  33.5517742700
1413  4  -5.0000000000  17.3205080757  31.7465590633
1414  4  -5.0000000000  20.2072594216  38.0551076033
1415  4  -2.5000000000  18.7638837487  36.2498923967
1416  4  -5.0000000000  17.3205080757  29.0484409367
1417  4  -2.5000000000  18.7638837487  40.3067742700
1418  4  -5.0000000000  20.2072594216  33.9982257300
1419  4  -5.0000000000  20.2072594216  31.3001076033
1420  4  -5.0000000000  17.3205080757  38.5015590633
1421  4  -5.0000000000  17.3205080757  35.8034409367
1422  4  -2.5000000000  18.7638837487  29.4948923967
1423  8  -4.2457725000  21.5136255456  39.4041711700
1424  8  -6.5084600000  20.2072565349  39.4041711700
1425  8  -4.2457675000  18.9008961844  39.4041711700
1426  8  -1.7457675000  20.0702469859  34.9008288300
1427  8  -1.7457725000  17.4575176247  34.9008288300
1428  8  -4.0084600000  18.7638866354  34.9008288300
1429  8  -4.2457725000  18.6268741997  30.3975045033
1430  8  -4.0084600000  21.6506322079  30.3975045033
1431  8  -6.7457675000  20.3442718574  30.3975045033
1432  8  -3.2542275000  17.4575176247  28.1458288300
1433  8  -0.9915400000  18.7638866354  28.1458288300
1434  8  -3.2542325000  20.0702469859  28.1458288300
1435  8  -5.7542325000  18.9008961844  32.6491711700
1436  8  -5.7542275000  21.5136255456  32.6491711700
1437  8  -3.4915400000  20.2072565349  32.6491711700
1438  8  -3.2542325000  20.3442718574  37.1525045033
1439  8  -5.7542275000  18.6268741997  37.1525045033
1440  8  -5.9915400000  21.6506322079  37.1525045033
1441  4  -5.0000000000  20.2072594216  40.7532257300
1442  4  -2.5000000000  18.7638837487  47.0617742700
1443  4  -5.0000000000  17.3205080757  45.2565590633
1444  4  -5.0000000000  20.2072594216  51.5651076033
1445  4  -2.5000000000  18.7638837487  49.7598923967
1446  4  -5.0000000000  17.3205080757  42.5584409367
1447  4  -2.5000000000  18.7638837487  53.8167742700
1448  4  -5.0000000000  20.2072594216  47.5082257300
1449  4  -5.0000000000  20.2072594216  44.8101076033
1450  4  -5.0000000000  17.3205080757  52.0115590633
1451  4  -5.0000000000  17.3205080757  49.3134409367
1452  4  -2.5000000000  18.7638837487  43.0048923967
1453  8  -4.2457725000  21.5136255456  52.9141711700
1454  8  -6.5084600000  20.2072565349  52.9141711700
1455  8  -4.2457675000  18.9008961844  52.9141711700
1456  8  -1.7457675000  20.0702469859  48.4108288300
1457  8  -1.7457725000  17.4575176247  48.4108288300
1458  8  -4.0084600000  18.7638866354  48.4108288300
1459  8  -4.2457725000  18.6268741997  43.9075045033
1460  8  -4.0084600000  21.6506322079  43.9075045033
1461  8  -6.7457675000  20.3442718574  43.9075045033
1462  8  -3.2542275000  17.4575176247  41.6558288300
1463  8  -0.9915400000  18.7638866354  41.6558288300
1464  8  -3.2542325000  20.0702469859  41.6558288300
1465  8  -5.7542325000  18.9008961844  46.1591711700
1466  8  -5.7542275000  21.5136255456  46.1591711700
1467  8  -3.4915400000  20.2072565349  46.1591711700
1468  8  -3.2542325000  20.3442718574  50.6625045033
1469  8  -5.7542275000  18.6268741997  50.6625045033
1470  8  -5.9915400000  21.6506322079  50.6625045033
1471  4  -5.0000000000  20.2072594216  54.2632257300
1472  4  -2.5000000000  18.7638837487  60.5717742700
1473  4  -5.0000000000  17.3205080757  58.7665590633
1474  4  -5.0000000000  20.2072594216  65.0751076033
1475  4  -2.5000000000  18.7638837487  63.2698923967
1476  4  -5.0000000000  17.3205080757  56.0684409367
1477  4  -2.5000000000  18.7638837487  67.3267742700
1478  4  -5.0000000000  20.2072594216  61.0182257300
1479  4  -5.0000000000  20.2072594216  58.3201076033
1480  4  -5.0000000000  17.3205080757  65.5215590633
1481  4  -5.0000000000  17.3205080757  62.8234409367
1482  4  -2.5000000000  18.7638837487  56.5148923967
1483  8  -4.2457725000  21.5136255456  66.4241711700
1484  8  -6.5084600000  20.2072565349  66.4241711700
1485  8  -4.2457675000  18.9008961844  66.4241711700
1486  8  -1.7457675000  20.0702469859  61.9208288300
1487  8  -1.7457725000  17.4575176247  61.9208288300
1488  8  -4.0084600000  18.7638866354  61.9208288300
1489  8  -4.2457725000  18.6268741997  57.4175045033
1490  8  -4.0084600000  21.6506322079  57.4175045033
1491  8  -6.7457675000  20.3442718574  57.4175045033
1492  8  -3.2542275000  17.4575176247  55.1658288300
1493  8  -0.9915400000  18.7638866354  55.1658288300
1494  8  -3.2542325000  20.0702469859  55.1658288300
1495  8  -5.7542325000  18.9008961844  59.6691711700
1496  8  -5.7542275000  21.5136255456  59.6691711700
1497  8  -3.4915400000  20.2072565349  59.6691711700
1498  8  -3.2542325000  20.3442718574  64.1725045033
1499  8  -5.7542275000  18.6268741997  64.1725045033
1500  8  -5.9915400000  21.6506322079  64.1725045033
1501  4  10.0000000000  2.8867513459  0.2232257300
1502  4  12.5000000000  1.4433756730  6.5317742700
1503  4  10.0000000000  -0.0000000000  4.7265590633
1504  4  10.0000000000  2.8867513459  11.0351076033
1505  4  12.5000000000  1.4433756730  9.2298923967
1506  4  10.0000000000  -0.0000000000  2.0284409367
1507  4  12.5000000000  1.4433756730  13.2867742700
1508  4  10.0000000000  2.8867513459  6.9782257300
1509  4  10.0000000000  2.8867513459  4.2801076033
1510  4  10.0000000000  -0.0000000000  11.4815590633
1511  4  10.0000000000  -0.0000000000  8.7834409367
1512  4  12.5000000000  1.4433756730  2.4748923967
1513  8  10.7542275000  4.1931174699  12.3841711700
1514  8  8.4915400000  2.8867484592  12.3841711700
1515  8  10.7542325000  1.5803881087  12.3841711700
1516  8  13.2542325000  2.7497389102  7.8808288300
1517  8  13.2542275000  0.1370095490  7.8808288300
1518  8  10.9915400000  1.4433785597  7.8808288300
1519  8  10.7542275000  1.3063661240  3.3775045033
1520  8  10.9915400000  4.3301241322  3.3775045033
1521  8  8.2542325000  3.0237637817  3.3775045033
1522  8  11.7457725000  0.1370095490  1.1258288300
1523  8  14.0084600000  1.4433785597  1.1258288300
1524  8  11.7457675000  2.7497389102  1.1258288300
1525  8  9.2457675000  1.5803881087  5.6291711700
1526  8  9.2457725000  4.1931174699  5.6291711700
1527  8  11.5084600000  2.8867484592  5.6291711700
1528  8  11.7457675000  3.0237637817  10.1325045033
1529  8  9.2457725000  1.3063661240  10.1325045033
1530  8  9.0084600000  4.3301241322  10.1325045033
1531  4  10.0000000000  2.8867513459  13.7332257300
1532  4  12.5000000000  1.4433756730  20.0417742700
1533  4  10.0000000000  -0.0000000000  18.2365590633
1534  4  10.0000000000  2.8867513459  24.5451076033
1535  4  12.5000000000  1.4433756730  22.7398923967
1536  4  10.0000000000  -0.0000000000  15.5384409367
1537  4  12.5000000000  1.4433756730  26.7967742700
1538  4  10.0000000000  2.8867513459  20.4882257300
1539  4  10.0000000000  2.8867513459  17.7901076033
1540  4  10.0000000000  -0.0000000000  24.9915590633
1541  4  10.0000000000  -0.0000000000  22.2934409367
1542  4  12.5000000000  1.4433756730  15.9848923967
1543  8  10.7542275000  4.1931174699  25.8941711700
1544  8  8.4915400000  2.8867484592  25.8941711700
1545  8  10.7542325000  1.5803881087  25.8941711700
1546  8  13.2542325000  2.7497389102  21.3908288300
1547  8  13.2542275000  0.1370095490  21.3908288300
1548  8  10.9915400000  1.4433785597  21.3908288300
1549  8  10.7542275000  1.3063661240  16.8875045033
1550  8  10.9915400000  4.3301241322  16.8875045033
1551  8  8.2542325000  3.0237637817  16.8875045033
1552  8  11.7457725000  0.1370095490  14.6358288300
1553  8  14.0084600000  1.4433785597  14.6358288300
1554  8  11.7457675000  2.7497389102  14.6358288300
1555  8  9.2457675000  1.5803881087  19.1391711700
1556  8  9.2457725000  4.1931174699  19.1391711700
1557  8  11.5084600000  2.8867484592  19.1391711700
1558  8  11.7457675000  3.0237637817  23.6425045033
1559  8  9.2457725000  1.3063661240  23.6425045033
1560  8  9.0084600000  4.3301241322  23.6425045033
1561  4  10.0000000000  2.8867513459  27.2432257300
1562  4  12.5000000000  1.4433756730  33.5517742700
1563  4  10.0000000000  -0.0000000000  31.7465590633
1564  4  10.0000000000  2.8867513459  38.0551076033
1565  4  12.5000000000  1.4433756730  36.2498923967
1566  4  10.0000000000  -0.0000000000  29.0484409367
1567  4  12.5000000000  1.4433756730  40.3067742700
1568  4  10.0000000000  2.8867513459  33.9982257300
1569  4  10.0000000000  2.8867513459  31.3001076033
1570  4  10.0000000000  -0.0000000000  38.5015590633
1571  4  10.0000000000  -0.0000000000  35.8034409367
1572  4  12.5000000000  1.4433756730  29.4948923967
1573  8  10.7542275000  4.1931174699  39.4041711700
1574  8  8.4915400000  2.8867484592  39.4041711700
1575  8  10.7542325000  1.5803881087  39.4041711700
1576  8  13.2542325000  2.7497389102  34.9008288300
1577  8  13.2542275000  0.1370095490  34.9008288300
1578  8  10.9915400000  1.4433785597  34.9008288300
1579  8  10.7542275000  1.3063661240  30.3975045033
1580  8  10.9915400000  4.3301241322  30.3975045033
1581  8  8.2542325000  3.0237637817  30.3975045033
1582  8  11.7457725000  0.1370095490  28.1458288300
1583  8  14.0084600000  1.4433785597  28.1458288300
1584  8  11.7457675000  2.7497389102  28.1458288300
1585  8  9.2457675000  1.5803881087  32.6491711700
1586  8  9.2457725000  4.1931174699  32.6491711700
1587  8  11.5084600000  2.8867484592  32.6491711700
1588  8  11.7457675000  3.0237637817  37.1525045033
1589  8  9.2457725000  1.3063661240  37.1525045033
1590  8  9.0084600000  4.3301241322  37.1525045033
1591  4  10.0000000000  2.8867513459  40.7532257300
1592  4  12.5000000000  1.4433756730  47.0617742700
1593  4  10.0000000000  -0.0000000000  45.2565590633
1594  4  10.0000000000  2.8867513459  51.5651076033
1595  4  12.5000000000  1.4433756730  49.7598923967
1596  4  10.0000000000  -0.0000000000  42.5584409367
1597  4  12.5000000000  1.4433756730  53.8167742700
1598  4  10.0000000000  2.8867513459  47.5082257300
1599  4  10.0000000000  2.8867513459  44.8101076033
1600  4  10.0000000000  -0.0000000000  52.0115590633
1601  4  10.0000000000  -0.0000000000  49.3134409367
1602  4  12.5000000000  1.4433756730  43.0048923967
1603  8  10.7542275000  4.1931174699  52.9141711700
1604  8  8.4915400000  2.8867484592  52.9141711700
1605  8  10.7542325000  1.5803881087  52.9141711700
1606  8  13.2542325000  2.7497389102  48.4108288300
1607  8  13.2542275000  0.1370095490  48.4108288300
1608  8  10.9915400000  1.4433785597  48.4108288300
1609  8  10.7542275000  1.3063661240  43.9075045033
1610  8  10.9915400000  4.3301241322  43.9075045033
1611  8  8.2542325000  3.0237637817  43.9075045033
1612  8  11.7457725000  0.1370095490  41.6558288300
1613  8  14.0084600000  1.4433785597  41.6558288300
1614  8  11.7457675000  2.7497389102  41.6558288300
1615  8  9.2457675000  1.5803881087  46.1591711700
1616  8  9.2457725000  4.1931174699  46.1591711700
1617  8  11.5084600000  2.8867484592  46.1591711700
1618  8  11.7457675000  3.0237637817  50.6625045033
1619  8  9.2457725000  1.3063661240  50.6625045033
1620  8  9.0084600000  4.3301241322  50.6625045033
1621  4  10.0000000000  2.8867513459  54.2632257300
1622  4  12.5000000000  1.4433756730  60.5717742700
1623  4  10.0000000000  -0.0000000000  58.7665590633
1624  4  10.0000000000  2.8867513459  65.0751076033
1625  4  12.5000000000  1.4433756730  63.2698923967
1626  4  10.0000000000  -0.0000000000  56.0684409367
1627  4  12.5000000000  1.4433756730  67.3267742700
1628  4  10.0000000000  2.8867513459  61.0182257300
1629  4  10.0000000000  2.8867513459  58.3201076033
1630  4  10.0000000000  -0.0000000000  65.5215590633
1631  4  10.0000000000  -0.0000000000  62.8234409367
1632  4  12.5000000000  1.4433756730  56.5148923967
1633  8  10.7542275000  4.1931174699  66.4241711700
1634  8  8.4915400000  2.8867484592  66.4241711700
1635  8  10.7542325000  1.5803881087  66.4241711700
1636  8  13.2542325000  2.7497389102  61.9208288300
1637  8  13.2542275000  0.1370095490  61.9208288300
1638  8  10.9915400000  1.4433785597  61.9208288300
1639  8  10.7542275000  1.3063661240  57.4175045033
1640  8  10.9915400000  4.3301241322  57.4175045033
1641  8  8.2542325000  3.0237637817  57.4175045033
1642  8  11.7457725000  0.1370095490  55.1658288300
1643  8  14.0084600000  1.4433785597  55.1658288300
1644  8  11.7457675000  2.7497389102  55.1658288300
1645  8  9.2457675000  1.5803881087  59.6691711700
1646  8  9.2457725000  4.1931174699  59.6691711700
1647  8  11.5084600000  2.8867484592  59.6691711700
1648  8  11.7457675000  3.0237637817  64.1725045033
1649  8  9.2457725000  1.3063661240  64.1725045033
1650  8  9.0084600000  4.3301241322  64.1725045033
1651  4  7.5000000000  7.2168783649  0.2232257300
1652  4  10.0000000000  5.7735026919  6.5317742700
1653  4  7.5000000000  4.3301270189  4.7265590633
1654  4  7.5000000000  7.2168783649  11.0351076033
1655  4  10.0000000000  5.7735026919  9.2298923967
1656  4  7.5000000000  4.3301270189  2.0284409367
1657  4  10.0000000000  5.7735026919  13.2867742700
1658  4  7.5000000000  7.2168783649  6.9782257300
1659  4  7.5000000000  7.2168783649  4.2801076033
1660  4  7.5000000000  4.3301270189  11.4815590633
1661  4  7.5000000000  4.3301270189  8.7834409367
1662  4  10.0000000000  5.7735026919  2.4748923967
1663  8  8.2542275000  8.5232444888  12.3841711700
1664  8  5.9915400000  7.2168754781  12.3841711700
1665  8  8.2542325000  5.9105151277  12.3841711700
1666  8  10.7542325000  7.0798659291  7.8808288300
1667  8  10.7542275000  4.4671365679  7.8808288300
1668  8  8.4915400000  5.7735055786  7.8808288300
1669  8  8.2542275000  5.6364931429  3.3775045033
1670  8  8.4915400000  8.6602511511  3.3775045033
1671  8  5.7542325000  7.3538908006  3.3775045033
1672  8  9.2457725000  4.4671365679  1.1258288300
1673  8  11.5084600000  5.7735055786  1.1258288300
1674  8  9.2457675000  7.0798659291  1.1258288300
1675  8  6.7457675000  5.9105151277  5.6291711700
1676  8  6.7457725000  8.5232444888  5.6291711700
1677  8  9.0084600000  7.2168754781  5.6291711700
1678  8  9.2457675000  7.3538908006  10.1325045033
1679  8  6.7457725000  5.6364931429  10.1325045033
1680  8  6.5084600000  8.6602511511  10.1325045033
1681  4  7.5000000000  7.2168783649  13.7332257300
1682  4  10.0000000000  5.7735026919  20.0417742700
1683  4  7.5000000000  4.3301270189  18.2365590633
1684  4  7.5000000000  7.2168783649  24.5451076033
1685  4  10.0000000000  5.7735026919  22.7398923967
1686  4  7.5000000000  4.3301270189  15.5384409367
1687  4  10.0000000000  5.7735026919  26.7967742700
1688  4  7.5000000000  7.2168783649  20.4882257300
1689  4  7.5000000000  7.2168783649  17.7901076033
1690  4  7.5000000000  4.3301270189  24.9915590633
1691  4  7.5000000000  4.3301270189  22.2934409367
1692  4  10.0000000000  5.7735026919  15.9848923967
1693  8  8.2542275000  8.5232444888  25.8941711700
1694  8  5.9915400000  7.2168754781  25.8941711700
1695  8  8.2542325000  5.9105151277  25.8941711700
1696  8  10.7542325000  7.0798659291  21.3908288300
1697  8  10.7542275000  4.4671365679  21.3908288300
1698  8  8.4915400000  5.7735055786  21.3908288300
1699  8  8.2542275000  5.6364931429  16.8875045033
1700  8  8.4915400000  8.6602511511  16.8875045033
1701  8  5.7542325000  7.3538908006  16.8875045033
1702  8  9.2457725000  4.4671365679  14.6358288300
1703  8  11.5084600000  5.7735055786  14.6358288300
1704  8  9.2457675000  7.0798659291  14.6358288300
1705  8  6.7457675000  5.9105151277  19.1391711700
1706  8  6.7457725000  8.5232444888  19.1391711700
1707  8  9.0084600000  7.2168754781  19.1391711700
1708  8  9.2457675000  7.3538908006  23.6425045033
1709  8  6.7457725000  5.6364931429  23.6425045033
1710  8  6.5084600000  8.6602511511  23.6425045033
1711  4  7.5000000000  7.2168783649  27.2432257300
1712  4  10.0000000000  5.7735026919  33.5517742700
1713  4  7.5000000000  4.3301270189  31.7465590633
1714  4  7.5000000000  7.2168783649  38.0551076033
1715  4  10.0000000000  5.7735026919  36.2498923967
1716  4  7.5000000000  4.3301270189  29.0484409367
1717  4  10.0000000000  5.7735026919  40.3067742700
1718  4  7.5000000000  7.2168783649  33.9982257300
1719  4  7.5000000000  7.2168783649  31.3001076033
1720  4  7.5000000000  4.3301270189  38.5015590633
1721  4  7.5000000000  4.3301270189  35.8034409367
1722  4  10.0000000000  5.7735026919  29.4948923967
1723  8  8.2542275000  8.5232444888  39.4041711700
1724  8  5.9915400000  7.2168754781  39.4041711700
1725  8  8.2542325000  5.9105151277  39.4041711700
1726  8  10.7542325000  7.0798659291  34.9008288300
1727  8  10.7542275000  4.4671365679  34.9008288300
1728  8  8.4915400000  5.7735055786  34.9008288300
1729  8  8.2542275000  5.6364931429  30.3975045033
1730  8  8.4915400000  8.6602511511  30.3975045033
1731  8  5.7542325000  7.3538908006  30.3975045033
1732  8  9.2457725000  4.4671365679  28.1458288300
1733  8  11.5084600000  5.7735055786  28.1458288300
1734  8  9.2457675000  7.0798659291  28.1458288300
1735  8  6.7457675000  5.9105151277  32.6491711700
1736  8  6.7457725000  8.5232444888  32.6491711700
1737  8  9.0084600000  7.2168754781  32.6491711700
1738  8  9.2457675000  7.3538908006  37.1525045033
1739  8  6.7457725000  5.6364931429  37.1525045033
1740  8  6.5084600000  8.6602511511  37.1525045033
1741  4  7.5000000000  7.2168783649  40.7532257300
1742  4  10.0000000000  5.7735026919  47.0617742700
1743  4  7.5000000000  4.3301270189  45.2565590633
1744  4  7.5000000000  7.2168783649  51.5651076033
1745  4  10.0000000000  5.7735026919  49.7598923967
1746  4  7.5000000000  4.3301270189  42.5584409367
1747  4  10.0000000000  5.7735026919  53.8167742700
1748  4  7.5000000000  7.2168783649  47.5082257300
1749  4  7.5000000000  7.2168783649  44.8101076033
1750  4  7.5000000000  4.3301270189  52.0115590633
1751  4  7.5000000000  4.3301270189  49.3134409367
1752  4  10.0000000000  5.7735026919  43.0048923967
1753  8  8.2542275000  8.5232444888  52.9141711700
1754  8  5.9915400000  7.2168754781  52.9141711700
1755  8  8.2542325000  5.9105151277  52.9141711700
1756  8  10.7542325000  7.0798659291  48.4108288300
1757  8  10.7542275000  4.4671365679  48.4108288300
1758  8  8.4915400000  5.7735055786  48.4108288300
1759  8  8.2542275000  5.6364931429  43.9075045033
1760  8  8.4915400000  8.6602511511  43.9075045033
1761  8  5.7542325000  7.3538908006  43.9075045033
1762  8  9.2457725000  4.4671365679  41.6558288300
1763  8  11.5084600000  5.7735055786  41.6558288300
1764  8  9.2457675000  7.0798659291  41.6558288300
1765  8  6.7457675000  5.9105151277  46.1591711700
1766  8  6.7457725000  8.5232444888  46.1591711700
1767  8  9.0084600000  7.2168754781  46.1591711700
1768  8  9.2457675000  7.3538908006  50.6625045033
1769  8  6.7457725000  5.6364931429  50.6625045033
1770  8  6.5084600000  8.6602511511  50.6625045033
1771  4  7.5000000000  7.2168783649  54.2632257300
1772  4  10.0000000000  5.7735026919  60.5717742700
1773  4  7.5000000000  4.3301270189  58.7665590633
1774  4  7.5000000000  7.2168783649  65.0751076033
1775  4  10.0000000000  5.7735026919  63.2698923967
1776  4  7.5000000000  4.3301270189  56.0684409367
1777  4  10.0000000000  5.7735026919  67.3267742700
1778  4  7.5000000000  7.2168783649  61.0182257300
1779  4  7.5000000000  7.2168783649  58.3201076033
1780  4  7.5000000000  4.3301270189  65.5215590633
1781  4  7.5000000000  4.3301270189  62.8234409367
1782  4  10.0000000000  5.7735026919  56.5148923967
1783  8  8.2542275000  8.5232444888  66.4241711700
1784  8  5.9915400000  7.2168754781  66.4241711700
1785  8  8.2542325000  5.9105151277  66.4241711700
1786  8  10.7542325000  7.0798659291  61.9208288300
1787  8  10.7542275000  4.4671365679  61.9208288300
1788  8  8.4915400000  5.7735055786  61.9208288300
1789  8  8.2542275000  5.6364931429  57.4175045033
1790  8  8.4915400000  8.6602511511  57.4175045033
1791  8  5.7542325000  7.3538908006  57.4175045033
1792  8  9.2457725000  4.4671365679  55.1658288300
1793  8  11.5084600000  5.7735055786  55.1658288300
1794  8  9.2457675000  7.0798659291  55.1658288300
1795  8  6.7457675000  5.9105151277  59.6691711700
1796  8  6.7457725000  8.5232444888  59.6691711700
1797  8  9.0084600000  7.2168754781  59.6691711700
1798  8  9.2457675000  7.3538908006  64.1725045033
1799  8  6.7457725000  5.6364931429  64.1725045033
1800  8  6.5084600000  8.6602511511  64.1725045033
1801  4  5.0000000000  11.5470053838  0.2232257300
1802  4  7.5000000000  10.1036297108  6.5317742700
1803  4  5.0000000000  8.6602540378  4.7265590633
1804  4  5.0000000000  11.5470053838  11.0351076033
1805  4  7.5000000000  10.1036297108  9.2298923967
1806  4  5.0000000000  8.6602540378  2.0284409367
1807  4  7.5000000000  10.1036297108  13.2867742700
1808  4  5.0000000000  11.5470053838  6.9782257300
1809  4  5.0000000000  11.5470053838  4.2801076033
1810  4  5.0000000000  8.6602540378  11.4815590633
1811  4  5.0000000000  8.6602540378  8.7834409367
1812  4  7.5000000000  10.1036297108  2.4748923967
1813  8  5.7542275000  12.8533715078  12.3841711700
1814  8  3.4915400000  11.5470024970  12.3841711700
1815  8  5.7542325000  10.2406421466  12.3841711700
1816  8  8.2542325000  11.4099929480  7.8808288300
1817  8  8.2542275000  8.7972635869  7.8808288300
1818  8  5.9915400000  10.1036325976  7.8808288300
1819  8  5.7542275000  9.9666201618  3.3775045033
1820  8  5.9915400000  12.9903781700  3.3775045033
1821  8  3.2542325000  11.6840178195  3.3775045033
1822  8  6.7457725000  8.7972635869  1.1258288300
1823  8  9.0084600000  10.1036325976  1.1258288300
1824  8  6.7457675000  11.4099929480  1.1258288300
1825  8  4.2457675000  10.2406421466  5.6291711700
1826  8  4.2457725000  12.8533715078  5.6291711700
1827  8  6.5084600000  11.5470024970  5.6291711700
1828  8  6.7457675000  11.6840178195  10.1325045033
1829  8  4.2457725000  9.9666201618  10.1325045033
1830  8  4.0084600000  12.9903781700  10.1325045033
1831  4  5.0000000000  11.5470053838  13.7332257300
1832  4  7.5000000000  10.1036297108  20.0417742700
1833  4  5.0000000000  8.6602540378  18.2365590633
1834  4  5.0000000000  11.5470053838  24.5451076033
1835  4  7.5000000000  10.1036297108  22.7398923967
1836  4  5.0000000000  8.6602540378  15.5384409367
1837  4  7.5000000000  10.1036297108  26.7967742700
1838  4  5.0000000000  11.5470053838  20.4882257300
1839  4  5.0000000000  11.5470053838  17.7901076033
1840  4  5.0000000000  8.6602540378  24.9915590633
1841  4  5.0000000000  8.6602540378  22.2934409367
1842  4  7.5000000000  10.1036297108  15.9848923967
1843  8  5.7542275000  12.8533715078  25.8941711700
1844  8  3.4915400000  11.5470024970  25.8941711700
1845  8  5.7542325000  10.2406421466  25.8941711700
1846  8  8.2542325000  11.4099929480  21.3908288300
1847  8  8.2542275000  8.7972635869  21.3908288300
1848  8  5.9915400000  10.1036325976  21.3908288300
1849  8  5.7542275000  9.9666201618  16.8875045033
1850  8  5.9915400000  12.9903781700  16.8875045033
1851  8  3.2542325000  11.6840178195  16.8875045033
1852  8  6.7457725000  8.7972635869  14.6358288300
1853  8  9.0084600000  10.1036325976  14.6358288300
1854  8  6.7457675000  11.4099929480  14.6358288300
1855  8  4.2457675000  10.2406421466  19.1391711700
1856  8  4.2457725000  12.8533715078  19.1391711700
1857  8  6.5084600000  11.5470024970  19.1391711700
1858  8  6.7457675000  11.6840178195  23.6425045033
1859  8  4.2457725000  9.9666201618  23.6425045033
1860  8  4.0084600000  12.9903781700  23.6425045033
1861  4  5.0000000000  11.5470053838  27.2432257300
1862  4  7.5000000000  10.1036297108  33.5517742700
1863  4  5.0000000000  8.6602540378  31.7465590633
1864  4  5.0000000000  11.5470053838  38.0551076033
1865  4  7.5000000000  10.1036297108  36.2498923967
1866  4  5.0000000000  8.6602540378  29.0484409367
1867  4  7.5000000000  10.1036297108  40.3067742700
1868  4  5.0000000000  11.5470053838  33.9982257300
1869  4  5.0000000000  11.5470053838  31.3001076033
1870  4  5.0000000000  8.6602540378  38.5015590633
1871  4  5.0000000000  8.6602540378  35.8034409367
1872  4  7.5000000000  10.1036297108  29.4948923967
1873  8  5.7542275000  12.8533715078  39.4041711700
1874  8  3.4915400000  11.5470024970  39.4041711700
1875  8  5.7542325000  10.2406421466  39.4041711700
1876  8  8.2542325000  11.4099929480  34.9008288300
1877  8  8.2542275000  8.7972635869  34.9008288300
1878  8  5.9915400000  10.1036325976  34.9008288300
1879  8  5.7542275000  9.9666201618  30.3975045033
1880  8  5.9915400000  12.9903781700  30.3975045033
1881  8  3.2542325000  11.6840178195  30.3975045033
1882  8  6.7457725000  8.7972635869  28.1458288300
1883  8  9.0084600000  10.1036325976  28.1458288300
1884  8  6.7457675000  11.4099929480  28.1458288300
1885  8  4.2457675000  10.2406421466  32.6491711700
1886  8  4.2457725000  12.8533715078  32.6491711700
1887  8  6.5084600000  11.5470024970  32.6491711700
1888  8  6.7457675000  11.6840178195  37.1525045033
1889  8  4.2457725000  9.9666201618  37.1525045033
1890  8  4.0084600000  12.9903781700  37.1525045033
1891  4  5.0000000000  11.5470053838  40.7532257300
1892  4  7.5000000000  10.1036297108  47.0617742700
1893  4  5.0000000000  8.6602540378  45.2565590633
1894  4  5.0000000000  11.5470053838  51.5651076033
1895  4  7.5000000000  10.1036297108  49.7598923967
1896  4  5.0000000000  8.6602540378  42.5584409367
1897  4  7.5000000000  10.1036297108  53.8167742700
1898  4  5.0000000000  11.5470053838  47.5082257300
1899  4  5.0000000000  11.5470053838  44.8101076033
1900  4  5.0000000000  8.6602540378  52.0115590633
1901  4  5.0000000000  8.6602540378  49.3134409367
1902  4  7.5000000000  10.1036297108  43.0048923967
1903  8  5.7542275000  12.8533715078  52.9141711700
1904  8  3.4915400000  11.5470024970  52.9141711700
1905  8  5.7542325000  10.2406421466  52.9141711700
1906  8  8.2542325000  11.4099929480  48.4108288300
1907  8  8.2542275000  8.7972635869  48.4108288300
1908  8  5.9915400000  10.1036325976  48.4108288300
1909  8  5.7542275000  9.9666201618  43.9075045033
1910  8  5.9915400000  12.9903781700  43.9075045033
1911  8  3.2542325000  11.6840178195  43.9075045033
1912  8  6.7457725000  8.7972635869  41.6558288300
1913  8  9.0084600000  10.1036325976  41.6558288300
1914  8  6.7457675000  11.4099929480  41.6558288300
1915  8  4.2457675000  10.2406421466  46.1591711700
1916  8  4.2457725000  12.8533715078  46.1591711700
1917  8  6.5084600000  11.5470024970  46.1591711700
1918  8  6.7457675000  11.6840178195  50.6625045033
1919  8  4.2457725000  9.9666201618  50.6625045033
1920  8  4.0084600000  12.9903781700  50.6625045033
1921  4  5.0000000000  11.5470053838  54.2632257300
1922  4  7.5000000000  10.1036297108  60.5717742700
1923  4  5.0000000000  8.6602540378  58.7665590633
1924  4  5.0000000000  11.5470053838  65.0751076033
1925  4  7.5000000000  10.1036297108  63.2698923967
1926  4  5.0000000000  8.6602540378  56.0684409367
1927  4  7.5000000000  10.1036297108  67.3267742700
1928  4  5.0000000000  11.5470053838  61.0182257300
1929  4  5.0000000000  11.5470053838  58.3201076033
1930  4  5.0000000000  8.6602540378  65.5215590633
1931  4  5.0000000000  8.6602540378  62.8234409367
1932  4  7.5000000000  10.1036297108  56.5148923967
1933  8  5.7542275000  12.8533715078  66.4241711700
1934  8  3.4915400000  11.5470024970  66.4241711700
1935  8  5.7542325000  10.2406421466  66.4241711700
1936  8  8.2542325000  11.4099929480  61.9208288300
1937  8  8.2542275000  8.7972635869  61.9208288300
1938  8  5.9915400000  10.1036325976  61.9208288300
1939  8  5.7542275000  9.9666201618  57.4175045033
1940  8  5.9915400000  12.9903781700  57.4175045033
1941  8  3.2542325000  11.6840178195  57.4175045033
1942  8  6.7457725000  8.7972635869  55.1658288300
1943  8  9.0084600000  10.1036325976  55.1658288300
1944  8  6.7457675000  11.4099929480  55.1658288300
1945  8  4.2457675000  10.2406421466  59.6691711700
1946  8  4.2457725000  12.8533715078  59.6691711700
1947  8  6.5084600000  11.5470024970  59.6691711700
1948  8  6.7457675000  11.6840178195  64.1725045033
1949  8  4.2457725000  9.9666201618  64.1725045033
1950  8  4.0084600000  12.9903781700  64.1725045033
1951  4  2.5000000000  15.8771324027  0.2232257300
1952  4  5.0000000000  14.4337567297  6.5317742700
1953  4  2.5000000000  12.9903810568  4.7265590633
1954  4  2.5000000000  15.8771324027  11.0351076033
1955  4  5.0000000000  14.4337567297  9.2298923967
1956  4  2.5000000000  12.9903810568  2.0284409367
1957  4  5.0000000000  14.4337567297  13.2867742700
1958  4  2.5000000000  15.8771324027  6.9782257300
1959  4  2.5000000000  15.8771324027  4.2801076033
1960  4  2.5000000000  12.9903810568  11.4815590633
1961  4  2.5000000000  12.9903810568  8.7834409367
1962  4  5.0000000000  14.4337567297  2.4748923967
1963  8  3.2542275000  17.1834985267  12.3841711700
1964  8  0.9915400000  15.8771295160  12.3841711700
1965  8  3.2542325000  14.5707691655  12.3841711700
1966  8  5.7542325000  15.7401199670  7.8808288300
1967  8  5.7542275000  13.1273906058  7.8808288300
1968  8  3.4915400000  14.4337596165  7.8808288300
1969  8  3.2542275000  14.2967471807  3.3775045033
1970  8  3.4915400000  17.3205051889  3.3775045033
1971  8  0.7542325000  16.0141448385  3.3775045033
1972  8  4.2457725000  13.1273906058  1.1258288300
1973  8  6.5084600000  14.4337596165  1.1258288300
1974  8  4.2457675000  15.7401199670  1.1258288300
1975  8  1.7457675000  14.5707691655  5.6291711700
1976  8  1.7457725000  17.1834985267  5.6291711700
1977  8  4.0084600000  15.8771295160  5.6291711700
1978  8  4.2457675000  16.0141448385  10.1325045033
1979  8  1.7457725000  14.2967471807  10.1325045033
1980  8  1.5084600000  17.3205051889  10.1325045033
1981  4  2.5000000000  15.8771324027  13.7332257300
1982  4  5.0000000000  14.4337567297  20.0417742700
1983  4  2.5000000000  12.9903810568  18.2365590633
1984  4  2.5000000000  15.8771324027  24.5451076033
1985  4  5.0000000000  14.4337567297  22.7398923967
1986  4  2.5000000000  12.9903810568  15.5384409367
1987  4  5.0000000000  14.4337567297  26.7967742700
1988  4  2.5000000000  15.8771324027  20.4882257300
1989  4  2.5000000000  15.8771324027  17.7901076033
1990  4  2.5000000000  12.9903810568  24.9915590633
1991  4  2.5000000000  12.9903810568  22.2934409367
1992  4  5.0000000000  14.4337567297  15.9848923967
1993  8  3.2542275000  17.1834985267  25.8941711700
1994  8  0.9915400000  15.8771295160  25.8941711700
1995  8  3.2542325000  14.5707691655  25.8941711700
1996  8  5.7542325000  15.7401199670  21.3908288300
1997  8  5.7542275000  13.1273906058  21.3908288300
1998  8  3.4915400000  14.4337596165  21.3908288300
1999  8  3.2542275000  14.2967471807  16.8875045033
2000  8  3.4915400000  17.3205051889  16.8875045033
2001  8  0.7542325000  16.0141448385  16.8875045033
2002  8  4.2457725000  13.1273906058  14.6358288300
2003  8  6.5084600000  14.4337596165  14.6358288300
2004  8  4.2457675000  15.7401199670  14.6358288300
2005  8  1.7457675000  14.5707691655  19.1391711700
2006  8  1.7457725000  17.1834985267  19.1391711700
2007  8  4.0084600000  15.8771295160  19.1391711700
2008  8  4.2457675000  16.0141448385  23.6425045033
2009  8  1.7457725000  14.2967471807  23.6425045033
2010  8  1.5084600000  17.3205051889  23.6425045033
2011  4  2.5000000000  15.8771324027  27.2432257300
2012  4  5.0000000000  14.4337567297  33.5517742700
2013  4  2.5000000000  12.9903810568  31.7465590633
2014  4  2.5000000000  15.8771324027  38.0551076033
2015  4  5.0000000000  14.4337567297  36.2498923967
2016  4  2.5000000000  12.9903810568  29.0484409367
2017  4  5.0000000000  14.4337567297  40.3067742700
2018  4  2.5000000000  15.8771324027  33.9982257300
2019  4  2.5000000000  15.8771324027  31.3001076033
2020  4  2.5000000000  12.9903810568  38.5015590633
2021  4  2.5000000000  12.9903810568  35.8034409367
2022  4  5.0000000000  14.4337567297  29.4948923967
2023  8  3.2542275000  17.1834985267  39.4041711700
2024  8  0.9915400000  15.8771295160  39.4041711700
2025  8  3.2542325000  14.5707691655  39.4041711700
2026  8  5.7542325000  15.7401199670  34.9008288300
2027  8  5.7542275000  13.1273906058  34.9008288300
2028  8  3.4915400000  14.4337596165  34.9008288300
2029  8  3.2542275000  14.2967471807  30.3975045033
2030  8  3.4915400000  17.3205051889  30.3975045033
2031  8  0.7542325000  16.0141448385  30.3975045033
2032  8  4.2457725000  13.1273906058  28.1458288300
2033  8  6.5084600000  14.4337596165  28.1458288300
2034  8  4.2457675000  15.7401199670  28.1458288300
2035  8  1.7457675000  14.5707691655  32.6491711700
2036  8  1.7457725000  17.1834985267  32.6491711700
2037  8  4.0084600000  15.8771295160  32.6491711700
2038  8  4.2457675000  16.0141448385  37.1525045033
2039  8  1.7457725000  14.2967471807  37.1525045033
2040  8  1.5084600000  17.3205051889  37.1525045033
2041  4  2.5000000000  15.8771324027  40.7532257300
2042  4  5.0000000000  14.4337567297  47.0617742700
2043  4  2.5000000000  12.9903810568  45.2565590633
2044  4  2.5000000000  15.8771324027  51.5651076033
2045  4  5.0000000000  14.4337567297  49.7598923967
2046  4  2.5000000000  12.9903810568  42.5584409367
2047  4  5.0000000000  14.4337567297  53.8167742700
2048  4  2.5000000000  15.8771324027  47.5082257300
2049  4  2.5000000000  15.8771324027  44.8101076033
2050  4  2.5000000000  12.9903810568  52.0115590633
2051  4  2.5000000000  12.9903810568  49.3134409367
2052  4  5.0000000000  14.4337567297  43.0048923967
2053  8  3.2542275000  17.1834985267  52.9141711700
2054  8  0.9915400000  15.8771295160  52.9141711700
2055  8  3.2542325000  14.5707691655  52.9141711700
2056  8  5.7542325000  15.7401199670  48.4108288300
2057  8  5.7542275000  13.1273906058  48.4108288300
2058  8  3.4915400000  14.4337596165  48.4108288300
2059  8  3.2542275000  14.2967471807  43.9075045033
2060  8  3.4915400000  17.3205051889  43.9075045033
2061  8  0.7542325000  16.0141448385  43.9075045033
2062  8  4.2457725000  13.1273906058  41.6558288300
2063  8  6.5084600000  14.4337596165  41.6558288300
2064  8  4.2457675000  15.7401199670  41.6558288300
2065  8  1.7457675000  14.5707691655  46.1591711700
2066  8  1.7457725000  17.1834985267  46.1591711700
2067  8  4.0084600000  15.8771295160  46.1591711700
2068  8  4.2457675000  16.0141448385  50.6625045033
2069  8  1.7457725000  14.2967471807  50.6625045033
2070  8  1.5084600000  17.3205051889  50.6625045033
2071  4  2.5000000000  15.8771324027  54.2632257300
2072  4  5.0000000000  14.4337567297  60.5717742700
2073  4  2.5000000000  12.9903810568  58.7665590633
2074  4  2.5000000000  15.8771324027  65.0751076033
2075  4  5.0000000000  14.4337567297  63.2698923967
2076  4  2.5000000000  12.9903810568  56.0684409367
2077  4  5.0000000000  14.4337567297  67.3267742700
2078  4  2.5000000000  15.8771324027  61.0182257300
2079  4  2.5000000000  15.8771324027  58.3201076033
2080  4  2.5000000000  12.9903810568  65.5215590633
2081  4  2.5000000000  12.9903810568  62.8234409367
2082  4  5.0000000000  14.4337567297  56.5148923967
2083  8  3.2542275000  17.1834985267  66.4241711700
2084  8  0.9915400000  15.8771295160  66.4241711700
2085  8  3.2542325000  14.5707691655  66.4241711700
2086  8  5.7542325000  15.7401199670  61.9208288300
2087  8  5.7542275000  13.1273906058  61.9208288300
2088  8  3.4915400000  14.4337596165  61.9208288300
2089  8  3.2542275000  14.2967471807  57.4175045033
2090  8  3.4915400000  17.3205051889  57.4175045033
2091  8  0.7542325000  16.0141448385  57.4175045033
2092  8  4.2457725000  13.1273906058  55.1658288300
2093  8  6.5084600000  14.4337596165  55.1658288300
2094  8  4.2457675000  15.7401199670  55.1658288300
2095  8  1.7457675000  14.5707691655  59.6691711700
2096  8  1.7457725000  17.1834985267  59.6691711700
2097  8  4.0084600000  15.8771295160  59.6691711700
2098  8  4.2457675000  16.0141448385  64.1725045033
2099  8  1.7457725000  14.2967471807  64.1725045033
2100  8  1.5084600000  17.3205051889  64.1725045033
2101  4  0.0000000000  20.2072594216  0.2232257300
2102  4  2.5000000000  18.7638837487  6.5317742700
2103  4  0.0000000000  17.3205080757  4.7265590633
2104  4  0.0000000000  20.2072594216  11.0351076033
2105  4  2.5000000000  18.7638837487  9.2298923967
2106  4  0.0000000000  17.3205080757  2.0284409367
2107  4  2.5000000000  18.7638837487  13.2867742700
2108  4  0.0000000000  20.2072594216  6.9782257300
2109  4  0.0000000000  20.2072594216  4.2801076033
2110  4  0.0000000000  17.3205080757  11.4815590633
2111  4  0.0000000000  17.3205080757  8.7834409367
2112  4  2.5000000000  18.7638837487  2.4748923967
2113  8  0.7542275000  21.5136255456  12.3841711700
2114  8  -1.5084600000  20.2072565349  12.3841711700
2115  8  0.7542325000  18.9008961844  12.3841711700
2116  8  3.2542325000  20.0702469859  7.8808288300
2117  8  3.2542275000  17.4575176247  7.8808288300
2118  8  0.9915400000  18.7638866354  7.8808288300
2119  8  0.7542275000  18.6268741997  3.3775045033
2120  8  0.9915400000  21.6506322079  3.3775045033
2121  8  -1.7457675000  20.3442718574  3.3775045033
2122  8  1.7457725000  17.4575176247  1.1258288300
2123  8  4.0084600000  18.7638866354  1.1258288300
2124  8  1.7457675000  20.0702469859  1.1258288300
2125  8  -0.7542325000  18.9008961844  5.6291711700
2126  8  -0.7542275000  21.5136255456  5.6291711700
2127  8  1.5084600000  20.2072565349  5.6291711700
2128  8  1.7457675000  20.3442718574  10.1325045033
2129  8  -0.7542275000  18.6268741997  10.1325045033
2130  8  -0.9915400000  21.6506322079  10.1325045033
2131  4  0.0000000000  20.2072594216  13.7332257300
2132  4  2.5000000000  18.7638837487  20.0417742700
2133  4  0.0000000000  17.3205080757  18.2365590633
2134  4  0.0000000000  20.2072594216  24.5451076033
2135  4  2.5000000000  18.7638837487  22.7398923967
2136  4  0.0000000000  17.3205080757  15.5384409367
2137  4  2.5000000000  18.7638837487  26.7967742700
2138  4  0.0000000000  20.2072594216  20.4882257300
2139  4  0.0000000000  20.2072594216  17.7901076033
2140  4  0.0000000000  17.3205080757  24.9915590633
2141  4  0.0000000000  17.3205080757  22.2934409367
2142  4  2.5000000000  18.7638837487  15.9848923967
2143  8  0.7542275000  21.5136255456  25.8941711700
2144  8  -1.5084600000  20.2072565349  25.8941711700
2145  8  0.7542325000  18.9008961844  25.8941711700
2146  8  3.2542325000  20.0702469859  21.3908288300
2147  8  3.2542275000  17.4575176247  21.3908288300
2148  8  0.9915400000  18.7638866354  21.3908288300
2149  8  0.7542275000  18.6268741997  16.8875045033
2150  8  0.9915400000  21.6506322079  16.8875045033
2151  8  -1.7457675000  20.3442718574  16.8875045033
2152  8  1.7457725000  17.4575176247  14.6358288300
2153  8  4.0084600000  18.7638866354  14.6358288300
2154  8  1.7457675000  20.0702469859  14.6358288300
2155  8  -0.7542325000  18.9008961844  19.1391711700
2156  8  -0.7542275000  21.5136255456  19.1391711700
2157  8  1.5084600000  20.2072565349  19.1391711700
2158  8  1.7457675000  20.3442718574  23.6425045033
2159  8  -0.7542275000  18.6268741997  23.6425045033
2160  8  -0.9915400000  21.6506322079  23.6425045033
2161  4  0.0000000000  20.2072594216  27.2432257300
2162  4  2.5000000000  18.7638837487  33.5517742700
2163  4  0.0000000000  17.3205080757  31.7465590633
2164  4  0.0000000000  20.2072594216  38.0551076033
2165  4  2.5000000000  18.7638837487  36.2498923967
2166  4  0.0000000000  17.3205080757  29.0484409367
2167  4  2.5000000000  18.7638837487  40.3067742700
2168  4  0.0000000000  20.2072594216  33.9982257300
2169  4  0.0000000000  20.2072594216  31.3001076033
2170  4  0.0000000000  17.3205080757  38.5015590633
2171  4  0.0000000000  17.3205080757  35.8034409367
2172  4  2.5000000000  18.7638837487  29.4948923967
2173  8  0.7542275000  21.5136255456  39.4041711700
2174  8  -1.5084600000  20.2072565349  39.4041711700
2175  8  0.7542325000  18.9008961844  39.4041711700
2176  8  3.2542325000  20.0702469859  34.9008288300
2177  8  3.2542275000  17.4575176247  34.9008288300
2178  8  0.9915400000  18.7638866354  34.9008288300
2179  8  0.7542275000  18.6268741997  30.3975045033
2180  8  0.9915400000  21.6506322079  30.3975045033
2181  8  -1.7457675000  20.3442718574  30.3975045033
2182  8  1.7457725000  17.4575176247  28.1458288300
2183  8  4.0084600000  18.7638866354  28.1458288300
2184  8  1.7457675000  20.0702469859  28.1458288300
2185  8  -0.7542325000  18.9008961844  32.6491711700
2186  8  -0.7542275000  21.5136255456  32.6491711700
2187  8  1.5084600000  20.2072565349  32.6491711700
2188  8  1.7457675000  20.3442718574  37.1525045033
2189  8  -0.7542275000  18.6268741997  37.1525045033
2190  8  -0.9915400000  21.6506322079  37.1525045033
2191  4  0.0000000000  20.2072594216  40.7532257300
2192  4  2.5000000000  18.7638837487  47.0617742700
2193  4  0.0000000000  17.3205080757  45.2565590633
2194  4  0.0000000000  20.2072594216  51.5651076033
2195  4  2.5000000000  18.7638837487  49.7598923967
2196  4  0.0000000000  17.3205080757  42.5584409367
2197  4  2.5000000000  18.7638837487  53.8167742700
2198  4  0.0000000000  20.2072594216  47.5082257300
2199  4  0.0000000000  20.2072594216  44.8101076033
2200  4  0.0000000000  17.3205080757  52.0115590633
2201  4  0.0000000000  17.3205080757  49.3134409367
2202  4  2.5000000000  18.7638837487  43.0048923967
2203  8  0.7542275000  21.5136255456  52.9141711700
2204  8  -1.5084600000  20.2072565349  52.9141711700
2205  8  0.7542325000  18.9008961844  52.9141711700
2206  8  3.2542325000  20.0702469859  48.4108288300
2207  8  3.2542275000  17.4575176247  48.4108288300
2208  8  0.9915400000  18.7638866354  48.4108288300
2209  8  0.7542275000  18.6268741997  43.9075045033
2210  8  0.9915400000  21.6506322079  43.9075045033
2211  8  -1.7457675000  20.3442718574  43.9075045033
2212  8  1.7457725000  17.4575176247  41.6558288300
2213  8  4.0084600000  18.7638866354  41.6558288300
2214  8  1.7457675000  20.0702469859  41.6558288300
2215  8  -0.7542325000  18.9008961844  46.1591711700
2216  8  -0.7542275000  21.5136255456  46.1591711700
2217  8  1.5084600000  20.2072565349  46.1591711700
2218  8  1.7457675000  20.3442718574  50.6625045033
2219  8  -0.7542275000  18.6268741997  50.6625045033
2220  8  -0.9915400000  21.6506322079  50.6625045033
2221  4  0.0000000000  20.2072594216  54.2632257300
2222  4  2.5000000000  18.7638837487  60.5717742700
2223  4  0.0000000000  17.3205080757  58.7665590633
2224  4  0.0000000000  20.2072594216  65.0751076033
2225  4  2.5000000000  18.7638837487  63.2698923967
2226  4  0.0000000000  17.3205080757  56.0684409367
2227  4  2.5000000000  18.7638837487  67.3267742700
2228  4  0.0000000000  20.2072594216  61.0182257300
2229  4  0.0000000000  20.2072594216  58.3201076033
2230  4  0.0000000000  17.3205080757  65.5215590633
2231  4  0.0000000000  17.3205080757  62.8234409367
2232  4  2.5000000000  18.7638837487  56.5148923967
2233  8  0.7542275000  21.5136255456  66.4241711700
2234  8  -1.5084600000  20.2072565349  66.4241711700
2235  8  0.7542325000  18.9008961844  66.4241711700
2236  8  3.2542325000  20.0702469859  61.9208288300
2237  8  3.2542275000  17.4575176247  61.9208288300
2238  8  0.9915400000  18.7638866354  61.9208288300
2239  8  0.7542275000  18.6268741997  57.4175045033
2240  8  0.9915400000  21.6506322079  57.4175045033
2241  8  -1.7457675000  20.3442718574  57.4175045033
2242  8  1.7457725000  17.4575176247  55.1658288300
2243  8  4.0084600000  18.7638866354  55.1658288300
2244  8  1.7457675000  20.0702469859  55.1658288300
2245  8  -0.7542325000  18.9008961844  59.6691711700
2246  8  -0.7542275000  21.5136255456  59.6691711700
2247  8  1.5084600000  20.2072565349  59.6691711700
2248  8  1.7457675000  20.3442718574  64.1725045033
2249  8  -0.7542275000  18.6268741997  64.1725045033
2250  8  -0.9915400000  21.6506322079  64.1725045033
2251  4  15.0000000000  2.8867513459  0.2232257300
2252  4  17.5000000000  1.4433756730  6.5317742700
2253  4  15.0000000000  -0.0000000000  4.7265590633
2254  4  15.0000000000  2.8867513459  11.0351076033
2255  4  17.5000000000  1.4433756730  9.2298923967
2256  4  15.0000000000  -0.0000000000  2.0284409367
2257  4  17.5000000000  1.4433756730  13.2867742700
2258  4  15.0000000000  2.8867513459  6.9782257300
2259  4  15.0000000000  2.8867513459  4.2801076033
2260  4  15.0000000000  -0.0000000000  11.4815590633
2261  4  15.0000000000  -0.0000000000  8.7834409367
2262  4  17.5000000000  1.4433756730  2.4748923967
2263  8  15.7542275000  4.1931174699  12.3841711700
2264  8  13.4915400000  2.8867484592  12.3841711700
2265  8  15.7542325000  1.5803881087  12.3841711700
2266  8  18.2542325000  2.7497389102  7.8808288300
2267  8  18.2542275000  0.1370095490  7.8808288300
2268  8  15.9915400000  1.4433785597  7.8808288300
2269  8  15.7542275000  1.3063661240  3.3775045033
2270  8  15.9915400000  4.3301241322  3.3775045033
2271  8  13.2542325000  3.0237637817  3.3775045033
2272  8  16.7457725000  0.1370095490  1.1258288300
2273  8  19.0084600000  1.4433785597  1.1258288300
2274  8  16.7457675000  2.7497389102  1.1258288300
2275  8  14.2457675000  1.5803881087  5.6291711700
2276  8  14.2457725000  4.1931174699  5.6291711700
2277  8  16.5084600000  2.8867484592  5.6291711700
2278  8  16.7457675000  3.0237637817  10.1325045033
2279  8  14.2457725000  1.3063661240  10.1325045033
2280  8  14.0084600000  4.3301241322  10.1325045033
2281  4  15.0000000000  2.8867513459  13.7332257300
2282  4  17.5000000000  1.4433756730  20.0417742700
2283  4  15.0000000000  -0.0000000000  18.2365590633
2284  4  15.0000000000  2.8867513459  24.5451076033
2285  4  17.5000000000  1.4433756730  22.7398923967
2286  4  15.0000000000  -0.0000000000  15.5384409367
2287  4  17.5000000000  1.4433756730  26.7967742700
2288  4  15.0000000000  2.8867513459  20.4882257300
2289  4  15.0000000000  2.8867513459  17.7901076033
2290  4  15.0000000000  -0.0000000000  24.9915590633
2291  4  15.0000000000  -0.0000000000  22.2934409367
2292  4  17.5000000000  1.4433756730  15.9848923967
2293  8  15.7542275000  4.1931174699  25.8941711700
2294  8  13.4915400000  2.8867484592  25.8941711700
2295  8  15.7542325000  1.5803881087  25.8941711700
2296  8  18.2542325000  2.7497389102  21.3908288300
2297  8  18.2542275000  0.1370095490  21.3908288300
2298  8  15.9915400000  1.4433785597  21.3908288300
2299  8  15.7542275000  1.3063661240  16.8875045033
2300  8  15.9915400000  4.3301241322  16.8875045033
2301  8  13.2542325000  3.0237637817  16.8875045033
2302  8  16.7457725000  0.1370095490  14.6358288300
2303  8  19.0084600000  1.4433785597  14.6358288300
2304  8  16.7457675000  2.7497389102  14.6358288300
2305  8  14.2457675000  1.5803881087  19.1391711700
2306  8  14.2457725000  4.1931174699  19.1391711700
2307  8  16.5084600000  2.8867484592  19.1391711700
2308  8  16.7457675000  3.0237637817  23.6425045033
2309  8  14.2457725000  1.3063661240  23.6425045033
2310  8  14.0084600000  4.3301241322  23.6425045033
2311  4  15.0000000000  2.8867513459  27.2432257300
2312  4  17.5000000000  1.4433756730  33.5517742700
2313  4  15.0000000000  -0.0000000000  31.7465590633
2314  4  15.0000000000  2.8867513459  38.0551076033
2315  4  17.5000000000  1.4433756730  36.2498923967
2316  4  15.0000000000  -0.0000000000  29.0484409367
2317  4  17.5000000000  1.4433756730  40.3067742700
2318  4  15.0000000000  2.8867513459  33.9982257300
2319  4  15.0000000000  2.8867513459  31.3001076033
2320  4  15.0000000000  -0.0000000000  38.5015590633
2321  4  15.0000000000  -0.0000000000  35.8034409367
2322  4  17.5000000000  1.4433756730  29.4948923967
2323  8  15.7542275000  4.1931174699  39.4041711700
2324  8  13.4915400000  2.8867484592  39.4041711700
2325  8  15.7542325000  1.5803881087  39.4041711700
2326  8  18.2542325000  2.7497389102  34.9008288300
2327  8  18.2542275000  0.1370095490  34.9008288300
2328  8  15.9915400000  1.4433785597  34.9008288300
2329  8  15.7542275000  1.3063661240  30.3975045033
2330  8  15.9915400000  4.3301241322  30.3975045033
2331  8  13.2542325000  3.0237637817  30.3975045033
2332  8  16.7457725000  0.1370095490  28.1458288300
2333  8  19.0084600000  1.4433785597  28.1458288300
2334  8  16.7457675000  2.7497389102  28.1458288300
2335  8  14.2457675000  1.5803881087  32.6491711700
2336  8  14.2457725000  4.1931174699  32.6491711700
2337  8  16.5084600000  2.8867484592  32.6491711700
2338  8  16.7457675000  3.0237637817  37.1525045033
2339  8  14.2457725000  1.3063661240  37.1525045033
2340  8  14.0084600000  4.3301241322  37.1525045033
2341  4  15.0000000000  2.8867513459  40.7532257300
2342  4  17.5000000000  1.4433756730  47.0617742700
2343  4  15.0000000000  -0.0000000000  45.2565590633
2344  4  15.0000000000  2.8867513459  51.5651076033
2345  4  17.5000000000  1.4433756730  49.7598923967
2346  4  15.0000000000  -0.0000000000  42.5584409367
2347  4  17.5000000000  1.4433756730  53.8167742700
2348  4  15.0000000000  2.8867513459  47.5082257300
2349  4  15.0000000000  2.8867513459  44.8101076033
2350  4  15.0000000000  -0.0000000000  52.0115590633
2351  4  15.0000000000  -0.0000000000  49.3134409367
2352  4  17.5000000000  1.4433756730  43.0048923967
2353  8  15.7542275000  4.1931174699  52.9141711700
2354  8  13.4915400000  2.8867484592  52.9141711700
2355  8  15.7542325000  1.5803881087  52.9141711700
2356  8  18.2542325000  2.7497389102  48.4108288300
2357  8  18.2542275000  0.1370095490  48.4108288300
2358  8  15.9915400000  1.4433785597  48.4108288300
2359  8  15.7542275000  1.3063661240  43.9075045033
2360  8  15.9915400000  4.3301241322  43.9075045033
2361  8  13.2542325000  3.0237637817  43.9075045033
2362  8  16.7457725000  0.1370095490  41.6558288300
2363  8  19.0084600000  1.4433785597  41.6558288300
2364  8  16.7457675000  2.7497389102  41.6558288300
2365  8  14.2457675000  1.5803881087  46.1591711700
2366  8  14.2457725000  4.1931174699  46.1591711700
2367  8  16.5084600000  2.8867484592  46.1591711700
2368  8  16.7457675000  3.0237637817  50.6625045033
2369  8  14.2457725000  1.3063661240  50.6625045033
2370  8  14.0084600000  4.3301241322  50.6625045033
2371  4  15.0000000000  2.8867513459  54.2632257300
2372  4  17.5000000000  1.4433756730  60.5717742700
2373  4  15.0000000000  -0.0000000000  58.7665590633
2374  4  15.0000000000  2.8867513459  65.0751076033
2375  4  17.5000000000  1.4433756730  63.2698923967
2376  4  15.0000000000  -0.0000000000  56.0684409367
2377  4  17.5000000000  1.4433756730  67.3267742700
2378  4  15.0000000000  2.8867513459  61.0182257300
2379  4  15.0000000000  2.8867513459  58.3201076033
2380  4  15.0000000000  -0.0000000000  65.5215590633
2381  4  15.0000000000  -0.0000000000  62.8234409367
2382  4  17.5000000000  1.4433756730  56.5148923967
2383  8  15.7542275000  4.1931174699  66.4241711700
2384  8  13.4915400000  2.8867484592  66.4241711700
2385  8  15.7542325000  1.5803881087  66.4241711700
2386  8  18.2542325000  2.7497389102  61.9208288300
2387  8  18.2542275000  0.1370095490  61.9208288300
2388  8  15.9915400000  1.4433785597  61.9208288300
2389  8  15.7542275000  1.3063661240  57.4175045033
2390  8  15.9915400000  4.3301241322  57.4175045033
2391  8  13.2542325000  3.0237637817  57.4175045033
2392  8  16.7457725000  0.1370095490  55.1658288300
2393  8  19.0084600000  1.4433785597  55.1658288300
2394  8  16.7457675000  2.7497389102  55.1658288300
2395  8  14.2457675000  1.5803881087  59.6691711700
2396  8  14.2457725000  4.1931174699  59.6691711700
2397  8  16.5084600000  2.8867484592  59.6691711700
2398  8  16.7457675000  3.0237637817  64.1725045033
2399  8  14.2457725000  1.3063661240  64.1725045033
2400  8  14.0084600000  4.3301241322  64.1725045033
2401  4  12.5000000000  7.2168783649  0.2232257300
2402  4  15.0000000000  5.7735026919  6.5317742700
2403  4  12.5000000000  4.3301270189  4.7265590633
2404  4  12.5000000000  7.2168783649  11.0351076033
2405  4  15.0000000000  5.7735026919  9.2298923967
2406  4  12.5000000000  4.3301270189  2.0284409367
2407  4  15.0000000000  5.7735026919  13.2867742700
2408  4  12.5000000000  7.2168783649  6.9782257300
2409  4  12.5000000000  7.2168783649  4.2801076033
2410  4  12.5000000000  4.3301270189  11.4815590633
2411  4  12.5000000000  4.3301270189  8.7834409367
2412  4  15.0000000000  5.7735026919  2.4748923967
2413  8  13.2542275000  8.5232444888  12.3841711700
2414  8  10.9915400000  7.2168754781  12.3841711700
2415  8  13.2542325000  5.9105151277  12.3841711700
2416  8  15.7542325000  7.0798659291  7.8808288300
2417  8  15.7542275000  4.4671365679  7.8808288300
2418  8  13.4915400000  5.7735055786  7.8808288300
2419  8  13.2542275000  5.6364931429  3.3775045033
2420  8  13.4915400000  8.6602511511  3.3775045033
2421  8  10.7542325000  7.3538908006  3.3775045033
2422  8  14.2457725000  4.4671365679  1.1258288300
2423  8  16.5084600000  5.7735055786  1.1258288300
2424  8  14.2457675000  7.0798659291  1.1258288300
2425  8  11.7457675000  5.9105151277  5.6291711700
2426  8  11.7457725000  8.5232444888  5.6291711700
2427  8  14.0084600000  7.2168754781  5.6291711700
2428  8  14.2457675000  7.3538908006  10.1325045033
2429  8  11.7457725000  5.6364931429  10.1325045033
2430  8  11.5084600000  8.6602511511  10.1325045033
2431  4  12.5000000000  7.2168783649  13.7332257300
2432  4  15.0000000000  5.7735026919  20.0417742700
2433  4  12.5000000000  4.3301270189  18.2365590633
2434  4  12.5000000000  7.2168783649  24.5451076033
2435  4  15.0000000000  5.7735026919  22.7398923967
2436  4  12.5000000000  4.3301270189  15.5384409367
2437  4  15.0000000000  5.7735026919  26.7967742700
2438  4  12.5000000000  7.2168783649  20.4882257300
2439  4  12.5000000000  7.2168783649  17.7901076033
2440  4  12.5000000000  4.3301270189  24.9915590633
2441  4  12.5000000000  4.3301270189  22.2934409367
2442  4  15.0000000000  5.7735026919  15.9848923967
2443  8  13.2542275000  8.5232444888  25.8941711700
2444  8  10.9915400000  7.2168754781  25.8941711700
2445  8  13.2542325000  5.9105151277  25.8941711700
2446  8  15.7542325000  7.0798659291  21.3908288300
2447  8  15.7542275000  4.4671365679  21.3908288300
2448  8  13.4915400000  5.7735055786  21.3908288300
2449  8  13.2542275000  5.6364931429  16.8875045033
2450  8  13.4915400000  8.6602511511  16.8875045033
2451  8  10.7542325000  7.3538908006  16.8875045033
2452  8  14.2457725000  4.4671365679  14.6358288300
2453  8  16.5084600000  5.7735055786  14.6358288300
2454  8  14.2457675000  7.0798659291  14.6358288300
2455  8  11.7457675000  5.9105151277  19.1391711700
2456  8  11.7457725000  8.5232444888  19.1391711700
2457  8  14.0084600000  7.2168754781  19.1391711700
2458  8  14.2457675000  7.3538908006  23.6425045033
2459  8  11.7457725000  5.6364931429  23.6425045033
2460  8  11.5084600000  8.6602511511  23.6425045033
2461  4  12.5000000000  7.2168783649  27.2432257300
2462  4  15.0000000000  5.7735026919  33.5517742700
2463  4  12.5000000000  4.3301270189  31.7465590633
2464  4  12.5000000000  7.2168783649  38.0551076033
2465  4  15.0000000000  5.7735026919  36.2498923967
2466  4  12.5000000000  4.3301270189  29.0484409367
2467  4  15.0000000000  5.7735026919  40.3067742700
2468  4  12.5000000000  7.2168783649  33.9982257300
2469  4  12.5000000000  7.2168783649  31.3001076033
2470  4  12.5000000000  4.3301270189  38.5015590633
2471  4  12.5000000000  4.3301270189  35.8034409367
2472  4  15.0000000000  5.7735026919  29.4948923967
2473  8  13.2542275000  8.5232444888  39.4041711700
2474  8  10.9915400000  7.2168754781  39.4041711700
2475  8  13.2542325000  5.9105151277  39.4041711700
2476  8  15.7542325000  7.0798659291  34.9008288300
2477  8  15.7542275000  4.4671365679  34.9008288300
2478  8  13.4915400000  5.7735055786  34.9008288300
2479  8  13.2542275000  5.6364931429  30.3975045033
2480  8  13.4915400000  8.6602511511  30.3975045033
2481  8  10.7542325000  7.3538908006  30.3975045033
2482  8  14.2457725000  4.4671365679  28.1458288300
2483  8  16.5084600000  5.7735055786  28.1458288300
2484  8  14.2457675000  7.0798659291  28.1458288300
2485  8  11.7457675000  5.9105151277  32.6491711700
2486  8  11.7457725000  8.5232444888  32.6491711700
2487  8  14.0084600000  7.2168754781  32.6491711700
2488  8  14.2457675000  7.3538908006  37.1525045033
2489  8  11.7457725000  5.6364931429  37.1525045033
2490  8  11.5084600000  8.6602511511  37.1525045033
2491  4  12.5000000000  7.2168783649  40.7532257300
2492  4  15.0000000000  5.7735026919  47.0617742700
2493  4  12.5000000000  4.3301270189  45.2565590633
2494  4  12.5000000000  7.2168783649  51.5651076033
2495  4  15.0000000000  5.7735026919  49.7598923967
2496  4  12.5000000000  4.3301270189  42.5584409367
2497  4  15.0000000000  5.7735026919  53.8167742700
2498  4  12.5000000000  7.2168783649  47.5082257300
2499  4  12.5000000000  7.2168783649  44.8101076033
2500  4  12.5000000000  4.3301270189  52.0115590633
2501  4  12.5000000000  4.3301270189  49.3134409367
2502  4  15.0000000000  5.7735026919  43.0048923967
2503  8  13.2542275000  8.5232444888  52.9141711700
2504  8  10.9915400000  7.2168754781  52.9141711700
2505  8  13.2542325000  5.9105151277  52.9141711700
2506  8  15.7542325000  7.0798659291  48.4108288300
2507  8  15.7542275000  4.4671365679  48.4108288300
2508  8  13.4915400000  5.7735055786  48.4108288300
2509  8  13.2542275000  5.6364931429  43.9075045033
2510  8  13.4915400000  8.6602511511  43.9075045033
2511  8  10.7542325000  7.3538908006  43.9075045033
2512  8  14.2457725000  4.4671365679  41.6558288300
2513  8  16.5084600000  5.7735055786  41.6558288300
2514  8  14.2457675000  7.0798659291  41.6558288300
2515  8  11.7457675000  5.9105151277  46.1591711700
2516  8  11.7457725000  8.5232444888  46.1591711700
2517  8  14.0084600000  7.2168754781  46.1591711700
2518  8  14.2457675000  7.3538908006  50.6625045033
2519  8  11.7457725000  5.6364931429  50.6625045033
2520  8  11.5084600000  8.6602511511  50.6625045033
2521  4  12.5000000000  7.2168783649  54.2632257300
2522  4  15.0000000000  5.7735026919  60.5717742700
2523  4  12.5000000000  4.3301270189  58.7665590633
2524  4  12.5000000000  7.2168783649  65.0751076033
2525  4  15.0000000000  5.7735026919  63.2698923967
2526  4  12.5000000000  4.3301270189  56.0684409367
2527  4  15.0000000000  5.7735026919  67.3267742700
2528  4  12.5000000000  7.2168783649  61.0182257300
2529  4  12.5000000000  7.2168783649  58.3201076033
2530  4  12.5000000000  4.3301270189  65.5215590633
2531  4  12.5000000000  4.3301270189  62.8234409367
2532  4  15.0000000000  5.7735026919  56.5148923967
2533  8  13.2542275000  8.5232444888  66.4241711700
2534  8  10.9915400000  7.2168754781  66.4241711700
2535  8  13.2542325000  5.9105151277  66.4241711700
2536  8  15.7542325000  7.0798659291  61.9208288300
2537  8  15.7542275000  4.4671365679  61.9208288300
2538  8  13.4915400000  5.7735055786  61.9208288300
2539  8  13.2542275000  5.6364931429  57.4175045033
2540  8  13.4915400000  8.6602511511  57.4175045033
2541  8  10.7542325000  7.3538908006  57.4175045033
2542  8  14.2457725000  4.4671365679  55.1658288300
2543  8  16.5084600000  5.7735055786  55.1658288300
2544  8  14.2457675000  7.0798659291  55.1658288300
2545  8  11.7457675000  5.9105151277  59.6691711700
2546  8  11.7457725000  8.5232444888  59.6691711700
2547  8  14.0084600000  7.2168754781  59.6691711700
2548  8  14.2457675000  7.3538908006  64.1725045033
2549  8  11.7457725000  5.6364931429  64.1725045033
2550  8  11.5084600000  8.6602511511  64.1725045033
2551  4  10.0000000000  11.5470053838  0.2232257300
2552  4  12.5000000000  10.1036297108  6.5317742700
2553  4  10.0000000000  8.6602540378  4.7265590633
2554  4  10.0000000000  11.5470053838  11.0351076033
2555  4  12.5000000000  10.1036297108  9.2298923967
2556  4  10.0000000000  8.6602540378  2.0284409367
2557  4  12.5000000000  10.1036297108  13.2867742700
2558  4  10.0000000000  11.5470053838  6.9782257300
2559  4  10.0000000000  11.5470053838  4.2801076033
2560  4  10.0000000000  8.6602540378  11.4815590633
2561  4  10.0000000000  8.6602540378  8.7834409367
2562  4  12.5000000000  10.1036297108  2.4748923967
2563  8  10.7542275000  12.8533715078  12.3841711700
2564  8  8.4915400000  11.5470024970  12.3841711700
2565  8  10.7542325000  10.2406421466  12.3841711700
2566  8  13.2542325000  11.4099929480  7.8808288300
2567  8  13.2542275000  8.7972635869  7.8808288300
2568  8  10.9915400000  10.1036325976  7.8808288300
2569  8  10.7542275000  9.9666201618  3.3775045033
2570  8  10.9915400000  12.9903781700  3.3775045033
2571  8  8.2542325000  11.6840178195  3.3775045033
2572  8  11.7457725000  8.7972635869  1.1258288300
2573  8  14.0084600000  10.1036325976  1.1258288300
2574  8  11.7457675000  11.4099929480  1.1258288300
2575  8  9.2457675000  10.2406421466  5.6291711700
2576  8  9.2457725000  12.8533715078  5.6291711700
2577  8  11.5084600000  11.5470024970  5.6291711700
2578  8  11.7457675000  11.6840178195  10.1325045033
2579  8  9.2457725000  9.9666201618  10.1325045033
2580  8  9.0084600000  12.9903781700  10.1325045033
2581  4  10.0000000000  11.5470053838  13.7332257300
2582  4  12.5000000000  10.1036297108  20.0417742700
2583  4  10.0000000000  8.6602540378  18.2365590633
2584  4  10.0000000000  11.5470053838  24.5451076033
2585  4  12.5000000000  10.1036297108  22.7398923967
2586  4  10.0000000000  8.6602540378  15.5384409367
2587  4  12.5000000000  10.1036297108  26.7967742700
2588  4  10.0000000000  11.5470053838  20.4882257300
2589  4  10.0000000000  11.5470053838  17.7901076033
2590  4  10.0000000000  8.6602540378  24.9915590633
2591  4  10.0000000000  8.6602540378  22.2934409367
2592  4  12.5000000000  10.1036297108  15.9848923967
2593  8  10.7542275000  12.8533715078  25.8941711700
2594  8  8.4915400000  11.5470024970  25.8941711700
2595  8  10.7542325000  10.2406421466  25.8941711700
2596  8  13.2542325000  11.4099929480  21.3908288300
2597  8  13.2542275000  8.7972635869  21.3908288300
2598  8  10.9915400000  10.1036325976  21.3908288300
2599  8  10.7542275000  9.9666201618  16.8875045033
2600  8  10.9915400000  12.9903781700  16.8875045033
2601  8  8.2542325000  11.6840178195  16.8875045033
2602  8  11.7457725000  8.7972635869  14.6358288300
2603  8  14.0084600000  10.1036325976  14.6358288300
2604  8  11.7457675000  11.4099929480  14.6358288300
2605  8  9.2457675000  10.2406421466  19.1391711700
2606  8  9.2457725000  12.8533715078  19.1391711700
2607  8  11.5084600000  11.5470024970  19.1391711700
2608  8  11.7457675000  11.6840178195  23.6425045033
2609  8  9.2457725000  9.9666201618  23.6425045033
2610  8  9.0084600000  12.9903781700  23.6425045033
2611  4  10.0000000000  11.5470053838  27.2432257300
2612  4  12.5000000000  10.1036297108  33.5517742700
2613  4  10.0000000000  8.6602540378  31.7465590633
2614  4  10.0000000000  11.5470053838  38.0551076033
2615  4  12.5000000000  10.1036297108  36.2498923967
2616  4  10.0000000000  8.6602540378  29.0484409367
2617  4  12.5000000000  10.1036297108  40.3067742700
2618  4  10.0000000000  11.5470053838  33.9982257300
2619  4  10.0000000000  11.5470053838  31.3001076033
2620  4  10.0000000000  8.6602540378  38.5015590633
2621  4  10.0000000000  8.6602540378  35.8034409367
2622  4  12.5000000000  10.1036297108  29.4948923967
2623  8  10.7542275000  12.8533715078  39.4041711700
2624  8  8.4915400000  11.5470024970  39.4041711700
2625  8  10.7542325000  10.2406421466  39.4041711700
2626  8  13.2542325000  11.4099929480  34.9008288300
2627  8  13.2542275000  8.7972635869  34.9008288300
2628  8  10.9915400000  10.1036325976  34.9008288300
2629  8  10.7542275000  9.9666201618  30.3975045033
2630  8  10.9915400000  12.9903781700  30.3975045033
2631  8  8.2542325000  11.6840178195  30.3975045033
2632  8  11.7457725000  8.7972635869  28.1458288300
2633  8  14.0084600000  10.1036325976  28.1458288300
2634  8  11.7457675000  11.4099929480  28.1458288300
2635  8  9.2457675000  10.2406421466  32.6491711700
2636  8  9.2457725000  12.8533715078  32.6491711700
2637  8  11.5084600000  11.5470024970  32.6491711700
2638  8  11.7457675000  11.6840178195  37.1525045033
2639  8  9.2457725000  9.9666201618  37.1525045033
2640  8  9.0084600000  12.9903781700  37.1525045033
2641  4  10.0000000000  11.5470053838  40.7532257300
2642  4  12.5000000000  10.1036297108  47.0617742700
2643  4  10.0000000000  8.6602540378  45.2565590633
2644  4  10.0000000000  11.5470053838  51.5651076033
2645  4  12.5000000000  10.1036297108  49.7598923967
2646  4  10.0000000000  8.6602540378  42.5584409367
2647  4  12.5000000000  10.1036297108  53.8167742700
2648  4  10.0000000000  11.5470053838  47.5082257300
2649  4  10.0000000000  11.5470053838  44.8101076033
2650  4  10.0000000000  8.6602540378  52.0115590633
2651  4  10.0000000000  8.6602540378  49.3134409367
2652  4  12.5000000000  10.1036297108  43.0048923967
2653  8  10.7542275000  12.8533715078  52.9141711700
2654  8  8.4915400000  11.5470024970  52.9141711700
2655  8  10.7542325000  10.2406421466  52.9141711700
2656  8  13.2542325000  11.4099929480  48.4108288300
2657  8  13.2542275000  8.7972635869  48.4108288300
2658  8  10.9915400000  10.1036325976  48.4108288300
2659  8  10.7542275000  9.9666201618  43.9075045033
2660  8  10.9915400000  12.9903781700  43.9075045033
2661  8  8.2542325000  11.6840178195  43.9075045033
2662  8  11.7457725000  8.7972635869  41.6558288300
2663  8  14.0084600000  10.1036325976  41.6558288300
2664  8  11.7457675000  11.4099929480  41.6558288300
2665  8  9.2457675000  10.2406421466  46.1591711700
2666  8  9.2457725000  12.8533715078  46.1591711700
2667  8  11.5084600000  11.5470024970  46.1591711700
2668  8  11.7457675000  11.6840178195  50.6625045033
2669  8  9.2457725000  9.9666201618  50.6625045033
2670  8  9.0084600000  12.9903781700  50.6625045033
2671  4  10.0000000000  11.5470053838  54.2632257300
2672  4  12.5000000000  10.1036297108  60.5717742700
2673  4  10.0000000000  8.6602540378  58.7665590633
2674  4  10.0000000000  11.5470053838  65.0751076033
2675  4  12.5000000000  10.1036297108  63.2698923967
2676  4  10.0000000000  8.6602540378  56.0684409367
2677  4  12.5000000000  10.1036297108  67.3267742700
2678  4  10.0000000000  11.5470053838  61.0182257300
2679  4  10.0000000000  11.5470053838  58.3201076033
2680  4  10.0000000000  8.6602540378  65.5215590633
2681  4  10.0000000000  8.6602540378  62.8234409367
2682  4  12.5000000000  10.1036297108  56.5148923967
2683  8  10.7542275000  12.8533715078  66.4241711700
2684  8  8.4915400000  11.5470024970  66.4241711700
2685  8  10.7542325000  10.2406421466  66.4241711700
2686  8  13.2542325000  11.4099929480  61.9208288300
2687  8  13.2542275000  8.7972635869  61.9208288300
2688  8  10.9915400000  10.1036325976  61.9208288300
2689  8  10.7542275000  9.9666201618  57.4175045033
2690  8  10.9915400000  12.9903781700  57.4175045033
2691  8  8.2542325000  11.6840178195  57.4175045033
2692  8  11.7457725000  8.7972635869  55.1658288300
2693  8  14.0084600000  10.1036325976  55.1658288300
2694  8  11.7457675000  11.4099929480  55.1658288300
2695  8  9.2457675000  10.2406421466  59.6691711700
2696  8  9.2457725000  12.8533715078  59.6691711700
2697  8  11.5084600000  11.5470024970  59.6691711700
2698  8  11.7457675000  11.6840178195  64.1725045033
2699  8  9.2457725000  9.9666201618  64.1725045033
2700  8  9.0084600000  12.9903781700  64.1725045033
2701  4  7.5000000000  15.8771324027  0.2232257300
2702  4  10.0000000000  14.4337567297  6.5317742700
2703  4  7.5000000000  12.9903810568  4.7265590633
2704  4  7.5000000000  15.8771324027  11.0351076033
2705  4  10.0000000000  14.4337567297  9.2298923967
2706  4  7.5000000000  12.9903810568  2.0284409367
2707  4  10.0000000000  14.4337567297  13.2867742700
2708  4  7.5000000000  15.8771324027  6.9782257300
2709  4  7.5000000000  15.8771324027  4.2801076033
2710  4  7.5000000000  12.9903810568  11.4815590633
2711  4  7.5000000000  12.9903810568  8.7834409367
2712  4  10.0000000000  14.4337567297  2.4748923967
2713  8  8.2542275000  17.1834985267  12.3841711700
2714  8  5.9915400000  15.8771295160  12.3841711700
2715  8  8.2542325000  14.5707691655  12.3841711700
2716  8  10.7542325000  15.7401199670  7.8808288300
2717  8  10.7542275000  13.1273906058  7.8808288300
2718  8  8.4915400000  14.4337596165  7.8808288300
2719  8  8.2542275000  14.2967471807  3.3775045033
2720  8  8.4915400000  17.3205051889  3.3775045033
2721  8  5.7542325000  16.0141448385  3.3775045033
2722  8  9.2457725000  13.1273906058  1.1258288300
2723  8  11.5084600000  14.4337596165  1.1258288300
2724  8  9.2457675000  15.7401199670  1.1258288300
2725  8  6.7457675000  14.5707691655  5.6291711700
2726  8  6.7457725000  17.1834985267  5.6291711700
2727  8  9.0084600000  15.8771295160  5.6291711700
2728  8  9.2457675000  16.0141448385  10.1325045033
2729  8  6.7457725000  14.2967471807  10.1325045033
2730  8  6.5084600000  17.3205051889  10.1325045033
2731  4  7.5000000000  15.8771324027  13.7332257300
2732  4  10.0000000000  14.4337567297  20.0417742700
2733  4  7.5000000000  12.9903810568  18.2365590633
2734  4  7.5000000000  15.8771324027  24.5451076033
2735  4  10.0000000000  14.4337567297  22.7398923967
2736  4  7.5000000000  12.9903810568  15.5384409367
2737  4  10.0000000000  14.4337567297  26.7967742700
2738  4  7.5000000000  15.8771324027  20.4882257300
2739  4  7.5000000000  15.8771324027  17.7901076033
2740  4  7.5000000000  12.9903810568  24.9915590633
2741  4  7.5000000000  12.9903810568  22.2934409367
2742  4  10.0000000000  14.4337567297  15.9848923967
2743  8  8.2542275000  17.1834985267  25.8941711700
2744  8  5.9915400000  15.8771295160  25.8941711700
2745  8  8.2542325000  14.5707691655  25.8941711700
2746  8  10.7542325000  15.7401199670  21.3908288300
2747  8  10.7542275000  13.1273906058  21.3908288300
2748  8  8.4915400000  14.4337596165  21.3908288300
2749  8  8.2542275000  14.2967471807  16.8875045033
2750  8  8.4915400000  17.3205051889  16.8875045033
2751  8  5.7542325000  16.0141448385  16.8875045033
2752  8  9.2457725000  13.1273906058  14.6358288300
2753  8  11.5084600000  14.4337596165  14.6358288300
2754  8  9.2457675000  15.7401199670  14.6358288300
2755  8  6.7457675000  14.5707691655  19.1391711700
2756  8  6.7457725000  17.1834985267  19.1391711700
2757  8  9.0084600000  15.8771295160  19.1391711700
2758  8  9.2457675000  16.0141448385  23.6425045033
2759  8  6.7457725000  14.2967471807  23.6425045033
2760  8  6.5084600000  17.3205051889  23.6425045033
2761  4  7.5000000000  15.8771324027  27.2432257300
2762  4  10.0000000000  14.4337567297  33.5517742700
2763  4  7.5000000000  12.9903810568  31.7465590633
2764  4  7.5000000000  15.8771324027  38.0551076033
2765  4  10.0000000000  14.4337567297  36.2498923967
2766  4  7.5000000000  12.9903810568  29.0484409367
2767  4  10.0000000000  14.4337567297  40.3067742700
2768  4  7.5000000000  15.8771324027  33.9982257300
2769  4  7.5000000000  15.8771324027  31.3001076033
2770  4  7.5000000000  12.9903810568  38.5015590633
2771  4  7.5000000000  12.9903810568  35.8034409367
2772  4  10.0000000000  14.4337567297  29.4948923967
2773  8  8.2542275000  17.1834985267  39.4041711700
2774  8  5.9915400000  15.8771295160  39.4041711700
2775  8  8.2542325000  14.5707691655  39.4041711700
2776  8  10.7542325000  15.7401199670  34.9008288300
2777  8  10.7542275000  13.1273906058  34.9008288300
2778  8  8.4915400000  14.4337596165  34.9008288300
2779  8  8.2542275000  14.2967471807  30.3975045033
2780  8  8.4915400000  17.3205051889  30.3975045033
2781  8  5.7542325000  16.0141448385  30.3975045033
2782  8  9.2457725000  13.1273906058  28.1458288300
2783  8  11.5084600000  14.4337596165  28.1458288300
2784  8  9.2457675000  15.7401199670  28.1458288300
2785  8  6.7457675000  14.5707691655  32.6491711700
2786  8  6.7457725000  17.1834985267  32.6491711700
2787  8  9.0084600000  15.8771295160  32.6491711700
2788  8  9.2457675000  16.0141448385  37.1525045033
2789  8  6.7457725000  14.2967471807  37.1525045033
2790  8  6.5084600000  17.3205051889  37.1525045033
2791  4  7.5000000000  15.8771324027  40.7532257300
2792  4  10.0000000000  14.4337567297  47.0617742700
2793  4  7.5000000000  12.9903810568  45.2565590633
2794  4  7.5000000000  15.8771324027  51.5651076033
2795  4  10.0000000000  14.4337567297  49.7598923967
2796  4  7.5000000000  12.9903810568  42.5584409367
2797  4  10.0000000000  14.4337567297  53.8167742700
2798  4  7.5000000000  15.8771324027  47.5082257300
2799  4  7.5000000000  15.8771324027  44.8101076033
2800  4  7.5000000000  12.9903810568  52.0115590633
2801  4  7.5000000000  12.9903810568  49.3134409367
2802  4  10.0000000000  14.4337567297  43.0048923967
2803  8  8.2542275000  17.1834985267  52.9141711700
2804  8  5.9915400000  15.8771295160  52.9141711700
2805  8  8.2542325000  14.5707691655  52.9141711700
2806  8  10.7542325000  15.7401199670  48.4108288300
2807  8  10.7542275000  13.1273906058  48.4108288300
2808  8  8.4915400000  14.4337596165  48.4108288300
2809  8  8.2542275000  14.2967471807  43.9075045033
2810  8  8.4915400000  17.3205051889  43.9075045033
2811  8  5.7542325000  16.0141448385  43.9075045033
2812  8  9.2457725000  13.1273906058  41.6558288300
2813  8  11.5084600000  14.4337596165  41.6558288300
2814  8  9.2457675000  15.7401199670  41.6558288300
2815  8  6.7457675000  14.5707691655  46.1591711700
2816  8  6.7457725000  17.1834985267  46.1591711700
2817  8  9.0084600000  15.8771295160  46.1591711700
2818  8  9.2457675000  16.0141448385  50.6625045033
2819  8  6.7457725000  14.2967471807  50.6625045033
2820  8  6.5084600000  17.3205051889  50.6625045033
2821  4  7.5000000000  15.8771324027  54.2632257300
2822  4  10.0000000000  14.4337567297  60.5717742700
2823  4  7.5000000000  12.9903810568  58.7665590633
2824  4  7.5000000000  15.8771324027  65.0751076033
2825  4  10.0000000000  14.4337567297  63.2698923967
2826  4  7.5000000000  12.9903810568  56.0684409367
2827  4  10.0000000000  14.4337567297  67.3267742700
2828  4  7.5000000000  15.8771324027  61.0182257300
2829  4  7.5000000000  15.8771324027  58.3201076033
2830  4  7.5000000000  12.9903810568  65.5215590633
2831  4  7.5000000000  12.9903810568  62.8234409367
2832  4  10.0000000000  14.4337567297  56.5148923967
2833  8  8.2542275000  17.1834985267  66.4241711700
2834  8  5.9915400000  15.8771295160  66.4241711700
2835  8  8.2542325000  14.5707691655  66.4241711700
2836  8  10.7542325000  15.7401199670  61.9208288300
2837  8  10.7542275000  13.1273906058  61.9208288300
2838  8  8.4915400000  14.4337596165  61.9208288300
2839  8  8.2542275000  14.2967471807  57.4175045033
2840  8  8.4915400000  17.3205051889  57.4175045033
2841  8  5.7542325000  16.0141448385  57.4175045033
2842  8  9.2457725000  13.1273906058  55.1658288300
2843  8  11.5084600000  14.4337596165  55.1658288300
2844  8  9.2457675000  15.7401199670  55.1658288300
2845  8  6.7457675000  14.5707691655  59.6691711700
2846  8  6.7457725000  17.1834985267  59.6691711700
2847  8  9.0084600000  15.8771295160  59.6691711700
2848  8  9.2457675000  16.0141448385  64.1725045033
2849  8  6.7457725000  14.2967471807  64.1725045033
2850  8  6.5084600000  17.3205051889  64.1725045033
2851  4  5.0000000000  20.2072594216  0.2232257300
2852  4  7.5000000000  18.7638837487  6.5317742700
2853  4  5.0000000000  17.3205080757  4.7265590633
2854  4  5.0000000000  20.2072594216  11.0351076033
2855  4  7.5000000000  18.7638837487  9.2298923967
2856  4  5.0000000000  17.3205080757  2.0284409367
2857  4  7.5000000000  18.7638837487  13.2867742700
2858  4  5.0000000000  20.2072594216  6.9782257300
2859  4  5.0000000000  20.2072594216  4.2801076033
2860  4  5.0000000000  17.3205080757  11.4815590633
2861  4  5.0000000000  17.3205080757  8.7834409367
2862  4  7.5000000000  18.7638837487  2.4748923967
2863  8  5.7542275000  21.5136255456  12.3841711700
2864  8  3.4915400000  20.2072565349  12.3841711700
2865  8  5.7542325000  18.9008961844  12.3841711700
2866  8  8.2542325000  20.0702469859  7.8808288300
2867  8  8.2542275000  17.4575176247  7.8808288300
2868  8  5.9915400000  18.7638866354  7.8808288300
2869  8  5.7542275000  18.6268741997  3.3775045033
2870  8  5.9915400000  21.6506322079  3.3775045033
2871  8  3.2542325000  20.3442718574  3.3775045033
2872  8  6.7457725000  17.4575176247  1.1258288300
2873  8  9.0084600000  18.7638866354  1.1258288300
2874  8  6.7457675000  20.0702469859  1.1258288300
2875  8  4.2457675000  18.9008961844  5.6291711700
2876  8  4.2457725000  21.5136255456  5.6291711700
2877  8  6.5084600000  20.2072565349  5.6291711700
2878  8  6.7457675000  20.3442718574  10.1325045033
2879  8  4.2457725000  18.6268741997  10.1325045033
2880  8  4.0084600000  21.6506322079  10.1325045033
2881  4  5.0000000000  20.2072594216  13.7332257300
2882  4  7.5000000000  18.7638837487  20.0417742700
2883  4  5.0000000000  17.3205080757  18.2365590633
2884  4  5.0000000000  20.2072594216  24.5451076033
2885  4  7.5000000000  18.7638837487  22.7398923967
2886  4  5.0000000000  17.3205080757  15.5384409367
2887  4  7.5000000000  18.7638837487  26.7967742700
2888  4  5.0000000000  20.2072594216  20.4882257300
2889  4  5.0000000000  20.2072594216  17.7901076033
2890  4  5.0000000000  17.3205080757  24.9915590633
2891  4  5.0000000000  17.3205080757  22.2934409367
2892  4  7.5000000000  18.7638837487  15.9848923967
2893  8  5.7542275000  21.5136255456  25.8941711700
2894  8  3.4915400000  20.2072565349  25.8941711700
2895  8  5.7542325000  18.9008961844  25.8941711700
2896  8  8.2542325000  20.0702469859  21.3908288300
2897  8  8.2542275000  17.4575176247  21.3908288300
2898  8  5.9915400000  18.7638866354  21.3908288300
2899  8  5.7542275000  18.6268741997  16.8875045033
2900  8  5.9915400000  21.6506322079  16.8875045033
2901  8  3.2542325000  20.3442718574  16.8875045033
2902  8  6.7457725000  17.4575176247  14.6358288300
2903  8  9.0084600000  18.7638866354  14.6358288300
2904  8  6.7457675000  20.0702469859  14.6358288300
2905  8  4.2457675000  18.9008961844  19.1391711700
2906  8  4.2457725000  21.5136255456  19.1391711700
2907  8  6.5084600000  20.2072565349  19.1391711700
2908  8  6.7457675000  20.3442718574  23.6425045033
2909  8  4.2457725000  18.6268741997  23.6425045033
2910  8  4.0084600000  21.6506322079  23.6425045033
2911  4  5.0000000000  20.2072594216  27.2432257300
2912  4  7.5000000000  18.7638837487  33.5517742700
2913  4  5.0000000000  17.3205080757  31.7465590633
2914  4  5.0000000000  20.2072594216  38.0551076033
2915  4  7.5000000000  18.7638837487  36.2498923967
2916  4  5.0000000000  17.3205080757  29.0484409367
2917  4  7.5000000000  18.7638837487  40.3067742700
2918  4  5.0000000000  20.2072594216  33.9982257300
2919  4  5.0000000000  20.2072594216  31.3001076033
2920  4  5.0000000000  17.3205080757  38.5015590633
2921  4  5.0000000000  17.3205080757  35.8034409367
2922  4  7.5000000000  18.7638837487  29.4948923967
2923  8  5.7542275000  21.5136255456  39.4041711700
2924  8  3.4915400000  20.2072565349  39.4041711700
2925  8  5.7542325000  18.9008961844  39.4041711700
2926  8  8.2542325000  20.0702469859  34.9008288300
2927  8  8.2542275000  17.4575176247  34.9008288300
2928  8  5.9915400000  18.7638866354  34.9008288300
2929  8  5.7542275000  18.6268741997  30.3975045033
2930  8  5.9915400000  21.6506322079  30.3975045033
2931  8  3.2542325000  20.3442718574  30.3975045033
2932  8  6.7457725000  17.4575176247  28.1458288300
2933  8  9.0084600000  18.7638866354  28.1458288300
2934  8  6.7457675000  20.0702469859  28.1458288300
2935  8  4.2457675000  18.9008961844  32.6491711700
2936  8  4.2457725000  21.5136255456  32.6491711700
2937  8  6.5084600000  20.2072565349  32.6491711700
2938  8  6.7457675000  20.3442718574  37.1525045033
2939  8  4.2457725000  18.6268741997  37.1525045033
2940  8  4.0084600000  21.6506322079  37.1525045033
2941  4  5.0000000000  20.2072594216  40.7532257300
2942  4  7.5000000000  18.7638837487  47.0617742700
2943  4  5.0000000000  17.3205080757  45.2565590633
2944  4  5.0000000000  20.2072594216  51.5651076033
2945  4  7.5000000000  18.7638837487  49.7598923967
2946  4  5.0000000000  17.3205080757  42.5584409367
2947  4  7.5000000000  18.7638837487  53.8167742700
2948  4  5.0000000000  20.2072594216  47.5082257300
2949  4  5.0000000000  20.2072594216  44.8101076033
2950  4  5.0000000000  17.3205080757  52.0115590633
2951  4  5.0000000000  17.3205080757  49.3134409367
2952  4  7.5000000000  18.7638837487  43.0048923967
2953  8  5.7542275000  21.5136255456  52.9141711700
2954  8  3.4915400000  20.2072565349  52.9141711700
2955  8  5.7542325000  18.9008961844  52.9141711700
2956  8  8.2542325000  20.0702469859  48.4108288300
2957  8  8.2542275000  17.4575176247  48.4108288300
2958  8  5.9915400000  18.7638866354  48.4108288300
2959  8  5.7542275000  18.6268741997  43.9075045033
2960  8  5.9915400000  21.6506322079  43.9075045033
2961  8  3.2542325000  20.3442718574  43.9075045033
2962  8  6.7457725000  17.4575176247  41.6558288300
2963  8  9.0084600000  18.7638866354  41.6558288300
2964  8  6.7457675000  20.0702469859  41.6558288300
2965  8  4.2457675000  18.9008961844  46.1591711700
2966  8  4.2457725000  21.5136255456  46.1591711700
2967  8  6.5084600000  20.2072565349  46.1591711700
2968  8  6.7457675000  20.3442718574  50.6625045033
2969  8  4.2457725000  18.6268741997  50.6625045033
2970  8  4.0084600000  21.6506322079  50.6625045033
2971  4  5.0000000000  20.2072594216  54.2632257300
2972  4  7.5000000000  18.7638837487  60.5717742700
2973  4  5.0000000000  17.3205080757  58.7665590633
2974  4  5.0000000000  20.2072594216  65.0751076033
2975  4  7.5000000000  18.7638837487  63.2698923967
2976  4  5.0000000000  17.3205080757  56.0684409367
2977  4  7.5000000000  18.7638837487  67.3267742700
2978  4  5.0000000000  20.2072594216  61.0182257300
2979  4  5.0000000000  20.2072594216  58.3201076033
2980  4  5.0000000000  17.3205080757  65.5215590633
2981  4  5.0000000000  17.3205080757  62.8234409367
2982  4  7.5000000000  18.7638837487  56.5148923967
2983  8  5.7542275000  21.5136255456  66.4241711700
2984  8  3.4915400000  20.2072565349  66.4241711700
2985  8  5.7542325000  18.9008961844  66.4241711700
2986  8  8.2542325000  20.0702469859  61.9208288300
2987  8  8.2542275000  17.4575176247  61.9208288300
2988  8  5.9915400000  18.7638866354  61.9208288300
2989  8  5.7542275000  18.6268741997  57.4175045033
2990  8  5.9915400000  21.6506322079  57.4175045033
2991  8  3.2542325000  20.3442718574  57.4175045033
2992  8  6.7457725000  17.4575176247  55.1658288300
2993  8  9.0084600000  18.7638866354  55.1658288300
2994  8  6.7457675000  20.0702469859  55.1658288300
2995  8  4.2457675000  18.9008961844  59.6691711700
2996  8  4.2457725000  21.5136255456  59.6691711700
2997  8  6.5084600000  20.2072565349  59.6691711700
2998  8  6.7457675000  20.3442718574  64.1725045033
2999  8  4.2457725000  18.6268741997  64.1725045033
3000  8  4.0084600000  21.6506322079  64.1725045033
3001  4  20.0000000000  2.8867513459  0.2232257300
3002  4  22.5000000000  1.4433756730  6.5317742700
3003  4  20.0000000000  -0.0000000000  4.7265590633
3004  4  20.0000000000  2.8867513459  11.0351076033
3005  4  22.5000000000  1.4433756730  9.2298923967
3006  4  20.0000000000  -0.0000000000  2.0284409367
3007  4  22.5000000000  1.4433756730  13.2867742700
3008  4  20.0000000000  2.8867513459  6.9782257300
3009  4  20.0000000000  2.8867513459  4.2801076033
3010  4  20.0000000000  -0.0000000000  11.4815590633
3011  4  20.0000000000  -0.0000000000  8.7834409367
3012  4  22.5000000000  1.4433756730  2.4748923967
3013  8  20.7542275000  4.1931174699  12.3841711700
3014  8  18.4915400000  2.8867484592  12.3841711700
3015  8  20.7542325000  1.5803881087  12.3841711700
3016  8  23.2542325000  2.7497389102  7.8808288300
3017  8  23.2542275000  0.1370095490  7.8808288300
3018  8  20.9915400000  1.4433785597  7.8808288300
3019  8  20.7542275000  1.3063661240  3.3775045033
3020  8  20.9915400000  4.3301241322  3.3775045033
3021  8  18.2542325000  3.0237637817  3.3775045033
3022  8  21.7457725000  0.1370095490  1.1258288300
3023  8  24.0084600000  1.4433785597  1.1258288300
3024  8  21.7457675000  2.7497389102  1.1258288300
3025  8  19.2457675000  1.5803881087  5.6291711700
3026  8  19.2457725000  4.1931174699  5.6291711700
3027  8  21.5084600000  2.8867484592  5.6291711700
3028  8  21.7457675000  3.0237637817  10.1325045033
3029  8  19.2457725000  1.3063661240  10.1325045033
3030  8  19.0084600000  4.3301241322  10.1325045033
3031  4  20.0000000000  2.8867513459  13.7332257300
3032  4  22.5000000000  1.4433756730  20.0417742700
3033  4  20.0000000000  -0.0000000000  18.2365590633
3034  4  20.0000000000  2.8867513459  24.5451076033
3035  4  22.5000000000  1.4433756730  22.7398923967
3036  4  20.0000000000  -0.0000000000  15.5384409367
3037  4  22.5000000000  1.4433756730  26.7967742700
3038  4  20.0000000000  2.8867513459  20.4882257300
3039  4  20.0000000000  2.8867513459  17.7901076033
3040  4  20.0000000000  -0.0000000000  24.9915590633
3041  4  20.0000000000  -0.0000000000  22.2934409367
3042  4  22.5000000000  1.4433756730  15.9848923967
3043  8  20.7542275000  4.1931174699  25.8941711700
3044  8  18.4915400000  2.8867484592  25.8941711700
3045  8  20.7542325000  1.5803881087  25.8941711700
3046  8  23.2542325000  2.7497389102  21.3908288300
3047  8  23.2542275000  0.1370095490  21.3908288300
3048  8  20.9915400000  1.4433785597  21.3908288300
3049  8  20.7542275000  1.3063661240  16.8875045033
3050  8  20.9915400000  4.3301241322  16.8875045033
3051  8  18.2542325000  3.0237637817  16.8875045033
3052  8  21.7457725000  0.1370095490  14.6358288300
3053  8  24.0084600000  1.4433785597  14.6358288300
3054  8  21.7457675000  2.7497389102  14.6358288300
3055  8  19.2457675000  1.5803881087  19.1391711700
3056  8  19.2457725000  4.1931174699  19.1391711700
3057  8  21.5084600000  2.8867484592  19.1391711700
3058  8  21.7457675000  3.0237637817  23.6425045033
3059  8  19.2457725000  1.3063661240  23.6425045033
3060  8  19.0084600000  4.3301241322  23.6425045033
3061  4  20.0000000000  2.8867513459  27.2432257300
3062  4  22.5000000000  1.4433756730  33.5517742700
3063  4  20.0000000000  -0.0000000000  31.7465590633
3064  4  20.0000000000  2.8867513459  38.0551076033
3065  4  22.5000000000  1.4433756730  36.2498923967
3066  4  20.0000000000  -0.0000000000  29.0484409367
3067  4  22.5000000000  1.4433756730  40.3067742700
3068  4  20.0000000000  2.8867513459  33.9982257300
3069  4  20.0000000000  2.8867513459  31.3001076033
3070  4  20.0000000000  -0.0000000000  38.5015590633
3071  4  20.0000000000  -0.0000000000  35.8034409367
3072  4  22.5000000000  1.4433756730  29.4948923967
3073  8  20.7542275000  4.1931174699  39.4041711700
3074  8  18.4915400000  2.8867484592  39.4041711700
3075  8  20.7542325000  1.5803881087  39.4041711700
3076  8  23.2542325000  2.7497389102  34.9008288300
3077  8  23.2542275000  0.1370095490  34.9008288300
3078  8  20.9915400000  1.4433785597  34.9008288300
3079  8  20.7542275000  1.3063661240  30.3975045033
3080  8  20.9915400000  4.3301241322  30.3975045033
3081  8  18.2542325000  3.0237637817  30.3975045033
3082  8  21.7457725000  0.1370095490  28.1458288300
3083  8  24.0084600000  1.4433785597  28.1458288300
3084  8  21.7457675000  2.7497389102  28.1458288300
3085  8  19.2457675000  1.5803881087  32.6491711700
3086  8  19.2457725000  4.1931174699  32.6491711700
3087  8  21.5084600000  2.8867484592  32.6491711700
3088  8  21.7457675000  3.0237637817  37.1525045033
3089  8  19.2457725000  1.3063661240  37.1525045033
3090  8  19.0084600000  4.3301241322  37.1525045033
3091  4  20.0000000000  2.8867513459  40.7532257300
3092  4  22.5000000000  1.4433756730  47.0617742700
3093  4  20.0000000000  -0.0000000000  45.2565590633
3094  4  20.0000000000  2.8867513459  51.5651076033
3095  4  22.5000000000  1.4433756730  49.7598923967
3096  4  20.0000000000  -0.0000000000  42.5584409367
3097  4  22.5000000000  1.4433756730  53.8167742700
3098  4  20.0000000000  2.8867513459  47.5082257300
3099  4  20.0000000000  2.8867513459  44.8101076033
3100  4  20.0000000000  -0.0000000000  52.0115590633
3101  4  20.0000000000  -0.0000000000  49.3134409367
3102  4  22.5000000000  1.4433756730  43.0048923967
3103  8  20.7542275000  4.1931174699  52.9141711700
3104  8  18.4915400000  2.8867484592  52.9141711700
3105  8  20.7542325000  1.5803881087  52.9141711700
3106  8  23.2542325000  2.7497389102  48.4108288300
3107  8  23.2542275000  0.1370095490  48.4108288300
3108  8  20.9915400000  1.4433785597  48.4108288300
3109  8  20.7542275000  1.3063661240  43.9075045033
3110  8  20.9915400000  4.3301241322  43.9075045033
3111  8  18.2542325000  3.0237637817  43.9075045033
3112  8  21.7457725000  0.1370095490  41.6558288300
3113  8  24.0084600000  1.4433785597  41.6558288300
3114  8  21.7457675000  2.7497389102  41.6558288300
3115  8  19.2457675000  1.5803881087  46.1591711700
3116  8  19.2457725000  4.1931174699  46.1591711700
3117  8  21.5084600000  2.8867484592  46.1591711700
3118  8  21.7457675000  3.0237637817  50.6625045033
3119  8  19.2457725000  1.3063661240  50.6625045033
3120  8  19.0084600000  4.3301241322  50.6625045033
3121  4  20.0000000000  2.8867513459  54.2632257300
3122  4  22.5000000000  1.4433756730  60.5717742700
3123  4  20.0000000000  -0.0000000000  58.7665590633
3124  4  20.0000000000  2.8867513459  65.0751076033
3125  4  22.5000000000  1.4433756730  63.2698923967
3126  4  20.0000000000  -0.0000000000  56.0684409367
3127  4  22.5000000000  1.4433756730  67.3267742700
3128  4  20.0000000000  2.8867513459  61.0182257300
3129  4  20.0000000000  2.8867513459  58.3201076033
3130  4  20.0000000000  -0.0000000000  65.5215590633
3131  4  20.0000000000  -0.0000000000  62.8234409367
3132  4  22.5000000000  1.4433756730  56.5148923967
3133  8  20.7542275000  4.1931174699  66.4241711700
3134  8  18.4915400000  2.8867484592  66.4241711700
3135  8  20.7542325000  1.5803881087  66.4241711700
3136  8  23.2542325000  2.7497389102  61.9208288300
3137  8  23.2542275000  0.1370095490  61.9208288300
3138  8  20.9915400000  1.4433785597  61.9208288300
3139  8  20.7542275000  1.3063661240  57.4175045033
3140  8  20.9915400000  4.3301241322  57.4175045033
3141  8  18.2542325000  3.0237637817  57.4175045033
3142  8  21.7457725000  0.1370095490  55.1658288300
3143  8  24.0084600000  1.4433785597  55.1658288300
3144  8  21.7457675000  2.7497389102  55.1658288300
3145  8  19.2457675000  1.5803881087  59.6691711700
3146  8  19.2457725000  4.1931174699  59.6691711700
3147  8  21.5084600000  2.8867484592  59.6691711700
3148  8  21.7457675000  3.0237637817  64.1725045033
3149  8  19.2457725000  1.3063661240  64.1725045033
3150  8  19.0084600000  4.3301241322  64.1725045033
3151  4  17.5000000000  7.2168783649  0.2232257300
3152  4  20.0000000000  5.7735026919  6.5317742700
3153  4  17.5000000000  4.3301270189  4.7265590633
3154  4  17.5000000000  7.2168783649  11.0351076033
3155  4  20.0000000000  5.7735026919  9.2298923967
3156  4  17.5000000000  4.3301270189  2.0284409367
3157  4  20.0000000000  5.7735026919  13.2867742700
3158  4  17.5000000000  7.2168783649  6.9782257300
3159  4  17.5000000000  7.2168783649  4.2801076033
3160  4  17.5000000000  4.3301270189  11.4815590633
3161  4  17.5000000000  4.3301270189  8.7834409367
3162  4  20.0000000000  5.7735026919  2.4748923967
3163  8  18.2542275000  8.5232444888  12.3841711700
3164  8  15.9915400000  7.2168754781  12.3841711700
3165  8  18.2542325000  5.9105151277  12.3841711700
3166  8  20.7542325000  7.0798659291  7.8808288300
3167  8  20.7542275000  4.4671365679  7.8808288300
3168  8  18.4915400000  5.7735055786  7.8808288300
3169  8  18.2542275000  5.6364931429  3.3775045033
3170  8  18.4915400000  8.6602511511  3.3775045033
3171  8  15.7542325000  7.3538908006  3.3775045033
3172  8  19.2457725000  4.4671365679  1.1258288300
3173  8  21.5084600000  5.7735055786  1.1258288300
3174  8  19.2457675000  7.0798659291  1.1258288300
3175  8  16.7457675000  5.9105151277  5.6291711700
3176  8  16.7457725000  8.5232444888  5.6291711700
3177  8  19.0084600000  7.2168754781  5.6291711700
3178  8  19.2457675000  7.3538908006  10.1325045033
3179  8  16.7457725000  5.6364931429  10.1325045033
3180  8  16.5084600000  8.6602511511  10.1325045033
3181  4  17.5000000000  7.2168783649  13.7332257300
3182  4  20.0000000000  5.7735026919  20.0417742700
3183  4  17.5000000000  4.3301270189  18.2365590633
3184  4  17.5000000000  7.2168783649  24.5451076033
3185  4  20.0000000000  5.7735026919  22.7398923967
3186  4  17.5000000000  4.3301270189  15.5384409367
3187  4  20.0000000000  5.7735026919  26.7967742700
3188  4  17.5000000000  7.2168783649  20.4882257300
3189  4  17.5000000000  7.2168783649  17.7901076033
3190  4  17.5000000000  4.3301270189  24.9915590633
3191  4  17.5000000000  4.3301270189  22.2934409367
3192  4  20.0000000000  5.7735026919  15.9848923967
3193  8  18.2542275000  8.5232444888  25.8941711700
3194  8  15.9915400000  7.2168754781  25.8941711700
3195  8  18.2542325000  5.9105151277  25.8941711700
3196  8  20.7542325000  7.0798659291  21.3908288300
3197  8  20.7542275000  4.4671365679  21.3908288300
3198  8  18.4915400000  5.7735055786  21.3908288300
3199  8  18.2542275000  5.6364931429  16.8875045033
3200  8  18.4915400000  8.6602511511  16.8875045033
3201  8  15.7542325000  7.3538908006  16.8875045033
3202  8  19.2457725000  4.4671365679  14.6358288300
3203  8  21.5084600000  5.7735055786  14.6358288300
3204  8  19.2457675000  7.0798659291  14.6358288300
3205  8  16.7457675000  5.9105151277  19.1391711700
3206  8  16.7457725000  8.5232444888  19.1391711700
3207  8  19.0084600000  7.2168754781  19.1391711700
3208  8  19.2457675000  7.3538908006  23.6425045033
3209  8  16.7457725000  5.6364931429  23.6425045033
3210  8  16.5084600000  8.6602511511  23.6425045033
3211  4  17.5000000000  7.2168783649  27.2432257300
3212  4  20.0000000000  5.7735026919  33.5517742700
3213  4  17.5000000000  4.3301270189  31.7465590633
3214  4  17.5000000000  7.2168783649  38.0551076033
3215  4  20.0000000000  5.7735026919  36.2498923967
3216  4  17.5000000000  4.3301270189  29.0484409367
3217  4  20.0000000000  5.7735026919  40.3067742700
3218  4  17.5000000000  7.2168783649  33.9982257300
3219  4  17.5000000000  7.2168783649  31.3001076033
3220  4  17.5000000000  4.3301270189  38.5015590633
3221  4  17.5000000000  4.3301270189  35.8034409367
3222  4  20.0000000000  5.7735026919  29.4948923967
3223  8  18.2542275000  8.5232444888  39.4041711700
3224  8  15.9915400000  7.2168754781  39.4041711700
3225  8  18.2542325000  5.9105151277  39.4041711700
3226  8  20.7542325000  7.0798659291  34.9008288300
3227  8  20.7542275000  4.4671365679  34.9008288300
3228  8  18.4915400000  5.7735055786  34.9008288300
3229  8  18.2542275000  5.6364931429  30.3975045033
3230  8  18.4915400000  8.6602511511  30.3975045033
3231  8  15.7542325000  7.3538908006  30.3975045033
3232  8  19.2457725000  4.4671365679  28.1458288300
3233  8  21.5084600000  5.7735055786  28.1458288300
3234  8  19.2457675000  7.0798659291  28.1458288300
3235  8  16.7457675000  5.9105151277  32.6491711700
3236  8  16.7457725000  8.5232444888  32.6491711700
3237  8  19.0084600000  7.2168754781  32.6491711700
3238  8  19.2457675000  7.3538908006  37.1525045033
3239  8  16.7457725000  5.6364931429  37.1525045033
3240  8  16.5084600000  8.6602511511  37.1525045033
3241  4  17.5000000000  7.2168783649  40.7532257300
3242  4  20.0000000000  5.7735026919  47.0617742700
3243  4  17.5000000000  4.3301270189  45.2565590633
3244  4  17.5000000000  7.2168783649  51.5651076033
3245  4  20.0000000000  5.7735026919  49.7598923967
3246  4  17.5000000000  4.3301270189  42.5584409367
3247  4  20.0000000000  5.7735026919  53.8167742700
3248  4  17.5000000000  7.2168783649  47.5082257300
3249  4  17.5000000000  7.2168783649  44.8101076033
3250  4  17.5000000000  4.3301270189  52.0115590633
3251  4  17.5000000000  4.3301270189  49.3134409367
3252  4  20.0000000000  5.7735026919  43.0048923967
3253  8  18.2542275000  8.5232444888  52.9141711700
3254  8  15.9915400000  7.2168754781  52.9141711700
3255  8  18.2542325000  5.9105151277  52.9141711700
3256  8  20.7542325000  7.0798659291  48.4108288300
3257  8  20.7542275000  4.4671365679  48.4108288300
3258  8  18.4915400000  5.7735055786  48.4108288300
3259  8  18.2542275000  5.6364931429  43.9075045033
3260  8  18.4915400000  8.6602511511  43.9075045033
3261  8  15.7542325000  7.3538908006  43.9075045033
3262  8  19.2457725000  4.4671365679  41.6558288300
3263  8  21.5084600000  5.7735055786  41.6558288300
3264  8  19.2457675000  7.0798659291  41.6558288300
3265  8  16.7457675000  5.9105151277  46.1591711700
3266  8  16.7457725000  8.5232444888  46.1591711700
3267  8  19.0084600000  7.2168754781  46.1591711700
3268  8  19.2457675000  7.3538908006  50.6625045033
3269  8  16.7457725000  5.6364931429  50.6625045033
3270  8  16.5084600000  8.6602511511  50.6625045033
3271  4  17.5000000000  7.2168783649  54.2632257300
3272  4  20.0000000000  5.7735026919  60.5717742700
3273  4  17.5000000000  4.3301270189  58.7665590633
3274  4  17.5000000000  7.2168783649  65.0751076033
3275  4  20.0000000000  5.7735026919  63.2698923967
3276  4  17.5000000000  4.3301270189  56.0684409367
3277  4  20.0000000000  5.7735026919  67.3267742700
3278  4  17.5000000000  7.2168783649  61.0182257300
3279  4  17.5000000000  7.2168783649  58.3201076033
3280  4  17.5000000000  4.3301270189  65.5215590633
3281  4  17.5000000000  4.3301270189  62.8234409367
3282  4  20.0000000000  5.7735026919  56.5148923967
3283  8  18.2542275000  8.5232444888  66.4241711700
3284  8  15.9915400000  7.2168754781  66.4241711700
3285  8  18.2542325000  5.9105151277  66.4241711700
3286  8  20.7542325000  7.0798659291  61.9208288300
3287  8  20.7542275000  4.4671365679  61.9208288300
3288  8  18.4915400000  5.7735055786  61.9208288300
3289  8  18.2542275000  5.6364931429  57.4175045033
3290  8  18.4915400000  8.6602511511  57.4175045033
3291  8  15.7542325000  7.3538908006  57.4175045033
3292  8  19.2457725000  4.4671365679  55.1658288300
3293  8  21.5084600000  5.7735055786  55.1658288300
3294  8  19.2457675000  7.0798659291  55.1658288300
3295  8  16.7457675000  5.9105151277  59.6691711700
3296  8  16.7457725000  8.5232444888  59.6691711700
3297  8  19.0084600000  7.2168754781  59.6691711700
3298  8  19.2457675000  7.3538908006  64.1725045033
3299  8  16.7457725000  5.6364931429  64.1725045033
3300  8  16.5084600000  8.6602511511  64.1725045033
3301  4  15.0000000000  11.5470053838  0.2232257300
3302  4  17.5000000000  10.1036297108  6.5317742700
3303  4  15.0000000000  8.6602540378  4.7265590633
3304  4  15.0000000000  11.5470053838  11.0351076033
3305  4  17.5000000000  10.1036297108  9.2298923967
3306  4  15.0000000000  8.6602540378  2.0284409367
3307  4  17.5000000000  10.1036297108  13.2867742700
3308  4  15.0000000000  11.5470053838  6.9782257300
3309  4  15.0000000000  11.5470053838  4.2801076033
3310  4  15.0000000000  8.6602540378  11.4815590633
3311  4  15.0000000000  8.6602540378  8.7834409367
3312  4  17.5000000000  10.1036297108  2.4748923967
3313  8  15.7542275000  12.8533715078  12.3841711700
3314  8  13.4915400000  11.5470024970  12.3841711700
3315  8  15.7542325000  10.2406421466  12.3841711700
3316  8  18.2542325000  11.4099929480  7.8808288300
3317  8  18.2542275000  8.7972635869  7.8808288300
3318  8  15.9915400000  10.1036325976  7.8808288300
3319  8  15.7542275000  9.9666201618  3.3775045033
3320  8  15.9915400000  12.9903781700  3.3775045033
3321  8  13.2542325000  11.6840178195  3.3775045033
3322  8  16.7457725000  8.7972635869  1.1258288300
3323  8  19.0084600000  10.1036325976  1.1258288300
3324  8  16.7457675000  11.4099929480  1.1258288300
3325  8  14.2457675000  10.2406421466  5.6291711700
3326  8  14.2457725000  12.8533715078  5.6291711700
3327  8  16.5084600000  11.5470024970  5.6291711700
3328  8  16.7457675000  11.6840178195  10.1325045033
3329  8  14.2457725000  9.9666201618  10.1325045033
3330  8  14.0084600000  12.9903781700  10.1325045033
3331  4  15.0000000000  11.5470053838  13.7332257300
3332  4  17.5000000000  10.1036297108  20.0417742700
3333  4  15.0000000000  8.6602540378  18.2365590633
3334  4  15.0000000000  11.5470053838  24.5451076033
3335  4  17.5000000000  10.1036297108  22.7398923967
3336  4  15.0000000000  8.6602540378  15.5384409367
3337  4  17.5000000000  10.1036297108  26.7967742700
3338  4  15.0000000000  11.5470053838  20.4882257300
3339  4  15.0000000000  11.5470053838  17.7901076033
3340  4  15.0000000000  8.6602540378  24.9915590633
3341  4  15.0000000000  8.6602540378  22.2934409367
3342  4  17.5000000000  10.1036297108  15.9848923967
3343  8  15.7542275000  12.8533715078  25.8941711700
3344  8  13.4915400000  11.5470024970  25.8941711700
3345  8  15.7542325000  10.2406421466  25.8941711700
3346  8  18.2542325000  11.4099929480  21.3908288300
3347  8  18.2542275000  8.7972635869  21.3908288300
3348  8  15.9915400000  10.1036325976  21.3908288300
3349  8  15.7542275000  9.9666201618  16.8875045033
3350  8  15.9915400000  12.9903781700  16.8875045033
3351  8  13.2542325000  11.6840178195  16.8875045033
3352  8  16.7457725000  8.7972635869  14.6358288300
3353  8  19.0084600000  10.1036325976  14.6358288300
3354  8  16.7457675000  11.4099929480  14.6358288300
3355  8  14.2457675000  10.2406421466  19.1391711700
3356  8  14.2457725000  12.8533715078  19.1391711700
3357  8  16.5084600000  11.5470024970  19.1391711700
3358  8  16.7457675000  11.6840178195  23.6425045033
3359  8  14.2457725000  9.9666201618  23.6425045033
3360  8  14.0084600000  12.9903781700  23.6425045033
3361  4  15.0000000000  11.5470053838  27.2432257300
3362  4  17.5000000000  10.1036297108  33.5517742700
3363  4  15.0000000000  8.6602540378  31.7465590633
3364  4  15.0000000000  11.5470053838  38.0551076033
3365  4  17.5000000000  10.1036297108  36.2498923967
3366  4  15.0000000000  8.6602540378  29.0484409367
3367  4  17.5000000000  10.1036297108  40.3067742700
3368  4  15.0000000000  11.5470053838  33.9982257300
3369  4  15.0000000000  11.5470053838  31.3001076033
3370  4  15.0000000000  8.6602540378  38.5015590633
3371  4  15.0000000000  8.6602540378  35.8034409367
3372  4  17.5000000000  10.1036297108  29.4948923967
3373  8  15.7542275000  12.8533715078  39.4041711700
3374  8  13.4915400000  11.5470024970  39.4041711700
3375  8  15.7542325000  10.2406421466  39.4041711700
3376  8  18.2542325000  11.4099929480  34.9008288300
3377  8  18.2542275000  8.7972635869  34.9008288300
3378  8  15.9915400000  10.1036325976  34.9008288300
3379  8  15.7542275000  9.9666201618  30.3975045033
3380  8  15.9915400000  12.9903781700  30.3975045033
3381  8  13.2542325000  11.6840178195  30.3975045033
3382  8  16.7457725000  8.7972635869  28.1458288300
3383  8  19.0084600000  10.1036325976  28.1458288300
3384  8  16.7457675000  11.4099929480  28.1458288300
3385  8  14.2457675000  10.2406421466  32.6491711700
3386  8  14.2457725000  12.8533715078  32.6491711700
3387  8  16.5084600000  11.5470024970  32.6491711700
3388  8  16.7457675000  11.6840178195  37.1525045033
3389  8  14.2457725000  9.9666201618  37.1525045033
3390  8  14.0084600000  12.9903781700  37.1525045033
3391  4  15.0000000000  11.5470053838  40.7532257300
3392  4  17.5000000000  10.1036297108  47.0617742700
3393  4  15.0000000000  8.6602540378  45.2565590633
3394  4  15.0000000000  11.5470053838  51.5651076033
3395  4  17.5000000000  10.1036297108  49.7598923967
3396  4  15.0000000000  8.6602540378  42.5584409367
3397  4  17.5000000000  10.1036297108  53.8167742700
3398  4  15.0000000000  11.5470053838  47.5082257300
3399  4  15.0000000000  11.5470053838  44.8101076033
3400  4  15.0000000000  8.6602540378  52.0115590633
3401  4  15.0000000000  8.6602540378  49.3134409367
3402  4  17.5000000000  10.1036297108  43.0048923967
3403  8  15.7542275000  12.8533715078  52.9141711700
3404  8  13.4915400000  11.5470024970  52.9141711700
3405  8  15.7542325000  10.2406421466  52.9141711700
3406  8  18.2542325000  11.4099929480  48.4108288300
3407  8  18.2542275000  8.7972635869  48.4108288300
3408  8  15.9915400000  10.1036325976  48.4108288300
3409  8  15.7542275000  9.9666201618  43.9075045033
3410  8  15.9915400000  12.9903781700  43.9075045033
3411  8  13.2542325000  11.6840178195  43.9075045033
3412  8  16.7457725000  8.7972635869  41.6558288300
3413  8  19.0084600000  10.1036325976  41.6558288300
3414  8  16.7457675000  11.4099929480  41.6558288300
3415  8  14.2457675000  10.2406421466  46.1591711700
3416  8  14.2457725000  12.8533715078  46.1591711700
3417  8  16.5084600000  11.5470024970  46.1591711700
3418  8  16.7457675000  11.6840178195  50.6625045033
3419  8  14.2457725000  9.9666201618  50.6625045033
3420  8  14.0084600000  12.9903781700  50.6625045033
3421  4  15.0000000000  11.5470053838  54.2632257300
3422  4  17.5000000000  10.1036297108  60.5717742700
3423  4  15.0000000000  8.6602540378  58.7665590633
3424  4  15.0000000000  11.5470053838  65.0751076033
3425  4  17.5000000000  10.1036297108  63.2698923967
3426  4  15.0000000000  8.6602540378  56.0684409367
3427  4  17.5000000000  10.1036297108  67.3267742700
3428  4  15.0000000000  11.5470053838  61.0182257300
3429  4  15.0000000000  11.5470053838  58.3201076033
3430  4  15.0000000000  8.6602540378  65.5215590633
3431  4  15.0000000000  8.6602540378  62.8234409367
3432  4  17.5000000000  10.1036297108  56.5148923967
3433  8  15.7542275000  12.8533715078  66.4241711700
3434  8  13.4915400000  11.5470024970  66.4241711700
3435  8  15.7542325000  10.2406421466  66.4241711700
3436  8  18.2542325000  11.4099929480  61.9208288300
3437  8  18.2542275000  8.7972635869  61.9208288300
3438  8  15.9915400000  10.1036325976  61.9208288300
3439  8  15.7542275000  9.9666201618  57.4175045033
3440  8  15.9915400000  12.9903781700  57.4175045033
3441  8  13.2542325000  11.6840178195  57.4175045033
3442  8  16.7457725000  8.7972635869  55.1658288300
3443  8  19.0084600000  10.1036325976  55.1658288300
3444  8  16.7457675000  11.4099929480  55.1658288300
3445  8  14.2457675000  10.2406421466  59.6691711700
3446  8  14.2457725000  12.8533715078  59.6691711700
3447  8  16.5084600000  11.5470024970  59.6691711700
3448  8  16.7457675000  11.6840178195  64.1725045033
3449  8  14.2457725000  9.9666201618  64.1725045033
3450  8  14.0084600000  12.9903781700  64.1725045033
3451  4  12.5000000000  15.8771324027  0.2232257300
3452  4  15.0000000000  14.4337567297  6.5317742700
3453  4  12.5000000000  12.9903810568  4.7265590633
3454  4  12.5000000000  15.8771324027  11.0351076033
3455  4  15.0000000000  14.4337567297  9.2298923967
3456  4  12.5000000000  12.9903810568  2.0284409367
3457  4  15.0000000000  14.4337567297  13.2867742700
3458  4  12.5000000000  15.8771324027  6.9782257300
3459  4  12.5000000000  15.8771324027  4.2801076033
3460  4  12.5000000000  12.9903810568  11.4815590633
3461  4  12.5000000000  12.9903810568  8.7834409367
3462  4  15.0000000000  14.4337567297  2.4748923967
3463  8  13.2542275000  17.1834985267  12.3841711700
3464  8  10.9915400000  15.8771295160  12.3841711700
3465  8  13.2542325000  14.5707691655  12.3841711700
3466  8  15.7542325000  15.7401199670  7.8808288300
3467  8  15.7542275000  13.1273906058  7.8808288300
3468  8  13.4915400000  14.4337596165  7.8808288300
3469  8  13.2542275000  14.2967471807  3.3775045033
3470  8  13.4915400000  17.3205051889  3.3775045033
3471  8  10.7542325000  16.0141448385  3.3775045033
3472  8  14.2457725000  13.1273906058  1.1258288300
3473  8  16.5084600000  14.4337596165  1.1258288300
3474  8  14.2457675000  15.7401199670  1.1258288300
3475  8  11.7457675000  14.5707691655  5.6291711700
3476  8  11.7457725000  17.1834985267  5.6291711700
3477  8  14.0084600000  15.8771295160  5.6291711700
3478  8  14.2457675000  16.0141448385  10.1325045033
3479  8  11.7457725000  14.2967471807  10.1325045033
3480  8  11.5084600000  17.3205051889  10.1325045033
3481  4  12.5000000000  15.8771324027  13.7332257300
3482  4  15.0000000000  14.4337567297  20.0417742700
3483  4  12.5000000000  12.9903810568  18.2365590633
3484  4  12.5000000000  15.8771324027  24.5451076033
3485  4  15.0000000000  14.4337567297  22.7398923967
3486  4  12.5000000000  12.9903810568  15.5384409367
3487  4  15.0000000000  14.4337567297  26.7967742700
3488  4  12.5000000000  15.8771324027  20.4882257300
3489  4  12.5000000000  15.8771324027  17.7901076033
3490  4  12.5000000000  12.9903810568  24.9915590633
3491  4  12.5000000000  12.9903810568  22.2934409367
3492  4  15.0000000000  14.4337567297  15.9848923967
3493  8  13.2542275000  17.1834985267  25.8941711700
3494  8  10.9915400000  15.8771295160  25.8941711700
3495  8  13.2542325000  14.5707691655  25.8941711700
3496  8  15.7542325000  15.7401199670  21.3908288300
3497  8  15.7542275000  13.1273906058  21.3908288300
3498  8  13.4915400000  14.4337596165  21.3908288300
3499  8  13.2542275000  14.2967471807  16.8875045033
3500  8  13.4915400000  17.3205051889  16.8875045033
3501  8  10.7542325000  16.0141448385  16.8875045033
3502  8  14.2457725000  13.1273906058  14.6358288300
3503  8  16.5084600000  14.4337596165  14.6358288300
3504  8  14.2457675000  15.7401199670  14.6358288300
3505  8  11.7457675000  14.5707691655  19.1391711700
3506  8  11.7457725000  17.1834985267  19.1391711700
3507  8  14.0084600000  15.8771295160  19.1391711700
3508  8  14.2457675000  16.0141448385  23.6425045033
3509  8  11.7457725000  14.2967471807  23.6425045033
3510  8  11.5084600000  17.3205051889  23.6425045033
3511  4  12.5000000000  15.8771324027  27.2432257300
3512  4  15.0000000000  14.4337567297  33.5517742700
3513  4  12.5000000000  12.9903810568  31.7465590633
3514  4  12.5000000000  15.8771324027  38.0551076033
3515  4  15.0000000000  14.4337567297  36.2498923967
3516  4  12.5000000000  12.9903810568  29.0484409367
3517  4  15.0000000000  14.4337567297  40.3067742700
3518  4  12.5000000000  15.8771324027  33.9982257300
3519  4  12.5000000000  15.8771324027  31.3001076033
3520  4  12.5000000000  12.9903810568  38.5015590633
3521  4  12.5000000000  12.9903810568  35.8034409367
3522  4  15.0000000000  14.4337567297  29.4948923967
3523  8  13.2542275000  17.1834985267  39.4041711700
3524  8  10.9915400000  15.8771295160  39.4041711700
3525  8  13.2542325000  14.5707691655  39.4041711700
3526  8  15.7542325000  15.7401199670  34.9008288300
3527  8  15.7542275000  13.1273906058  34.9008288300
3528  8  13.4915400000  14.4337596165  34.9008288300
3529  8  13.2542275000  14.2967471807  30.3975045033
3530  8  13.4915400000  17.3205051889  30.3975045033
3531  8  10.7542325000  16.0141448385  30.3975045033
3532  8  14.2457725000  13.1273906058  28.1458288300
3533  8  16.5084600000  14.4337596165  28.1458288300
3534  8  14.2457675000  15.7401199670  28.1458288300
3535  8  11.7457675000  14.5707691655  32.6491711700
3536  8  11.7457725000  17.1834985267  32.6491711700
3537  8  14.0084600000  15.8771295160  32.6491711700
3538  8  14.2457675000  16.0141448385  37.1525045033
3539  8  11.7457725000  14.2967471807  37.1525045033
3540  8  11.5084600000  17.3205051889  37.1525045033
3541  4  12.5000000000  15.8771324027  40.7532257300
3542  4  15.0000000000  14.4337567297  47.0617742700
3543  4  12.5000000000  12.9903810568  45.2565590633
3544  4  12.5000000000  15.8771324027  51.5651076033
3545  4  15.0000000000  14.4337567297  49.7598923967
3546  4  12.5000000000  12.9903810568  42.5584409367
3547  4  15.0000000000  14.4337567297  53.8167742700
3548  4  12.5000000000  15.8771324027  47.5082257300
3549  4  12.5000000000  15.8771324027  44.8101076033
3550  4  12.5000000000  12.9903810568  52.0115590633
3551  4  12.5000000000  12.9903810568  49.3134409367
3552  4  15.0000000000  14.4337567297  43.0048923967
3553  8  13.2542275000  17.1834985267  52.9141711700
3554  8  10.9915400000  15.8771295160  52.9141711700
3555  8  13.2542325000  14.5707691655  52.9141711700
3556  8  15.7542325000  15.7401199670  48.4108288300
3557  8  15.7542275000  13.1273906058  48.4108288300
3558  8  13.4915400000  14.4337596165  48.4108288300
3559  8  13.2542275000  14.2967471807  43.9075045033
3560  8  13.4915400000  17.3205051889  43.9075045033
3561  8  10.7542325000  16.0141448385  43.9075045033
3562  8  14.2457725000  13.1273906058  41.6558288300
3563  8  16.5084600000  14.4337596165  41.6558288300
3564  8  14.2457675000  15.7401199670  41.6558288300
3565  8  11.7457675000  14.5707691655  46.1591711700
3566  8  11.7457725000  17.1834985267  46.1591711700
3567  8  14.0084600000  15.8771295160  46.1591711700
3568  8  14.2457675000  16.0141448385  50.6625045033
3569  8  11.7457725000  14.2967471807  50.6625045033
3570  8  11.5084600000  17.3205051889  50.6625045033
3571  4  12.5000000000  15.8771324027  54.2632257300
3572  4  15.0000000000  14.4337567297  60.5717742700
3573  4  12.5000000000  12.9903810568  58.7665590633
3574  4  12.5000000000  15.8771324027  65.0751076033
3575  4  15.0000000000  14.4337567297  63.2698923967
3576  4  12.5000000000  12.9903810568  56.0684409367
3577  4  15.0000000000  14.4337567297  67.3267742700
3578  4  12.5000000000  15.8771324027  61.0182257300
3579  4  12.5000000000  15.8771324027  58.3201076033
3580  4  12.5000000000  12.9903810568  65.5215590633
3581  4  12.5000000000  12.9903810568  62.8234409367
3582  4  15.0000000000  14.4337567297  56.5148923967
3583  8  13.2542275000  17.1834985267  66.4241711700
3584  8  10.9915400000  15.8771295160  66.4241711700
3585  8  13.2542325000  14.5707691655  66.4241711700
3586  8  15.7542325000  15.7401199670  61.9208288300
3587  8  15.7542275000  13.1273906058  61.9208288300
3588  8  13.4915400000  14.4337596165  61.9208288300
3589  8  13.2542275000  14.2967471807  57.4175045033
3590  8  13.4915400000  17.3205051889  57.4175045033
3591  8  10.7542325000  16.0141448385  57.4175045033
3592  8  14.2457725000  13.1273906058  55.1658288300
3593  8  16.5084600000  14.4337596165  55.1658288300
3594  8  14.2457675000  15.7401199670  55.1658288300
3595  8  11.7457675000  14.5707691655  59.6691711700
3596  8  11.7457725000  17.1834985267  59.6691711700
3597  8  14.0084600000  15.8771295160  59.6691711700
3598  8  14.2457675000  16.0141448385  64.1725045033
3599  8  11.7457725000  14.2967471807  64.1725045033
3600  8  11.5084600000  17.3205051889  64.1725045033
3601  4  10.0000000000  20.2072594216  0.2232257300
3602  4  12.5000000000  18.7638837487  6.5317742700
3603  4  10.0000000000  17.3205080757  4.7265590633
3604  4  10.0000000000  20.2072594216  11.0351076033
3605  4  12.5000000000  18.7638837487  9.2298923967
3606  4  10.0000000000  17.3205080757  2.0284409367
3607  4  12.5000000000  18.7638837487  13.2867742700
3608  4  10.0000000000  20.2072594216  6.9782257300
3609  4  10.0000000000  20.2072594216  4.2801076033
3610  4  10.0000000000  17.3205080757  11.4815590633
3611  4  10.0000000000  17.3205080757  8.7834409367
3612  4  12.5000000000  18.7638837487  2.4748923967
3613  8  10.7542275000  21.5136255456  12.3841711700
3614  8  8.4915400000  20.2072565349  12.3841711700
3615  8  10.7542325000  18.9008961844  12.3841711700
3616  8  13.2542325000  20.0702469859  7.8808288300
3617  8  13.2542275000  17.4575176247  7.8808288300
3618  8  10.9915400000  18.7638866354  7.8808288300
3619  8  10.7542275000  18.6268741997  3.3775045033
3620  8  10.9915400000  21.6506322079  3.3775045033
3621  8  8.2542325000  20.3442718574  3.3775045033
3622  8  11.7457725000  17.4575176247  1.1258288300
3623  8  14.0084600000  18.7638866354  1.1258288300
3624  8  11.7457675000  20.0702469859  1.1258288300
3625  8  9.2457675000  18.9008961844  5.6291711700
3626  8  9.2457725000  21.5136255456  5.6291711700
3627  8  11.5084600000  20.2072565349  5.6291711700
3628  8  11.7457675000  20.3442718574  10.1325045033
3629  8  9.2457725000  18.6268741997  10.1325045033
3630  8  9.0084600000  21.6506322079  10.1325045033
3631  4  10.0000000000  20.2072594216  13.7332257300
3632  4  12.5000000000  18.7638837487  20.0417742700
3633  4  10.0000000000  17.3205080757  18.2365590633
3634  4  10.0000000000  20.2072594216  24.5451076033
3635  4  12.5000000000  18.7638837487  22.7398923967
3636  4  10.0000000000  17.3205080757  15.5384409367
3637  4  12.5000000000  18.7638837487  26.7967742700
3638  4  10.0000000000  20.2072594216  20.4882257300
3639  4  10.0000000000  20.2072594216  17.7901076033
3640  4  10.0000000000  17.3205080757  24.9915590633
3641  4  10.0000000000  17.3205080757  22.2934409367
3642  4  12.5000000000  18.7638837487  15.9848923967
3643  8  10.7542275000  21.5136255456  25.8941711700
3644  8  8.4915400000  20.2072565349  25.8941711700
3645  8  10.7542325000  18.9008961844  25.8941711700
3646  8  13.2542325000  20.0702469859  21.3908288300
3647  8  13.2542275000  17.4575176247  21.3908288300
3648  8  10.9915400000  18.7638866354  21.3908288300
3649  8  10.7542275000  18.6268741997  16.8875045033
3650  8  10.9915400000  21.6506322079  16.8875045033
3651  8  8.2542325000  20.3442718574  16.8875045033
3652  8  11.7457725000  17.4575176247  14.6358288300
3653  8  14.0084600000  18.7638866354  14.6358288300
3654  8  11.7457675000  20.0702469859  14.6358288300
3655  8  9.2457675000  18.9008961844  19.1391711700
3656  8  9.2457725000  21.5136255456  19.1391711700
3657  8  11.5084600000  20.2072565349  19.1391711700
3658  8  11.7457675000  20.3442718574  23.6425045033
3659  8  9.2457725000  18.6268741997  23.6425045033
3660  8  9.0084600000  21.6506322079  23.6425045033
3661  4  10.0000000000  20.2072594216  27.2432257300
3662  4  12.5000000000  18.7638837487  33.5517742700
3663  4  10.0000000000  17.3205080757  31.7465590633
3664  4  10.0000000000  20.2072594216  38.0551076033
3665  4  12.5000000000  18.7638837487  36.2498923967
3666  4  10.0000000000  17.3205080757  29.0484409367
3667  4  12.5000000000  18.7638837487  40.3067742700
3668  4  10.0000000000  20.2072594216  33.9982257300
3669  4  10.0000000000  20.2072594216  31.3001076033
3670  4  10.0000000000  17.3205080757  38.5015590633
3671  4  10.0000000000  17.3205080757  35.8034409367
3672  4  12.5000000000  18.7638837487  29.4948923967
3673  8  10.7542275000  21.5136255456  39.4041711700
3674  8  8.4915400000  20.2072565349  39.4041711700
3675  8  10.7542325000  18.9008961844  39.4041711700
3676  8  13.2542325000  20.0702469859  34.9008288300
3677  8  13.2542275000  17.4575176247  34.9008288300
3678  8  10.9915400000  18.7638866354  34.9008288300
3679  8  10.7542275000  18.6268741997  30.3975045033
3680  8  10.9915400000  21.6506322079  30.3975045033
3681  8  8.2542325000  20.3442718574  30.3975045033
3682  8  11.7457725000  17.4575176247  28.1458288300
3683  8  14.0084600000  18.7638866354  28.1458288300
3684  8  11.7457675000  20.0702469859  28.1458288300
3685  8  9.2457675000  18.9008961844  32.6491711700
3686  8  9.2457725000  21.5136255456  32.6491711700
3687  8  11.5084600000  20.2072565349  32.6491711700
3688  8  11.7457675000  20.3442718574  37.1525045033
3689  8  9.2457725000  18.6268741997  37.1525045033
3690  8  9.0084600000  21.6506322079  37.1525045033
3691  4  10.0000000000  20.2072594216  40.7532257300
3692  4  12.5000000000  18.7638837487  47.0617742700
3693  4  10.0000000000  17.3205080757  45.2565590633
3694  4  10.0000000000  20.2072594216  51.5651076033
3695  4  12.5000000000  18.7638837487  49.7598923967
3696  4  10.0000000000  17.3205080757  42.5584409367
3697  4  12.5000000000  18.7638837487  53.8167742700
3698  4  10.0000000000  20.2072594216  47.5082257300
3699  4  10.0000000000  20.2072594216  44.8101076033
3700  4  10.0000000000  17.3205080757  52.0115590633
3701  4  10.0000000000  17.3205080757  49.3134409367
3702  4  12.5000000000  18.7638837487  43.0048923967
3703  8  10.7542275000  21.5136255456  52.9141711700
3704  8  8.4915400000  20.2072565349  52.9141711700
3705  8  10.7542325000  18.9008961844  52.9141711700
3706  8  13.2542325000  20.0702469859  48.4108288300
3707  8  13.2542275000  17.4575176247  48.4108288300
3708  8  10.9915400000  18.7638866354  48.4108288300
3709  8  10.7542275000  18.6268741997  43.9075045033
3710  8  10.9915400000  21.6506322079  43.9075045033
3711  8  8.2542325000  20.3442718574  43.9075045033
3712  8  11.7457725000  17.4575176247  41.6558288300
3713  8  14.0084600000  18.7638866354  41.6558288300
3714  8  11.7457675000  20.0702469859  41.6558288300
3715  8  9.2457675000  18.9008961844  46.1591711700
3716  8  9.2457725000  21.5136255456  46.1591711700
3717  8  11.5084600000  20.2072565349  46.1591711700
3718  8  11.7457675000  20.3442718574  50.6625045033
3719  8  9.2457725000  18.6268741997  50.6625045033
3720  8  9.0084600000  21.6506322079  50.6625045033
3721  4  10.0000000000  20.2072594216  54.2632257300
3722  4  12.5000000000  18.7638837487  60.5717742700
3723  4  10.0000000000  17.3205080757  58.7665590633
3724  4  10.0000000000  20.2072594216  65.0751076033
3725  4  12.5000000000  18.7638837487  63.2698923967
3726  4  10.0000000000  17.3205080757  56.0684409367
3727  4  12.5000000000  18.7638837487  67.3267742700
3728  4  10.0000000000  20.2072594216  61.0182257300
3729  4  10.0000000000  20.2072594216  58.3201076033
3730  4  10.0000000000  17.3205080757  65.5215590633
3731  4  10.0000000000  17.3205080757  62.8234409367
3732  4  12.5000000000  18.7638837487  56.5148923967
3733  8  10.7542275000  21.5136255456  66.4241711700
3734  8  8.4915400000  20.2072565349  66.4241711700
3735  8  10.7542325000  18.9008961844  66.4241711700
3736  8  13.2542325000  20.0702469859  61.9208288300
3737  8  13.2542275000  17.4575176247  61.9208288300
3738  8  10.9915400000  18.7638866354  61.9208288300
3739  8  10.7542275000  18.6268741997  57.4175045033
3740  8  10.9915400000  21.6506322079  57.4175045033
3741  8  8.2542325000  20.3442718574  57.4175045033
3742  8  11.7457725000  17.4575176247  55.1658288300
3743  8  14.0084600000  18.7638866354  55.1658288300
3744  8  11.7457675000  20.0702469859  55.1658288300
3745  8  9.2457675000  18.9008961844  59.6691711700
3746  8  9.2457725000  21.5136255456  59.6691711700
3747  8  11.5084600000  20.2072565349  59.6691711700
3748  8  11.7457675000  20.3442718574  64.1725045033
3749  8  9.2457725000  18.6268741997  64.1725045033
3750  8  9.0084600000  21.6506322079  64.1725045033
