# Pure Ni bulk — written by Notebook 01

500 atoms
8 atom types

0.0  17.8550000000  xlo xhi
0.0  17.8550000000  ylo yhi
0.0  17.8550000000  zlo zhi

Masses

1  26.9815  # Al
2  10.811  # B
3  12.011  # C
4  51.9961  # Cr
5  55.845  # Fe
6  95.96  # Mo
7  58.6934  # Ni
8  1.008  # H

Atoms # atomic

1  7  0.0000000000  0.0000000000  0.0000000000
2  7  0.0000000000  1.7855000000  1.7855000000
3  7  1.7855000000  0.0000000000  1.7855000000
4  7  1.7855000000  1.7855000000  0.0000000000
5  7  0.0000000000  0.0000000000  3.5710000000
6  7  0.0000000000  1.7855000000  5.3565000000
7  7  1.7855000000  0.0000000000  5.3565000000
8  7  1.7855000000  1.7855000000  3.5710000000
9  7  0.0000000000  0.0000000000  7.1420000000
10  7  0.0000000000  1.7855000000  8.9275000000
11  7  1.7855000000  0.0000000000  8.9275000000
12  7  1.7855000000  1.7855000000  7.1420000000
13  7  0.0000000000  0.0000000000  10.7130000000
14  7  0.0000000000  1.7855000000  12.4985000000
15  7  1.7855000000  0.0000000000  12.4985000000
16  7  1.7855000000  1.7855000000  10.7130000000
17  7  0.0000000000  0.0000000000  14.2840000000
18  7  0.0000000000  1.7855000000  16.0695000000
19  7  1.7855000000  0.0000000000  16.0695000000
20  7  1.7855000000  1.7855000000  14.2840000000
21  7  0.0000000000  3.5710000000  0.0000000000
22  7  0.0000000000  5.3565000000  1.7855000000
23  7  1.7855000000  3.5710000000  1.7855000000
24  7  1.7855000000  5.3565000000  0.0000000000
25  7  0.0000000000  3.5710000000  3.5710000000
26  7  0.0000000000  5.3565000000  5.3565000000
27  7  1.7855000000  3.5710000000  5.3565000000
28  7  1.7855000000  5.3565000000  3.5710000000
29  7  0.0000000000  3.5710000000  7.1420000000
30  7  0.0000000000  5.3565000000  8.9275000000
31  7  1.7855000000  3.5710000000  8.9275000000
32  7  1.7855000000  5.3565000000  7.1420000000
33  7  0.0000000000  3.5710000000  10.7130000000
34  7  0.0000000000  5.3565000000  12.4985000000
35  7  1.7855000000  3.5710000000  12.4985000000
36  7  1.7855000000  5.3565000000  10.7130000000
37  7  0.0000000000  3.5710000000  14.2840000000
38  7  0.0000000000  5.3565000000  16.0695000000
39  7  1.7855000000  3.5710000000  16.0695000000
40  7  1.7855000000  5.3565000000  14.2840000000
41  7  0.0000000000  7.1420000000  0.0000000000
42  7  0.0000000000  8.9275000000  1.7855000000
43  7  1.7855000000  7.1420000000  1.7855000000
44  7  1.7855000000  8.9275000000  0.0000000000
45  7  0.0000000000  7.1420000000  3.5710000000
46  7  0.0000000000  8.9275000000  5.3565000000
47  7  1.7855000000  7.1420000000  5.3565000000
48  7  1.7855000000  8.9275000000  3.5710000000
49  7  0.0000000000  7.1420000000  7.1420000000
50  7  0.0000000000  8.9275000000  8.9275000000
51  7  1.7855000000  7.1420000000  8.9275000000
52  7  1.7855000000  8.9275000000  7.1420000000
53  7  0.0000000000  7.1420000000  10.7130000000
54  7  0.0000000000  8.9275000000  12.4985000000
55  7  1.7855000000  7.1420000000  12.4985000000
56  7  1.7855000000  8.9275000000  10.7130000000
57  7  0.0000000000  7.1420000000  14.2840000000
58  7  0.0000000000  8.9275000000  16.0695000000
59  7  1.7855000000  7.1420000000  16.0695000000
60  7  1.7855000000  8.9275000000  14.2840000000
61  7  0.0000000000  10.7130000000  0.0000000000
62  7  0.0000000000  12.4985000000  1.7855000000
63  7  1.7855000000  10.7130000000  1.7855000000
64  7  1.7855000000  12.4985000000  0.0000000000
65  7  0.0000000000  10.7130000000  3.5710000000
66  7  0.0000000000  12.4985000000  5.3565000000
67  7  1.7855000000  10.7130000000  5.3565000000
68  7  1.7855000000  12.4985000000  3.5710000000
69  7  0.0000000000  10.7130000000  7.1420000000
70  7  0.0000000000  12.4985000000  8.9275000000
71  7  1.7855000000  10.7130000000  8.9275000000
72  7  1.7855000000  12.4985000000  7.1420000000
73  7  0.0000000000  10.7130000000  10.7130000000
74  7  0.0000000000  12.4985000000  12.4985000000
75  7  1.7855000000  10.7130000000  12.4985000000
76  7  1.7855000000  12.4985000000  10.7130000000
77  7  0.0000000000  10.7130000000  14.2840000000
78  7  0.0000000000  12.4985000000  16.0695000000
79  7  1.7855000000  10.7130000000  16.0695000000
80  7  1.7855000000  12.4985000000  14.2840000000
81  7  0.0000000000  14.2840000000  0.0000000000
82  7  0.0000000000  16.0695000000  1.7855000000
83  7  1.7855000000  14.2840000000  1.7855000000
84  7  1.7855000000  16.0695000000  0.0000000000
85  7  0.0000000000  14.2840000000  3.5710000000
86  7  0.0000000000  16.0695000000  5.3565000000
87  7  1.7855000000  14.2840000000  5.3565000000
88  7  1.7855000000  16.0695000000  3.5710000000
89  7  0.0000000000  14.2840000000  7.1420000000
90  7  0.0000000000  16.0695000000  8.9275000000
91  7  1.7855000000  14.2840000000  8.9275000000
92  7  1.7855000000  16.0695000000  7.1420000000
93  7  0.0000000000  14.2840000000  10.7130000000
94  7  0.0000000000  16.0695000000  12.4985000000
95  7  1.7855000000  14.2840000000  12.4985000000
96  7  1.7855000000  16.0695000000  10.7130000000
97  7  0.0000000000  14.2840000000  14.2840000000
98  7  0.0000000000  16.0695000000  16.0695000000
99  7  1.7855000000  14.2840000000  16.0695000000
100  7  1.7855000000  16.0695000000  14.2840000000
101  7  3.5710000000  0.0000000000  0.0000000000
102  7  3.5710000000  1.7855000000  1.7855000000
103  7  5.3565000000  0.0000000000  1.7855000000
104  7  5.3565000000  1.7855000000  0.0000000000
105  7  3.5710000000  0.0000000000  3.5710000000
106  7  3.5710000000  1.7855000000  5.3565000000
107  7  5.3565000000  0.0000000000  5.3565000000
108  7  5.3565000000  1.7855000000  3.5710000000
109  7  3.5710000000  0.0000000000  7.1420000000
110  7  3.5710000000  1.7855000000  8.9275000000
111  7  5.3565000000  0.0000000000  8.9275000000
112  7  5.3565000000  1.7855000000  7.1420000000
113  7  3.5710000000  0.0000000000  10.7130000000
114  7  3.5710000000  1.7855000000  12.4985000000
115  7  5.3565000000  0.0000000000  12.4985000000
116  7  5.3565000000  1.7855000000  10.7130000000
117  7  3.5710000000  0.0000000000  14.2840000000
118  7  3.5710000000  1.7855000000  16.0695000000
119  7  5.3565000000  0.0000000000  16.0695000000
120  7  5.3565000000  1.7855000000  14.2840000000
121  7  3.5710000000  3.5710000000  0.0000000000
122  7  3.5710000000  5.3565000000  1.7855000000
123  7  5.3565000000  3.5710000000  1.7855000000
124  7  5.3565000000  5.3565000000  0.0000000000
125  7  3.5710000000  3.5710000000  3.5710000000
126  7  3.5710000000  5.3565000000  5.3565000000
127  7  5.3565000000  3.5710000000  5.3565000000
128  7  5.3565000000  5.3565000000  3.5710000000
129  7  3.5710000000  3.5710000000  7.1420000000
130  7  3.5710000000  5.3565000000  8.9275000000
131  7  5.3565000000  3.5710000000  8.9275000000
132  7  5.3565000000  5.3565000000  7.1420000000
133  7  3.5710000000  3.5710000000  10.7130000000
134  7  3.5710000000  5.3565000000  12.4985000000
135  7  5.3565000000  3.5710000000  12.4985000000
136  7  5.3565000000  5.3565000000  10.7130000000
137  7  3.5710000000  3.5710000000  14.2840000000
138  7  3.5710000000  5.3565000000  16.0695000000
139  7  5.3565000000  3.5710000000  16.0695000000
140  7  5.3565000000  5.3565000000  14.2840000000
141  7  3.5710000000  7.1420000000  0.0000000000
142  7  3.5710000000  8.9275000000  1.7855000000
143  7  5.3565000000  7.1420000000  1.7855000000
144  7  5.3565000000  8.9275000000  0.0000000000
145  7  3.5710000000  7.1420000000  3.5710000000
146  7  3.5710000000  8.9275000000  5.3565000000
147  7  5.3565000000  7.1420000000  5.3565000000
148  7  5.3565000000  8.9275000000  3.5710000000
149  7  3.5710000000  7.1420000000  7.1420000000
150  7  3.5710000000  8.9275000000  8.9275000000
151  7  5.3565000000  7.1420000000  8.9275000000
152  7  5.3565000000  8.9275000000  7.1420000000
153  7  3.5710000000  7.1420000000  10.7130000000
154  7  3.5710000000  8.9275000000  12.4985000000
155  7  5.3565000000  7.1420000000  12.4985000000
156  7  5.3565000000  8.9275000000  10.7130000000
157  7  3.5710000000  7.1420000000  14.2840000000
158  7  3.5710000000  8.9275000000  16.0695000000
159  7  5.3565000000  7.1420000000  16.0695000000
160  7  5.3565000000  8.9275000000  14.2840000000
161  7  3.5710000000  10.7130000000  0.0000000000
162  7  3.5710000000  12.4985000000  1.7855000000
163  7  5.3565000000  10.7130000000  1.7855000000
164  7  5.3565000000  12.4985000000  0.0000000000
165  7  3.5710000000  10.7130000000  3.5710000000
166  7  3.5710000000  12.4985000000  5.3565000000
167  7  5.3565000000  10.7130000000  5.3565000000
168  7  5.3565000000  12.4985000000  3.5710000000
169  7  3.5710000000  10.7130000000  7.1420000000
170  7  3.5710000000  12.4985000000  8.9275000000
171  7  5.3565000000  10.7130000000  8.9275000000
172  7  5.3565000000  12.4985000000  7.1420000000
173  7  3.5710000000  10.7130000000  10.7130000000
174  7  3.5710000000  12.4985000000  12.4985000000
175  7  5.3565000000  10.7130000000  12.4985000000
176  7  5.3565000000  12.4985000000  10.7130000000
177  7  3.5710000000  10.7130000000  14.2840000000
178  7  3.5710000000  12.4985000000  16.0695000000
179  7  5.3565000000  10.7130000000  16.0695000000
180  7  5.3565000000  12.4985000000  14.2840000000
181  7  3.5710000000  14.2840000000  0.0000000000
182  7  3.5710000000  16.0695000000  1.7855000000
183  7  5.3565000000  14.2840000000  1.7855000000
184  7  5.3565000000  16.0695000000  0.0000000000
185  7  3.5710000000  14.2840000000  3.5710000000
186  7  3.5710000000  16.0695000000  5.3565000000
187  7  5.3565000000  14.2840000000  5.3565000000
188  7  5.3565000000  16.0695000000  3.5710000000
189  7  3.5710000000  14.2840000000  7.1420000000
190  7  3.5710000000  16.0695000000  8.9275000000
191  7  5.3565000000  14.2840000000  8.9275000000
192  7  5.3565000000  16.0695000000  7.1420000000
193  7  3.5710000000  14.2840000000  10.7130000000
194  7  3.5710000000  16.0695000000  12.4985000000
195  7  5.3565000000  14.2840000000  12.4985000000
196  7  5.3565000000  16.0695000000  10.7130000000
197  7  3.5710000000  14.2840000000  14.2840000000
198  7  3.5710000000  16.0695000000  16.0695000000
199  7  5.3565000000  14.2840000000  16.0695000000
200  7  5.3565000000  16.0695000000  14.2840000000
201  7  7.1420000000  0.0000000000  0.0000000000
202  7  7.1420000000  1.7855000000  1.7855000000
203  7  8.9275000000  0.0000000000  1.7855000000
204  7  8.9275000000  1.7855000000  0.0000000000
205  7  7.1420000000  0.0000000000  3.5710000000
206  7  7.1420000000  1.7855000000  5.3565000000
207  7  8.9275000000  0.0000000000  5.3565000000
208  7  8.9275000000  1.7855000000  3.5710000000
209  7  7.1420000000  0.0000000000  7.1420000000
210  7  7.1420000000  1.7855000000  8.9275000000
211  7  8.9275000000  0.0000000000  8.9275000000
212  7  8.9275000000  1.7855000000  7.1420000000
213  7  7.1420000000  0.0000000000  10.7130000000
214  7  7.1420000000  1.7855000000  12.4985000000
215  7  8.9275000000  0.0000000000  12.4985000000
216  7  8.9275000000  1.7855000000  10.7130000000
217  7  7.1420000000  0.0000000000  14.2840000000
218  7  7.1420000000  1.7855000000  16.0695000000
219  7  8.9275000000  0.0000000000  16.0695000000
220  7  8.9275000000  1.7855000000  14.2840000000
221  7  7.1420000000  3.5710000000  0.0000000000
222  7  7.1420000000  5.3565000000  1.7855000000
223  7  8.9275000000  3.5710000000  1.7855000000
224  7  8.9275000000  5.3565000000  0.0000000000
225  7  7.1420000000  3.5710000000  3.5710000000
226  7  7.1420000000  5.3565000000  5.3565000000
227  7  8.9275000000  3.5710000000  5.3565000000
228  7  8.9275000000  5.3565000000  3.5710000000
229  7  7.1420000000  3.5710000000  7.1420000000
230  7  7.1420000000  5.3565000000  8.9275000000
231  7  8.9275000000  3.5710000000  8.9275000000
232  7  8.9275000000  5.3565000000  7.1420000000
233  7  7.1420000000  3.5710000000  10.7130000000
234  7  7.1420000000  5.3565000000  12.4985000000
235  7  8.9275000000  3.5710000000  12.4985000000
236  7  8.9275000000  5.3565000000  10.7130000000
237  7  7.1420000000  3.5710000000  14.2840000000
238  7  7.1420000000  5.3565000000  16.0695000000
239  7  8.9275000000  3.5710000000  16.0695000000
240  7  8.9275000000  5.3565000000  14.2840000000
241  7  7.1420000000  7.1420000000  0.0000000000
242  7  7.1420000000  8.9275000000  1.7855000000
243  7  8.9275000000  7.1420000000  1.7855000000
244  7  8.9275000000  8.9275000000  0.0000000000
245  7  7.1420000000  7.1420000000  3.5710000000
246  7  7.1420000000  8.9275000000  5.3565000000
247  7  8.9275000000  7.1420000000  5.3565000000
248  7  8.9275000000  8.9275000000  3.5710000000
249  7  7.1420000000  7.1420000000  7.1420000000
250  7  7.1420000000  8.9275000000  8.9275000000
251  7  8.9275000000  7.1420000000  8.9275000000
252  7  8.9275000000  8.9275000000  7.1420000000
253  7  7.1420000000  7.1420000000  10.7130000000
254  7  7.1420000000  8.9275000000  12.4985000000
255  7  8.9275000000  7.1420000000  12.4985000000
256  7  8.9275000000  8.9275000000  10.7130000000
257  7  7.1420000000  7.1420000000  14.2840000000
258  7  7.1420000000  8.9275000000  16.0695000000
259  7  8.9275000000  7.1420000000  16.0695000000
260  7  8.9275000000  8.9275000000  14.2840000000
261  7  7.1420000000  10.7130000000  0.0000000000
262  7  7.1420000000  12.4985000000  1.7855000000
263  7  8.9275000000  10.7130000000  1.7855000000
264  7  8.9275000000  12.4985000000  0.0000000000
265  7  7.1420000000  10.7130000000  3.5710000000
266  7  7.1420000000  12.4985000000  5.3565000000
267  7  8.9275000000  10.7130000000  5.3565000000
268  7  8.9275000000  12.4985000000  3.5710000000
269  7  7.1420000000  10.7130000000  7.1420000000
270  7  7.1420000000  12.4985000000  8.9275000000
271  7  8.9275000000  10.7130000000  8.9275000000
272  7  8.9275000000  12.4985000000  7.1420000000
273  7  7.1420000000  10.7130000000  10.7130000000
274  7  7.1420000000  12.4985000000  12.4985000000
275  7  8.9275000000  10.7130000000  12.4985000000
276  7  8.9275000000  12.4985000000  10.7130000000
277  7  7.1420000000  10.7130000000  14.2840000000
278  7  7.1420000000  12.4985000000  16.0695000000
279  7  8.9275000000  10.7130000000  16.0695000000
280  7  8.9275000000  12.4985000000  14.2840000000
281  7  7.1420000000  14.2840000000  0.0000000000
282  7  7.1420000000  16.0695000000  1.7855000000
283  7  8.9275000000  14.2840000000  1.7855000000
284  7  8.9275000000  16.0695000000  0.0000000000
285  7  7.1420000000  14.2840000000  3.5710000000
286  7  7.1420000000  16.0695000000  5.3565000000
287  7  8.9275000000  14.2840000000  5.3565000000
288  7  8.9275000000  16.0695000000  3.5710000000
289  7  7.1420000000  14.2840000000  7.1420000000
290  7  7.1420000000  16.0695000000  8.9275000000
291  7  8.9275000000  14.2840000000  8.9275000000
292  7  8.9275000000  16.0695000000  7.1420000000
293  7  7.1420000000  14.2840000000  10.7130000000
294  7  7.1420000000  16.0695000000  12.4985000000
295  7  8.9275000000  14.2840000000  12.4985000000
296  7  8.9275000000  16.0695000000  10.7130000000
297  7  7.1420000000  14.2840000000  14.2840000000
298  7  7.1420000000  16.0695000000  16.0695000000
299  7  8.9275000000  14.2840000000  16.0695000000
300  7  8.9275000000  16.0695000000  14.2840000000
301  7  10.7130000000  0.0000000000  0.0000000000
302  7  10.7130000000  1.7855000000  1.7855000000
303  7  12.4985000000  0.0000000000  1.7855000000
304  7  12.4985000000  1.7855000000  0.0000000000
305  7  10.7130000000  0.0000000000  3.5710000000
306  7  10.7130000000  1.7855000000  5.3565000000
307  7  12.4985000000  0.0000000000  5.3565000000
308  7  12.4985000000  1.7855000000  3.5710000000
309  7  10.7130000000  0.0000000000  7.1420000000
310  7  10.7130000000  1.7855000000  8.9275000000
311  7  12.4985000000  0.0000000000  8.9275000000
312  7  12.4985000000  1.7855000000  7.1420000000
313  7  10.7130000000  0.0000000000  10.7130000000
314  7  10.7130000000  1.7855000000  12.4985000000
315  7  12.4985000000  0.0000000000  12.4985000000
316  7  12.4985000000  1.7855000000  10.7130000000
317  7  10.7130000000  0.0000000000  14.2840000000
318  7  10.7130000000  1.7855000000  16.0695000000
319  7  12.4985000000  0.0000000000  16.0695000000
320  7  12.4985000000  1.7855000000  14.2840000000
321  7  10.7130000000  3.5710000000  0.0000000000
322  7  10.7130000000  5.3565000000  1.7855000000
323  7  12.4985000000  3.5710000000  1.7855000000
324  7  12.4985000000  5.3565000000  0.0000000000
325  7  10.7130000000  3.5710000000  3.5710000000
326  7  10.7130000000  5.3565000000  5.3565000000
327  7  12.4985000000  3.5710000000  5.3565000000
328  7  12.4985000000  5.3565000000  3.5710000000
329  7  10.7130000000  3.5710000000  7.1420000000
330  7  10.7130000000  5.3565000000  8.9275000000
331  7  12.4985000000  3.5710000000  8.9275000000
332  7  12.4985000000  5.3565000000  7.1420000000
333  7  10.7130000000  3.5710000000  10.7130000000
334  7  10.7130000000  5.3565000000  12.4985000000
335  7  12.4985000000  3.5710000000  12.4985000000
336  7  12.4985000000  5.3565000000  10.7130000000
337  7  10.7130000000  3.5710000000  14.2840000000
338  7  10.7130000000  5.3565000000  16.0695000000
339  7  12.4985000000  3.5710000000  16.0695000000
340  7  12.4985000000  5.3565000000  14.2840000000
341  7  10.7130000000  7.1420000000  0.0000000000
342  7  10.7130000000  8.9275000000  1.7855000000
343  7  12.4985000000  7.1420000000  1.7855000000
344  7  12.4985000000  8.9275000000  0.0000000000
345  7  10.7130000000  7.1420000000  3.5710000000
346  7  10.7130000000  8.9275000000  5.3565000000
347  7  12.4985000000  7.1420000000  5.3565000000
348  7  12.4985000000  8.9275000000  3.5710000000
349  7  10.7130000000  7.1420000000  7.1420000000
350  7  10.7130000000  8.9275000000  8.9275000000
351  7  12.4985000000  7.1420000000  8.9275000000
352  7  12.4985000000  8.9275000000  7.1420000000
353  7  10.7130000000  7.1420000000  10.7130000000
354  7  10.7130000000  8.9275000000  12.4985000000
355  7  12.4985000000  7.1420000000  12.4985000000
356  7  12.4985000000  8.9275000000  10.7130000000
357  7  10.7130000000  7.1420000000  14.2840000000
358  7  10.7130000000  8.9275000000  16.0695000000
359  7  12.4985000000  7.1420000000  16.0695000000
360  7  12.4985000000  8.9275000000  14.2840000000
361  7  10.7130000000  10.7130000000  0.0000000000
362  7  10.7130000000  12.4985000000  1.7855000000
363  7  12.4985000000  10.7130000000  1.7855000000
364  7  12.4985000000  12.4985000000  0.0000000000
365  7  10.7130000000  10.7130000000  3.5710000000
366  7  10.7130000000  12.4985000000  5.3565000000
367  7  12.4985000000  10.7130000000  5.3565000000
368  7  12.4985000000  12.4985000000  3.5710000000
369  7  10.7130000000  10.7130000000  7.1420000000
370  7  10.7130000000  12.4985000000  8.9275000000
371  7  12.4985000000  10.7130000000  8.9275000000
372  7  12.4985000000  12.4985000000  7.1420000000
373  7  10.7130000000  10.7130000000  10.7130000000
374  7  10.7130000000  12.4985000000  12.4985000000
375  7  12.4985000000  10.7130000000  12.4985000000
376  7  12.4985000000  12.4985000000  10.7130000000
377  7  10.7130000000  10.7130000000  14.2840000000
378  7  10.7130000000  12.4985000000  16.0695000000
379  7  12.4985000000  10.7130000000  16.0695000000
380  7  12.4985000000  12.4985000000  14.2840000000
381  7  10.7130000000  14.2840000000  0.0000000000
382  7  10.7130000000  16.0695000000  1.7855000000
383  7  12.4985000000  14.2840000000  1.7855000000
384  7  12.4985000000  16.0695000000  0.0000000000
385  7  10.7130000000  14.2840000000  3.5710000000
386  7  10.7130000000  16.0695000000  5.3565000000
387  7  12.4985000000  14.2840000000  5.3565000000
388  7  12.4985000000  16.0695000000  3.5710000000
389  7  10.7130000000  14.2840000000  7.1420000000
390  7  10.7130000000  16.0695000000  8.9275000000
391  7  12.4985000000  14.2840000000  8.9275000000
392  7  12.4985000000  16.0695000000  7.1420000000
393  7  10.7130000000  14.2840000000  10.7130000000
394  7  10.7130000000  16.0695000000  12.4985000000
395  7  12.4985000000  14.2840000000  12.4985000000
396  7  12.4985000000  16.0695000000  10.7130000000
397  7  10.7130000000  14.2840000000  14.2840000000
398  7  10.7130000000  16.0695000000  16.0695000000
399  7  12.4985000000  14.2840000000  16.0695000000
400  7  12.4985000000  16.0695000000  14.2840000000
401  7  14.2840000000  0.0000000000  0.0000000000
402  7  14.2840000000  1.7855000000  1.7855000000
403  7  16.0695000000  0.0000000000  1.7855000000
404  7  16.0695000000  1.7855000000  0.0000000000
405  7  14.2840000000  0.0000000000  3.5710000000
406  7  14.2840000000  1.7855000000  5.3565000000
407  7  16.0695000000  0.0000000000  5.3565000000
408  7  16.0695000000  1.7855000000  3.5710000000
409  7  14.2840000000  0.0000000000  7.1420000000
410  7  14.2840000000  1.7855000000  8.9275000000
411  7  16.0695000000  0.0000000000  8.9275000000
412  7  16.0695000000  1.7855000000  7.1420000000
413  7  14.2840000000  0.0000000000  10.7130000000
414  7  14.2840000000  1.7855000000  12.4985000000
415  7  16.0695000000  0.0000000000  12.4985000000
416  7  16.0695000000  1.7855000000  10.7130000000
417  7  14.2840000000  0.0000000000  14.2840000000
418  7  14.2840000000  1.7855000000  16.0695000000
419  7  16.0695000000  0.0000000000  16.0695000000
420  7  16.0695000000  1.7855000000  14.2840000000
421  7  14.2840000000  3.5710000000  0.0000000000
422  7  14.2840000000  5.3565000000  1.7855000000
423  7  16.0695000000  3.5710000000  1.7855000000
424  7  16.0695000000  5.3565000000  0.0000000000
425  7  14.2840000000  3.5710000000  3.5710000000
426  7  14.2840000000  5.3565000000  5.3565000000
427  7  16.0695000000  3.5710000000  5.3565000000
428  7  16.0695000000  5.3565000000  3.5710000000
429  7  14.2840000000  3.5710000000  7.1420000000
430  7  14.2840000000  5.3565000000  8.9275000000
431  7  16.0695000000  3.5710000000  8.9275000000
432  7  16.0695000000  5.3565000000  7.1420000000
433  7  14.2840000000  3.5710000000  10.7130000000
434  7  14.2840000000  5.3565000000  12.4985000000
435  7  16.0695000000  3.5710000000  12.4985000000
436  7  16.0695000000  5.3565000000  10.7130000000
437  7  14.2840000000  3.5710000000  14.2840000000
438  7  14.2840000000  5.3565000000  16.0695000000
439  7  16.0695000000  3.5710000000  16.0695000000
440  7  16.0695000000  5.3565000000  14.2840000000
441  7  14.2840000000  7.1420000000  0.0000000000
442  7  14.2840000000  8.9275000000  1.7855000000
443  7  16.0695000000  7.1420000000  1.7855000000
444  7  16.0695000000  8.9275000000  0.0000000000
445  7  14.2840000000  7.1420000000  3.5710000000
446  7  14.2840000000  8.9275000000  5.3565000000
447  7  16.0695000000  7.1420000000  5.3565000000
448  7  16.0695000000  8.9275000000  3.5710000000
449  7  14.2840000000  7.1420000000  7.1420000000
450  7  14.2840000000  8.9275000000  8.9275000000
451  7  16.0695000000  7.1420000000  8.9275000000
452  7  16.0695000000  8.9275000000  7.1420000000
453  7  14.2840000000  7.1420000000  10.7130000000
454  7  14.2840000000  8.9275000000  12.4985000000
455  7  16.0695000000  7.1420000000  12.4985000000
456  7  16.0695000000  8.9275000000  10.7130000000
457  7  14.2840000000  7.1420000000  14.2840000000
458  7  14.2840000000  8.9275000000  16.0695000000
459  7  16.0695000000  7.1420000000  16.0695000000
460  7  16.0695000000  8.9275000000  14.2840000000
461  7  14.2840000000  10.7130000000  0.0000000000
462  7  14.2840000000  12.4985000000  1.7855000000
463  7  16.0695000000  10.7130000000  1.7855000000
464  7  16.0695000000  12.4985000000  0.0000000000
465  7  14.2840000000  10.7130000000  3.5710000000
466  7  14.2840000000  12.4985000000  5.3565000000
467  7  16.0695000000  10.7130000000  5.3565000000
468  7  16.0695000000  12.4985000000  3.5710000000
469  7  14.2840000000  10.7130000000  7.1420000000
470  7  14.2840000000  12.4985000000  8.9275000000
471  7  16.0695000000  10.7130000000  8.9275000000
472  7  16.0695000000  12.4985000000  7.1420000000
473  7  14.2840000000  10.7130000000  10.7130000000
474  7  14.2840000000  12.4985000000  12.4985000000
475  7  16.0695000000  10.7130000000  12.4985000000
476  7  16.0695000000  12.4985000000  10.7130000000
477  7  14.2840000000  10.7130000000  14.2840000000
478  7  14.2840000000  12.4985000000  16.0695000000
479  7  16.0695000000  10.7130000000  16.0695000000
480  7  16.0695000000  12.4985000000  14.2840000000
481  7  14.2840000000  14.2840000000  0.0000000000
482  7  14.2840000000  16.0695000000  1.7855000000
483  7  16.0695000000  14.2840000000  1.7855000000
484  7  16.0695000000  16.0695000000  0.0000000000
485  7  14.2840000000  14.2840000000  3.5710000000
486  7  14.2840000000  16.0695000000  5.3565000000
487  7  16.0695000000  14.2840000000  5.3565000000
488  7  16.0695000000  16.0695000000  3.5710000000
489  7  14.2840000000  14.2840000000  7.1420000000
490  7  14.2840000000  16.0695000000  8.9275000000
491  7  16.0695000000  14.2840000000  8.9275000000
492  7  16.0695000000  16.0695000000  7.1420000000
493  7  14.2840000000  14.2840000000  10.7130000000
494  7  14.2840000000  16.0695000000  12.4985000000
495  7  16.0695000000  14.2840000000  12.4985000000
496  7  16.0695000000  16.0695000000  10.7130000000
497  7  14.2840000000  14.2840000000  14.2840000000
498  7  14.2840000000  16.0695000000  16.0695000000
499  7  16.0695000000  14.2840000000  16.0695000000
500  7  16.0695000000  16.0695000000  14.2840000000
