LAMMPS data file via write_data, version 11 Feb 2026, timestep = 136, units = metal

361 atoms
8 atom types

0 12.447907776 xlo xhi
0 12.9362452296 ylo yhi
0 52.3600831054 zlo zhi

Masses

1 26.9815
2 10.811
3 12.011
4 51.9961
5 55.845
6 95.95999999999999
7 58.6934
8 1.008

Atoms # atomic/kk

3 7 6.1192868739 0.6304446556 14.8633861521 0 0 0
8 6 4.8173310833 2.8332362965 14.920229021 0 0 0
9 7 7.3091636013 2.9911401833 14.9454172376 0 0 0
4 7 8.5231700378 0.9607030971 14.8321150978 0 0 0
12 7 3.760513117 5.2115614728 14.9011016104 0 0 0
13 7 6.1482953191 5.0908224502 14.8558171528 0 0 0
19 7 7.6370362141 7.5485918091 14.9266538896 0 0 0
14 4 8.6578045479 5.0984072093 14.7389025403 0 0 0
15 7 11.0357453415 5.067847838 14.3410204439 0 0 0
20 7 10.0434603699 7.266518572 14.9071482997 0 0 0
27 7 2.3595305285 11.2504763091 14.7773304803 0 0 0
29 7 7.8189206247 11.3481807249 14.9076909876 0 0 0
26 7 12.248753230699998 11.4159082208 14.6587400631 -1 0 0
30 7 10.0922125275 12.2632607301 14.9329118338 0 0 0
2 7 3.4556332323 0.6856061004 14.9787522795 0 0 0
6 7 1.5639382335 2.2906969741 15.0946829788 0 0 0
7 3 2.8731760314 3.5882785926 14.987515157 0 0 0
31 7 0.0535256814 1.623000142 17.215310387 0 0 0
32 7 2.5166170309 1.5026413961 17.1811797979 0 0 0
36 7 1.3566735612 3.631577479 17.2540670274 0 0 0
37 7 3.7105862708 3.6774100942 16.9344468272 0 0 0
33 7 4.954867202 1.3046704677 16.9071563969 0 0 0
34 7 7.4237648265 1.3010478562 16.916033296 0 0 0
38 4 6.1463916953 3.5014292111 16.991239037 0 0 0
5 7 11.8022882756 1.0292505879 15.0097459312 0 0 0
10 7 9.8066141081 3.0170552811 15.0155878638 0 0 0
35 7 10.0466587865 1.3634699988 16.8604593418 0 0 0
39 7 8.6301541895 3.4353809766 17.0740408176 0 0 0
40 7 11.9209083716 3.4980590423 15.8390616931 0 0 0
75 2 10.7686181924 3.1968616202 17.4340787861 0 0 0
11 7 1.3971986626 4.8134294471 15.0883248546 0 0 0
16 7 0.016046131 6.8901500907 15.0687802643 0 0 0
17 7 2.4353309429 7.2091106393 15.1108484762 0 0 0
41 5 0.1739023004 5.6842839724 17.1189569051 0 0 0
42 7 2.5457902692 5.7981722782 17.1397266069 0 0 0
46 7 1.2472413802 7.8331037703 17.1303167212 0 0 0
47 7 3.7583052321 7.9250759054 17.0632733751 0 0 0
18 7 5.0889409408 7.2663628235 15.0435168681 0 0 0
43 4 4.9667698232 5.8334397719 16.9960587615 0 0 0
44 6 7.4973034695 5.7419507689 16.8281984613 0 0 0
48 7 6.2676768692 7.9670241339 17.1204826936 0 0 0
25 3 11.5015678602 8.460485538 15.2680515643 0 0 0
45 6 10.2888098755 5.3678325187 16.7677063876 0 0 0
49 7 8.8334065077 7.8663786431 17.0376109184 0 0 0
50 7 11.2131131655 7.766467847 17.0625497734 0 0 0
1 4 1.3160442387 12.912011229400001 15.994260076 0 -1 0
21 7 0.7906594424 9.2240916114 15.0553056261 0 0 0
22 7 3.6207331253 9.260442342 15.016973742 0 0 0
52 7 2.3474800956 10.0647016704 16.9899569744 0 0 0
56 3 0.9470435499 10.9678242642 16.0720486224 0 0 0
57 7 3.5494484874 12.1967437929 16.9695359274 0 0 0
23 6 6.0524699377 9.5406320586 15.1732616002 0 0 0
24 3 8.1354668266 9.4144660038 15.1225460705 0 0 0
28 7 4.7757131415 11.5696864746 14.9601899644 0 0 0
53 7 4.8275766379 10.1200594978 17.1585380973 0 0 0
54 7 7.7393645434 10.0215408088 17.0245748441 0 0 0
58 7 6.2545636594 12.0703065663 16.8600327392 0 0 0
51 7 12.2589204083 9.894967598 17.1358430216 -1 0 0
55 6 10.0512167628 9.881929606 15.6282063925 0 0 0
59 7 8.8659682746 12.1609080065 16.9955657986 0 0 0
60 6 11.4870301217 12.2039678417 17.008987108 0 0 0
66 7 1.3246919535 2.0761546191 19.3369539919 0 0 0
67 4 3.826057384 2.1293425166 18.9990846192 0 0 0
91 4 1.1890534627 0.6611224914 21.3295808047 0 0 0
92 6 3.6323514765 0.7501618976 21.013860634 0 0 0
96 2 0.2649387153 2.7297263316 21.000773609 0 0 0
97 7 2.3598422478 2.9302283723 21.4962520659 0 0 0
68 4 6.2095347359 2.0753565183 18.9344853371 0 0 0
74 4 7.3117261635 4.2573612703 19.0834041948 0 0 0
93 6 6.3615286564 0.6903780738 21.1327085418 0 0 0
98 6 5.0614658063 2.9691648444 21.1233964394 0 0 0
99 7 7.7314359984 2.9407781213 21.1215765612 0 0 0
69 7 8.6004820708 1.9165362763 19.016352785 0 0 0
70 7 11.1623021303 2.0230581582 19.1018122342 0 0 0
71 6 12.355026731299999 4.2645210992 19.2283484368 -1 0 0
94 7 8.8693532291 0.7433068205 21.1832395031 0 0 0
95 7 11.2884036212 1.0335800014 21.2917798486 0 0 0
100 3 9.8217738561 2.2448451932 20.5206021379 0 0 0
105 6 9.7400373841 4.0747521408 19.3469987226 0 0 0
130 6 10.7824408219 3.63989164 21.8575895182 0 0 0
72 6 2.5291059573 4.3567999422 19.307850253 0 0 0
76 7 1.2091953109 6.4743635897 19.2309189421 0 0 0
77 7 3.7698810312 6.5233791492 19.1706449557 0 0 0
82 7 2.5028472985 8.6218349251 19.0955945007 0 0 0
101 4 0.9309038317 4.8673983927 21.5084744433 0 0 0
102 4 3.6720997393 5.1031203781 21.3079813916 0 0 0
107 7 2.4101232852 7.0407438225 21.2905393042 0 0 0
73 7 4.9759730124 4.3686023892 18.9904593187 0 0 0
78 7 6.2521461998 6.4908314969 19.1018034267 0 0 0
103 7 6.210094329 5.1204948244 21.1528383229 0 0 0
108 7 4.9322310331 7.2045303478 21.2497028705 0 0 0
109 1 7.3644419038 7.3093331748 21.2501801179 0 0 0
79 1 8.7528428062 6.5389774189 19.0944606475 0 0 0
80 7 11.1524492138 6.417209258 19.1056949334 0 0 0
81 7 12.380639600699999 8.55413522 19.1455396218 -1 0 0
104 7 8.6629871411 5.1809633634 21.2783688034 0 0 0
106 7 12.3196276371 7.091535323 21.2314453025 -1 0 0
110 7 9.9062855258 7.2153146328 21.2529978345 0 0 0
62 7 2.4144763491 12.858822901 19.0362311757 0 -1 0
86 7 1.1725104031 10.7431257735 19.0809222803 0 0 0
87 7 3.6490946401 10.7608843455 19.1608112939 0 0 0
111 6 1.2025618491 9.2430452238 21.1466468174 0 0 0
112 7 3.7156593618 9.2845007241 21.2361064908 0 0 0
117 7 2.4176923083 11.4342448768 21.1944768774 0 0 0
63 7 4.960898558 12.840873703300002 18.9676578671 0 -1 0
64 7 7.4572706221 12.7877107458 18.9739205101 0 -1 0
83 7 4.9855337767 8.658628656 19.1563818256 0 0 0
84 7 7.4890528326 8.6425332375 19.1407548551 0 0 0
88 7 6.2491641886 10.73214155 19.0741096471 0 0 0
113 7 6.2223787142 9.3961778954 21.1881156609 0 0 0
118 7 4.9781475965 11.4755181257 21.1362544621 0 0 0
119 5 7.5244871062 11.4412133825 21.1271427394 0 0 0
61 7 12.430455238499999 12.906087820100002 19.2187475004 -1 -1 0
65 4 9.9617889385 12.802840754 19.045595606 0 -1 0
85 7 9.9738315887 8.650244424 19.1193225408 0 0 0
89 7 8.7622120492 10.7552480552 19.10442726 0 0 0
90 7 11.207717528 10.7670035331 19.1593220526 0 0 0
114 7 8.7200766235 9.4007298425 21.2008305121 0 0 0
115 7 11.1354613422 9.3455616408 21.2647206688 0 0 0
116 4 12.390361428399999 11.5315056904 21.2107074633 -1 0 0
120 7 10.0228591802 11.5613998873 21.1895162594 0 0 0
121 7 0.20781417824244067 2.299368682748137 23.04595274165986 0 0 0
122 7 2.5560989821330664 1.4023950084970036 23.33500970057996 0 0 0
126 2 1.853113154073163 3.431523599040627 23.56794258646152 0 0 0
127 7 3.8483912491949757 3.593975836365119 23.365262464023193 0 0 0
151 7 0.04770707762521601 0.016399336308978888 25.270280419321356 0 0 0
156 7 1.3689944885189524 2.112328914589448 25.293201497121647 0 0 0
157 5 3.8232911202598903 2.1436450598414507 25.454531933674332 0 0 0
161 6 0.10465254828082186 4.197438992111735 24.955344123050544 0 0 0
162 7 2.5771408765761827 4.2934868904134715 25.342376556746643 0 0 0
123 7 5.01698684943743 1.4203906455739257 23.25002189206931 0 0 0
124 7 7.538936279697725 1.4620405017831364 23.25746038427124 0 0 0
128 7 6.30699337681861 3.6543141862729263 23.240540924746597 0 0 0
154 7 7.498877072393455 0.012984811426619855 25.303511809621227 0 0 0
158 6 6.284263505154293 2.2570113569890258 25.30455204914125 0 0 0
125 7 10.014053549408832 1.5923916315084419 23.29148456506921 0 0 0
129 7 8.694909147927772 3.675687106947373 23.338694996130478 0 0 0
155 7 9.959201916448267 0.0326970736544395 25.293069586525668 0 0 0
159 7 8.773137015655879 2.1795500188609447 25.380239257735223 0 0 0
160 7 11.278681210544212 2.0901213119830535 25.228369030606878 0 0 0
165 7 10.070165407362445 4.291841281907993 25.272427253740215 0 0 0
132 5 2.354266039084113 5.579668402014244 23.29774066867339 0 0 0
136 7 1.2172226871130747 7.803461544474745 23.306151798929026 0 0 0
137 7 3.6803424624873764 7.8073239652501805 23.285920157134193 0 0 0
166 7 1.2086618598876773 6.462525655961424 25.343307918111655 0 0 0
167 7 3.709541254827967 6.502634573766396 25.37077875937396 0 0 0
171 7 0.004650527658474762 8.598663371224633 25.487843997138285 0 0 0
133 1 4.995216788598558 5.770619688359841 23.33885244896217 0 0 0
134 7 7.443488778619415 5.8310083766915195 23.324219210085147 0 0 0
138 7 6.24600895007929 7.913913900875601 23.355833974177184 0 0 0
163 7 5.023959061698873 4.4031268430796 25.431728603540396 0 0 0
164 7 7.506236605093835 4.447180939707981 25.41757546469593 0 0 0
168 4 6.215368227273657 6.564016026234187 25.491879258149158 0 0 0
173 7 4.960668616402224 8.622627527531584 25.372716595424823 0 0 0
131 7 12.231812606990498 5.821197339068933 23.282591520433915 -1 0 0
135 5 9.944506144231907 5.761243214950173 23.218732545238637 0 0 0
139 4 8.785451440487359 8.066977942379022 23.279776901425997 0 0 0
140 7 11.127486936263773 7.9197884695439384 23.40756049919813 0 0 0
169 6 8.808515102141573 6.614257168420895 25.29820754929458 0 0 0
170 4 11.27331399711591 6.42768707265747 25.682762886518297 0 0 0
142 7 2.4999354065605295 9.988581635330991 23.310565999132667 0 0 0
146 7 1.269770071157709 12.231811200264524 23.28175000454396 0 0 0
147 6 3.7750865201568424 12.13066828492378 23.269720175491006 0 0 0
152 7 2.5781885929409607 12.890885205112276 25.360482000138624 0 -1 0
172 7 2.4778896692466486 8.64359008650717 25.348394876574737 0 0 0
176 7 1.3050321805367104 10.80430706883768 25.416562234337544 0 0 0
177 4 3.7278998367717278 10.71406362202678 25.44174621207948 0 0 0
143 7 4.987580476261703 9.993694206825426 23.30004094045818 0 0 0
144 7 7.469702853667361 10.089144503419842 23.253257849233812 0 0 0
148 7 6.263458654333802 12.191364724147663 23.220914205691283 0 0 0
153 7 4.995477782477882 12.903456060044974 25.33280474700036 0 -1 0
174 7 7.447232951094064 8.71499254359085 25.356664950377098 0 0 0
178 7 6.180838470401521 10.791070983839557 25.360868125852285 0 0 0
141 6 12.445682858261724 10.072687799136883 23.39231800344003 -1 0 0
145 4 9.948151619009629 10.19739689262827 23.30144856902607 0 0 0
149 7 8.74924939154357 12.262368517395485 23.183726655372812 0 0 0
150 4 11.226223615534563 12.399332377343741 23.25095340198179 0 0 0
175 7 10.000133528978381 8.780600653207824 25.393703185295884 0 0 0
179 7 8.708874091861528 10.83931271230455 25.299843250728685 0 0 0
180 7 11.201497974968856 10.895486156608232 25.381470667428268 0 0 0
181 1 1.3148116450224976 0.6900596791470359 27.332422190065596 0 0 0
182 4 3.8212058141887475 0.8002823811988037 27.393420788736975 0 0 0
186 7 0.06142660795645682 2.7948198056437628 27.23530436618719 0 0 0
187 7 2.574692384005182 2.8738269203998903 27.402173787517153 0 0 0
212 7 2.5354025224367978 1.453137121808051 29.42011966791511 0 0 0
216 7 1.3918993619484856 3.554232056581516 29.465549214976775 0 0 0
217 7 3.7930288171866993 3.6950710419747708 29.549763525752176 0 0 0
183 6 6.264207940021883 0.7071306301833395 27.435134692996293 0 0 0
188 5 5.008996837500862 2.9800271727204524 27.514931111819905 0 0 0
189 7 7.536314874664269 2.997122550544415 27.497764077013755 0 0 0
213 7 4.992835405238509 1.5431531260793543 29.500077518872246 0 0 0
214 6 7.517717237095983 1.57937698405383 29.638762161959793 0 0 0
218 7 6.259846798141535 3.7532583563642747 29.608644525946158 0 0 0
184 7 8.776978476863569 0.7860932064592817 27.434776490913077 0 0 0
185 4 11.18078305841459 0.6759549059685406 27.291488328540492 0 0 0
190 7 10.078858615492477 2.867830454092173 27.382238436650205 0 0 0
211 6 12.391359036679182 1.518532612340744 29.46562427450517 -1 0 0
215 4 9.97157681971613 1.5408859776601795 29.46881267117743 0 0 0
219 7 8.846798372479924 3.801262757183545 29.62602674841757 0 0 0
220 6 11.432401141841188 4.001133127722085 29.20728427451596 0 0 0
191 7 1.1439097514063303 4.909150135396133 27.24193872793028 0 0 0
192 7 3.6833692224197323 5.071143400478198 27.448162331098494 0 0 0
197 7 2.3249289862232994 7.180732076562444 27.404647122563638 0 0 0
222 6 2.185315931924282 5.805792259699268 29.46780686834434 0 0 0
226 7 1.1498011356848599 8.023179077076826 29.485891375536696 0 0 0
227 7 3.6717429779835813 7.916601348961795 29.53223690127118 0 0 0
193 7 6.255428065428515 5.114294441560364 27.489198726846105 0 0 0
198 7 4.924524174762137 7.214561359583005 27.443578387835377 0 0 0
199 7 7.457096410109781 7.261750299071972 27.475703510281193 0 0 0
223 4 4.861475358517729 5.819102782542917 29.471942532649102 0 0 0
224 4 7.44525042708818 5.858245305748383 29.468925641378142 0 0 0
228 7 6.142515659104846 7.967958133868366 29.468766755478235 0 0 0
194 6 9.017244661530075 5.095301929673806 27.42819552625652 0 0 0
195 2 11.388072447928705 4.624386136539261 26.972237550531197 0 0 0
196 7 12.082850208572747 6.460736948770115 28.097925069770223 -1 0 0
200 7 9.91696434203146 7.417988122187441 27.554401107850857 0 0 0
225 1 10.011938794761562 6.110631432229168 29.662684002806483 0 0 0
229 5 8.552770198825268 8.058506849779356 29.62604237434355 0 0 0
230 7 11.19359981030678 8.130681617911586 29.627780799121737 0 0 0
201 7 1.2253531391131196 9.379531810204858 27.449480708271395 0 0 0
202 7 3.7051337292091366 9.32077251268776 27.453972102343204 0 0 0
207 7 2.537621554540451 11.52034551556723 27.44065849788554 0 0 0
232 7 2.4931385907001427 10.12850392458263 29.49879863609776 0 0 0
236 7 1.2483581573607505 12.280374503536251 29.4763506085726 0 0 0
237 7 3.766666275033724 12.310816365516992 29.44967892146971 0 0 0
203 4 6.180448912962043 9.393201279365712 27.403299946888488 0 0 0
208 7 4.963701300874896 11.480692823783649 27.412386015588083 0 0 0
209 7 7.460456294759524 11.486393050002773 27.41264632235309 0 0 0
233 5 4.920494412442805 10.092244031057563 29.483054189339736 0 0 0
234 7 7.361424779121626 10.124154868442714 29.489871139417577 0 0 0
238 7 6.201995004525284 12.243034494035903 29.5548750498283 0 0 0
204 7 8.644867606455426 9.409485385073687 27.44457388616371 0 0 0
205 7 11.238266487521134 9.425397046101565 27.476839274703543 0 0 0
206 7 12.447830220669095 11.574417823227765 27.43014241271349 -1 0 0
210 7 9.935857969220345 11.540836961237355 27.41179937493538 0 0 0
231 7 12.432986856415898 10.212712059588986 29.47368432147646 -1 0 0
235 7 9.885649838338898 10.126517826549078 29.471828826628307 0 0 0
239 7 8.695315139236094 12.292921181137727 29.47975785419513 0 0 0
240 4 11.13363350977957 12.283026911538824 29.422158663338205 0 0 0
242 7 2.4525690016697776 0.12920508705519404 31.54139415600135 0 0 0
246 7 1.22013636081727 2.2891693585007427 31.575521363290072 0 0 0
247 7 3.7294156700597267 2.2217757367003674 31.622917042459925 0 0 0
271 7 1.1876527529259338 0.8191646279265122 33.59892319493913 0 0 0
243 7 4.987751023167319 0.10750860766304739 31.5670126912274 0 0 0
244 7 7.459687510509156 0.06657654589065683 31.649569540410166 0 0 0
248 7 6.211401450587476 2.2662152068660286 31.69400260731326 0 0 0
253 5 4.930286504373072 4.30762440100326 31.665794985038087 0 0 0
241 7 12.428302215679777 0.07362798028309568 31.509486537574357 -1 0 0
245 7 9.957328365100647 0.1317185059078556 31.475936915145862 0 0 0
249 7 8.766097409604743 2.224163327712066 31.699026787318143 0 0 0
250 7 11.199674461710835 2.3343867356584136 31.508186309677388 0 0 0
275 7 11.150961347381077 0.8286925437045636 33.54447768946044 0 0 0
276 7 12.356097537174564 3.084942985724814 33.57252728855695 -1 0 0
251 7 0.06504739341686715 4.553732633891301 31.43308753245346 0 0 0
252 7 2.5207504921366763 4.404682930461527 31.619813612865062 0 0 0
256 7 1.2425858044173144 6.6864754341421175 31.64741110060333 0 0 0
257 7 3.707775735088244 6.549519216440067 31.603305503988402 0 0 0
254 7 7.50239390777467 4.3513060255415965 31.656130320648685 0 0 0
258 6 6.182401009100454 6.403825061170896 31.52089169598722 0 0 0
221 2 12.407217535828726 6.357027190483208 30.09583800719825 -1 0 0
255 6 9.995094585073925 4.448674240686866 31.817001173997507 0 0 0
259 7 8.682010763631677 6.617712558904152 31.66968881312809 0 0 0
260 7 11.212038842581336 6.667729704436475 31.700599791745617 0 0 0
262 7 2.527916717153753 8.753138993938968 31.54644716505625 0 0 0
266 7 1.258251207454308 10.901657201031453 31.541262970020195 0 0 0
267 7 3.708654963585393 10.932895321708257 31.521507256309892 0 0 0
291 7 1.270237122773747 9.489406440774367 33.585115691497165 0 0 0
292 6 3.860627743428238 9.472963044006637 33.601937964310615 0 0 0
297 4 2.4407875498283005 11.661719851099647 33.5240235086145 0 0 0
263 4 5.016422578253964 8.73575896692713 31.54150071364555 0 0 0
264 5 7.388108944662468 8.763989093328945 31.58629712755559 0 0 0
268 7 6.183530574784107 10.831143172822657 31.626968744507902 0 0 0
293 2 6.329927579465071 9.563447532964704 33.345250752022764 0 0 0
298 7 5.059014026838421 11.57203588859883 33.62517440241799 0 0 0
261 7 12.443296106599298 8.833863141735003 31.59608616107158 -1 0 0
265 7 9.88973126646588 8.75220456402714 31.605836281098647 0 0 0
269 7 8.68253246814579 10.895514353218616 31.52967019843628 0 0 0
270 7 11.148656784029503 10.908707957362916 31.49001216964268 0 0 0
294 7 8.57102630658255 9.522073835298755 33.638917286051786 0 0 0
295 7 11.12136341743083 9.508866418048754 33.58038721950157 0 0 0
296 7 12.404179604608235 11.581840570307582 33.52850817296621 -1 0 0
300 7 9.886301041147266 11.63250648894662 33.5664411534356 0 0 0
272 7 3.7416314956778276 0.7435415587246015 33.66801232281862 0 0 0
277 6 2.4688210251901466 2.897501276096396 33.71147213130318 0 0 0
302 6 2.433388159649989 1.3316985207698067 35.99845214134596 0 0 0
306 7 1.229803986017601 3.7051504546657297 35.819823237936625 0 0 0
307 1 3.719081382774466 3.780674339064489 35.89761122081019 0 0 0
273 7 6.237613198528194 0.8413898862082366 33.684989743660644 0 0 0
278 7 4.985684202843024 2.953476787110057 33.892995855851744 0 0 0
279 7 7.498269163212823 2.983522572541541 33.776146204087176 0 0 0
303 5 4.908959365966198 1.4119918958198472 35.86157604555651 0 0 0
304 7 7.460526959298991 1.5131968859352307 35.75993109394979 0 0 0
308 4 6.2956415983410485 3.650220906040636 35.89655942275549 0 0 0
333 3 5.790683572741736 0.13907358254738292 37.32584331522714 0 0 0
274 5 8.708593824518744 0.7765181015338669 33.676306685860716 0 0 0
280 7 9.935848027145688 2.98073897089302 33.78242002528313 0 0 0
301 7 12.401277877737773 1.602416923990965 35.59602307264166 -1 0 0
305 7 9.908968083355633 1.5419094781560105 35.710735917472334 0 0 0
309 7 8.73463360660559 3.7700004234426325 35.82392938302784 0 0 0
310 7 11.213170373418007 3.7398662820631277 35.790487074852834 0 0 0
281 6 1.1949098878490299 5.216060900371054 33.71175754562889 0 0 0
282 7 3.7542426862603944 5.140191863876904 33.7479837190137 0 0 0
287 7 2.516707758686461 7.330798790982704 33.69620861479329 0 0 0
311 5 0.013110671094494819 5.913699529969178 35.86564473723924 0 0 0
312 7 2.4675487266498646 5.921069726332388 35.787342525763755 0 0 0
316 7 1.2671128476066942 8.051436683906257 35.686384424634895 0 0 0
317 7 3.739994286099562 8.018288616674978 35.757765726526195 0 0 0
283 7 6.2104690598454875 5.082454513224086 33.76776792125139 0 0 0
288 4 4.984812094096258 7.35094234157296 33.756679936084694 0 0 0
289 6 7.380598281405095 7.397972620533739 33.81559797032112 0 0 0
313 7 4.984272641020917 5.848275968201608 35.81951144417487 0 0 0
314 7 7.437134251058855 5.849783366309683 35.92162769280016 0 0 0
318 7 6.176028005453367 7.970233331627233 35.948024620739005 0 0 0
284 7 8.666058105822897 5.206449932615588 33.83910118159005 0 0 0
285 7 11.157311230985524 5.244179851652173 33.86109912574623 0 0 0
286 7 12.437944360323733 7.391027315123875 33.663995338163396 -1 0 0
290 7 9.907147928794128 7.359835954941556 33.74361314781636 0 0 0
315 6 10.024136900538313 6.036033330714807 36.07895516151462 0 0 0
319 7 8.697728705679589 8.12930744067993 35.85076736569265 0 0 0
320 7 11.268577360747637 8.169854229295158 35.58384913845038 0 0 0
350 3 11.712335658867328 7.256312678452598 37.20491212111393 0 0 0
321 7 0.01659225800007816 10.22146009873771 35.61456334047807 0 0 0
322 7 2.4846439152960977 10.143664476789688 35.62654820359552 0 0 0
326 7 1.1993951898877764 12.259907616600497 35.520830878684045 0 0 0
327 7 3.7290680112858947 12.118850009921708 35.62476714186258 0 0 0
357 2 3.7473525736222513 10.606982224426432 37.24478691530985 0 0 0
299 7 7.4357621992564695 11.578424573039237 33.66772265397832 0 0 0
323 7 5.035037551491815 10.084745948957906 35.68151596229986 0 0 0
324 7 7.41662225143188 10.203535053121755 35.762366364631085 0 0 0
328 7 6.231373063385815 12.329457295276901 35.65052453848539 0 0 0
325 7 9.98193374641621 10.218636893502314 35.667367808510406 0 0 0
329 7 8.737885540856734 12.29520985783935 35.704914125422 0 0 0
330 7 11.185986242687582 12.3534884007615 35.587683729023254 0 0 0
331 4 0.06251700260713002 0.19393351080812754 37.52091433723207 0 0 0
336 7 1.1331029203783145 2.3101997497391475 37.86407985146417 0 0 0
337 7 3.5742439591374517 2.4468869440552616 37.918204394215955 0 0 0
338 6 6.081600941774944 2.126339125337555 37.9083288076632 0 0 0
335 7 10.0930346847114 0.10942458133588415 37.74323692501283 0 0 0
339 6 8.681660742151537 2.262975117809253 37.784236799092476 0 0 0
340 7 11.198804912713003 2.2515658141172614 37.80314130164308 0 0 0
342 7 2.3599239782189696 4.620586490579608 37.864707782315314 0 0 0
346 7 1.0552168320820048 6.731716426005866 37.79698222715767 0 0 0
347 1 3.6846039935343913 6.734836506140077 37.9187749158461 0 0 0
361 8 5.014946847263263 5.853377307746619 39.05724354374918 0 0 0
343 7 4.932061528059463 4.474399885383159 37.96830022146389 0 0 0
344 7 7.422209434452849 4.39061652303084 37.95725449153127 0 0 0
348 7 6.114818808078302 6.637914029433996 38.02102693320342 0 0 0
341 7 12.354552183393789 4.45720146281063 37.80408173019487 -1 0 0
345 7 9.916769490643684 4.420483658654648 37.94726082100407 0 0 0
349 7 8.52602449916636 6.649087667931206 37.980221383116486 0 0 0
355 7 10.189220352964165 8.435993805616468 37.75333743369935 0 0 0
332 7 3.994027936096068 12.911900998382423 37.81359010448909 0 -1 0
351 7 0.10451896082586089 8.93119614324827 37.670716993726046 0 0 0
352 7 2.500100520752 8.965045774136424 37.74415357658762 0 0 0
356 7 1.8049419421348751 11.36142595416624 37.65852063206202 0 0 0
334 7 7.581947155720061 12.8830060250924 37.819994947002975 0 -1 0
353 7 4.89625791103138 8.902069847262824 37.85808026518212 0 0 0
354 6 7.432888955246692 8.897407528815476 37.859657480855006 0 0 0
358 7 5.837993507926967 11.105555210385443 37.74434226253191 0 0 0
359 7 8.927410395710027 10.786975860663595 37.7261352062849 0 0 0
360 7 11.415858261785868 10.995266951097962 37.649620858818615 0 0 0

Velocities

3 0 0 0
8 0 0 0
9 0 0 0
4 0 0 0
12 0 0 0
13 0 0 0
19 0 0 0
14 0 0 0
15 0 0 0
20 0 0 0
27 0 0 0
29 0 0 0
26 0 0 0
30 0 0 0
2 0 0 0
6 0 0 0
7 0 0 0
31 0 0 0
32 0 0 0
36 0 0 0
37 0 0 0
33 0 0 0
34 0 0 0
38 0 0 0
5 0 0 0
10 0 0 0
35 0 0 0
39 0 0 0
40 0 0 0
75 0 0 0
11 0 0 0
16 0 0 0
17 0 0 0
41 0 0 0
42 0 0 0
46 0 0 0
47 0 0 0
18 0 0 0
43 0 0 0
44 0 0 0
48 0 0 0
25 0 0 0
45 0 0 0
49 0 0 0
50 0 0 0
1 0 0 0
21 0 0 0
22 0 0 0
52 0 0 0
56 0 0 0
57 0 0 0
23 0 0 0
24 0 0 0
28 0 0 0
53 0 0 0
54 0 0 0
58 0 0 0
51 0 0 0
55 0 0 0
59 0 0 0
60 0 0 0
66 0 0 0
67 0 0 0
91 0 0 0
92 0 0 0
96 0 0 0
97 0 0 0
68 0 0 0
74 0 0 0
93 0 0 0
98 0 0 0
99 0 0 0
69 0 0 0
70 0 0 0
71 0 0 0
94 0 0 0
95 0 0 0
100 0 0 0
105 0 0 0
130 0 0 0
72 0 0 0
76 0 0 0
77 0 0 0
82 0 0 0
101 0 0 0
102 0 0 0
107 0 0 0
73 0 0 0
78 0 0 0
103 0 0 0
108 0 0 0
109 0 0 0
79 0 0 0
80 0 0 0
81 0 0 0
104 0 0 0
106 0 0 0
110 0 0 0
62 0 0 0
86 0 0 0
87 0 0 0
111 0 0 0
112 0 0 0
117 0 0 0
63 0 0 0
64 0 0 0
83 0 0 0
84 0 0 0
88 0 0 0
113 0 0 0
118 0 0 0
119 0 0 0
61 0 0 0
65 0 0 0
85 0 0 0
89 0 0 0
90 0 0 0
114 0 0 0
115 0 0 0
116 0 0 0
120 0 0 0
121 0 0 0
122 0 0 0
126 0 0 0
127 0 0 0
151 0 0 0
156 0 0 0
157 0 0 0
161 0 0 0
162 0 0 0
123 0 0 0
124 0 0 0
128 0 0 0
154 0 0 0
158 0 0 0
125 0 0 0
129 0 0 0
155 0 0 0
159 0 0 0
160 0 0 0
165 0 0 0
132 0 0 0
136 0 0 0
137 0 0 0
166 0 0 0
167 0 0 0
171 0 0 0
133 0 0 0
134 0 0 0
138 0 0 0
163 0 0 0
164 0 0 0
168 0 0 0
173 0 0 0
131 0 0 0
135 0 0 0
139 0 0 0
140 0 0 0
169 0 0 0
170 0 0 0
142 0 0 0
146 0 0 0
147 0 0 0
152 0 0 0
172 0 0 0
176 0 0 0
177 0 0 0
143 0 0 0
144 0 0 0
148 0 0 0
153 0 0 0
174 0 0 0
178 0 0 0
141 0 0 0
145 0 0 0
149 0 0 0
150 0 0 0
175 0 0 0
179 0 0 0
180 0 0 0
181 0 0 0
182 0 0 0
186 0 0 0
187 0 0 0
212 0 0 0
216 0 0 0
217 0 0 0
183 0 0 0
188 0 0 0
189 0 0 0
213 0 0 0
214 0 0 0
218 0 0 0
184 0 0 0
185 0 0 0
190 0 0 0
211 0 0 0
215 0 0 0
219 0 0 0
220 0 0 0
191 0 0 0
192 0 0 0
197 0 0 0
222 0 0 0
226 0 0 0
227 0 0 0
193 0 0 0
198 0 0 0
199 0 0 0
223 0 0 0
224 0 0 0
228 0 0 0
194 0 0 0
195 0 0 0
196 0 0 0
200 0 0 0
225 0 0 0
229 0 0 0
230 0 0 0
201 0 0 0
202 0 0 0
207 0 0 0
232 0 0 0
236 0 0 0
237 0 0 0
203 0 0 0
208 0 0 0
209 0 0 0
233 0 0 0
234 0 0 0
238 0 0 0
204 0 0 0
205 0 0 0
206 0 0 0
210 0 0 0
231 0 0 0
235 0 0 0
239 0 0 0
240 0 0 0
242 0 0 0
246 0 0 0
247 0 0 0
271 0 0 0
243 0 0 0
244 0 0 0
248 0 0 0
253 0 0 0
241 0 0 0
245 0 0 0
249 0 0 0
250 0 0 0
275 0 0 0
276 0 0 0
251 0 0 0
252 0 0 0
256 0 0 0
257 0 0 0
254 0 0 0
258 0 0 0
221 0 0 0
255 0 0 0
259 0 0 0
260 0 0 0
262 0 0 0
266 0 0 0
267 0 0 0
291 0 0 0
292 0 0 0
297 0 0 0
263 0 0 0
264 0 0 0
268 0 0 0
293 0 0 0
298 0 0 0
261 0 0 0
265 0 0 0
269 0 0 0
270 0 0 0
294 0 0 0
295 0 0 0
296 0 0 0
300 0 0 0
272 0 0 0
277 0 0 0
302 0 0 0
306 0 0 0
307 0 0 0
273 0 0 0
278 0 0 0
279 0 0 0
303 0 0 0
304 0 0 0
308 0 0 0
333 0 0 0
274 0 0 0
280 0 0 0
301 0 0 0
305 0 0 0
309 0 0 0
310 0 0 0
281 0 0 0
282 0 0 0
287 0 0 0
311 0 0 0
312 0 0 0
316 0 0 0
317 0 0 0
283 0 0 0
288 0 0 0
289 0 0 0
313 0 0 0
314 0 0 0
318 0 0 0
284 0 0 0
285 0 0 0
286 0 0 0
290 0 0 0
315 0 0 0
319 0 0 0
320 0 0 0
350 0 0 0
321 0 0 0
322 0 0 0
326 0 0 0
327 0 0 0
357 0 0 0
299 0 0 0
323 0 0 0
324 0 0 0
328 0 0 0
325 0 0 0
329 0 0 0
330 0 0 0
331 0 0 0
336 0 0 0
337 0 0 0
338 0 0 0
335 0 0 0
339 0 0 0
340 0 0 0
342 0 0 0
346 0 0 0
347 0 0 0
361 0 0 0
343 0 0 0
344 0 0 0
348 0 0 0
341 0 0 0
345 0 0 0
349 0 0 0
355 0 0 0
332 0 0 0
351 0 0 0
352 0 0 0
356 0 0 0
334 0 0 0
353 0 0 0
354 0 0 0
358 0 0 0
359 0 0 0
360 0 0 0
