LAMMPS data file via write_data, version 11 Feb 2026, timestep = 119, units = metal

361 atoms
8 atom types

0 12.447907776 xlo xhi
0 12.9362452296 ylo yhi
0 52.3600831054 zlo zhi

Masses

1 26.9815
2 10.811
3 12.011
4 51.9961
5 55.845
6 95.95999999999999
7 58.6934
8 1.008

Atoms # atomic/kk

3 7 6.1192868739 0.6304446556 14.8633861521 0 0 0
8 6 4.8173310833 2.8332362965 14.920229021 0 0 0
9 7 7.3091636013 2.9911401833 14.9454172376 0 0 0
4 7 8.5231700378 0.9607030971 14.8321150978 0 0 0
12 7 3.760513117 5.2115614728 14.9011016104 0 0 0
13 7 6.1482953191 5.0908224502 14.8558171528 0 0 0
19 7 7.6370362141 7.5485918091 14.9266538896 0 0 0
14 4 8.6578045479 5.0984072093 14.7389025403 0 0 0
15 7 11.0357453415 5.067847838 14.3410204439 0 0 0
20 7 10.0434603699 7.266518572 14.9071482997 0 0 0
27 7 2.3595305285 11.2504763091 14.7773304803 0 0 0
29 7 7.8189206247 11.3481807249 14.9076909876 0 0 0
26 7 12.248753230699998 11.4159082208 14.6587400631 -1 0 0
30 7 10.0922125275 12.2632607301 14.9329118338 0 0 0
2 7 3.4556332323 0.6856061004 14.9787522795 0 0 0
6 7 1.5639382335 2.2906969741 15.0946829788 0 0 0
7 3 2.8731760314 3.5882785926 14.987515157 0 0 0
31 7 0.0535256814 1.623000142 17.215310387 0 0 0
32 7 2.5166170309 1.5026413961 17.1811797979 0 0 0
36 7 1.3566735612 3.631577479 17.2540670274 0 0 0
37 7 3.7105862708 3.6774100942 16.9344468272 0 0 0
33 7 4.954867202 1.3046704677 16.9071563969 0 0 0
34 7 7.4237648265 1.3010478562 16.916033296 0 0 0
38 4 6.1463916953 3.5014292111 16.991239037 0 0 0
5 7 11.8022882756 1.0292505879 15.0097459312 0 0 0
10 7 9.8066141081 3.0170552811 15.0155878638 0 0 0
35 7 10.0466587865 1.3634699988 16.8604593418 0 0 0
39 7 8.6301541895 3.4353809766 17.0740408176 0 0 0
40 7 11.9209083716 3.4980590423 15.8390616931 0 0 0
75 2 10.7686181924 3.1968616202 17.4340787861 0 0 0
11 7 1.3971986626 4.8134294471 15.0883248546 0 0 0
16 7 0.016046131 6.8901500907 15.0687802643 0 0 0
17 7 2.4353309429 7.2091106393 15.1108484762 0 0 0
41 5 0.1739023004 5.6842839724 17.1189569051 0 0 0
42 7 2.5457902692 5.7981722782 17.1397266069 0 0 0
46 7 1.2472413802 7.8331037703 17.1303167212 0 0 0
47 7 3.7583052321 7.9250759054 17.0632733751 0 0 0
18 7 5.0889409408 7.2663628235 15.0435168681 0 0 0
43 4 4.9667698232 5.8334397719 16.9960587615 0 0 0
44 6 7.4973034695 5.7419507689 16.8281984613 0 0 0
48 7 6.2676768692 7.9670241339 17.1204826936 0 0 0
25 3 11.5015678602 8.460485538 15.2680515643 0 0 0
45 6 10.2888098755 5.3678325187 16.7677063876 0 0 0
49 7 8.8334065077 7.8663786431 17.0376109184 0 0 0
50 7 11.2131131655 7.766467847 17.0625497734 0 0 0
1 4 1.3160442387 12.912011229400001 15.994260076 0 -1 0
21 7 0.7906594424 9.2240916114 15.0553056261 0 0 0
22 7 3.6207331253 9.260442342 15.016973742 0 0 0
52 7 2.3474800956 10.0647016704 16.9899569744 0 0 0
56 3 0.9470435499 10.9678242642 16.0720486224 0 0 0
57 7 3.5494484874 12.1967437929 16.9695359274 0 0 0
23 6 6.0524699377 9.5406320586 15.1732616002 0 0 0
24 3 8.1354668266 9.4144660038 15.1225460705 0 0 0
28 7 4.7757131415 11.5696864746 14.9601899644 0 0 0
53 7 4.8275766379 10.1200594978 17.1585380973 0 0 0
54 7 7.7393645434 10.0215408088 17.0245748441 0 0 0
58 7 6.2545636594 12.0703065663 16.8600327392 0 0 0
51 7 12.2589204083 9.894967598 17.1358430216 -1 0 0
55 6 10.0512167628 9.881929606 15.6282063925 0 0 0
59 7 8.8659682746 12.1609080065 16.9955657986 0 0 0
60 6 11.4870301217 12.2039678417 17.008987108 0 0 0
66 7 1.3246919535 2.0761546191 19.3369539919 0 0 0
67 4 3.826057384 2.1293425166 18.9990846192 0 0 0
91 4 1.1890534627 0.6611224914 21.3295808047 0 0 0
92 6 3.6323514765 0.7501618976 21.013860634 0 0 0
96 2 0.2649387153 2.7297263316 21.000773609 0 0 0
97 7 2.3598422478 2.9302283723 21.4962520659 0 0 0
68 4 6.2095347359 2.0753565183 18.9344853371 0 0 0
74 4 7.3117261635 4.2573612703 19.0834041948 0 0 0
93 6 6.3615286564 0.6903780738 21.1327085418 0 0 0
98 6 5.0614658063 2.9691648444 21.1233964394 0 0 0
99 7 7.7314359984 2.9407781213 21.1215765612 0 0 0
69 7 8.6004820708 1.9165362763 19.016352785 0 0 0
70 7 11.1623021303 2.0230581582 19.1018122342 0 0 0
71 6 12.355026731299999 4.2645210992 19.2283484368 -1 0 0
94 7 8.8693532291 0.7433068205 21.1832395031 0 0 0
95 7 11.2884036212 1.0335800014 21.2917798486 0 0 0
100 3 9.8217738561 2.2448451932 20.5206021379 0 0 0
105 6 9.7400373841 4.0747521408 19.3469987226 0 0 0
130 6 10.7824408219 3.63989164 21.8575895182 0 0 0
72 6 2.5291059573 4.3567999422 19.307850253 0 0 0
76 7 1.2091953109 6.4743635897 19.2309189421 0 0 0
77 7 3.7698810312 6.5233791492 19.1706449557 0 0 0
82 7 2.5028472985 8.6218349251 19.0955945007 0 0 0
101 4 0.9309038317 4.8673983927 21.5084744433 0 0 0
102 4 3.6720997393 5.1031203781 21.3079813916 0 0 0
107 7 2.4101232852 7.0407438225 21.2905393042 0 0 0
73 7 4.9759730124 4.3686023892 18.9904593187 0 0 0
78 7 6.2521461998 6.4908314969 19.1018034267 0 0 0
103 7 6.210094329 5.1204948244 21.1528383229 0 0 0
108 7 4.9322310331 7.2045303478 21.2497028705 0 0 0
109 1 7.3644419038 7.3093331748 21.2501801179 0 0 0
79 1 8.7528428062 6.5389774189 19.0944606475 0 0 0
80 7 11.1524492138 6.417209258 19.1056949334 0 0 0
81 7 12.380639600699999 8.55413522 19.1455396218 -1 0 0
104 7 8.6629871411 5.1809633634 21.2783688034 0 0 0
106 7 12.3196276371 7.091535323 21.2314453025 -1 0 0
110 7 9.9062855258 7.2153146328 21.2529978345 0 0 0
62 7 2.4144763491 12.858822901 19.0362311757 0 -1 0
86 7 1.1725104031 10.7431257735 19.0809222803 0 0 0
87 7 3.6490946401 10.7608843455 19.1608112939 0 0 0
111 6 1.2025618491 9.2430452238 21.1466468174 0 0 0
112 7 3.7156593618 9.2845007241 21.2361064908 0 0 0
117 7 2.4176923083 11.4342448768 21.1944768774 0 0 0
63 7 4.960898558 12.840873703300002 18.9676578671 0 -1 0
64 7 7.4572706221 12.7877107458 18.9739205101 0 -1 0
83 7 4.9855337767 8.658628656 19.1563818256 0 0 0
84 7 7.4890528326 8.6425332375 19.1407548551 0 0 0
88 7 6.2491641886 10.73214155 19.0741096471 0 0 0
113 7 6.2223787142 9.3961778954 21.1881156609 0 0 0
118 7 4.9781475965 11.4755181257 21.1362544621 0 0 0
119 5 7.5244871062 11.4412133825 21.1271427394 0 0 0
61 7 12.430455238499999 12.906087820100002 19.2187475004 -1 -1 0
65 4 9.9617889385 12.802840754 19.045595606 0 -1 0
85 7 9.9738315887 8.650244424 19.1193225408 0 0 0
89 7 8.7622120492 10.7552480552 19.10442726 0 0 0
90 7 11.207717528 10.7670035331 19.1593220526 0 0 0
114 7 8.7200766235 9.4007298425 21.2008305121 0 0 0
115 7 11.1354613422 9.3455616408 21.2647206688 0 0 0
116 4 12.390361428399999 11.5315056904 21.2107074633 -1 0 0
120 7 10.0228591802 11.5613998873 21.1895162594 0 0 0
121 7 0.2078152794360287 2.299664973208071 23.04606518850975 0 0 0
122 7 2.556006887692406 1.4025146322753785 23.3350036134609 0 0 0
126 2 1.8532605885366529 3.4314260607800526 23.568339845408463 0 0 0
127 7 3.848505222614342 3.5941766868198806 23.36518291966377 0 0 0
151 7 0.04766339936527406 0.016148534792043624 25.270760637181777 0 0 0
156 7 1.368948904309331 2.112340448634717 25.293535512083338 0 0 0
157 5 3.8232479857174284 2.1440509065338262 25.453909190685888 0 0 0
161 6 0.10456878527905171 4.197291064784341 24.95585241987044 0 0 0
162 7 2.5773302114718035 4.293766124377473 25.342404576494435 0 0 0
123 7 5.016972530954234 1.4204748037927266 23.249736084968347 0 0 0
124 7 7.539032730509697 1.461949355904545 23.257291102590855 0 0 0
128 7 6.307117793028313 3.654469121100734 23.240371746449807 0 0 0
154 7 7.498930896726957 0.012655011883402309 25.303041544570434 0 0 0
158 6 6.2842916888829015 2.2572505130687675 25.30403657489819 0 0 0
125 7 10.014291972415794 1.5922515234681953 23.291765601498273 0 0 0
129 7 8.694985548402911 3.675534384714824 23.338842832141975 0 0 0
155 7 9.959354086299571 0.03230740063358089 25.293573087761335 0 0 0
159 7 8.77301137021724 2.179031761641746 25.380256882466643 0 0 0
160 7 11.278800919452397 2.0898153181623145 25.228885827151267 0 0 0
165 7 10.07003012247348 4.291495028304105 25.27285130804892 0 0 0
132 5 2.3543111418500913 5.579658326413351 23.297662559418626 0 0 0
136 7 1.2170529982403173 7.803385926450339 23.305945135864963 0 0 0
137 7 3.6803340865022025 7.807368916979583 23.285819079127975 0 0 0
166 7 1.2087012675483213 6.46255917867962 25.342846844419213 0 0 0
167 7 3.7098143084928403 6.502903629268041 25.370815347465317 0 0 0
171 7 0.004455307358844135 8.598531751572876 25.487617566088424 0 0 0
133 1 4.995387107429382 5.770826301323847 23.338902595176755 0 0 0
134 7 7.443676409397708 5.831008493164553 23.324544732895163 0 0 0
138 7 6.246154164962787 7.913928304460154 23.3559983309966 0 0 0
163 7 5.024311810965765 4.403554853566585 25.431678476968305 0 0 0
164 7 7.506514439459339 4.447036972752128 25.417947217051797 0 0 0
168 4 6.215848965095866 6.564156897615828 25.49229519027301 0 0 0
173 7 4.9608884514851 8.622621397685387 25.37265666858232 0 0 0
131 7 12.23166963648556 5.820886464857566 23.282730328686732 -1 0 0
135 5 9.944351456478222 5.7611793657453685 23.21908790419394 0 0 0
139 4 8.785446238144731 8.066655311507684 23.28018259306474 0 0 0
140 7 11.127410793073725 7.919606528492239 23.407758983783687 0 0 0
169 6 8.80871023953215 6.613947983436267 25.299079229714014 0 0 0
170 4 11.273391155278729 6.427318703854053 25.68368305467569 0 0 0
142 7 2.499751035320257 9.988589662570384 23.3102267662611 0 0 0
146 7 1.2695318259321517 12.23189479643949 23.28170404740691 0 0 0
147 6 3.7749005665491038 12.130695816574708 23.269360410651835 0 0 0
152 7 2.5779763786691507 12.891017561086528 25.36012270182152 0 -1 0
172 7 2.477778607592235 8.643618130151129 25.34779679309852 0 0 0
176 7 1.30486645535618 10.804268484358273 25.416211908684673 0 0 0
177 4 3.727761714753357 10.71411510731129 25.44076283543124 0 0 0
143 7 4.987521728455476 9.993636106939752 23.299888671587475 0 0 0
144 7 7.46978273523161 10.088976093273734 23.253419413085872 0 0 0
148 7 6.263440230964575 12.19121933717466 23.22065160552864 0 0 0
153 7 4.9953893369700975 12.903464787154837 25.331942621074006 0 -1 0
174 7 7.447540979718384 8.714797420544146 25.35722142635912 0 0 0
178 7 6.180978626452832 10.790815954139786 25.360566528133898 0 0 0
141 6 12.445472168777751 10.072640164276061 23.392254902103996 -1 0 0
145 4 9.948062483944557 10.197083183969019 23.30170215533755 0 0 0
149 7 8.749343989142112 12.262202565473618 23.183772987376244 0 0 0
150 4 11.226079853066588 12.399118123593505 23.251269044781512 0 0 0
175 7 10.000176618000118 8.780225923737678 25.394319386707693 0 0 0
179 7 8.709094993943955 10.839059107738013 25.300184750458694 0 0 0
180 7 11.20154162545816 10.89507155612663 25.381958512237688 0 0 0
181 1 1.3147195650527528 0.690133752784302 27.333003622224986 0 0 0
182 4 3.820966991730021 0.8008944200412712 27.39200582813447 0 0 0
186 7 0.06147489992306362 2.794809133775904 27.236164299502594 0 0 0
187 7 2.574843741876804 2.8744642745029427 27.402019017699683 0 0 0
212 7 2.535162537606448 1.4538460633504453 29.419859285282723 0 0 0
216 7 1.3911400435872234 3.5547159931378873 29.465050342708594 0 0 0
217 7 3.7932465639062096 3.69581877700934 29.54909846925257 0 0 0
183 6 6.26395920445414 0.7072699423126977 27.433634911037075 0 0 0
188 5 5.009234021366538 2.9806850597865195 27.514209298032753 0 0 0
189 7 7.536501456315074 2.9967674515432465 27.497972361563534 0 0 0
213 7 4.992712933172759 1.5439084603351063 29.498190893626433 0 0 0
214 6 7.517742551997295 1.5780365847146578 29.638090371749055 0 0 0
218 7 6.260530359893444 3.7530776972157316 29.60876005205079 0 0 0
184 7 8.776861916654905 0.7850479773271084 27.435094679132543 0 0 0
185 4 11.180857740911609 0.6755239592029929 27.292326048326128 0 0 0
190 7 10.078187715944638 2.8667180856970975 27.381986585358952 0 0 0
211 6 12.391328950453516 1.5176756094767905 29.466913974410463 -1 0 0
215 4 9.971351469324258 1.5397458920652016 29.46936340617518 0 0 0
219 7 8.84546107640438 3.80081043290622 29.6279148027603 0 0 0
220 6 11.429869727282622 3.9982851905562766 29.207863385630915 0 0 0
191 7 1.1439289872467233 4.909740098140433 27.241541814450773 0 0 0
192 7 3.6839575856319096 5.071757713047875 27.44825052227315 0 0 0
197 7 2.3252488136124616 7.180887607970356 27.404045254113047 0 0 0
222 6 2.185765272222591 5.806025058413909 29.46697164808489 0 0 0
226 7 1.1479210033299079 8.021916605837355 29.483896768716722 0 0 0
227 7 3.671865618880685 7.916589245098942 29.53087607808524 0 0 0
193 7 6.25615457535539 5.11431613198356 27.48962367456458 0 0 0
198 7 4.9253512178696575 7.214822416156875 27.44404753145262 0 0 0
199 7 7.457414441266589 7.261543090240038 27.47710340073403 0 0 0
223 4 4.863396917892352 5.819347765876537 29.472647555668733 0 0 0
224 4 7.4446686846110355 5.858081611123334 29.471107040314568 0 0 0
228 7 6.1431772765807215 7.968088389270971 29.470216561142966 0 0 0
194 6 9.01777060853407 5.094845538858469 27.429215800370457 0 0 0
195 2 11.387816793452268 4.6237623385496525 26.97285218210357 0 0 0
196 7 12.079734482683355 6.457227424397053 28.100073557353102 -1 0 0
200 7 9.916461295894871 7.417751576479635 27.555777140419192 0 0 0
225 1 10.011223596309543 6.109269911310893 29.664827712670974 0 0 0
229 5 8.552575056456975 8.05850036246078 29.628960574337835 0 0 0
230 7 11.192334377786501 8.129519181138692 29.62969631904373 0 0 0
201 7 1.2250884581292274 9.379446343508112 27.448657078170083 0 0 0
202 7 3.704942501525851 9.320772476889406 27.452744031442826 0 0 0
207 7 2.537369392312489 11.520497440860035 27.43947608196435 0 0 0
232 7 2.492112062147966 10.128174021528286 29.496154971033377 0 0 0
236 7 1.2484003339763197 12.279777125376402 29.47672848490842 0 0 0
237 7 3.7664145038409997 12.311834216272759 29.44679127741491 0 0 0
203 4 6.180655531119955 9.392998174929561 27.403782005840956 0 0 0
208 7 4.96356405811195 11.480736425438788 27.410899136100944 0 0 0
209 7 7.460556594532969 11.48621562172207 27.41241373439552 0 0 0
233 5 4.920532528045684 10.09170129947363 29.4806411834326 0 0 0
234 7 7.362104051892792 10.124022609389023 29.489935280433517 0 0 0
238 7 6.201837968552701 12.243194564583213 29.552529263159357 0 0 0
204 7 8.64521048295412 9.409328795277874 27.44540602005033 0 0 0
205 7 11.238313329461704 9.424674064611075 27.477751568144114 0 0 0
206 7 12.44784809111898 11.57398509081807 27.430664881187546 -1 0 0
210 7 9.93617460897537 11.540131860243463 27.41278432039017 0 0 0
231 7 12.432492136334767 10.211845347490138 29.4745076993206 -1 0 0
235 7 9.885930906216657 10.12561780544415 29.47403065099554 0 0 0
239 7 8.695735480055168 12.29154760079924 29.480711975186782 0 0 0
240 4 11.133928821839609 12.281988506231022 29.423382527615086 0 0 0
242 7 2.4521793650199184 0.12970172576955852 31.54061097180023 0 0 0
246 7 1.219613839863352 2.2892609886851205 31.575536538082396 0 0 0
247 7 3.729144354831685 2.2230050190198134 31.621864152197134 0 0 0
271 7 1.1881025292246679 0.8192638759774508 33.600804029135034 0 0 0
243 7 4.987335629542731 0.10895536905814088 31.563940225604355 0 0 0
244 7 7.459945654637017 0.06463402229797945 31.6491652597723 0 0 0
248 7 6.212123892568006 2.266636065279886 31.691428737178974 0 0 0
253 5 4.9312737513727996 4.308911999839386 31.66551222665399 0 0 0
241 7 12.428681957290392 0.07275710829638282 31.511108682064517 -1 0 0
245 7 9.957792919723836 0.13025327674025639 31.47712612969151 0 0 0
249 7 8.76599623300918 2.222972471527526 31.69855399876043 0 0 0
250 7 11.19893587317842 2.3338475887042844 31.509329427739313 0 0 0
275 7 11.151093979193577 0.8268977428734999 33.54599755393608 0 0 0
276 7 12.355283989899895 3.081746942495025 33.574121880855856 -1 0 0
251 7 0.06257005593743685 4.552735809774006 31.431094944476026 0 0 0
252 7 2.5208422224652844 4.4049386425435735 31.618623508268236 0 0 0
256 7 1.2411456464248252 6.685172929149426 31.64541247031167 0 0 0
257 7 3.707518893320122 6.549248746324471 31.60147588213581 0 0 0
254 7 7.500901400302329 4.353034330554428 31.65986726614306 0 0 0
258 6 6.182981685791749 6.406339563129979 31.524877602531447 0 0 0
221 2 12.40528985675744 6.355656956810721 30.09663658371927 -1 0 0
255 6 9.99230659735619 4.448081267099 31.820657155234375 0 0 0
259 7 8.682490951165763 6.617577642973725 31.67087365014257 0 0 0
260 7 11.210860992115135 6.667164118069583 31.703675089530414 0 0 0
262 7 2.5258405111291826 8.751971631081041 31.541803908917196 0 0 0
266 7 1.2581242192396063 10.900747667896889 31.54151092885703 0 0 0
267 7 3.7077309231102777 10.934139449290985 31.515600119523818 0 0 0
291 7 1.2694387818298738 9.487236156029494 33.58499874133502 0 0 0
292 6 3.857041227690598 9.474527684980336 33.59050928353565 0 0 0
297 4 2.440999523166386 11.662726946144922 33.52278746036435 0 0 0
263 4 5.017865352414533 8.73476353035396 31.542376776875464 0 0 0
264 5 7.388336706665852 8.766947061292125 31.58976342232721 0 0 0
268 7 6.182296505332409 10.83249997625085 31.622035797084912 0 0 0
293 2 6.332963116611928 9.570804752552517 33.34397338494262 0 0 0
298 7 5.0577558250974795 11.57409094806 33.619856417852326 0 0 0
261 7 12.442343050199554 8.832782291139248 31.59701256225276 -1 0 0
265 7 9.890143735775709 8.751540088119603 31.610759922369823 0 0 0
269 7 8.683442231685401 10.893662345740244 31.53260666310479 0 0 0
270 7 11.149449311547869 10.907706871200675 31.49263688828585 0 0 0
294 7 8.575136672905646 9.520774401662404 33.651425214389064 0 0 0
295 7 11.121574693273535 9.507989933543325 33.58574379098308 0 0 0
296 7 12.406202725615609 11.580447434455632 33.53132748176421 -1 0 0
300 7 9.887265970708286 11.630112682026652 33.568828643972466 0 0 0
272 7 3.7409743214627342 0.7448858799312744 33.66514033941905 0 0 0
277 6 2.468661269726757 2.8982392245095796 33.71126330427276 0 0 0
302 6 2.435297271422549 1.331622535402002 35.997502216006474 0 0 0
306 7 1.2356994138348596 3.7067846883837525 35.826093708228065 0 0 0
307 1 3.7223132828764616 3.779088349309716 35.88772332554573 0 0 0
273 7 6.238803845648347 0.8414706095599979 33.68090126388406 0 0 0
278 7 4.987930939707031 2.9528011848772304 33.887609013366514 0 0 0
279 7 7.499831710931773 2.984403771450689 33.7748052073539 0 0 0
303 5 4.910325350242208 1.4100664799956781 35.85645461186842 0 0 0
304 7 7.468265756692158 1.5112212248047368 35.753126445561364 0 0 0
308 4 6.310365313128243 3.652017054948167 35.88292352386541 0 0 0
333 3 5.786385547984058 0.13627271325499407 37.319472916639114 0 0 0
274 5 8.708467997215664 0.7730726201682976 33.67482209806556 0 0 0
280 7 9.93473660381379 2.980777230913424 33.784796867992334 0 0 0
301 7 12.403963602943264 1.6021648477256556 35.59937526021173 -1 0 0
305 7 9.913544613023607 1.5418864993316845 35.70965881889231 0 0 0
309 7 8.73974394152176 3.7748554426875853 35.8285885461596 0 0 0
310 7 11.217715322756694 3.7391297848958502 35.79099080122208 0 0 0
281 6 1.1915885641528707 5.212057001020668 33.70688810805892 0 0 0
282 7 3.7552102869609256 5.13986861118256 33.750201488852966 0 0 0
287 7 2.5144438873947665 7.32810882749132 33.68987678217327 0 0 0
311 5 0.012947964342950164 5.9117721439886495 35.8596274063334 0 0 0
312 7 2.4608795005917785 5.915646412240351 35.783776666618614 0 0 0
316 7 1.2754451021816824 8.04641177394334 35.69319178107561 0 0 0
317 7 3.741308727616388 8.023106461487442 35.734777490774384 0 0 0
283 7 6.210477193023995 5.088087659033879 33.77868765239944 0 0 0
288 4 4.981804305714457 7.340764824438702 33.760426674060895 0 0 0
289 6 7.38258839008435 7.403619938274373 33.81092365884125 0 0 0
313 7 4.980830483566823 5.850889172313816 35.83757274212628 0 0 0
314 7 7.441059934320795 5.866868361439307 35.937377188174594 0 0 0
318 7 6.180598972418366 7.978740645230529 35.92617739040887 0 0 0
284 7 8.66466619236782 5.209789530851326 33.84787689459585 0 0 0
285 7 11.156105452778958 5.241581407277046 33.862292400882986 0 0 0
286 7 12.439188706072947 7.389785041881894 33.66560184090562 -1 0 0
290 7 9.908228034609156 7.357744083680067 33.75340655540753 0 0 0
315 6 10.033642151404036 6.035818021465002 36.0960694686436 0 0 0
319 7 8.694453915612955 8.12282609742407 35.875567874416085 0 0 0
320 7 11.271660981045706 8.168336427500156 35.5866057450312 0 0 0
350 3 11.726625735918288 7.255518841056441 37.201980338407246 0 0 0
321 7 0.020971488049914642 10.219890872567884 35.61948924471561 0 0 0
322 7 2.489419521275665 10.143750581787327 35.62204124868866 0 0 0
326 7 1.2026920049489171 12.258963174742929 35.52304524238746 0 0 0
327 7 3.7317343057064423 12.119435734429144 35.61946598788862 0 0 0
357 2 3.7515458978672367 10.59221308980508 37.23639450811269 0 0 0
299 7 7.433466389273953 11.572753474203228 33.66715832900189 0 0 0
323 7 5.042237243917374 10.086394294932921 35.669930398183425 0 0 0
324 7 7.427195900083216 10.206423095104748 35.77756668949127 0 0 0
328 7 6.233817745557993 12.331468271394668 35.64619298678966 0 0 0
325 7 9.982933655808296 10.211745360689715 35.6789179378471 0 0 0
329 7 8.742874029227872 12.294171616565121 35.704805000562835 0 0 0
330 7 11.187955351273585 12.350661335015264 35.58916985058083 0 0 0
331 4 0.06022855893401808 0.1872082320901779 37.520813352294205 0 0 0
336 7 1.1339721205110627 2.306832519507458 37.86562485382241 0 0 0
337 7 3.5789018501671648 2.4331246429967104 37.92435890770424 0 0 0
338 6 6.092884581874471 2.125482237166923 37.89873038513259 0 0 0
335 7 10.092366895557465 0.10945128744363603 37.73966844350136 0 0 0
339 6 8.67832467735372 2.264435003640855 37.781356588224256 0 0 0
340 7 11.200626736622109 2.250230532563859 37.80052211605289 0 0 0
342 7 2.3966170950216803 4.611032286318671 37.88728844746804 0 0 0
346 7 1.063774541968334 6.722191649183335 37.796765459778875 0 0 0
347 1 3.67930459800492 6.725152777461332 37.87650094892989 0 0 0
343 7 4.964372499090835 4.437388220106768 37.90084338040228 0 0 0
344 7 7.409719152260872 4.394325735966459 37.97376637098642 0 0 0
348 7 6.100741363188895 6.647608070228071 38.019052224125986 0 0 0
361 8 7.204851820405457 7.453198227647735 39.063026397179634 0 0 0
341 7 12.366605007366106 4.456661337380973 37.80296871837528 -1 0 0
345 7 9.92299303695075 4.413997379561699 37.957269971231135 0 0 0
349 7 8.560823225450948 6.616338717060196 38.02690754694374 0 0 0
355 7 10.195826732649534 8.440682735344751 37.75565621387798 0 0 0
332 7 3.9969154311280874 12.892892443138809 37.810265420109644 0 -1 0
351 7 0.11266340656217894 8.927971199087631 37.67737551200113 0 0 0
352 7 2.5050220732396578 8.953209061296052 37.739494228686205 0 0 0
356 7 1.799274832049068 11.346315022200706 37.658660931131465 0 0 0
334 7 7.578672789156507 12.881409541837908 37.817476570072316 0 -1 0
353 7 4.897043377997771 8.903829375198194 37.83687925707716 0 0 0
354 6 7.438413758696163 8.915815478377851 37.87497294251352 0 0 0
358 7 5.853534735637344 11.092806477997279 37.73164496565551 0 0 0
359 7 8.929426853677379 10.791524403425786 37.73700592235509 0 0 0
360 7 11.4137578126928 10.990326185605314 37.65476338300333 0 0 0

Velocities

3 0 0 0
8 0 0 0
9 0 0 0
4 0 0 0
12 0 0 0
13 0 0 0
19 0 0 0
14 0 0 0
15 0 0 0
20 0 0 0
27 0 0 0
29 0 0 0
26 0 0 0
30 0 0 0
2 0 0 0
6 0 0 0
7 0 0 0
31 0 0 0
32 0 0 0
36 0 0 0
37 0 0 0
33 0 0 0
34 0 0 0
38 0 0 0
5 0 0 0
10 0 0 0
35 0 0 0
39 0 0 0
40 0 0 0
75 0 0 0
11 0 0 0
16 0 0 0
17 0 0 0
41 0 0 0
42 0 0 0
46 0 0 0
47 0 0 0
18 0 0 0
43 0 0 0
44 0 0 0
48 0 0 0
25 0 0 0
45 0 0 0
49 0 0 0
50 0 0 0
1 0 0 0
21 0 0 0
22 0 0 0
52 0 0 0
56 0 0 0
57 0 0 0
23 0 0 0
24 0 0 0
28 0 0 0
53 0 0 0
54 0 0 0
58 0 0 0
51 0 0 0
55 0 0 0
59 0 0 0
60 0 0 0
66 0 0 0
67 0 0 0
91 0 0 0
92 0 0 0
96 0 0 0
97 0 0 0
68 0 0 0
74 0 0 0
93 0 0 0
98 0 0 0
99 0 0 0
69 0 0 0
70 0 0 0
71 0 0 0
94 0 0 0
95 0 0 0
100 0 0 0
105 0 0 0
130 0 0 0
72 0 0 0
76 0 0 0
77 0 0 0
82 0 0 0
101 0 0 0
102 0 0 0
107 0 0 0
73 0 0 0
78 0 0 0
103 0 0 0
108 0 0 0
109 0 0 0
79 0 0 0
80 0 0 0
81 0 0 0
104 0 0 0
106 0 0 0
110 0 0 0
62 0 0 0
86 0 0 0
87 0 0 0
111 0 0 0
112 0 0 0
117 0 0 0
63 0 0 0
64 0 0 0
83 0 0 0
84 0 0 0
88 0 0 0
113 0 0 0
118 0 0 0
119 0 0 0
61 0 0 0
65 0 0 0
85 0 0 0
89 0 0 0
90 0 0 0
114 0 0 0
115 0 0 0
116 0 0 0
120 0 0 0
121 0 0 0
122 0 0 0
126 0 0 0
127 0 0 0
151 0 0 0
156 0 0 0
157 0 0 0
161 0 0 0
162 0 0 0
123 0 0 0
124 0 0 0
128 0 0 0
154 0 0 0
158 0 0 0
125 0 0 0
129 0 0 0
155 0 0 0
159 0 0 0
160 0 0 0
165 0 0 0
132 0 0 0
136 0 0 0
137 0 0 0
166 0 0 0
167 0 0 0
171 0 0 0
133 0 0 0
134 0 0 0
138 0 0 0
163 0 0 0
164 0 0 0
168 0 0 0
173 0 0 0
131 0 0 0
135 0 0 0
139 0 0 0
140 0 0 0
169 0 0 0
170 0 0 0
142 0 0 0
146 0 0 0
147 0 0 0
152 0 0 0
172 0 0 0
176 0 0 0
177 0 0 0
143 0 0 0
144 0 0 0
148 0 0 0
153 0 0 0
174 0 0 0
178 0 0 0
141 0 0 0
145 0 0 0
149 0 0 0
150 0 0 0
175 0 0 0
179 0 0 0
180 0 0 0
181 0 0 0
182 0 0 0
186 0 0 0
187 0 0 0
212 0 0 0
216 0 0 0
217 0 0 0
183 0 0 0
188 0 0 0
189 0 0 0
213 0 0 0
214 0 0 0
218 0 0 0
184 0 0 0
185 0 0 0
190 0 0 0
211 0 0 0
215 0 0 0
219 0 0 0
220 0 0 0
191 0 0 0
192 0 0 0
197 0 0 0
222 0 0 0
226 0 0 0
227 0 0 0
193 0 0 0
198 0 0 0
199 0 0 0
223 0 0 0
224 0 0 0
228 0 0 0
194 0 0 0
195 0 0 0
196 0 0 0
200 0 0 0
225 0 0 0
229 0 0 0
230 0 0 0
201 0 0 0
202 0 0 0
207 0 0 0
232 0 0 0
236 0 0 0
237 0 0 0
203 0 0 0
208 0 0 0
209 0 0 0
233 0 0 0
234 0 0 0
238 0 0 0
204 0 0 0
205 0 0 0
206 0 0 0
210 0 0 0
231 0 0 0
235 0 0 0
239 0 0 0
240 0 0 0
242 0 0 0
246 0 0 0
247 0 0 0
271 0 0 0
243 0 0 0
244 0 0 0
248 0 0 0
253 0 0 0
241 0 0 0
245 0 0 0
249 0 0 0
250 0 0 0
275 0 0 0
276 0 0 0
251 0 0 0
252 0 0 0
256 0 0 0
257 0 0 0
254 0 0 0
258 0 0 0
221 0 0 0
255 0 0 0
259 0 0 0
260 0 0 0
262 0 0 0
266 0 0 0
267 0 0 0
291 0 0 0
292 0 0 0
297 0 0 0
263 0 0 0
264 0 0 0
268 0 0 0
293 0 0 0
298 0 0 0
261 0 0 0
265 0 0 0
269 0 0 0
270 0 0 0
294 0 0 0
295 0 0 0
296 0 0 0
300 0 0 0
272 0 0 0
277 0 0 0
302 0 0 0
306 0 0 0
307 0 0 0
273 0 0 0
278 0 0 0
279 0 0 0
303 0 0 0
304 0 0 0
308 0 0 0
333 0 0 0
274 0 0 0
280 0 0 0
301 0 0 0
305 0 0 0
309 0 0 0
310 0 0 0
281 0 0 0
282 0 0 0
287 0 0 0
311 0 0 0
312 0 0 0
316 0 0 0
317 0 0 0
283 0 0 0
288 0 0 0
289 0 0 0
313 0 0 0
314 0 0 0
318 0 0 0
284 0 0 0
285 0 0 0
286 0 0 0
290 0 0 0
315 0 0 0
319 0 0 0
320 0 0 0
350 0 0 0
321 0 0 0
322 0 0 0
326 0 0 0
327 0 0 0
357 0 0 0
299 0 0 0
323 0 0 0
324 0 0 0
328 0 0 0
325 0 0 0
329 0 0 0
330 0 0 0
331 0 0 0
336 0 0 0
337 0 0 0
338 0 0 0
335 0 0 0
339 0 0 0
340 0 0 0
342 0 0 0
346 0 0 0
347 0 0 0
343 0 0 0
344 0 0 0
348 0 0 0
361 0 0 0
341 0 0 0
345 0 0 0
349 0 0 0
355 0 0 0
332 0 0 0
351 0 0 0
352 0 0 0
356 0 0 0
334 0 0 0
353 0 0 0
354 0 0 0
358 0 0 0
359 0 0 0
360 0 0 0
