LAMMPS data file via write_data, version 11 Feb 2026, timestep = 135, units = metal

361 atoms
8 atom types

0 12.447907776 xlo xhi
0 12.9362452296 ylo yhi
0 52.3600831054 zlo zhi

Masses

1 26.9815
2 10.811
3 12.011
4 51.9961
5 55.845
6 95.95999999999999
7 58.6934
8 1.008

Atoms # atomic/kk

3 7 6.1192868739 0.6304446556 14.8633861521 0 0 0
8 6 4.8173310833 2.8332362965 14.920229021 0 0 0
9 7 7.3091636013 2.9911401833 14.9454172376 0 0 0
4 7 8.5231700378 0.9607030971 14.8321150978 0 0 0
12 7 3.760513117 5.2115614728 14.9011016104 0 0 0
13 7 6.1482953191 5.0908224502 14.8558171528 0 0 0
19 7 7.6370362141 7.5485918091 14.9266538896 0 0 0
14 4 8.6578045479 5.0984072093 14.7389025403 0 0 0
15 7 11.0357453415 5.067847838 14.3410204439 0 0 0
20 7 10.0434603699 7.266518572 14.9071482997 0 0 0
27 7 2.3595305285 11.2504763091 14.7773304803 0 0 0
29 7 7.8189206247 11.3481807249 14.9076909876 0 0 0
26 7 12.248753230699998 11.4159082208 14.6587400631 -1 0 0
30 7 10.0922125275 12.2632607301 14.9329118338 0 0 0
2 7 3.4556332323 0.6856061004 14.9787522795 0 0 0
6 7 1.5639382335 2.2906969741 15.0946829788 0 0 0
7 3 2.8731760314 3.5882785926 14.987515157 0 0 0
31 7 0.0535256814 1.623000142 17.215310387 0 0 0
32 7 2.5166170309 1.5026413961 17.1811797979 0 0 0
36 7 1.3566735612 3.631577479 17.2540670274 0 0 0
37 7 3.7105862708 3.6774100942 16.9344468272 0 0 0
33 7 4.954867202 1.3046704677 16.9071563969 0 0 0
34 7 7.4237648265 1.3010478562 16.916033296 0 0 0
38 4 6.1463916953 3.5014292111 16.991239037 0 0 0
5 7 11.8022882756 1.0292505879 15.0097459312 0 0 0
10 7 9.8066141081 3.0170552811 15.0155878638 0 0 0
35 7 10.0466587865 1.3634699988 16.8604593418 0 0 0
39 7 8.6301541895 3.4353809766 17.0740408176 0 0 0
40 7 11.9209083716 3.4980590423 15.8390616931 0 0 0
75 2 10.7686181924 3.1968616202 17.4340787861 0 0 0
11 7 1.3971986626 4.8134294471 15.0883248546 0 0 0
16 7 0.016046131 6.8901500907 15.0687802643 0 0 0
17 7 2.4353309429 7.2091106393 15.1108484762 0 0 0
41 5 0.1739023004 5.6842839724 17.1189569051 0 0 0
42 7 2.5457902692 5.7981722782 17.1397266069 0 0 0
46 7 1.2472413802 7.8331037703 17.1303167212 0 0 0
47 7 3.7583052321 7.9250759054 17.0632733751 0 0 0
18 7 5.0889409408 7.2663628235 15.0435168681 0 0 0
43 4 4.9667698232 5.8334397719 16.9960587615 0 0 0
44 6 7.4973034695 5.7419507689 16.8281984613 0 0 0
48 7 6.2676768692 7.9670241339 17.1204826936 0 0 0
25 3 11.5015678602 8.460485538 15.2680515643 0 0 0
45 6 10.2888098755 5.3678325187 16.7677063876 0 0 0
49 7 8.8334065077 7.8663786431 17.0376109184 0 0 0
50 7 11.2131131655 7.766467847 17.0625497734 0 0 0
1 4 1.3160442387 12.912011229400001 15.994260076 0 -1 0
21 7 0.7906594424 9.2240916114 15.0553056261 0 0 0
22 7 3.6207331253 9.260442342 15.016973742 0 0 0
52 7 2.3474800956 10.0647016704 16.9899569744 0 0 0
56 3 0.9470435499 10.9678242642 16.0720486224 0 0 0
57 7 3.5494484874 12.1967437929 16.9695359274 0 0 0
23 6 6.0524699377 9.5406320586 15.1732616002 0 0 0
24 3 8.1354668266 9.4144660038 15.1225460705 0 0 0
28 7 4.7757131415 11.5696864746 14.9601899644 0 0 0
53 7 4.8275766379 10.1200594978 17.1585380973 0 0 0
54 7 7.7393645434 10.0215408088 17.0245748441 0 0 0
58 7 6.2545636594 12.0703065663 16.8600327392 0 0 0
51 7 12.2589204083 9.894967598 17.1358430216 -1 0 0
55 6 10.0512167628 9.881929606 15.6282063925 0 0 0
59 7 8.8659682746 12.1609080065 16.9955657986 0 0 0
60 6 11.4870301217 12.2039678417 17.008987108 0 0 0
66 7 1.3246919535 2.0761546191 19.3369539919 0 0 0
67 4 3.826057384 2.1293425166 18.9990846192 0 0 0
91 4 1.1890534627 0.6611224914 21.3295808047 0 0 0
92 6 3.6323514765 0.7501618976 21.013860634 0 0 0
96 2 0.2649387153 2.7297263316 21.000773609 0 0 0
97 7 2.3598422478 2.9302283723 21.4962520659 0 0 0
68 4 6.2095347359 2.0753565183 18.9344853371 0 0 0
74 4 7.3117261635 4.2573612703 19.0834041948 0 0 0
93 6 6.3615286564 0.6903780738 21.1327085418 0 0 0
98 6 5.0614658063 2.9691648444 21.1233964394 0 0 0
99 7 7.7314359984 2.9407781213 21.1215765612 0 0 0
69 7 8.6004820708 1.9165362763 19.016352785 0 0 0
70 7 11.1623021303 2.0230581582 19.1018122342 0 0 0
71 6 12.355026731299999 4.2645210992 19.2283484368 -1 0 0
94 7 8.8693532291 0.7433068205 21.1832395031 0 0 0
95 7 11.2884036212 1.0335800014 21.2917798486 0 0 0
100 3 9.8217738561 2.2448451932 20.5206021379 0 0 0
105 6 9.7400373841 4.0747521408 19.3469987226 0 0 0
130 6 10.7824408219 3.63989164 21.8575895182 0 0 0
72 6 2.5291059573 4.3567999422 19.307850253 0 0 0
76 7 1.2091953109 6.4743635897 19.2309189421 0 0 0
77 7 3.7698810312 6.5233791492 19.1706449557 0 0 0
82 7 2.5028472985 8.6218349251 19.0955945007 0 0 0
101 4 0.9309038317 4.8673983927 21.5084744433 0 0 0
102 4 3.6720997393 5.1031203781 21.3079813916 0 0 0
107 7 2.4101232852 7.0407438225 21.2905393042 0 0 0
73 7 4.9759730124 4.3686023892 18.9904593187 0 0 0
78 7 6.2521461998 6.4908314969 19.1018034267 0 0 0
103 7 6.210094329 5.1204948244 21.1528383229 0 0 0
108 7 4.9322310331 7.2045303478 21.2497028705 0 0 0
109 1 7.3644419038 7.3093331748 21.2501801179 0 0 0
79 1 8.7528428062 6.5389774189 19.0944606475 0 0 0
80 7 11.1524492138 6.417209258 19.1056949334 0 0 0
81 7 12.380639600699999 8.55413522 19.1455396218 -1 0 0
104 7 8.6629871411 5.1809633634 21.2783688034 0 0 0
106 7 12.3196276371 7.091535323 21.2314453025 -1 0 0
110 7 9.9062855258 7.2153146328 21.2529978345 0 0 0
62 7 2.4144763491 12.858822901 19.0362311757 0 -1 0
86 7 1.1725104031 10.7431257735 19.0809222803 0 0 0
87 7 3.6490946401 10.7608843455 19.1608112939 0 0 0
111 6 1.2025618491 9.2430452238 21.1466468174 0 0 0
112 7 3.7156593618 9.2845007241 21.2361064908 0 0 0
117 7 2.4176923083 11.4342448768 21.1944768774 0 0 0
63 7 4.960898558 12.840873703300002 18.9676578671 0 -1 0
64 7 7.4572706221 12.7877107458 18.9739205101 0 -1 0
83 7 4.9855337767 8.658628656 19.1563818256 0 0 0
84 7 7.4890528326 8.6425332375 19.1407548551 0 0 0
88 7 6.2491641886 10.73214155 19.0741096471 0 0 0
113 7 6.2223787142 9.3961778954 21.1881156609 0 0 0
118 7 4.9781475965 11.4755181257 21.1362544621 0 0 0
119 5 7.5244871062 11.4412133825 21.1271427394 0 0 0
61 7 12.430455238499999 12.906087820100002 19.2187475004 -1 -1 0
65 4 9.9617889385 12.802840754 19.045595606 0 -1 0
85 7 9.9738315887 8.650244424 19.1193225408 0 0 0
89 7 8.7622120492 10.7552480552 19.10442726 0 0 0
90 7 11.207717528 10.7670035331 19.1593220526 0 0 0
114 7 8.7200766235 9.4007298425 21.2008305121 0 0 0
115 7 11.1354613422 9.3455616408 21.2647206688 0 0 0
116 4 12.390361428399999 11.5315056904 21.2107074633 -1 0 0
120 7 10.0228591802 11.5613998873 21.1895162594 0 0 0
121 7 0.2076301650951757 2.2982457277775072 23.04562550169117 0 0 0
122 7 2.556312335414324 1.4023650621475234 23.33470666198696 0 0 0
126 2 1.852738739978336 3.4315542299566024 23.56672475368236 0 0 0
127 7 3.848235833201193 3.593961745505527 23.36475211341893 0 0 0
151 7 0.047675735688657274 0.016486888776167056 25.270664550264417 0 0 0
156 7 1.3689178893854843 2.1122544707717386 25.292190915644305 0 0 0
157 5 3.8232164429370243 2.143740002322228 25.453938441486258 0 0 0
161 6 0.10419740101663677 4.197184918336079 24.953389350178067 0 0 0
162 7 2.5766059221696516 4.293372042364263 25.34103725120453 0 0 0
123 7 5.017134581303426 1.4203934256321988 23.25052416899731 0 0 0
124 7 7.538641304072296 1.4619282022128641 23.25801342320539 0 0 0
128 7 6.306771499027561 3.653894236829896 23.24107663468663 0 0 0
154 7 7.498745977850095 0.013023245079153822 25.305014020846045 0 0 0
158 6 6.284176289343511 2.256306160323632 25.30608949391411 0 0 0
125 7 10.013464606080618 1.592188958059471 23.291408889136385 0 0 0
129 7 8.694695416888969 3.6755151239476334 23.338527888308036 0 0 0
155 7 9.958838934472158 0.03279543425698903 25.293866188397203 0 0 0
159 7 8.772769033443675 2.179204012119468 25.380965228335345 0 0 0
160 7 11.278380731286292 2.089872461104585 25.227583467477565 0 0 0
165 7 10.069978228957932 4.291253403050163 25.271768411123077 0 0 0
132 5 2.354206349071089 5.579934582383081 23.297162162064378 0 0 0
136 7 1.2173194102660656 7.80409509896673 23.30606472827108 0 0 0
137 7 3.6803586756578888 7.807795633860168 23.285602314843732 0 0 0
166 7 1.2084132372115712 6.462651445560653 25.34254929449976 0 0 0
167 7 3.709209249511197 6.502746744065075 25.3695720070235 0 0 0
171 7 0.004614113467176019 8.59883065007053 25.488653931749536 0 0 0
133 1 4.9950886594792845 5.77062361790733 23.338339237651056 0 0 0
134 7 7.4433314437561 5.830660349840525 23.323960534726794 0 0 0
138 7 6.246078318071451 7.913956525254776 23.355560159432972 0 0 0
163 7 5.023689639811805 4.402770100743633 25.430956061055248 0 0 0
164 7 7.506165358722251 4.446478103573767 25.417676604878178 0 0 0
168 4 6.215215871460828 6.563578128841768 25.490713325614383 0 0 0
173 7 4.960685392664324 8.622938520717403 25.372147287705705 0 0 0
131 7 12.232083811500353 5.822018627376691 23.28192219091074 -1 0 0
135 5 9.94488167928438 5.761045830995856 23.218204272729178 0 0 0
139 4 8.785481707139995 8.067163815813924 23.279543149421013 0 0 0
140 7 11.127518636390539 7.920124383277726 23.407554966647645 0 0 0
169 6 8.808578418239131 6.61385476494109 25.29720383445889 0 0 0
170 4 11.273181880521566 6.427580539412455 25.68070895867404 0 0 0
142 7 2.500000621824174 9.98914780002383 23.310729391606532 0 0 0
146 7 1.2698028363118719 12.232138105016434 23.281895088159814 0 0 0
147 6 3.7753692031241446 12.130935420458002 23.270153735200434 0 0 0
152 7 2.5786010846002134 12.891235308697274 25.360651873203803 0 -1 0
172 7 2.477900225677982 8.644250817248976 25.34828022950092 0 0 0
176 7 1.3051177055065226 10.805021640500206 25.41724918987275 0 0 0
177 4 3.728302068115208 10.714559535688498 25.4425174386571 0 0 0
143 7 4.98777229382563 9.994012782797306 23.300089018006663 0 0 0
144 7 7.469815818161887 10.089368333541632 23.253404933123058 0 0 0
148 7 6.2635524866319345 12.191540815552392 23.221384724452207 0 0 0
153 7 4.995872749758619 12.903566229858157 25.33410751464123 0 -1 0
174 7 7.447323435892321 8.715015843985903 25.356302599409926 0 0 0
178 7 6.181029184133717 10.791361808845119 25.361570310585815 0 0 0
141 6 12.445685427424014 10.073067528210196 23.392965582465493 -1 0 0
145 4 9.948285337609708 10.197795827110282 23.301664919312834 0 0 0
149 7 8.74915161411339 12.262508948061488 23.184142790896946 0 0 0
150 4 11.226060868796278 12.399443146010487 23.251348234825432 0 0 0
175 7 10.000080853041709 8.780800026396797 25.393542531843917 0 0 0
179 7 8.708871792540235 10.839482478894507 25.300503518981355 0 0 0
180 7 11.201457907757577 10.895811551108082 25.38244053938368 0 0 0
181 1 1.3153261460997994 0.6902734850357015 27.332145414443126 0 0 0
182 4 3.822228497767832 0.8009780414122554 27.394070705795738 0 0 0
186 7 0.06129137312473355 2.79427176181495 27.233424461068736 0 0 0
187 7 2.5746910886331547 2.8735761780730975 27.400609938542726 0 0 0
212 7 2.5358086960447292 1.4532201542869527 29.419772413991595 0 0 0
216 7 1.3918392249433211 3.5537060114557577 29.462240029160498 0 0 0
217 7 3.792993242003928 3.6951354206864173 29.547352519105356 0 0 0
183 6 6.264920835915918 0.7070318677697325 27.438534128385673 0 0 0
188 5 5.009122833761016 2.9799249932822334 27.515236324614207 0 0 0
189 7 7.535916590758246 2.9964747508868466 27.500167472852347 0 0 0
213 7 4.9939732096372875 1.5439511905138958 29.502162032572638 0 0 0
214 6 7.518041959117155 1.579748030616587 29.645040099382282 0 0 0
218 7 6.26054311174786 3.754672021606825 29.611188073189528 0 0 0
184 7 8.776670795357091 0.7862097985204948 27.43719654065138 0 0 0
185 4 11.180564686861025 0.6760007452989902 27.29155312963139 0 0 0
190 7 10.078311952914213 2.86691148048338 27.381989634674024 0 0 0
211 6 12.390734551708794 1.5181499272322954 29.464437671239242 -1 0 0
215 4 9.970621971748415 1.5414367131689724 29.471178370916682 0 0 0
219 7 8.846551053968662 3.8012414366552414 29.627467460365306 0 0 0
220 6 11.43254442446237 4.000309830375298 29.203812084180207 0 0 0
191 7 1.1429690332063347 4.908661951975545 27.240110375513517 0 0 0
192 7 3.6824016305333354 5.07111693601946 27.445808761508328 0 0 0
197 7 2.3242478838058926 7.181731841325024 27.40317251781915 0 0 0
222 6 2.18383718851698 5.8061741042994806 29.46472595608802 0 0 0
226 7 1.1506265631914336 8.025537675905872 29.485285505951254 0 0 0
227 7 3.671824133120035 7.917305214767849 29.530823337712132 0 0 0
193 7 6.254974269033166 5.11380345693129 27.488353263859842 0 0 0
198 7 4.9241286062799725 7.214860963963246 27.441536231797745 0 0 0
199 7 7.4573398041009025 7.261340774985629 27.4733817333181 0 0 0
223 4 4.859778334196018 5.819454580011433 29.467447271621037 0 0 0
224 4 7.448544265728773 5.857443894961718 29.465137549936294 0 0 0
228 7 6.143183601905148 7.967537056758979 29.46567162956098 0 0 0
194 6 9.016765766868003 5.094302590243599 27.4274664459518 0 0 0
195 2 11.387839943748514 4.624403208413961 26.970190534261206 0 0 0
196 7 12.08557399003626 6.464161993978567 28.09492484146339 -1 0 0
200 7 9.917710790502136 7.417710891572858 27.552224722271653 0 0 0
225 1 10.015676036006559 6.110765192258921 29.658519931231922 0 0 0
229 5 8.55419646652656 8.0587209286374 29.622273926556115 0 0 0
230 7 11.1942495559273 8.132287117759686 29.627436096988912 0 0 0
201 7 1.2254769000929677 9.381201157699142 27.449872953252967 0 0 0
202 7 3.705549146261507 9.32165155890959 27.454174842520587 0 0 0
207 7 2.5383576881341408 11.521489147289824 27.44157055849763 0 0 0
232 7 2.49379405861349 10.13032614421513 29.49920704860615 0 0 0
236 7 1.248706236894851 12.281557643310618 29.478141426423043 0 0 0
237 7 3.7679331197458064 12.312229770184839 29.451361021060556 0 0 0
203 4 6.180809007749461 9.393653938279078 27.402919245932633 0 0 0
208 7 4.964499122076508 11.481018298786442 27.41426572645951 0 0 0
209 7 7.460660698743345 11.486705958263059 27.4141529493632 0 0 0
233 5 4.921319695646329 10.092087943202879 29.48525103690143 0 0 0
234 7 7.361234594542102 10.124846716158643 29.4906230151539 0 0 0
238 7 6.202388389352998 12.243584194443734 29.560188597934456 0 0 0
204 7 8.645070156515803 9.409593873009461 27.444928428166634 0 0 0
205 7 11.238087058680675 9.426351651666918 27.477625561182517 0 0 0
206 7 12.447739234580492 11.575530835912717 27.43170691738607 -1 0 0
210 7 9.935614244876055 11.541471159634114 27.41339295707256 0 0 0
231 7 12.432628986639985 10.214611365704847 29.475227116840944 -1 0 0
235 7 9.885193166823115 10.127946820535813 29.47342538408138 0 0 0
239 7 8.694233632137461 12.293758334878888 29.482676748380285 0 0 0
240 4 11.132231249107521 12.284110154014044 29.424684010069996 0 0 0
242 7 2.453724630557234 0.13020583164334784 31.543978807954463 0 0 0
246 7 1.2194568912804484 2.2886895236236224 31.57268964166908 0 0 0
247 7 3.7285772099702768 2.222269188260839 31.62108239924492 0 0 0
271 7 1.1861581458091839 0.8199326392360348 33.598690273461 0 0 0
243 7 4.989128312927432 0.10947440198326162 31.57275732666512 0 0 0
244 7 7.459612035530706 0.06901469566949156 31.659179306586168 0 0 0
248 7 6.211946353464818 2.2669728302145185 31.70038796732792 0 0 0
253 5 4.928251192817343 4.306978166604527 31.6633570959682 0 0 0
241 7 12.42716349135545 0.074210923326692 31.51119600925398 -1 0 0
245 7 9.95511515218192 0.13244897062183184 31.479552678007476 0 0 0
249 7 8.766496001660874 2.2247283504326214 31.706408637153928 0 0 0
250 7 11.200056139554501 2.333161139578417 31.508100384302647 0 0 0
275 7 11.148731078764188 0.8313549043445511 33.54859831811951 0 0 0
276 7 12.354912169935824 3.087487244323783 33.569555388729135 -1 0 0
251 7 0.06623074389810903 4.55535403917004 31.426420152945155 0 0 0
252 7 2.5200427258155393 4.4057584383046775 31.6154106588582 0 0 0
256 7 1.243209539395001 6.689135699154121 31.643919675527652 0 0 0
257 7 3.7081233740433865 6.549382613990644 31.59939064217235 0 0 0
254 7 7.503474499829689 4.3488886381669865 31.66123010969803 0 0 0
258 6 6.182661142046008 6.398714693730787 31.5134662167904 0 0 0
221 2 12.407389045797393 6.358784670805644 30.092933698029924 -1 0 0
255 6 9.998707215635173 4.4463359198965655 31.813683170148575 0 0 0
259 7 8.685010600459554 6.613793738758348 31.66122166248116 0 0 0
260 7 11.213635455948618 6.66910476455356 31.6986250110027 0 0 0
262 7 2.529479534285259 8.75502849795751 31.545654396706485 0 0 0
266 7 1.2584674064780306 10.903503863506659 31.542689641527986 0 0 0
267 7 3.709816406970548 10.934919118422808 31.52188789875098 0 0 0
291 7 1.2744479291291757 9.491685706753232 33.58603152720779 0 0 0
292 6 3.8684790408431438 9.474282961856177 33.59790141886229 0 0 0
297 4 2.4432238259830217 11.665231229762156 33.52539020700307 0 0 0
263 4 5.018989808638269 8.733309266602895 31.540214713358463 0 0 0
264 5 7.387753015658688 8.76291171713696 31.582456758032006 0 0 0
268 7 6.1839393259288675 10.83128233944613 31.6331227440471 0 0 0
293 2 6.331974392068068 9.559671353903568 33.346057537096684 0 0 0
298 7 5.061069507199093 11.576555352964231 33.63021210268903 0 0 0
261 7 12.44369405454947 8.836334248441034 31.596740185710438 -1 0 0
265 7 9.888734830988142 8.75354097658676 31.605422699079 0 0 0
269 7 8.680480118523413 10.897168212174286 31.53267771230968 0 0 0
270 7 11.147250459121203 10.910343748591947 31.492818856337443 0 0 0
294 7 8.56484626331296 9.5260126863051 33.63910956935554 0 0 0
295 7 11.120679545034305 9.511422843301236 33.58130341266425 0 0 0
296 7 12.404930568830848 11.582416519279109 33.53135553662036 -1 0 0
300 7 9.88440164782054 11.63519148697378 33.56888904782986 0 0 0
272 7 3.7433408712825167 0.7508712161890309 33.674781169133965 0 0 0
277 6 2.464156503213052 2.901299453663413 33.70609058318366 0 0 0
302 6 2.434939392278224 1.3369546306382507 35.98726052024615 0 0 0
306 7 1.2299015033393685 3.7122326961976184 35.82022639090371 0 0 0
307 1 3.717869449738034 3.771785058977586 35.889246214600384 0 0 0
273 7 6.236386736014482 0.8489988301970856 33.69922869752206 0 0 0
278 7 4.983177798090287 2.955223053794326 33.89198950533229 0 0 0
279 7 7.494687379572835 2.9855153927635314 33.792186183269884 0 0 0
303 5 4.9133704133846425 1.4203676497090847 35.884031750987326 0 0 0
304 7 7.458986826608436 1.5210962455216732 35.78028957584914 0 0 0
308 4 6.302861105791475 3.6453913456958746 35.91312773144529 0 0 0
333 3 5.765221029403728 0.11398953323630308 37.34557584182003 0 0 0
274 5 8.708988194445377 0.786220061663716 33.69209951882051 0 0 0
280 7 9.936175580605287 2.9836649432966906 33.788319280653766 0 0 0
301 7 12.401263393493997 1.6094666648390483 35.595311697711175 -1 0 0
305 7 9.911775289571334 1.5528029431855124 35.72795144222725 0 0 0
309 7 8.736588747564744 3.763122976866665 35.835923678619444 0 0 0
310 7 11.217773793613613 3.7522330607999104 35.78843887785007 0 0 0
281 6 1.1908484868002243 5.218305304344459 33.704679121200385 0 0 0
282 7 3.7512931104020795 5.141566900261204 33.746092336019544 0 0 0
287 7 2.517411258275484 7.33161615326055 33.69071916226717 0 0 0
311 5 0.004514778236366368 5.919686320436512 35.862590908087164 0 0 0
312 7 2.458423884875709 5.915018887254501 35.78208184255578 0 0 0
316 7 1.2761363590627817 8.048980743261794 35.69285927947628 0 0 0
317 7 3.739836712577819 8.023949729051163 35.74169481042794 0 0 0
283 7 6.2062153609502575 5.083293586045388 33.76784308348031 0 0 0
288 4 4.984703398383819 7.339998460871099 33.75962526598219 0 0 0
289 6 7.386727969106185 7.392638569962246 33.79344969678185 0 0 0
313 7 4.974264804432372 5.853955812731734 35.82666381691158 0 0 0
314 7 7.427825919175496 5.850348013202092 35.89878636368882 0 0 0
318 7 6.179750067190233 7.9861185678474875 35.909277241299684 0 0 0
284 7 8.668046345148701 5.202296490885761 33.836854704305495 0 0 0
285 7 11.156901933102704 5.2486618566526175 33.855026657728565 0 0 0
286 7 12.441189303936271 7.395587137750522 33.66329674558574 -1 0 0
290 7 9.909862766179057 7.362998788136492 33.73771610092191 0 0 0
315 6 10.013457779132635 6.03564044238084 36.06342953467473 0 0 0
319 7 8.697959476446764 8.135348923836293 35.84011439442012 0 0 0
320 7 11.270929489678286 8.17114719971631 35.5824059271425 0 0 0
350 3 11.723910399949494 7.258952681419082 37.20251509982763 0 0 0
321 7 0.018777244232814794 10.221710119101102 35.61704643468651 0 0 0
322 7 2.488184739878659 10.146745458271345 35.625854661189756 0 0 0
326 7 1.1981383407556854 12.262799103312622 35.52481496272881 0 0 0
327 7 3.7267763840645443 12.126148061720945 35.62319251440021 0 0 0
357 2 3.734342870191473 10.607247299796354 37.2533798857885 0 0 0
299 7 7.435018411761676 11.585761555983165 33.67623981881369 0 0 0
323 7 5.0262523363058325 10.094204395927026 35.6908487370192 0 0 0
324 7 7.415436953072551 10.212667995155584 35.76474494532509 0 0 0
328 7 6.23378367978087 12.34041875891996 35.66637139950203 0 0 0
325 7 9.983292283952455 10.22163019474305 35.66708501457914 0 0 0
329 7 8.740912294108373 12.303822746791928 35.71433500359408 0 0 0
330 7 11.186307454950287 12.359594527559143 35.58991860167263 0 0 0
331 4 0.06357531062665332 0.1959867479399051 37.5168681167333 0 0 0
336 7 1.1364867996283898 2.3117823200521213 37.85492978595763 0 0 0
337 7 3.5695054567372595 2.430310846758861 37.937307225402066 0 0 0
338 6 6.073624351425328 2.0876192367216118 37.967718504140194 0 0 0
361 8 7.464730017684906 1.756785061586501 39.15860125838388 0 0 0
335 7 10.09246673034027 0.11667524995588938 37.747965658335524 0 0 0
339 6 8.681441226959882 2.2746153672376814 37.829503370761365 0 0 0
340 7 11.199568570888863 2.2606686165174477 37.78538169479131 0 0 0
342 7 2.394907530419141 4.61323909172337 37.88724793147888 0 0 0
346 7 1.065747970759967 6.728335848845999 37.79564321534218 0 0 0
347 1 3.673993179687265 6.725059957702586 37.88915111016004 0 0 0
343 7 4.959900901746122 4.430963636967816 37.89792479995318 0 0 0
344 7 7.406331080704063 4.427292136579624 37.94949081977144 0 0 0
348 7 6.09980578739367 6.651391680938173 37.95980506189431 0 0 0
341 7 12.374900168515987 4.463211444997469 37.80245707455224 -1 0 0
345 7 9.934079882983914 4.423676132727011 37.93956427220377 0 0 0
349 7 8.512929549087525 6.640675325549433 37.97325545532014 0 0 0
355 7 10.192366288137602 8.423980944617144 37.748160663737885 0 0 0
332 7 3.9725422718463363 12.891519965529 37.8216964393927 0 -1 0
351 7 0.10870985727486236 8.93144514609628 37.675956680908 0 0 0
352 7 2.5074008600450863 8.957148833558412 37.74170671259297 0 0 0
356 7 1.7799371917276576 11.342963348105371 37.66117420015754 0 0 0
334 7 7.581383227184197 12.864733278366916 37.82010358836003 0 -1 0
353 7 4.907805525495421 8.889364035172521 37.85802057732351 0 0 0
354 6 7.430947156110891 8.886845899928685 37.85125539210306 0 0 0
358 7 5.820104163875536 11.107588201959008 37.756737376815984 0 0 0
359 7 8.931900530122729 10.777778920086952 37.730638000099425 0 0 0
360 7 11.41446388471325 10.994969115490045 37.65064818321162 0 0 0

Velocities

3 0 0 0
8 0 0 0
9 0 0 0
4 0 0 0
12 0 0 0
13 0 0 0
19 0 0 0
14 0 0 0
15 0 0 0
20 0 0 0
27 0 0 0
29 0 0 0
26 0 0 0
30 0 0 0
2 0 0 0
6 0 0 0
7 0 0 0
31 0 0 0
32 0 0 0
36 0 0 0
37 0 0 0
33 0 0 0
34 0 0 0
38 0 0 0
5 0 0 0
10 0 0 0
35 0 0 0
39 0 0 0
40 0 0 0
75 0 0 0
11 0 0 0
16 0 0 0
17 0 0 0
41 0 0 0
42 0 0 0
46 0 0 0
47 0 0 0
18 0 0 0
43 0 0 0
44 0 0 0
48 0 0 0
25 0 0 0
45 0 0 0
49 0 0 0
50 0 0 0
1 0 0 0
21 0 0 0
22 0 0 0
52 0 0 0
56 0 0 0
57 0 0 0
23 0 0 0
24 0 0 0
28 0 0 0
53 0 0 0
54 0 0 0
58 0 0 0
51 0 0 0
55 0 0 0
59 0 0 0
60 0 0 0
66 0 0 0
67 0 0 0
91 0 0 0
92 0 0 0
96 0 0 0
97 0 0 0
68 0 0 0
74 0 0 0
93 0 0 0
98 0 0 0
99 0 0 0
69 0 0 0
70 0 0 0
71 0 0 0
94 0 0 0
95 0 0 0
100 0 0 0
105 0 0 0
130 0 0 0
72 0 0 0
76 0 0 0
77 0 0 0
82 0 0 0
101 0 0 0
102 0 0 0
107 0 0 0
73 0 0 0
78 0 0 0
103 0 0 0
108 0 0 0
109 0 0 0
79 0 0 0
80 0 0 0
81 0 0 0
104 0 0 0
106 0 0 0
110 0 0 0
62 0 0 0
86 0 0 0
87 0 0 0
111 0 0 0
112 0 0 0
117 0 0 0
63 0 0 0
64 0 0 0
83 0 0 0
84 0 0 0
88 0 0 0
113 0 0 0
118 0 0 0
119 0 0 0
61 0 0 0
65 0 0 0
85 0 0 0
89 0 0 0
90 0 0 0
114 0 0 0
115 0 0 0
116 0 0 0
120 0 0 0
121 0 0 0
122 0 0 0
126 0 0 0
127 0 0 0
151 0 0 0
156 0 0 0
157 0 0 0
161 0 0 0
162 0 0 0
123 0 0 0
124 0 0 0
128 0 0 0
154 0 0 0
158 0 0 0
125 0 0 0
129 0 0 0
155 0 0 0
159 0 0 0
160 0 0 0
165 0 0 0
132 0 0 0
136 0 0 0
137 0 0 0
166 0 0 0
167 0 0 0
171 0 0 0
133 0 0 0
134 0 0 0
138 0 0 0
163 0 0 0
164 0 0 0
168 0 0 0
173 0 0 0
131 0 0 0
135 0 0 0
139 0 0 0
140 0 0 0
169 0 0 0
170 0 0 0
142 0 0 0
146 0 0 0
147 0 0 0
152 0 0 0
172 0 0 0
176 0 0 0
177 0 0 0
143 0 0 0
144 0 0 0
148 0 0 0
153 0 0 0
174 0 0 0
178 0 0 0
141 0 0 0
145 0 0 0
149 0 0 0
150 0 0 0
175 0 0 0
179 0 0 0
180 0 0 0
181 0 0 0
182 0 0 0
186 0 0 0
187 0 0 0
212 0 0 0
216 0 0 0
217 0 0 0
183 0 0 0
188 0 0 0
189 0 0 0
213 0 0 0
214 0 0 0
218 0 0 0
184 0 0 0
185 0 0 0
190 0 0 0
211 0 0 0
215 0 0 0
219 0 0 0
220 0 0 0
191 0 0 0
192 0 0 0
197 0 0 0
222 0 0 0
226 0 0 0
227 0 0 0
193 0 0 0
198 0 0 0
199 0 0 0
223 0 0 0
224 0 0 0
228 0 0 0
194 0 0 0
195 0 0 0
196 0 0 0
200 0 0 0
225 0 0 0
229 0 0 0
230 0 0 0
201 0 0 0
202 0 0 0
207 0 0 0
232 0 0 0
236 0 0 0
237 0 0 0
203 0 0 0
208 0 0 0
209 0 0 0
233 0 0 0
234 0 0 0
238 0 0 0
204 0 0 0
205 0 0 0
206 0 0 0
210 0 0 0
231 0 0 0
235 0 0 0
239 0 0 0
240 0 0 0
242 0 0 0
246 0 0 0
247 0 0 0
271 0 0 0
243 0 0 0
244 0 0 0
248 0 0 0
253 0 0 0
241 0 0 0
245 0 0 0
249 0 0 0
250 0 0 0
275 0 0 0
276 0 0 0
251 0 0 0
252 0 0 0
256 0 0 0
257 0 0 0
254 0 0 0
258 0 0 0
221 0 0 0
255 0 0 0
259 0 0 0
260 0 0 0
262 0 0 0
266 0 0 0
267 0 0 0
291 0 0 0
292 0 0 0
297 0 0 0
263 0 0 0
264 0 0 0
268 0 0 0
293 0 0 0
298 0 0 0
261 0 0 0
265 0 0 0
269 0 0 0
270 0 0 0
294 0 0 0
295 0 0 0
296 0 0 0
300 0 0 0
272 0 0 0
277 0 0 0
302 0 0 0
306 0 0 0
307 0 0 0
273 0 0 0
278 0 0 0
279 0 0 0
303 0 0 0
304 0 0 0
308 0 0 0
333 0 0 0
274 0 0 0
280 0 0 0
301 0 0 0
305 0 0 0
309 0 0 0
310 0 0 0
281 0 0 0
282 0 0 0
287 0 0 0
311 0 0 0
312 0 0 0
316 0 0 0
317 0 0 0
283 0 0 0
288 0 0 0
289 0 0 0
313 0 0 0
314 0 0 0
318 0 0 0
284 0 0 0
285 0 0 0
286 0 0 0
290 0 0 0
315 0 0 0
319 0 0 0
320 0 0 0
350 0 0 0
321 0 0 0
322 0 0 0
326 0 0 0
327 0 0 0
357 0 0 0
299 0 0 0
323 0 0 0
324 0 0 0
328 0 0 0
325 0 0 0
329 0 0 0
330 0 0 0
331 0 0 0
336 0 0 0
337 0 0 0
338 0 0 0
361 0 0 0
335 0 0 0
339 0 0 0
340 0 0 0
342 0 0 0
346 0 0 0
347 0 0 0
343 0 0 0
344 0 0 0
348 0 0 0
341 0 0 0
345 0 0 0
349 0 0 0
355 0 0 0
332 0 0 0
351 0 0 0
352 0 0 0
356 0 0 0
334 0 0 0
353 0 0 0
354 0 0 0
358 0 0 0
359 0 0 0
360 0 0 0
