LAMMPS data file via write_data, version 11 Feb 2026, timestep = 131, units = metal

361 atoms
8 atom types

0 12.447907776 xlo xhi
0 12.9362452296 ylo yhi
0 52.3600831054 zlo zhi

Masses

1 26.9815
2 10.811
3 12.011
4 51.9961
5 55.845
6 95.95999999999999
7 58.6934
8 1.008

Atoms # atomic/kk

3 7 6.1192868739 0.6304446556 14.8633861521 0 0 0
8 6 4.8173310833 2.8332362965 14.920229021 0 0 0
9 7 7.3091636013 2.9911401833 14.9454172376 0 0 0
4 7 8.5231700378 0.9607030971 14.8321150978 0 0 0
12 7 3.760513117 5.2115614728 14.9011016104 0 0 0
13 7 6.1482953191 5.0908224502 14.8558171528 0 0 0
19 7 7.6370362141 7.5485918091 14.9266538896 0 0 0
14 4 8.6578045479 5.0984072093 14.7389025403 0 0 0
15 7 11.0357453415 5.067847838 14.3410204439 0 0 0
20 7 10.0434603699 7.266518572 14.9071482997 0 0 0
27 7 2.3595305285 11.2504763091 14.7773304803 0 0 0
29 7 7.8189206247 11.3481807249 14.9076909876 0 0 0
26 7 12.248753230699998 11.4159082208 14.6587400631 -1 0 0
30 7 10.0922125275 12.2632607301 14.9329118338 0 0 0
2 7 3.4556332323 0.6856061004 14.9787522795 0 0 0
6 7 1.5639382335 2.2906969741 15.0946829788 0 0 0
7 3 2.8731760314 3.5882785926 14.987515157 0 0 0
31 7 0.0535256814 1.623000142 17.215310387 0 0 0
32 7 2.5166170309 1.5026413961 17.1811797979 0 0 0
36 7 1.3566735612 3.631577479 17.2540670274 0 0 0
37 7 3.7105862708 3.6774100942 16.9344468272 0 0 0
33 7 4.954867202 1.3046704677 16.9071563969 0 0 0
34 7 7.4237648265 1.3010478562 16.916033296 0 0 0
38 4 6.1463916953 3.5014292111 16.991239037 0 0 0
5 7 11.8022882756 1.0292505879 15.0097459312 0 0 0
10 7 9.8066141081 3.0170552811 15.0155878638 0 0 0
35 7 10.0466587865 1.3634699988 16.8604593418 0 0 0
39 7 8.6301541895 3.4353809766 17.0740408176 0 0 0
40 7 11.9209083716 3.4980590423 15.8390616931 0 0 0
75 2 10.7686181924 3.1968616202 17.4340787861 0 0 0
11 7 1.3971986626 4.8134294471 15.0883248546 0 0 0
16 7 0.016046131 6.8901500907 15.0687802643 0 0 0
17 7 2.4353309429 7.2091106393 15.1108484762 0 0 0
41 5 0.1739023004 5.6842839724 17.1189569051 0 0 0
42 7 2.5457902692 5.7981722782 17.1397266069 0 0 0
46 7 1.2472413802 7.8331037703 17.1303167212 0 0 0
47 7 3.7583052321 7.9250759054 17.0632733751 0 0 0
18 7 5.0889409408 7.2663628235 15.0435168681 0 0 0
43 4 4.9667698232 5.8334397719 16.9960587615 0 0 0
44 6 7.4973034695 5.7419507689 16.8281984613 0 0 0
48 7 6.2676768692 7.9670241339 17.1204826936 0 0 0
25 3 11.5015678602 8.460485538 15.2680515643 0 0 0
45 6 10.2888098755 5.3678325187 16.7677063876 0 0 0
49 7 8.8334065077 7.8663786431 17.0376109184 0 0 0
50 7 11.2131131655 7.766467847 17.0625497734 0 0 0
1 4 1.3160442387 12.912011229400001 15.994260076 0 -1 0
21 7 0.7906594424 9.2240916114 15.0553056261 0 0 0
22 7 3.6207331253 9.260442342 15.016973742 0 0 0
52 7 2.3474800956 10.0647016704 16.9899569744 0 0 0
56 3 0.9470435499 10.9678242642 16.0720486224 0 0 0
57 7 3.5494484874 12.1967437929 16.9695359274 0 0 0
23 6 6.0524699377 9.5406320586 15.1732616002 0 0 0
24 3 8.1354668266 9.4144660038 15.1225460705 0 0 0
28 7 4.7757131415 11.5696864746 14.9601899644 0 0 0
53 7 4.8275766379 10.1200594978 17.1585380973 0 0 0
54 7 7.7393645434 10.0215408088 17.0245748441 0 0 0
58 7 6.2545636594 12.0703065663 16.8600327392 0 0 0
51 7 12.2589204083 9.894967598 17.1358430216 -1 0 0
55 6 10.0512167628 9.881929606 15.6282063925 0 0 0
59 7 8.8659682746 12.1609080065 16.9955657986 0 0 0
60 6 11.4870301217 12.2039678417 17.008987108 0 0 0
66 7 1.3246919535 2.0761546191 19.3369539919 0 0 0
67 4 3.826057384 2.1293425166 18.9990846192 0 0 0
91 4 1.1890534627 0.6611224914 21.3295808047 0 0 0
92 6 3.6323514765 0.7501618976 21.013860634 0 0 0
96 2 0.2649387153 2.7297263316 21.000773609 0 0 0
97 7 2.3598422478 2.9302283723 21.4962520659 0 0 0
68 4 6.2095347359 2.0753565183 18.9344853371 0 0 0
74 4 7.3117261635 4.2573612703 19.0834041948 0 0 0
93 6 6.3615286564 0.6903780738 21.1327085418 0 0 0
98 6 5.0614658063 2.9691648444 21.1233964394 0 0 0
99 7 7.7314359984 2.9407781213 21.1215765612 0 0 0
69 7 8.6004820708 1.9165362763 19.016352785 0 0 0
70 7 11.1623021303 2.0230581582 19.1018122342 0 0 0
71 6 12.355026731299999 4.2645210992 19.2283484368 -1 0 0
94 7 8.8693532291 0.7433068205 21.1832395031 0 0 0
95 7 11.2884036212 1.0335800014 21.2917798486 0 0 0
100 3 9.8217738561 2.2448451932 20.5206021379 0 0 0
105 6 9.7400373841 4.0747521408 19.3469987226 0 0 0
130 6 10.7824408219 3.63989164 21.8575895182 0 0 0
72 6 2.5291059573 4.3567999422 19.307850253 0 0 0
76 7 1.2091953109 6.4743635897 19.2309189421 0 0 0
77 7 3.7698810312 6.5233791492 19.1706449557 0 0 0
82 7 2.5028472985 8.6218349251 19.0955945007 0 0 0
101 4 0.9309038317 4.8673983927 21.5084744433 0 0 0
102 4 3.6720997393 5.1031203781 21.3079813916 0 0 0
107 7 2.4101232852 7.0407438225 21.2905393042 0 0 0
73 7 4.9759730124 4.3686023892 18.9904593187 0 0 0
78 7 6.2521461998 6.4908314969 19.1018034267 0 0 0
103 7 6.210094329 5.1204948244 21.1528383229 0 0 0
108 7 4.9322310331 7.2045303478 21.2497028705 0 0 0
109 1 7.3644419038 7.3093331748 21.2501801179 0 0 0
79 1 8.7528428062 6.5389774189 19.0944606475 0 0 0
80 7 11.1524492138 6.417209258 19.1056949334 0 0 0
81 7 12.380639600699999 8.55413522 19.1455396218 -1 0 0
104 7 8.6629871411 5.1809633634 21.2783688034 0 0 0
106 7 12.3196276371 7.091535323 21.2314453025 -1 0 0
110 7 9.9062855258 7.2153146328 21.2529978345 0 0 0
62 7 2.4144763491 12.858822901 19.0362311757 0 -1 0
86 7 1.1725104031 10.7431257735 19.0809222803 0 0 0
87 7 3.6490946401 10.7608843455 19.1608112939 0 0 0
111 6 1.2025618491 9.2430452238 21.1466468174 0 0 0
112 7 3.7156593618 9.2845007241 21.2361064908 0 0 0
117 7 2.4176923083 11.4342448768 21.1944768774 0 0 0
63 7 4.960898558 12.840873703300002 18.9676578671 0 -1 0
64 7 7.4572706221 12.7877107458 18.9739205101 0 -1 0
83 7 4.9855337767 8.658628656 19.1563818256 0 0 0
84 7 7.4890528326 8.6425332375 19.1407548551 0 0 0
88 7 6.2491641886 10.73214155 19.0741096471 0 0 0
113 7 6.2223787142 9.3961778954 21.1881156609 0 0 0
118 7 4.9781475965 11.4755181257 21.1362544621 0 0 0
119 5 7.5244871062 11.4412133825 21.1271427394 0 0 0
61 7 12.430455238499999 12.906087820100002 19.2187475004 -1 -1 0
65 4 9.9617889385 12.802840754 19.045595606 0 -1 0
85 7 9.9738315887 8.650244424 19.1193225408 0 0 0
89 7 8.7622120492 10.7552480552 19.10442726 0 0 0
90 7 11.207717528 10.7670035331 19.1593220526 0 0 0
114 7 8.7200766235 9.4007298425 21.2008305121 0 0 0
115 7 11.1354613422 9.3455616408 21.2647206688 0 0 0
116 4 12.390361428399999 11.5315056904 21.2107074633 -1 0 0
120 7 10.0228591802 11.5613998873 21.1895162594 0 0 0
121 7 0.20810531922307807 2.299335062954468 23.045504513428497 0 0 0
122 7 2.5562885408323135 1.4017663058797207 23.335099755423496 0 0 0
126 2 1.8531332879542606 3.4318270196575007 23.567195144211475 0 0 0
127 7 3.8485936651889863 3.593522156009731 23.365529353556877 0 0 0
151 7 0.04728773685257286 0.016340303953914097 25.269566535833928 0 0 0
156 7 1.3690862372673773 2.1119583709676832 25.292372929071874 0 0 0
157 5 3.823921026120821 2.1417594242364246 25.455616895206425 0 0 0
161 6 0.10483400386716017 4.197658519440416 24.954614277011594 0 0 0
162 7 2.577178426823593 4.292941565316218 25.34208169118006 0 0 0
123 7 5.016724936320312 1.4197299874781237 23.249454995903996 0 0 0
124 7 7.538854400488187 1.4622821444845624 23.255812079412326 0 0 0
128 7 6.30711773685213 3.6552101703331985 23.239385741370633 0 0 0
154 7 7.498533313320262 0.013027176369867133 25.29965000508884 0 0 0
158 6 6.284215991493775 2.2582721079559427 25.301436777001193 0 0 0
125 7 10.01359282416396 1.5925366247015809 23.290140884427284 0 0 0
129 7 8.694759390097841 3.6762153481593534 23.338056077039667 0 0 0
155 7 9.958818762502286 0.032881550934011274 25.290975938136135 0 0 0
159 7 8.772589488910235 2.1802830581574955 25.37758307012784 0 0 0
160 7 11.27836176538581 2.0905610201880096 25.226389927187988 0 0 0
165 7 10.069987991743778 4.293213006075496 25.271332325399456 0 0 0
132 5 2.354579565390673 5.579921887254538 23.29838087623883 0 0 0
136 7 1.2178568074134666 7.803351663629759 23.307196050978188 0 0 0
137 7 3.6803506900895986 7.807197514581276 23.287214824183486 0 0 0
166 7 1.209590053349566 6.462960944909041 25.345590996146875 0 0 0
167 7 3.709895066908838 6.503403784178507 25.37298349003291 0 0 0
171 7 0.006053464223412861 8.598992430577562 25.48934162758766 0 0 0
133 1 4.995235231486636 5.770867876856777 23.339523827325984 0 0 0
134 7 7.4435744255014145 5.83198413978821 23.32475454231014 0 0 0
138 7 6.245448512978116 7.914065665883044 23.356764024907122 0 0 0
163 7 5.023642392751183 4.4035614131147796 25.43147216050695 0 0 0
164 7 7.505870296813555 4.448510656618408 25.416921091892014 0 0 0
168 4 6.2142211856186265 6.565324256892187 25.4943382003946 0 0 0
173 7 4.95983201489631 8.622881169266789 25.376055923473572 0 0 0
131 7 12.231961273945586 5.821722879358191 23.282952121659388 -1 0 0
135 5 9.944070072521827 5.76212792268199 23.21939790239122 0 0 0
139 4 8.785567834936087 8.067011790161073 23.280139270474923 0 0 0
140 7 11.128007511332672 7.920093951596763 23.4074288927662 0 0 0
169 6 8.807698255016073 6.615704292226341 25.299907976607273 0 0 0
170 4 11.273930391004466 6.428505594809618 25.68338027910684 0 0 0
142 7 2.4999621180137526 9.987984382483104 23.31191028517956 0 0 0
146 7 1.2698303191159828 12.23125797539091 23.281957853114346 0 0 0
147 6 3.774689713030967 12.129739957053122 23.26991882703401 0 0 0
152 7 2.5776383373427785 12.88930270813994 25.361257181049197 0 -1 0
172 7 2.4785779456998354 8.64384463396116 25.351941823919507 0 0 0
176 7 1.30475712156835 10.803615958779227 25.418370286498174 0 0 0
177 4 3.7269402340867663 10.712781603690818 25.4455814272367 0 0 0
143 7 4.98704158434225 9.993166486200199 23.3009597307261 0 0 0
144 7 7.469325866424198 10.088775665647557 23.252725022416495 0 0 0
148 7 6.262964606694685 12.190773892437898 23.22028060633232 0 0 0
153 7 4.994679747318904 12.902053694866177 25.332256163501107 0 -1 0
174 7 7.446503423288227 8.715523831301894 25.356975879470376 0 0 0
178 7 6.179675271860756 10.790525146937325 25.36016970275253 0 0 0
141 6 12.44620379229072 10.072412640986453 23.392705008938435 -1 0 0
145 4 9.948544983642694 10.19718693827438 23.300599705404558 0 0 0
149 7 8.748964214391066 12.26205110036499 23.182343218043986 0 0 0
150 4 11.226316979839327 12.399107671464899 23.250185846767412 0 0 0
175 7 10.001326603178043 8.78037287840825 25.393195811050116 0 0 0
179 7 8.709051689366335 10.839033732300013 25.297255178651355 0 0 0
180 7 11.201571859338637 10.895516479136472 25.38060788760033 0 0 0
181 1 1.3138259768002456 0.6886795155809416 27.331265633725238 0 0 0
182 4 3.8199512431451694 0.7965155157064333 27.394647624255388 0 0 0
186 7 0.06080637577511701 2.7939424744918746 27.233464971226443 0 0 0
187 7 2.5747949817222056 2.8720863522101125 27.40078076828298 0 0 0
212 7 2.5339199633197063 1.4495303987185686 29.41811981958787 0 0 0
216 7 1.390155365911221 3.5512800755137706 29.46169617489851 0 0 0
217 7 3.7917749995100083 3.6953349322290445 29.54421502270959 0 0 0
183 6 6.263538350006755 0.708218121974701 27.42876614073206 0 0 0
188 5 5.009389051342703 2.9805923761957267 27.51225742040277 0 0 0
189 7 7.535835789519252 2.9988847894127035 27.495298853263794 0 0 0
213 7 4.992016208463473 1.542547365078613 29.49468914018544 0 0 0
214 6 7.516245717131138 1.5817367627877874 29.63449531327464 0 0 0
218 7 6.258395371564283 3.7541202349886653 29.606767503674078 0 0 0
184 7 8.775679874135898 0.7867020957635359 27.430705320027595 0 0 0
185 4 11.179742085570302 0.6757643617298713 27.289300051992893 0 0 0
190 7 10.077423710100424 2.867978892146656 27.37814335130861 0 0 0
211 6 12.388616725674632 1.516228523771568 29.46295899992859 -1 0 0
215 4 9.96926150771964 1.5425346305314573 29.464053345000423 0 0 0
219 7 8.845478807310492 3.8036518309299345 29.6250260427202 0 0 0
220 6 11.43003536295107 4.000493418262412 29.20230019723491 0 0 0
191 7 1.1435177936077567 4.907896187456099 27.241672691705162 0 0 0
192 7 3.6822929667973123 5.071680286962792 27.446917693519225 0 0 0
197 7 2.32586685279122 7.182436242865453 27.4095211733907 0 0 0
222 6 2.1818758377135956 5.805306425801094 29.46686822911437 0 0 0
226 7 1.157897232054954 8.028028482634804 29.49886440794364 0 0 0
227 7 3.6737409907457272 7.9197441470985845 29.551078299355158 0 0 0
193 7 6.2546777588250775 5.115820766726812 27.489414291052178 0 0 0
198 7 4.923503754820591 7.216269155030598 27.44999015541061 0 0 0
199 7 7.456199064106909 7.263868938484156 27.47873426285893 0 0 0
223 4 4.8575548016447385 5.8196848478111765 29.472821863832717 0 0 0
224 4 7.445138239733023 5.859948559015881 29.468890372769373 0 0 0
228 7 6.140856499497095 7.972323668906586 29.477344298131406 0 0 0
194 6 9.01758792931645 5.0966560806542835 27.4281803765415 0 0 0
195 2 11.38786779091296 4.625090508827918 26.970479586620456 0 0 0
196 7 12.091874118086354 6.467439204944418 28.098665145104842 -1 0 0
200 7 9.919418102912342 7.4177112283629585 27.556475387584015 0 0 0
225 1 10.014787075296445 6.112669067357979 29.663867057950323 0 0 0
229 5 8.554252202193062 8.060032222158998 29.624892384153686 0 0 0
230 7 11.200611510865532 8.13070756512338 29.632760315218075 0 0 0
201 7 1.2262684301008329 9.378691863587624 27.45466788915391 0 0 0
202 7 3.7056722889431217 9.320109252915977 27.463769465325104 0 0 0
207 7 2.5371547646849453 11.518234939650347 27.445236402562475 0 0 0
232 7 2.496340989513386 10.127386887548136 29.512053222109223 0 0 0
236 7 1.2468135542483068 12.278416469178888 29.476250369688067 0 0 0
237 7 3.766836416338917 12.306316028661449 29.45565491781851 0 0 0
203 4 6.180100417427122 9.392760372146434 27.404624073715773 0 0 0
208 7 4.963189976077079 11.479267230024005 27.414611069863 0 0 0
209 7 7.4611074671117 11.486813332793249 27.406282430411032 0 0 0
233 5 4.921829853031273 10.091993005697887 29.49439323008094 0 0 0
234 7 7.366097108251671 10.125338053176767 29.480899548801187 0 0 0
238 7 6.205325180571449 12.24541469215762 29.54272376308591 0 0 0
204 7 8.647029907925694 9.409173570093124 27.440529793136395 0 0 0
205 7 11.239698376732678 9.424286411752036 27.476516628092686 0 0 0
206 7 12.447218338204289 11.573601138158299 27.429876183598985 -1 0 0
210 7 9.936144605084975 11.540713625400965 27.409162518470154 0 0 0
231 7 12.433415396803484 10.211252905228408 29.4739662088075 -1 0 0
235 7 9.888699792298157 10.124980972430693 29.46809946752474 0 0 0
239 7 8.69632358584128 12.29427406978938 29.473375052549876 0 0 0
240 4 11.133071626281113 12.28128205589958 29.42077326989053 0 0 0
242 7 2.450089047521308 0.1232979712261143 31.539670596648136 0 0 0
246 7 1.2144046307753327 2.2841124035417586 31.571755367864316 0 0 0
247 7 3.7255846347629635 2.222054304404369 31.608724220307653 0 0 0
271 7 1.179574958366208 0.8087520367029521 33.59886372361195 0 0 0
243 7 4.992044505912713 0.10332557441261603 31.558007227073354 0 0 0
244 7 7.46214188911095 0.0704184504005722 31.642915518277388 0 0 0
248 7 6.208390556359569 2.264368718875296 31.692551524889296 0 0 0
253 5 4.927434577382378 4.3059094860848175 31.664316504464402 0 0 0
241 7 12.425087848650783 0.07080719799080122 31.50882369611628 -1 0 0
245 7 9.956872995978863 0.1338163782110638 31.47048398657799 0 0 0
249 7 8.76370556930422 2.2272311542928045 31.694336146642975 0 0 0
250 7 11.195376952963587 2.3359861922718586 31.50312081984858 0 0 0
275 7 11.145268809974697 0.8292436891304378 33.5410218935982 0 0 0
276 7 12.344050890800508 3.0832708641169604 33.567231869354366 -1 0 0
251 7 0.0628763719541962 4.55483833143386 31.422149666659482 0 0 0
252 7 2.5173985689447367 4.402195320679926 31.612739680359674 0 0 0
256 7 1.2441842915135854 6.688690292828886 31.650825016266754 0 0 0
257 7 3.7055582374922094 6.545083918602641 31.60935785303414 0 0 0
254 7 7.497336060175963 4.353501256511158 31.655020896583586 0 0 0
258 6 6.179476169603302 6.406884838803939 31.51980977758426 0 0 0
221 2 12.40782932950498 6.360279888016695 30.09872077767838 -1 0 0
255 6 9.990862209144005 4.450863023185441 31.81725096083813 0 0 0
259 7 8.67932771422092 6.620394661167941 31.66680251149648 0 0 0
260 7 11.213733735071097 6.667930036227154 31.70637635576434 0 0 0
262 7 2.5390844049586416 8.757583703646045 31.57889048030602 0 0 0
266 7 1.2523490199225384 10.896080154645029 31.54046501619361 0 0 0
267 7 3.7130225846113363 10.928359068356597 31.538646091700596 0 0 0
291 7 1.2813287264515052 9.494583767651378 33.616418084488124 0 0 0
292 6 3.8736513761558715 9.478526536297684 33.659170301815536 0 0 0
297 4 2.4282575596663882 11.651016549481078 33.51624081066336 0 0 0
263 4 5.024753569979949 8.736217057985252 31.57907217117141 0 0 0
264 5 7.393350236906986 8.770957159502373 31.5817105085265 0 0 0
268 7 6.198583680347632 10.836941862255141 31.605614047679083 0 0 0
293 2 6.341480167336251 9.593367944464514 33.34711113399909 0 0 0
298 7 5.096616018525952 11.545992630711236 33.61416050745326 0 0 0
261 7 0.002746276104920164 8.833330072648282 31.60953367878039 0 0 0
265 7 9.89534502378322 8.752199660160116 31.603337192920083 0 0 0
269 7 8.689447725869755 10.898638582191882 31.519871969755908 0 0 0
270 7 11.15059806753601 10.906641708108204 31.4901624465969 0 0 0
294 7 8.58108484589423 9.5260219046218 33.62202995290785 0 0 0
295 7 11.125790491587898 9.507740590513068 33.58405740789245 0 0 0
296 7 12.402963757382054 11.57755874856419 33.53612245352921 -1 0 0
300 7 9.890767849283622 11.634978806821081 33.55918440846818 0 0 0
272 7 3.74512897334092 0.7452517685185103 33.629688634765515 0 0 0
277 6 2.4571524481390457 2.8913182785831344 33.697763474466306 0 0 0
302 6 2.415980717570318 1.329465050153158 35.95878082745165 0 0 0
306 7 1.2086952626832532 3.7003198493639893 35.811268877379156 0 0 0
307 1 3.6959934363658156 3.75973354941775 35.887405497740865 0 0 0
273 7 6.236579550811858 0.8343528592942138 33.687050103271574 0 0 0
278 7 4.97997454935524 2.947371554235619 33.89284619499661 0 0 0
279 7 7.488958510186816 2.984375970872216 33.77269811739406 0 0 0
303 5 4.893354718818988 1.3898160569049287 35.8659714452573 0 0 0
304 7 7.448937246415944 1.5112049378671124 35.75470376667416 0 0 0
308 4 6.2893584188871365 3.659256599704091 35.881980718466 0 0 0
333 3 5.742630944382704 0.1210672025743553 37.3317642186374 0 0 0
274 5 8.707531466394457 0.7831577317244138 33.67044956601735 0 0 0
280 7 9.924989522289012 2.9839081471168134 33.782697172836905 0 0 0
301 7 12.382916716511728 1.599256231518242 35.591264816048735 -1 0 0
305 7 9.8931987960691 1.5383836161046751 35.70750869972029 0 0 0
309 7 8.720526559944547 3.772185357921882 35.822789449475636 0 0 0
310 7 11.195307996637055 3.739447415659047 35.78903475388907 0 0 0
281 6 1.1795552509999419 5.210602588115827 33.70050323109456 0 0 0
282 7 3.736770766129736 5.12658469512889 33.750606802263476 0 0 0
287 7 2.506906973834712 7.327806634180472 33.70538812083467 0 0 0
311 5 12.442554753028949 5.912366219760755 35.85766485044213 -1 0 0
312 7 2.4354546663341186 5.901376493038948 35.78424822601085 0 0 0
316 7 1.2639412958429008 8.05513212537394 35.710237686018374 0 0 0
317 7 3.714092550118286 8.01321948258362 35.764865875984476 0 0 0
283 7 6.195936684528524 5.085809067276776 33.7672187157205 0 0 0
288 4 4.9500912003175355 7.3141714684668475 33.771172416926056 0 0 0
289 6 7.355153603220809 7.416452064042885 33.79533639642733 0 0 0
313 7 4.952848464582393 5.830806738820686 35.832612741997586 0 0 0
314 7 7.41231546893888 5.854768622383396 35.907057742332526 0 0 0
318 7 6.133402269634562 7.977249328005078 35.91971719902239 0 0 0
284 7 8.650555349545833 5.216337814548361 33.836810533182394 0 0 0
285 7 11.142762348649905 5.245465195623241 33.86348243805214 0 0 0
286 7 12.436798338843726 7.392202319074144 33.67370605237627 -1 0 0
290 7 9.896463091933784 7.360348447062913 33.74303755312179 0 0 0
315 6 10.00329374784866 6.035262253803215 36.08127808151482 0 0 0
319 7 8.674216308527704 8.125036892741337 35.83655659090878 0 0 0
320 7 11.25745710643648 8.166207509416264 35.58610480780976 0 0 0
350 3 11.698368300080846 7.235526082194662 37.19984430667478 0 0 0
321 7 0.0031643851843340303 10.216195757330501 35.633065126484674 0 0 0
322 7 2.4864139626039314 10.153653562859883 35.70831316081094 0 0 0
326 7 1.195656413225234 12.246751200578846 35.53492622109708 0 0 0
327 7 3.7227056334752437 12.146590059350796 35.507278613775796 0 0 0
357 2 3.685988819835798 10.602563693497386 37.41616942504303 0 0 0
299 7 7.453549198357726 11.593660865821677 33.659901670514756 0 0 0
323 7 4.947929171142731 10.096966884637984 35.81564274922056 0 0 0
324 7 7.351142303165449 10.169254881871518 35.69399782154384 0 0 0
328 7 6.214846499680703 12.311097734302807 35.665209513084626 0 0 0
325 7 9.959711381170097 10.209777208409106 35.657778313968585 0 0 0
329 7 8.71874946750021 12.28838602348026 35.694945590565176 0 0 0
330 7 11.17175097857119 12.348880366249439 35.586193830734246 0 0 0
331 4 0.03390587973779458 0.17475422696675885 37.51236596635564 0 0 0
336 7 1.1074301650771197 2.2930857727854606 37.84018780851462 0 0 0
337 7 3.5516783081339596 2.381121461982408 37.91746399660042 0 0 0
338 6 6.080497162090575 2.1161356859596907 37.89125327958617 0 0 0
335 7 10.067780693122362 0.10781115119324572 37.73906583731761 0 0 0
339 6 8.663888736568087 2.267188131508751 37.781287203059705 0 0 0
340 7 11.178114133718463 2.2503713610609464 37.79751313481666 0 0 0
342 7 2.367780374208331 4.573177304763837 37.88399309039361 0 0 0
346 7 1.0529670200967138 6.713815339267654 37.7976217125958 0 0 0
347 1 3.652789882301647 6.67497180740622 37.87826959313589 0 0 0
343 7 4.936283006763703 4.399447264390401 37.907946926112054 0 0 0
344 7 7.387251639085207 4.404722269562335 37.96097770012987 0 0 0
348 7 6.0787964215828145 6.6233444005370155 37.96415245907273 0 0 0
341 7 12.342925815059242 4.462601691928129 37.79712143297378 -1 0 0
345 7 9.898013776608149 4.420603178902558 37.94866946869922 0 0 0
349 7 8.488390581053222 6.649498347674947 37.97810066456729 0 0 0
355 7 10.167720117548425 8.423214172708924 37.742133102909314 0 0 0
332 7 3.92012542090528 12.785794664723939 37.75465650764123 0 -1 0
351 7 0.07984238893803224 8.910028655844787 37.6893031570659 0 0 0
352 7 2.476672209632675 8.916826433538956 37.82505963072141 0 0 0
356 7 1.6704330198602946 11.319046206800007 37.702940382084606 0 0 0
361 8 3.68709317285488 9.852983832242717 38.58136149521744 0 0 0
334 7 7.554777820694159 12.89236517581961 37.80849925974107 0 -1 0
353 7 4.895041721141011 8.825841534293671 37.95690517473546 0 0 0
354 6 7.4035572600484985 8.886873748082067 37.83184985159809 0 0 0
358 7 5.814945523741892 11.114656826233983 37.797739230981094 0 0 0
359 7 8.867399594154817 10.785538801566979 37.69577652161909 0 0 0
360 7 11.359742063672531 10.973423404470111 37.65505806236872 0 0 0

Velocities

3 0 0 0
8 0 0 0
9 0 0 0
4 0 0 0
12 0 0 0
13 0 0 0
19 0 0 0
14 0 0 0
15 0 0 0
20 0 0 0
27 0 0 0
29 0 0 0
26 0 0 0
30 0 0 0
2 0 0 0
6 0 0 0
7 0 0 0
31 0 0 0
32 0 0 0
36 0 0 0
37 0 0 0
33 0 0 0
34 0 0 0
38 0 0 0
5 0 0 0
10 0 0 0
35 0 0 0
39 0 0 0
40 0 0 0
75 0 0 0
11 0 0 0
16 0 0 0
17 0 0 0
41 0 0 0
42 0 0 0
46 0 0 0
47 0 0 0
18 0 0 0
43 0 0 0
44 0 0 0
48 0 0 0
25 0 0 0
45 0 0 0
49 0 0 0
50 0 0 0
1 0 0 0
21 0 0 0
22 0 0 0
52 0 0 0
56 0 0 0
57 0 0 0
23 0 0 0
24 0 0 0
28 0 0 0
53 0 0 0
54 0 0 0
58 0 0 0
51 0 0 0
55 0 0 0
59 0 0 0
60 0 0 0
66 0 0 0
67 0 0 0
91 0 0 0
92 0 0 0
96 0 0 0
97 0 0 0
68 0 0 0
74 0 0 0
93 0 0 0
98 0 0 0
99 0 0 0
69 0 0 0
70 0 0 0
71 0 0 0
94 0 0 0
95 0 0 0
100 0 0 0
105 0 0 0
130 0 0 0
72 0 0 0
76 0 0 0
77 0 0 0
82 0 0 0
101 0 0 0
102 0 0 0
107 0 0 0
73 0 0 0
78 0 0 0
103 0 0 0
108 0 0 0
109 0 0 0
79 0 0 0
80 0 0 0
81 0 0 0
104 0 0 0
106 0 0 0
110 0 0 0
62 0 0 0
86 0 0 0
87 0 0 0
111 0 0 0
112 0 0 0
117 0 0 0
63 0 0 0
64 0 0 0
83 0 0 0
84 0 0 0
88 0 0 0
113 0 0 0
118 0 0 0
119 0 0 0
61 0 0 0
65 0 0 0
85 0 0 0
89 0 0 0
90 0 0 0
114 0 0 0
115 0 0 0
116 0 0 0
120 0 0 0
121 0 0 0
122 0 0 0
126 0 0 0
127 0 0 0
151 0 0 0
156 0 0 0
157 0 0 0
161 0 0 0
162 0 0 0
123 0 0 0
124 0 0 0
128 0 0 0
154 0 0 0
158 0 0 0
125 0 0 0
129 0 0 0
155 0 0 0
159 0 0 0
160 0 0 0
165 0 0 0
132 0 0 0
136 0 0 0
137 0 0 0
166 0 0 0
167 0 0 0
171 0 0 0
133 0 0 0
134 0 0 0
138 0 0 0
163 0 0 0
164 0 0 0
168 0 0 0
173 0 0 0
131 0 0 0
135 0 0 0
139 0 0 0
140 0 0 0
169 0 0 0
170 0 0 0
142 0 0 0
146 0 0 0
147 0 0 0
152 0 0 0
172 0 0 0
176 0 0 0
177 0 0 0
143 0 0 0
144 0 0 0
148 0 0 0
153 0 0 0
174 0 0 0
178 0 0 0
141 0 0 0
145 0 0 0
149 0 0 0
150 0 0 0
175 0 0 0
179 0 0 0
180 0 0 0
181 0 0 0
182 0 0 0
186 0 0 0
187 0 0 0
212 0 0 0
216 0 0 0
217 0 0 0
183 0 0 0
188 0 0 0
189 0 0 0
213 0 0 0
214 0 0 0
218 0 0 0
184 0 0 0
185 0 0 0
190 0 0 0
211 0 0 0
215 0 0 0
219 0 0 0
220 0 0 0
191 0 0 0
192 0 0 0
197 0 0 0
222 0 0 0
226 0 0 0
227 0 0 0
193 0 0 0
198 0 0 0
199 0 0 0
223 0 0 0
224 0 0 0
228 0 0 0
194 0 0 0
195 0 0 0
196 0 0 0
200 0 0 0
225 0 0 0
229 0 0 0
230 0 0 0
201 0 0 0
202 0 0 0
207 0 0 0
232 0 0 0
236 0 0 0
237 0 0 0
203 0 0 0
208 0 0 0
209 0 0 0
233 0 0 0
234 0 0 0
238 0 0 0
204 0 0 0
205 0 0 0
206 0 0 0
210 0 0 0
231 0 0 0
235 0 0 0
239 0 0 0
240 0 0 0
242 0 0 0
246 0 0 0
247 0 0 0
271 0 0 0
243 0 0 0
244 0 0 0
248 0 0 0
253 0 0 0
241 0 0 0
245 0 0 0
249 0 0 0
250 0 0 0
275 0 0 0
276 0 0 0
251 0 0 0
252 0 0 0
256 0 0 0
257 0 0 0
254 0 0 0
258 0 0 0
221 0 0 0
255 0 0 0
259 0 0 0
260 0 0 0
262 0 0 0
266 0 0 0
267 0 0 0
291 0 0 0
292 0 0 0
297 0 0 0
263 0 0 0
264 0 0 0
268 0 0 0
293 0 0 0
298 0 0 0
261 0 0 0
265 0 0 0
269 0 0 0
270 0 0 0
294 0 0 0
295 0 0 0
296 0 0 0
300 0 0 0
272 0 0 0
277 0 0 0
302 0 0 0
306 0 0 0
307 0 0 0
273 0 0 0
278 0 0 0
279 0 0 0
303 0 0 0
304 0 0 0
308 0 0 0
333 0 0 0
274 0 0 0
280 0 0 0
301 0 0 0
305 0 0 0
309 0 0 0
310 0 0 0
281 0 0 0
282 0 0 0
287 0 0 0
311 0 0 0
312 0 0 0
316 0 0 0
317 0 0 0
283 0 0 0
288 0 0 0
289 0 0 0
313 0 0 0
314 0 0 0
318 0 0 0
284 0 0 0
285 0 0 0
286 0 0 0
290 0 0 0
315 0 0 0
319 0 0 0
320 0 0 0
350 0 0 0
321 0 0 0
322 0 0 0
326 0 0 0
327 0 0 0
357 0 0 0
299 0 0 0
323 0 0 0
324 0 0 0
328 0 0 0
325 0 0 0
329 0 0 0
330 0 0 0
331 0 0 0
336 0 0 0
337 0 0 0
338 0 0 0
335 0 0 0
339 0 0 0
340 0 0 0
342 0 0 0
346 0 0 0
347 0 0 0
343 0 0 0
344 0 0 0
348 0 0 0
341 0 0 0
345 0 0 0
349 0 0 0
355 0 0 0
332 0 0 0
351 0 0 0
352 0 0 0
356 0 0 0
361 0 0 0
334 0 0 0
353 0 0 0
354 0 0 0
358 0 0 0
359 0 0 0
360 0 0 0
