LAMMPS data file via write_data, version 11 Feb 2026, timestep = 149, units = metal

362 atoms
8 atom types

0 12.447907776 xlo xhi
0 12.9362452296 ylo yhi
0 52.3600831054 zlo zhi

Masses

1 26.9815
2 10.811
3 12.011
4 51.9961
5 55.845
6 95.95999999999999
7 58.6934
8 1.008

Atoms # atomic/kk

1 7 1.1415915113 1.4030622824 14.1731726238 0 0 0
2 7 3.6052824198 1.0687154247 14.6668635281 0 0 0
3 5 6.0733485765 0.9456192678 14.9092448961 0 0 0
9 7 7.3872192709 3.1541008121 14.9177297201 0 0 0
5 7 11.0465650176 1.2518300593 14.5988626493 0 0 0
6 7 12.368658504199999 3.4547987558 14.8191609318 -1 0 0
10 7 9.9098750883 3.3892601784 14.7776145362 0 0 0
16 4 0.466232647 7.8113636307 14.7962297566 0 0 0
20 7 10.4422793405 7.6686011235 14.1813531908 0 0 0
26 7 0.1249593259 12.203308743 14.9070604312 0 0 0
27 7 2.4792042494 11.8070582472 14.4605049939 0 0 0
23 7 6.9184038807 9.0044819756 14.7758698614 0 0 0
28 7 4.9565238258 11.785809541 14.6039169787 0 0 0
29 6 7.4842787723 11.4913636037 14.9178873601 0 0 0
24 7 9.2080801811 9.737169751 14.5388390695 0 0 0
25 7 11.7596637397 9.8733840731 14.7875343143 0 0 0
30 7 10.058584444 11.9440044352 14.7584375062 0 0 0
7 7 2.4244632782 3.2734054667 14.9885963265 0 0 0
31 6 0.1288971487 1.5655425081 16.5420724282 0 0 0
32 7 2.6016143612 1.68396773 16.9121244302 0 0 0
36 7 1.2163489468 3.8548823801 17.0263602016 0 0 0
37 7 3.7071578594 3.8359914588 17.0537037807 0 0 0
56 2 1.9107901771 0.3195266923999984 15.6058553825 0 1 0
8 7 4.9255255006 3.1259708698 15.0074473076 0 0 0
33 7 4.9822856345 1.6636810453 16.9516870067 0 0 0
34 7 7.4069128324 1.7678798041 16.976635044 0 0 0
38 5 6.1754764599 3.8587521224 16.9857007653 0 0 0
4 6 8.6374028889 0.9954686244 14.9974818089 0 0 0
35 7 9.9822714487 1.6612222307 16.9405252808 0 0 0
39 7 8.7275079493 3.8615697756 16.8587344915 0 0 0
40 7 11.1873597269 3.805638164 16.9970486708 0 0 0
11 7 1.2316985818 5.4938256242 15.0771624382 0 0 0
12 7 3.7201517672 5.3150325332 15.0880363451 0 0 0
17 7 2.6496889549 7.4939510478 15.1503570666 0 0 0
42 7 2.4506421833 6.1263054252 17.1380420995 0 0 0
47 7 3.8833868835 8.1965895398 17.0601029634 0 0 0
13 7 6.1755584311 5.3043404752 15.0309661152 0 0 0
18 7 5.0765906293 7.4776907993 15.0653254431 0 0 0
19 2 7.0565906295 7.0178081153 15.3861765881 0 0 0
43 7 4.9494738377 5.9616834924 17.0913830187 0 0 0
44 7 7.4738616068 5.9393482028 17.0845589668 0 0 0
48 7 6.3435720726 8.0538190888 17.0463699833 0 0 0
14 7 8.7010109389 5.6575007622 14.9622319162 0 0 0
15 6 11.1774349704 5.6033075472 15.1814070142 0 0 0
41 7 12.4389998854 5.9970608865 17.2231661214 -1 0 0
45 7 9.9202746256 6.0373995203 17.2496318765 0 0 0
49 7 8.7134126504 7.9208101647 16.0662967977 0 0 0
50 7 11.1822539579 7.9898168578 16.45041307 0 0 0
85 6 9.7843769447 8.4722569933 18.537415816 0 0 0
21 2 1.1622643782 10.477182004 15.209508821 0 0 0
22 7 2.9667070534 9.8637937387 15.641713656 0 0 0
46 7 0.7914980676 9.366084869 16.8714692589 0 0 0
52 7 1.3472218028 11.8634556575 16.9856217399 0 0 0
57 7 3.7507150373 12.4355421801 16.6063179824 0 0 0
87 1 3.6618350304 10.7144482394 18.2622101018 0 0 0
53 7 5.3327086119 10.1208194852 16.3239684773 0 0 0
54 7 7.7304201593 10.0526821091 16.9434712427 0 0 0
58 6 6.3163764228 12.3655724958 16.9515450823 0 0 0
51 3 11.5165480967 9.3691266832 17.6589013351 -1 0 0
55 7 10.1820978016 10.2748173495 16.6781845625 0 0 0
59 7 8.8335284361 12.3799065072 16.9586418945 0 0 0
60 7 11.2397297825 12.4659040899 16.8794368984 0 0 0
66 6 1.389891321 2.1647282426 19.0499248544 0 0 0
67 5 3.8279171566 2.1685405047 19.0740479625 0 0 0
91 4 1.3579100858 0.7478175711 21.2965982991 0 0 0
92 7 3.750137774 0.7230954771 21.0519181555 0 0 0
96 7 0.0789826387 2.7958486513 21.183838763 0 0 0
97 7 2.5895952376 2.848596957 21.1957960002 0 0 0
63 5 4.9536096831 0.0518012657 18.9583806196 0 0 0
64 7 7.438501883 0.0810255753 19.0978488324 0 0 0
68 7 6.1917637062 2.157681368 19.0766411442 0 0 0
74 6 7.498621334 4.2841978859 19.0510959088 0 0 0
93 7 6.2567072088 0.718294809 21.1702046345 0 0 0
98 7 5.0225646424 2.8725259609 21.1501686863 0 0 0
99 5 7.4761609437 2.8139399864 21.165622144 0 0 0
65 7 9.998662006 0.0791174516 19.0925333875 0 0 0
69 7 8.7353803647 2.1528319251 18.9917827742 0 0 0
70 7 11.2839474107 2.2370502989 18.950486995 0 0 0
75 5 9.9055570098 4.3042761891 19.0298795184 0 0 0
94 7 8.7109128198 0.7124294762 21.2325130918 0 0 0
95 7 11.3014184552 0.6693457644 21.1958784762 0 0 0
100 6 10.02780418 2.7834490918 21.0512813726 0 0 0
72 7 2.4806785912 4.387778293 19.1035496485 0 0 0
76 7 1.1969697075 6.4335181804 19.2564981734 0 0 0
77 7 3.780780438 6.5061222624 19.1617039206 0 0 0
82 6 2.3557063212 8.4878994268 18.9120941481 0 0 0
101 7 1.2012438469 4.9852015808 21.2558840036 0 0 0
102 6 3.726650263 5.0412772046 21.2263046122 0 0 0
107 7 2.4653781801 7.1716365317 21.2291701651 0 0 0
73 7 4.9727954997 4.31523027 19.0836796226 0 0 0
78 7 6.1933470659 6.5179647334 19.1364118042 0 0 0
103 7 6.272029214 5.0459348882 21.1724566615 0 0 0
108 7 5.0085309335 7.2274426273 21.2233996047 0 0 0
109 7 7.4161702307 7.2474773687 21.2614898711 0 0 0
71 1 12.380476798599998 4.3770126325 19.1826754554 -1 0 0
79 7 8.6223852284 6.4709056353 19.3195820043 0 0 0
80 7 11.1104344495 6.4193844927 19.3545180637 0 0 0
81 4 12.3395352159 8.4718083253 19.1971715397 -1 0 0
104 7 8.7376580472 5.0220789852 21.2399978038 0 0 0
105 3 10.081071384029539 4.370807876326913 22.284984478151358 0 0 0
106 7 12.432105736499999 7.0957380079 21.31231377 -1 0 0
110 7 9.8871753636 7.1650255772 21.2983661204 0 0 0
61 6 0.0446137806 12.933856355900001 18.9913505626 0 -1 0
62 7 2.5843509653 12.853104854800002 19.0348668103 0 -1 0
86 7 1.2785308153 10.6891579098 19.1579936584 0 0 0
111 7 1.1765038585 9.2884896345 21.1926101391 0 0 0
112 6 3.6984799864 9.3545911092 21.1398214508 0 0 0
116 1 0.0338418313 11.4855844948 21.2941957846 0 0 0
117 7 2.4672876373 11.5272107597 21.1418524528 0 0 0
83 7 4.9430444531 8.7318746404 19.0800032385 0 0 0
84 7 7.3943023269 8.6386307805 19.0822154114 0 0 0
88 7 6.1593210937 10.8001656529 18.9265877067 0 0 0
113 7 6.210791796 9.4080779571 21.0318359294 0 0 0
118 7 4.9608365886 11.5395569417 21.0391848695 0 0 0
119 4 7.3963768214 11.5350870049 21.0712147127 0 0 0
89 6 8.7281745195 10.8489718138 19.0348821196 0 0 0
90 4 11.2690710465 10.8198510257 18.9350989611 0 0 0
114 7 8.6965102668 9.3150211907 20.9893798228 0 0 0
115 6 11.1058420882 9.2509131983 21.1720781776 0 0 0
120 7 9.9826975436 11.5153910661 21.1785813363 0 0 0
121 7 0.0742160748867337 1.3724408986930492 23.310154583229398 0 0 0
122 7 2.5656332061421523 1.384320677617929 23.329641817868744 0 0 0
126 6 1.3451357231149916 3.567082153999903 23.265798037200085 0 0 0
127 7 3.8406970558135813 3.570804348457556 23.361459017419392 0 0 0
156 1 1.469626437147928 2.110859852410428 25.51513395859164 0 0 0
157 7 3.955903551409451 2.117395861740538 25.443744288793585 0 0 0
162 7 2.5887507877735807 4.243079195709709 25.427498630274634 0 0 0
123 7 4.982724156264687 1.4095055832295087 23.162551974974924 0 0 0
124 7 7.384151831128935 1.480539912696159 23.48741453806821 0 0 0
128 7 6.293642967858435 3.6442314002518943 23.183562281838206 0 0 0
153 7 5.187572551850402 0.05247364091699327 25.293490943070733 0 0 0
158 2 5.766163401232215 2.4373621347125423 24.629373945944714 0 0 0
163 7 5.108089673035377 4.2241887995942475 25.42079990975919 0 0 0
164 5 7.467195374270884 4.040776670425884 25.36011263431555 0 0 0
125 7 10.03328263486297 1.4067369016227214 23.355115570524717 0 0 0
129 7 8.74145135524211 3.5253211625993166 23.347779390929873 0 0 0
130 4 11.356851958656794 3.5955209591422004 23.402718107775794 0 0 0
155 4 10.109541528855953 0.040765339356355776 25.55921913006974 0 0 0
159 7 8.859889969385844 2.0775252118994003 25.44852677277655 0 0 0
160 7 11.390938075355622 2.133215116205622 25.421745998773822 0 0 0
165 7 10.05552263713312 4.195494810822306 25.41290069026225 0 0 0
131 7 0.06050773107000458 5.74956093358823 23.404052592633615 0 0 0
132 7 2.532129645428455 5.777736730272487 23.360245876550014 0 0 0
136 7 1.2924000775789615 7.891254886296309 23.304929109362682 0 0 0
137 7 3.7661115103671152 7.95889422827249 23.27833291638843 0 0 0
161 4 0.09864771543758703 4.318282892434346 25.469401007767743 0 0 0
166 7 1.3270948780034848 6.392526640114388 25.4302265621798 0 0 0
167 7 3.7974171497266145 6.416427489693919 25.4425086325178 0 0 0
171 6 0.09847526552080499 8.59102590757528 25.430386500016343 0 0 0
172 7 2.6117728660360564 8.586463755859866 25.375913450843992 0 0 0
133 6 5.054591433523473 5.836877895901046 23.387313833645123 0 0 0
134 7 7.548929434082807 5.755891129268958 23.31500824378329 0 0 0
138 7 6.299546551299426 7.9742412778669 23.341173410878714 0 0 0
168 7 6.354727821739652 6.373219438080994 25.432943470521153 0 0 0
173 7 5.093770033821838 8.531867082030136 25.33234378086859 0 0 0
135 7 10.053687753862551 5.802429152815852 23.38846279627045 0 0 0
139 4 8.683213400615237 7.9194990895906345 23.244964689752454 0 0 0
140 4 11.271036815582976 7.867030277818429 23.318548455196204 0 0 0
169 7 8.765079918293457 6.307421081274511 25.384340666395136 0 0 0
170 7 11.278536696761947 6.384648864614146 25.44955745953285 0 0 0
175 6 9.873740322702028 8.543504111589204 25.525117085352917 0 0 0
141 7 0.008860143019839055 10.044480998599498 23.34425135108096 0 0 0
142 7 2.4849766490064544 10.083043482031526 23.25512915373258 0 0 0
146 7 1.2911772722269825 12.21201245310134 23.350966189787563 0 0 0
147 7 3.7953696118759317 12.22136744178415 23.18056530822395 0 0 0
151 4 0.0813007892430563 12.851674402364418 25.416004030926963 0 -1 0
152 7 2.6436893369603163 12.921397671536203 25.374045890557277 0 -1 0
176 7 1.3310155592750421 10.775932034181524 25.432055233495568 0 0 0
177 6 3.868428034440968 10.794092717068338 25.274137294943273 0 0 0
143 7 5.043670877869602 10.082334888677016 23.181793400190063 0 0 0
144 7 7.494024967015816 10.066236638024458 22.920588135638088 0 0 0
148 4 6.2014179775896014 12.247539412099234 23.186066949958107 0 0 0
154 7 7.590253941846667 12.919739327034872 25.47672285793221 0 -1 0
178 6 6.605878956377278 10.520439384619394 25.221254349181855 0 0 0
145 7 9.984366946109272 10.051066535414028 23.31672042967099 0 0 0
149 6 8.69659362672666 12.249409689757426 23.33111442689722 0 0 0
150 7 11.235672830413344 12.194675200677873 23.406552749676145 0 0 0
174 3 8.402256264075593 9.486153878274186 24.42471436508176 0 0 0
179 5 8.986916666055336 10.898992811359902 25.584781877471244 0 0 0
180 5 11.324542313407065 10.843383898656839 25.507727836420752 0 0 0
181 7 1.3801284479591778 0.6430800034725613 27.497837462830248 0 0 0
182 7 3.8673724012425787 0.680196550490963 27.437014359476578 0 0 0
186 7 0.16204307990376807 2.834700485918048 27.496464798458685 0 0 0
187 7 2.6511394263349954 2.830018729258093 27.5684020828548 0 0 0
211 7 0.2010285612633217 1.4229691415864438 29.595915045717113 0 0 0
212 7 2.7041241098194653 1.3371485856466743 29.582538266853593 0 0 0
216 7 1.4024311048921265 3.5321751101875614 29.59154132170256 0 0 0
217 4 3.8157498021844782 3.5497496311326286 29.60074018369628 0 0 0
183 7 6.301040406123666 0.6923095403186926 27.57527550293308 0 0 0
188 7 5.074338324779106 2.8506199076655983 27.57813082761206 0 0 0
189 7 7.586429153124844 2.7700239422126556 27.466247079591326 0 0 0
213 5 5.126433383874116 1.4032497044125898 29.6049750271874 0 0 0
214 7 7.604689686706285 1.3324351044751659 29.598434079987175 0 0 0
218 7 6.35473609971761 3.5134654050884353 29.546708088958063 0 0 0
184 7 8.877192003289593 0.6960162480700451 27.572841592236482 0 0 0
185 4 11.374554789573113 0.6995597663946478 27.544448127367797 0 0 0
190 7 10.136218005285416 2.8085969017115167 27.495106851200262 0 0 0
215 7 10.116379807531272 1.3813669367974573 29.6401065823291 0 0 0
219 7 8.830482480946475 3.488688133575282 29.5354780353167 0 0 0
220 7 11.361147086660285 3.5357613394759597 29.52838518144254 0 0 0
191 7 1.3820106481560512 4.983553194044023 27.474604298818736 0 0 0
192 7 3.824662695504956 4.967116764253217 27.483744306340622 0 0 0
196 7 0.12746104138945252 7.134368348003928 27.501935210213173 0 0 0
197 7 2.5701911127975547 7.170685710181266 27.476864761004464 0 0 0
221 7 0.11165228149537593 5.704147933805325 29.57566357525761 0 0 0
222 7 2.582325404723009 5.705972395169408 29.55231187010953 0 0 0
226 7 1.356342631236113 7.881635450078312 29.554386477718563 0 0 0
227 7 3.8528641262484933 7.8923268441694985 29.469135810298763 0 0 0
193 7 6.360973696191673 4.952385543695858 27.415461202013507 0 0 0
198 7 5.093528928989726 7.151172125815686 27.412752219193592 0 0 0
199 7 7.612601082314225 7.165568733507438 27.450716023425933 0 0 0
223 6 5.144164418121549 5.698307514632926 29.490905451303625 0 0 0
224 7 7.635291876389956 5.714863889996404 29.58411994464632 0 0 0
228 7 6.385791095824848 7.890582653103493 29.493842783201053 0 0 0
194 6 8.839046673436318 4.973356856977375 27.49703519371846 0 0 0
195 7 11.351803704060478 4.970612359323993 27.51300775107885 0 0 0
200 7 10.115025119401862 7.133855808501984 27.54478133984404 0 0 0
225 7 10.092642357446184 5.716745691525076 29.611380747895097 0 0 0
229 7 8.837787736810599 7.859464931726094 29.530209922715148 0 0 0
230 7 11.36063743007618 7.907687175072222 29.52986507875781 0 0 0
201 5 1.370063044724376 9.30321209576747 27.517036204186343 0 0 0
202 7 3.8632992506332657 9.299448150128658 27.376655778856414 0 0 0
206 4 0.17794782541252482 11.454803161202975 27.528078799582996 0 0 0
207 7 2.601675271918579 11.435883489203803 27.439670034196556 0 0 0
231 7 0.15661614007005387 10.057053111853266 29.572845921624832 0 0 0
232 7 2.6254636209667717 10.006406442958044 29.428469439732545 0 0 0
236 7 1.4622329012908488 12.162438589250778 29.55760101312878 0 0 0
203 7 6.365919868496533 9.263344379570295 27.3896787745888 0 0 0
208 7 5.1291147550955465 11.478653093406338 27.321604137510334 0 0 0
209 6 7.57328541310342 11.501969886936523 27.64341993122769 0 0 0
233 7 5.141077453828725 10.034112833303883 29.32497835113556 0 0 0
234 7 7.5927529216083505 10.065487440201036 29.667750159711133 0 0 0
238 7 6.204352378426398 12.21457086516801 29.68441791898658 0 0 0
204 7 8.830005432572767 9.34559001816581 27.62798080585477 0 0 0
205 7 11.336272631896884 9.3930907599101 27.551067540262263 0 0 0
210 7 10.142168564099928 11.530913347360679 27.589623021511816 0 0 0
235 7 10.07699813278186 10.156720819630998 29.606772504066676 0 0 0
239 4 8.870358006052523 12.232048340195915 29.737907601877186 0 0 0
240 7 11.387220174082632 12.245416270214031 29.567521446473858 0 0 0
237 3 4.025933769776478 0.27097870338933555 30.556676853810135 0 1 0
241 7 0.1902204118302471 0.08347418676592357 31.642389271168607 0 0 0
242 7 2.5596907009479843 0.1254204718222015 31.74115274487708 0 0 0
246 4 1.336118967547272 2.2270074018059116 31.666335133767337 0 0 0
247 7 3.871135579890296 2.1366813572072383 31.64476688772219 0 0 0
251 7 0.13913313063897972 4.309590562651914 31.65415373233403 0 0 0
252 7 2.6242821674869874 4.305543243006126 31.66863859973266 0 0 0
248 7 6.397970608559477 2.133666779728422 31.65245137709079 0 0 0
253 7 5.10302468366123 4.295146803146999 31.623865008748094 0 0 0
254 7 7.611741683473433 4.294375298072653 31.594442156632287 0 0 0
249 7 8.84236369005579 2.086599972269712 31.691890426629744 0 0 0
250 7 11.373821011929921 2.121919964403826 31.672286464473377 0 0 0
255 1 10.09767625428877 4.200350780535785 31.511265620967848 0 0 0
256 7 1.3206127896185271 6.488557439035864 31.63673494523901 0 0 0
257 6 3.783273650540464 6.488164590207333 31.66051186096694 0 0 0
286 7 0.08350621243051377 7.266274649649598 33.62561690139426 0 0 0
258 7 6.343093311373735 6.479467760236602 31.62181917787104 0 0 0
264 7 7.5809169574853446 8.562971299569002 31.626351656134254 0 0 0
259 4 8.811316145826899 6.4444240693579 31.631872163973835 0 0 0
260 7 11.305894769768233 6.473382478619855 31.598673813261904 0 0 0
284 5 8.877123086749144 5.101541375045545 33.57824475842952 0 0 0
285 4 11.339433727863724 5.137558835941578 33.64386868860127 0 0 0
290 7 10.073691471472324 7.2413738294423915 33.59978341249683 0 0 0
261 7 0.16958631535658944 8.694309481097733 31.65468936689507 0 0 0
262 7 2.6582050020026786 8.708146912316508 31.531722837848196 0 0 0
266 7 1.5547227888269843 10.81912836082969 31.57261123767274 0 0 0
267 4 3.911099648511041 11.25825519795068 30.858244403408847 0 0 0
292 7 3.9551604730346965 9.366214468485403 33.50293935075466 0 0 0
243 7 5.159685660284359 12.889348170691393 32.10158255614603 0 -1 0
244 7 7.6185535999038985 12.921615580275935 31.71728140307974 0 -1 0
263 1 5.087259531798992 8.74734732075845 31.421399575605605 0 0 0
268 7 6.25259896866116 10.747845773663283 31.58444628988165 0 0 0
293 4 6.442286734937739 9.305382954749733 33.65521487087776 0 0 0
245 7 10.102088758316938 12.87003957097249 31.876577790579155 0 -1 0
265 6 10.093903344665593 8.665627136434534 31.548570560012408 0 0 0
269 7 8.766030471883603 10.784658403827654 31.7546497701871 0 0 0
270 7 11.42000446160189 10.891403682978174 31.619502132514857 0 0 0
296 3 11.06791698740694 11.81662569710478 33.338560999041405 -1 0 0
271 7 1.4672721093020633 0.889678365851174 33.777457062766246 0 0 0
272 7 3.913365608981633 0.9448796462783982 33.922076260112476 0 0 0
276 7 0.1708308956186213 2.977802659087553 33.73519428152365 0 0 0
277 7 2.636196927402801 3.068211846358871 33.79701225498486 0 0 0
301 7 0.1827984910754472 1.5479427670327175 35.75881384477157 0 0 0
302 7 2.6093563185481035 1.658875251061731 35.85823061509097 0 0 0
306 4 1.4047108101781571 3.82822765726706 35.95587830863826 0 0 0
307 7 3.990668453183014 3.7199214814910975 35.83207975810739 0 0 0
273 7 6.4558109377071835 0.9585363285444176 33.90371561921434 0 0 0
278 1 5.21132799038085 2.9846198789665084 33.72543402753757 0 0 0
279 7 7.719398503620045 3.0282984750318933 33.73631216971061 0 0 0
303 7 5.2408145650912195 1.6509847077092568 35.93248911056499 0 0 0
304 4 7.741296056897078 1.6278644838728795 35.9249165333445 0 0 0
308 7 6.517287018254541 3.699488659594255 35.8025325632202 0 0 0
274 7 8.832773427720635 0.8894579859354309 33.84845030438795 0 0 0
275 4 11.427399004852573 0.7800129053011187 33.72969335205251 0 0 0
280 7 10.198253245173348 2.9849280073751676 33.7313002027446 0 0 0
305 7 10.214558047448827 1.545287145288108 35.743859647487284 0 0 0
309 7 9.00706163707787 3.6541097457729097 35.79954920676586 0 0 0
310 4 11.580301750727198 3.933538506548478 35.87036989806727 0 0 0
281 7 1.315838562475514 5.16858889780805 33.85684464170376 0 0 0
282 4 3.8397746355084306 5.123715561658189 33.766077545729765 0 0 0
287 7 2.623980664711994 7.276334742614292 33.74135312918105 0 0 0
312 7 2.720877585663882 5.778606035363039 35.780362667050795 0 0 0
316 7 1.2041151386228002 7.588581588552926 35.78680084317805 0 0 0
317 7 3.9226809636219793 8.055510457221356 35.72700921769212 0 0 0
283 7 6.368206289708429 5.086444952472262 33.66643302710552 0 0 0
288 7 5.17480771054241 7.259514232110807 33.662837624417214 0 0 0
289 7 7.6218797222828645 7.173254628734157 33.716884193209694 0 0 0
313 7 5.2515293749727885 5.908405222841026 35.7117877569209 0 0 0
314 7 7.702286145627015 5.804826722204752 35.740618362248554 0 0 0
318 4 6.540908561301104 8.104643144389625 35.80944829870321 0 0 0
311 2 12.369136460051427 5.984174815756283 35.32445970981339 -1 0 0
315 7 10.121403213523557 5.790191168815255 35.58123830426275 0 0 0
319 7 8.94279626036853 7.9415865699020936 35.84206909114837 0 0 0
320 7 11.337179209092204 7.918154403818 35.595171248219565 0 0 0
350 7 11.670931862112752 6.256343749563901 37.29781009238736 0 0 0
355 3 10.423201881618214 7.899032643431368 37.278345687407885 0 0 0
291 7 1.4621369092474676 9.412821383724554 33.724894662508966 0 0 0
297 6 3.0159193731738174 11.564567285111455 33.672494215922775 0 0 0
321 6 0.2096132613260637 10.046415784808666 35.89857967506449 0 0 0
322 7 2.695739223792777 10.190097530188932 35.75705324869995 0 0 0
326 7 0.5013318200141783 11.63817072236611 33.67801498163969 0 0 0
327 6 3.91107015632202 12.496590761299187 36.10503783693707 0 0 0
356 4 1.3905752468335288 12.351473725787333 35.84733506697527 0 0 0
298 2 5.195991804775707 12.277920171010209 34.213471040313884 0 0 0
299 7 6.9830918891355624 11.564524403434394 33.68540358864182 0 0 0
323 6 5.230458797123206 10.234112970904453 35.58215957164252 0 0 0
324 7 7.899915875027762 10.33141582680982 35.70360681448552 0 0 0
328 7 6.470662451937681 12.507310760345796 35.929894342920136 0 0 0
294 7 8.76241574302948 9.268804177130093 33.69918097181436 0 0 0
295 6 11.25857584793213 9.683054633798369 33.76317351206362 0 0 0
300 7 9.37303988231971 11.531000763072802 34.16621218209217 0 0 0
325 7 10.238821347158813 9.840318002354612 37.01428502695922 0 0 0
329 3 9.516969386370599 11.407467860441553 36.18637763784481 0 0 0
330 4 11.260338412561776 12.056111977913616 35.579721039919434 0 0 0
335 5 9.892457771061098 12.865403062419087 37.43780824873144 0 -1 0
332 7 2.480103959543884 0.09129724254551846 38.035692283941486 0 0 0
336 7 1.3375216826179974 2.179765906267715 37.83408867354925 0 0 0
337 7 3.87505482122986 2.1866718968630936 37.86130499279083 0 0 0
341 7 0.22108546538767954 4.243556730638992 38.07811564104365 0 0 0
342 7 2.7161492155628 4.2864325229295845 37.91807272682428 0 0 0
333 7 5.201276266795393 0.15448602538192388 38.11606996338002 0 0 0
334 7 7.630694304152893 0.08139618819692201 38.07626995352181 0 0 0
338 7 6.5039917403715375 2.272078947332307 37.892958451771776 0 0 0
339 7 8.9911123402882 2.159105209485459 37.91139543011178 0 0 0
340 7 11.374309111267658 2.1940699339921275 37.72720947508029 0 0 0
361 8 9.065574932083324 0.7228283520743475 38.84136761445777 0 0 0
346 7 1.5099191374659406 6.401390793240306 37.993856984083536 0 0 0
347 6 3.9562286462765712 6.472064828979503 37.76115689066328 0 0 0
343 7 5.304813984596706 4.431575981530142 37.83145177987991 0 0 0
344 7 7.822401366173103 4.416673362396395 37.888120028369556 0 0 0
348 6 6.646910959294116 6.669464611293689 37.81754016099677 0 0 0
345 4 10.2322340708772 4.31881084811887 37.810042187709556 0 0 0
349 7 9.253177522654028 6.64046293436162 37.94077998953104 0 0 0
351 7 12.23615144199019 8.556949881325787 37.836108426377585 -1 0 0
362 8 8.756114241781706 5.39700413248502 38.914444148415576 0 0 0
352 6 2.476832207876703 8.656549577475268 37.68126075243434 0 0 0
357 7 3.832064882873047 10.801164181517269 37.95138952856133 0 0 0
360 7 1.3741013875647012 10.89842998735506 37.884687609697885 1 0 0
353 7 5.115319017720096 8.693598869509039 37.817991382073515 0 0 0
354 7 7.956769552056311 8.938521852900738 37.814851318171016 0 0 0
358 6 6.415748217834224 10.843903485688143 37.80517987072616 0 0 0
331 7 12.39308045488738 12.892311231058232 37.63134207775508 -1 -1 0
359 2 8.561234667154341 11.16994513204919 37.38773794677521 0 0 0

Velocities

1 0 0 0
2 0 0 0
3 0 0 0
9 0 0 0
5 0 0 0
6 0 0 0
10 0 0 0
16 0 0 0
20 0 0 0
26 0 0 0
27 0 0 0
23 0 0 0
28 0 0 0
29 0 0 0
24 0 0 0
25 0 0 0
30 0 0 0
7 0 0 0
31 0 0 0
32 0 0 0
36 0 0 0
37 0 0 0
56 0 0 0
8 0 0 0
33 0 0 0
34 0 0 0
38 0 0 0
4 0 0 0
35 0 0 0
39 0 0 0
40 0 0 0
11 0 0 0
12 0 0 0
17 0 0 0
42 0 0 0
47 0 0 0
13 0 0 0
18 0 0 0
19 0 0 0
43 0 0 0
44 0 0 0
48 0 0 0
14 0 0 0
15 0 0 0
41 0 0 0
45 0 0 0
49 0 0 0
50 0 0 0
85 0 0 0
21 0 0 0
22 0 0 0
46 0 0 0
52 0 0 0
57 0 0 0
87 0 0 0
53 0 0 0
54 0 0 0
58 0 0 0
51 0 0 0
55 0 0 0
59 0 0 0
60 0 0 0
66 0 0 0
67 0 0 0
91 0 0 0
92 0 0 0
96 0 0 0
97 0 0 0
63 0 0 0
64 0 0 0
68 0 0 0
74 0 0 0
93 0 0 0
98 0 0 0
99 0 0 0
65 0 0 0
69 0 0 0
70 0 0 0
75 0 0 0
94 0 0 0
95 0 0 0
100 0 0 0
72 0 0 0
76 0 0 0
77 0 0 0
82 0 0 0
101 0 0 0
102 0 0 0
107 0 0 0
73 0 0 0
78 0 0 0
103 0 0 0
108 0 0 0
109 0 0 0
71 0 0 0
79 0 0 0
80 0 0 0
81 0 0 0
104 0 0 0
105 0 0 0
106 0 0 0
110 0 0 0
61 0 0 0
62 0 0 0
86 0 0 0
111 0 0 0
112 0 0 0
116 0 0 0
117 0 0 0
83 0 0 0
84 0 0 0
88 0 0 0
113 0 0 0
118 0 0 0
119 0 0 0
89 0 0 0
90 0 0 0
114 0 0 0
115 0 0 0
120 0 0 0
121 0 0 0
122 0 0 0
126 0 0 0
127 0 0 0
156 0 0 0
157 0 0 0
162 0 0 0
123 0 0 0
124 0 0 0
128 0 0 0
153 0 0 0
158 0 0 0
163 0 0 0
164 0 0 0
125 0 0 0
129 0 0 0
130 0 0 0
155 0 0 0
159 0 0 0
160 0 0 0
165 0 0 0
131 0 0 0
132 0 0 0
136 0 0 0
137 0 0 0
161 0 0 0
166 0 0 0
167 0 0 0
171 0 0 0
172 0 0 0
133 0 0 0
134 0 0 0
138 0 0 0
168 0 0 0
173 0 0 0
135 0 0 0
139 0 0 0
140 0 0 0
169 0 0 0
170 0 0 0
175 0 0 0
141 0 0 0
142 0 0 0
146 0 0 0
147 0 0 0
151 0 0 0
152 0 0 0
176 0 0 0
177 0 0 0
143 0 0 0
144 0 0 0
148 0 0 0
154 0 0 0
178 0 0 0
145 0 0 0
149 0 0 0
150 0 0 0
174 0 0 0
179 0 0 0
180 0 0 0
181 0 0 0
182 0 0 0
186 0 0 0
187 0 0 0
211 0 0 0
212 0 0 0
216 0 0 0
217 0 0 0
183 0 0 0
188 0 0 0
189 0 0 0
213 0 0 0
214 0 0 0
218 0 0 0
184 0 0 0
185 0 0 0
190 0 0 0
215 0 0 0
219 0 0 0
220 0 0 0
191 0 0 0
192 0 0 0
196 0 0 0
197 0 0 0
221 0 0 0
222 0 0 0
226 0 0 0
227 0 0 0
193 0 0 0
198 0 0 0
199 0 0 0
223 0 0 0
224 0 0 0
228 0 0 0
194 0 0 0
195 0 0 0
200 0 0 0
225 0 0 0
229 0 0 0
230 0 0 0
201 0 0 0
202 0 0 0
206 0 0 0
207 0 0 0
231 0 0 0
232 0 0 0
236 0 0 0
203 0 0 0
208 0 0 0
209 0 0 0
233 0 0 0
234 0 0 0
238 0 0 0
204 0 0 0
205 0 0 0
210 0 0 0
235 0 0 0
239 0 0 0
240 0 0 0
237 0 0 0
241 0 0 0
242 0 0 0
246 0 0 0
247 0 0 0
251 0 0 0
252 0 0 0
248 0 0 0
253 0 0 0
254 0 0 0
249 0 0 0
250 0 0 0
255 0 0 0
256 0 0 0
257 0 0 0
286 0 0 0
258 0 0 0
264 0 0 0
259 0 0 0
260 0 0 0
284 0 0 0
285 0 0 0
290 0 0 0
261 0 0 0
262 0 0 0
266 0 0 0
267 0 0 0
292 0 0 0
243 0 0 0
244 0 0 0
263 0 0 0
268 0 0 0
293 0 0 0
245 0 0 0
265 0 0 0
269 0 0 0
270 0 0 0
296 0 0 0
271 0 0 0
272 0 0 0
276 0 0 0
277 0 0 0
301 0 0 0
302 0 0 0
306 0 0 0
307 0 0 0
273 0 0 0
278 0 0 0
279 0 0 0
303 0 0 0
304 0 0 0
308 0 0 0
274 0 0 0
275 0 0 0
280 0 0 0
305 0 0 0
309 0 0 0
310 0 0 0
281 0 0 0
282 0 0 0
287 0 0 0
312 0 0 0
316 0 0 0
317 0 0 0
283 0 0 0
288 0 0 0
289 0 0 0
313 0 0 0
314 0 0 0
318 0 0 0
311 0 0 0
315 0 0 0
319 0 0 0
320 0 0 0
350 0 0 0
355 0 0 0
291 0 0 0
297 0 0 0
321 0 0 0
322 0 0 0
326 0 0 0
327 0 0 0
356 0 0 0
298 0 0 0
299 0 0 0
323 0 0 0
324 0 0 0
328 0 0 0
294 0 0 0
295 0 0 0
300 0 0 0
325 0 0 0
329 0 0 0
330 0 0 0
335 0 0 0
332 0 0 0
336 0 0 0
337 0 0 0
341 0 0 0
342 0 0 0
333 0 0 0
334 0 0 0
338 0 0 0
339 0 0 0
340 0 0 0
361 0 0 0
346 0 0 0
347 0 0 0
343 0 0 0
344 0 0 0
348 0 0 0
345 0 0 0
349 0 0 0
351 0 0 0
362 0 0 0
352 0 0 0
357 0 0 0
360 0 0 0
353 0 0 0
354 0 0 0
358 0 0 0
331 0 0 0
359 0 0 0
