# ════════════════════════════════════════════════════
# LAMMPS Energy Minimization — Hastelloy N Bulk
# Notebook 02 | pair_style: mliap unified
# Refs: [2,3,4,5,6,15,16]
# ════════════════════════════════════════════════════

units          metal          # eV, Å, ps, bar [3]
atom_style     atomic
newton         on             # matches your production script
boundary       p p p          # fully periodic — bulk [2,3]

# ── Read structure from Notebook 01 ──────────────────
read_data      structures/bulk_structures/Hastelloy_N_1234_supercell.lammps

# ── MACE-MP-0b2 via mliap unified interface ───────────
# Element order MUST match type numbers in data file [15,16]
# Type 1=Al, 2=B, 3=C, 4=Cr, 5=Fe, 6=Mo, 7=Ni, 8=H (future)
pair_style     mliap unified /projects/westgroup/akinyemi.az/mace_lammps/models/mace-mp-0b2-medium.model-mliap_lammps.pt 0
pair_coeff     * * Al B C Cr Fe Mo Ni H

# ── Neighbor list ─────────────────────────────────────
neighbor       2.0 bin
neigh_modify   every 1 delay 0 check yes

# ── Thermo output (matches your script style) ─────────
thermo         10
thermo_style   custom step pe fmax fnorm press vol lx ly lz

# ── Box relaxation: isotropic, target P=0 bar ─────────
# Finds MACE equilibrium lattice parameter simultaneously [3,6]
# vmax 0.001: conservative max box change per step
fix            boxrelax all box/relax iso 0.0 vmax 0.001

print "### Minimization ###"

# ── Conjugate Gradient minimization ──────────────────
# etol=0  ftol=1e-08  maxiter=50000  maxeval=500000
# Matches your production script values [4,5]
minimize       0 1e-08 50000 500000

print "### Minimization complete ###"

unfix          boxrelax

# # ── Extract and print key results — use pe (potential energy) during minimization [2,4]
variable       pe_final equal pe
variable       natoms   equal atoms
variable       ecoh     equal -v_pe_final/v_natoms
variable       a0_min   equal lx/5
variable       fmax_f   equal fmax

print "MINIMIZATION_RESULTS_START"
print "  Total_energy_eV     : ${pe_final}"
print "  Natoms              : ${natoms}"
print "  Ecoh_eV_per_atom    : ${ecoh}"
print "  a0_Angstrom         : ${a0_min}"
print "  Fmax_eV_per_Ang     : ${fmax_f}"
print "MINIMIZATION_RESULTS_END"

# ── Write minimized structure ──────────────────────────
write_data     structures/02_bulk_energy_minimization/Hastelloy_N_1234_minimized.lammps
print "Minimized structure written to structures/02_bulk_energy_minimization/Hastelloy_N_1234_minimized.lammps"
